# vtk DataFile Version 3.0
Example VTK
ASCII
DATASET UNSTRUCTURED_GRID
POINTS  1589 float
 -0.122218549943E+02 -0.418701776610E+01  0.773802229265E-27
 -0.102155102853E+02 -0.578764235920E+01  0.254260131436E-26
 -0.818589657502E+01 -0.675606010401E+01  0.300720471849E-26
 -0.615261104952E+01 -0.736765884679E+01  0.328331744390E-26
 -0.410934941647E+01 -0.768965285205E+01  0.342325114811E-26
 -0.206203332662E+01 -0.776719907512E+01  0.342088858457E-26
 -0.152504138350E-01 -0.758670472481E+01  0.275493857833E-26
  0.129173796955E+01 -0.713905244174E+01  0.188431129291E-26
  0.255688000000E+01 -0.652469000000E+01  0.127111552491E-26
 -0.122314658552E+02 -0.335006673964E+01  0.127751661965E-01
 -0.101884601734E+02 -0.465179065755E+01  0.000000000000E+00
 -0.818982155573E+01 -0.543641974062E+01  0.000000000000E+00
 -0.618372158629E+01 -0.593002749587E+01  0.000000000000E+00
 -0.417495009119E+01 -0.618995116026E+01  0.000000000000E+00
 -0.216787285443E+01 -0.624554230374E+01  0.000000000000E+00
 -0.165114886374E+00 -0.610027622582E+01  0.000000000000E+00
  0.117267550505E+01 -0.584219040188E+01  0.000000000000E+00
  0.252323864243E+01 -0.545270944373E+01  0.000000000000E+00
 -0.122342435525E+02 -0.251239646552E+01  0.114148167314E-01
 -0.101933260152E+02 -0.350319585384E+01  0.000000000000E+00
 -0.819669636962E+01 -0.410437423016E+01  0.000000000000E+00
 -0.620966124595E+01 -0.447975189442E+01  0.000000000000E+00
 -0.422519668730E+01 -0.467400151468E+01  0.000000000000E+00
 -0.224467543434E+01 -0.471002231785E+01  0.000000000000E+00
 -0.272175175033E+00 -0.458588649404E+01  0.000000000000E+00
  0.114170463001E+01 -0.451231262730E+01  0.000000000000E+00
  0.255669924755E+01 -0.435116024954E+01  0.000000000000E+00
 -0.122365860759E+02 -0.167667602235E+01  0.954829112784E-02
 -0.101961554359E+02 -0.235639025917E+01  0.000000000000E+00
 -0.820512233085E+01 -0.276869117611E+01  0.000000000000E+00
 -0.622698225904E+01 -0.302419769781E+01  0.000000000000E+00
 -0.425237985779E+01 -0.315349265670E+01  0.000000000000E+00
 -0.227661099256E+01 -0.316964131639E+01  0.000000000000E+00
 -0.296738019060E+00 -0.306765074549E+01  0.000000000000E+00
  0.119810262297E+01 -0.317937424771E+01  0.000000000000E+00
  0.270138666500E+01 -0.324369165364E+01  0.000000000000E+00
 -0.122373193244E+02 -0.841064611275E+00  0.741578935117E-02
 -0.101987015836E+02 -0.121004134503E+01  0.000000000000E+00
 -0.820984845482E+01 -0.143203012495E+01  0.000000000000E+00
 -0.623523292773E+01 -0.156779373636E+01  0.000000000000E+00
 -0.426062727222E+01 -0.163405468374E+01  0.000000000000E+00
 -0.227461956298E+01 -0.163627410797E+01  0.000000000000E+00
 -0.262747191449E+00 -0.156658152442E+01  0.000000000000E+00
  0.133797289959E+01 -0.187230536574E+01  0.000000000000E+00
  0.294281926108E+01 -0.215611382648E+01  0.000000000000E+00
 -0.122365089593E+02 -0.588130321256E-02  0.663952180497E-02
 -0.101976315935E+02 -0.638609098827E-01  0.000000000000E+00
 -0.821028249233E+01 -0.945361395369E-01  0.000000000000E+00
 -0.623812758239E+01 -0.110461020919E+00  0.000000000000E+00
 -0.426469248251E+01 -0.116191127332E+00  0.000000000000E+00
 -0.227366092539E+01 -0.109352927152E+00  0.000000000000E+00
 -0.243887525714E+00 -0.883427293122E-01  0.000000000000E+00
  0.152183292857E+01 -0.628167154648E+00  0.000000000000E+00
  0.333333000000E+01 -0.112691000000E+01  0.363946301770E-26
 -0.122333213923E+02  0.829313677699E+00  0.678792321284E-02
 -0.101938832439E+02  0.108322958406E+01  0.000000000000E+00
 -0.820859888601E+01  0.124569457105E+01  0.000000000000E+00
 -0.624293773186E+01  0.135098196837E+01  0.000000000000E+00
 -0.428336083236E+01  0.140829763207E+01  0.000000000000E+00
 -0.231992741699E+01  0.142427387216E+01  0.000000000000E+00
 -0.344828266934E+00  0.141315502137E+01  0.000000000000E+00
  0.121028492056E+01  0.910373554657E+00  0.000000000000E+00
  0.279440254504E+01  0.453229962079E+00  0.000000000000E+00
 -0.122284324475E+02  0.166466275498E+01  0.816749977297E-02
 -0.101852529795E+02  0.223233838289E+01  0.000000000000E+00
 -0.819895733126E+01  0.259039311922E+01  0.000000000000E+00
 -0.623355549402E+01  0.281917372981E+01  0.000000000000E+00
 -0.427838688003E+01  0.294333748727E+01  0.000000000000E+00
 -0.232804680439E+01  0.297767760938E+01  0.000000000000E+00
 -0.374888149920E+00  0.293570224993E+01  0.000000000000E+00
  0.987061662028E+00  0.246801459192E+01  0.000000000000E+00
  0.238123222325E+01  0.199218232247E+01  0.000000000000E+00
 -0.122216882556E+02  0.250002144809E+01  0.928445524197E-02
 -0.101750777834E+02  0.338406180778E+01  0.000000000000E+00
 -0.818231500947E+01  0.393983199176E+01  0.000000000000E+00
 -0.620700820993E+01  0.429228984444E+01  0.000000000000E+00
 -0.423855370130E+01  0.448457246354E+01  0.000000000000E+00
 -0.227392625271E+01  0.453819473333E+01  0.000000000000E+00
 -0.310529648253E+00  0.446496413013E+01  0.000000000000E+00
  0.896555994648E+00  0.401783390901E+01  0.000000000000E+00
  0.211627518462E+01  0.352554888620E+01  0.000000000000E+00
 -0.122134585783E+02  0.333665727458E+01  0.973768099221E-02
 -0.101629740192E+02  0.454141322080E+01  0.000000000000E+00
 -0.816643839933E+01  0.529184237429E+01  0.000000000000E+00
 -0.616889856872E+01  0.576533537221E+01  0.000000000000E+00
 -0.417063381404E+01  0.602394067624E+01  0.000000000000E+00
 -0.216995634356E+01  0.609242739861E+01  0.000000000000E+00
 -0.161113031143E+00  0.598209051432E+01  0.000000000000E+00
  0.923596183315E+00  0.554900101129E+01  0.000000000000E+00
  0.202731341003E+01  0.501855556033E+01  0.000000000000E+00
 -0.121990345532E+02  0.417295061696E+01  0.685442483789E-27
 -0.101870149047E+02  0.569132177785E+01  0.239362699899E-26
 -0.816077118424E+01  0.663422010454E+01  0.288482993181E-26
 -0.613039221186E+01  0.723011871408E+01  0.314500040516E-26
 -0.409372892442E+01  0.755309479431E+01  0.326227005941E-26
 -0.205479484235E+01  0.763611095959E+01  0.324600096168E-26
 -0.130169031584E-01  0.748233206965E+01  0.242028040549E-26
  0.983870498150E+00  0.706497991731E+01  0.163026276410E-26
  0.195297000000E+01  0.652469000000E+01  0.123793210365E-26
 -0.122214671558E+02 -0.413577266780E+01  0.666297641940E+00
 -0.102145158735E+02 -0.571313614911E+01  0.911257579313E+00
 -0.818633576654E+01 -0.667374235380E+01  0.106236160572E+01
 -0.615257590034E+01 -0.727651543024E+01  0.115821726041E+01
 -0.410891592360E+01 -0.759530245128E+01  0.120849620887E+01
 -0.206186458670E+01 -0.767207802527E+01  0.121905051283E+01
 -0.153065051912E-01 -0.749429085496E+01  0.119390906652E+01
  0.129788505748E+01 -0.706017890373E+01  0.107028659469E+01
  0.256440000000E+01 -0.647239000000E+01  0.677093000000E+00
 -0.122305229133E+02 -0.332720494438E+01  0.738554041408E+00
 -0.101895206065E+02 -0.461594820674E+01  0.101191512603E+01
 -0.818838978418E+01 -0.539820647257E+01  0.118290303170E+01
 -0.618050346878E+01 -0.588716285490E+01  0.128689605174E+01
 -0.416916175622E+01 -0.614432161229E+01  0.134589475213E+01
 -0.215849002758E+01 -0.620049431961E+01  0.136307943269E+01
 -0.149593973731E+00 -0.605623310188E+01  0.134201298110E+01
  0.119493607816E+01 -0.580713183463E+01  0.121129354581E+01
  0.254329364287E+01 -0.543708758619E+01  0.797643817253E+00
 -0.122343655341E+02 -0.250721348781E+01  0.795232705152E+00
 -0.101935783536E+02 -0.349159135521E+01  0.109002362587E+01
 -0.819508265222E+01 -0.409225536305E+01  0.127516465598E+01
 -0.620546236374E+01 -0.446553233655E+01  0.139017192607E+01
 -0.421629292709E+01 -0.465905694346E+01  0.145476914745E+01
 -0.222854690375E+01 -0.469593517253E+01  0.147594161649E+01
 -0.246111518460E+00 -0.457285671716E+01  0.145267963752E+01
  0.117437928228E+01 -0.450550246923E+01  0.131447015088E+01
  0.258413004970E+01 -0.435452741054E+01  0.882912771936E+00
 -0.122362174908E+02 -0.167837967325E+01  0.831434218268E+00
 -0.101966415668E+02 -0.235560833786E+01  0.114302270679E+01
 -0.820321856033E+01 -0.276802178659E+01  0.133826693325E+01
 -0.622189132506E+01 -0.302294571256E+01  0.145976957235E+01
 -0.424241768265E+01 -0.315242513256E+01  0.152795805396E+01
 -0.225990932317E+01 -0.316992143401E+01  0.154886768901E+01
 -0.270944739048E+00 -0.306971498438E+01  0.152439689245E+01
  0.123076128199E+01 -0.318609509928E+01  0.137824593628E+01
  0.272918392707E+01 -0.325214762467E+01  0.919062254034E+00
 -0.122371520641E+02 -0.843720279943E+00  0.848375975380E+00
 -0.101986252227E+02 -0.121089004539E+01  0.116816694594E+01
 -0.820770023098E+01 -0.143275408241E+01  0.136844726817E+01
 -0.622995975797E+01 -0.156821481919E+01  0.149253839371E+01
 -0.425129499731E+01 -0.163486804934E+01  0.156137140179E+01
 -0.226091596126E+01 -0.163848398353E+01  0.157957621657E+01
 -0.244637062538E+00 -0.157096902792E+01  0.155250360293E+01
  0.136153148790E+01 -0.188027951819E+01  0.140075162650E+01
  0.296429692976E+01 -0.216178102365E+01  0.904579085864E+00
 -0.122362269263E+02 -0.596108242882E-02  0.845253034704E+00
 -0.101976811032E+02 -0.617765567449E-01  0.116452805391E+01
 -0.820797432816E+01 -0.914897906002E-01  0.136436731785E+01
 -0.623285890334E+01 -0.106756351586E+00  0.148815649606E+01
 -0.425599012030E+01 -0.112470419934E+00  0.155588725121E+01
 -0.226236894611E+01 -0.106672182891E+00  0.157255521659E+01
 -0.232444848688E+00 -0.870352367120E-01  0.153655404156E+01
  0.152849600412E+01 -0.627010351124E+00  0.136249969221E+01
  0.333333000000E+01 -0.112691000000E+01  0.833333000000E+00
 -0.122329907732E+02  0.831640681597E+00  0.847351934355E+00
 -0.101935739634E+02  0.108840846417E+01  0.116672107651E+01
 -0.820614760187E+01  0.125242740679E+01  0.136650305186E+01
 -0.623722315514E+01  0.135886982489E+01  0.149136335169E+01
 -0.427331532341E+01  0.141654011228E+01  0.156108104446E+01
 -0.230503191953E+01  0.143212363195E+01  0.158255182773E+01
 -0.324523510523E+00  0.141864147652E+01  0.155469114490E+01
  0.122946685465E+01  0.914015414440E+00  0.142358467567E+01
  0.281193426529E+01  0.431617047892E+00  0.986933074731E+00
 -0.122278124320E+02  0.166608435140E+01  0.829119999870E+00
 -0.101852565154E+02  0.223608371999E+01  0.113990839248E+01
 -0.819656810352E+01  0.259527066904E+01  0.133325998333E+01
 -0.622774554120E+01  0.282503928298E+01  0.145546360363E+01
 -0.426750575871E+01  0.294955492949E+01  0.152427082596E+01
 -0.231050400938E+01  0.298352837309E+01  0.154617534546E+01
 -0.349253939978E+00  0.293852639843E+01  0.152349228231E+01
  0.101562457896E+01  0.247141288607E+01  0.141967684488E+01
  0.240795034913E+01  0.197395828924E+01  0.107466623857E+01
 -0.122214803963E+02  0.249452028168E+01  0.791599554265E+00
 -0.101752081875E+02  0.337739607057E+01  0.108385597182E+01
 -0.818056944699E+01  0.393235474806E+01  0.126478177008E+01
 -0.620215681992E+01  0.428450514948E+01  0.138043858297E+01
 -0.422907154515E+01  0.447657179805E+01  0.144492620151E+01
 -0.225829269435E+01  0.452956261283E+01  0.146619260956E+01
 -0.287480710302E+00  0.445345122402E+01  0.144525727025E+01
  0.924325301746E+00  0.401176750039E+01  0.135346056285E+01
  0.214202262645E+01  0.351556850768E+01  0.106722757837E+01
 -0.122128051688E+02  0.331377764147E+01  0.734064957621E+00
 -0.101646429872E+02  0.451127618857E+01  0.100076411228E+01
 -0.816596696481E+01  0.525674127751E+01  0.116658388565E+01
 -0.616615503459E+01  0.572764988683E+01  0.127084687055E+01
 -0.416510225506E+01  0.598471572591E+01  0.132939889898E+01
 -0.216136067691E+01  0.605245124055E+01  0.134621637362E+01
 -0.148875500738E+00  0.594075153941E+01  0.132518650177E+01
  0.941728554402E+00  0.551678839874E+01  0.122818016433E+01
  0.204438896708E+01  0.500172501360E+01  0.955168012217E+00
 -0.121992522231E+02  0.412154660590E+01  0.660384314397E+00
 -0.101875355497E+02  0.562204750862E+01  0.895663937368E+00
 -0.816112792839E+01  0.655339319062E+01  0.104382516977E+01
 -0.613034838560E+01  0.714246211063E+01  0.113613400752E+01
 -0.409362628578E+01  0.746183377145E+01  0.118578423564E+01
 -0.205472608563E+01  0.754376384681E+01  0.119969589414E+01
 -0.125929314068E-01  0.739126141377E+01  0.117736898100E+01
  0.991598708946E+00  0.698222981086E+01  0.106702924416E+01
  0.196387000000E+01  0.646426000000E+01  0.786055000000E+00
 -0.122215400194E+02 -0.398297284647E+01  0.131169510272E+01
 -0.102143581676E+02 -0.550008734276E+01  0.179704817870E+01
 -0.818747626151E+01 -0.642886221543E+01  0.209650606160E+01
 -0.615204970287E+01 -0.700695566701E+01  0.228396527916E+01
 -0.410803579932E+01 -0.731556321729E+01  0.238137281228E+01
 -0.206171522768E+01 -0.738970036034E+01  0.240561283294E+01
 -0.150565925580E-01 -0.722035929524E+01  0.235704974206E+01
  0.131350814849E+01 -0.682612436896E+01  0.211489994554E+01
  0.258678000000E+01 -0.631679000000E+01  0.133751000000E+01
 -0.122289598414E+02 -0.322379880834E+01  0.145972523969E+01
 -0.101915183932E+02 -0.446857519252E+01  0.200550712931E+01
 -0.818799939139E+01 -0.522746847835E+01  0.234283580490E+01
 -0.617554907113E+01 -0.569856725219E+01  0.254941110872E+01
 -0.415739791508E+01 -0.594835065271E+01  0.266590933459E+01
 -0.213729350353E+01 -0.600379782679E+01  0.269838206444E+01
 -0.114596605352E+00 -0.586269616505E+01  0.265323385877E+01
  0.125065803925E+01 -0.564529652572E+01  0.239183271591E+01
  0.259825207737E+01 -0.533854190411E+01  0.157118611734E+01
 -0.122331050496E+02 -0.244142637465E+01  0.157333377301E+01
 -0.101941066103E+02 -0.339562061995E+01  0.216629242281E+01
 -0.819288930611E+01 -0.397901522409E+01  0.253286435066E+01
 -0.619620289421E+01 -0.434045626912E+01  0.276048497008E+01
 -0.419534251979E+01 -0.452941011312E+01  0.288660003722E+01
 -0.219082671715E+01 -0.456652552375E+01  0.292555311307E+01
 -0.185080068414E+00 -0.444680985181E+01  0.287634853080E+01
  0.125583263001E+01 -0.440527500758E+01  0.259654979258E+01
  0.266085835622E+01 -0.429870077269E+01  0.173683739253E+01
 -0.122355265398E+02 -0.164046954461E+01  0.165044207792E+01
 -0.101966735065E+02 -0.229735643518E+01  0.227605102844E+01
 -0.819881231360E+01 -0.269808113957E+01  0.266369136180E+01
 -0.620899482138E+01 -0.294562030563E+01  0.290432616149E+01
 -0.421725292803E+01 -0.307269846535E+01  0.303828401012E+01
 -0.221830837455E+01 -0.309186911170E+01  0.307694093730E+01
 -0.207664972795E+00 -0.299696342470E+01  0.302490494360E+01
  0.131375639220E+01 -0.313442431800E+01  0.272762131308E+01
  0.280720547370E+01 -0.322636577211E+01  0.180922197158E+01
 -0.122365616425E+02 -0.826527156634E+00  0.168843405241E+01
 -0.101986024745E+02 -0.118142398073E+01  0.233050040758E+01
 -0.820248894675E+01 -0.139604942233E+01  0.272884129435E+01
 -0.621589878943E+01 -0.152709728128E+01  0.297500119786E+01
 -0.422641080356E+01 -0.159291291831E+01  0.311119779996E+01
 -0.222465511523E+01 -0.159901613180E+01  0.314667079339E+01
 -0.197705708847E+00 -0.153700726835E+01  0.309053851429E+01
  0.142182539770E+01 -0.186128363484E+01  0.278189106240E+01
  0.302207307926E+01 -0.215521119901E+01  0.178703063572E+01
 -0.122353588283E+02 -0.632520432618E-02  0.168637474770E+01
 -0.101964457138E+02 -0.565740978087E-01  0.232769876693E+01
 -0.820224684991E+01 -0.829982415371E-01  0.272604517497E+01
 -0.621857615369E+01 -0.960165752608E-01  0.297193431906E+01
 -0.423184823898E+01 -0.101553183941E+00  0.310671301009E+01
 -0.223058851542E+01 -0.978948545672E-01  0.314037116640E+01
 -0.199146778046E+00 -0.808539841890E-01  0.307123536416E+01
  0.154849775988E+01 -0.621858357258E+00  0.272628656791E+01
  0.333333000000E+01 -0.112691000000E+01  0.166667000000E+01
 -0.122317592154E+02  0.813683115080E+00  0.168679901066E+01
 -0.101920888484E+02  0.106944252504E+01  0.232792795448E+01
 -0.820016350113E+01  0.123261955375E+01  0.272539360803E+01
 -0.622174061528E+01  0.133892488920E+01  0.297261843557E+01
 -0.424512701651E+01  0.139577535293E+01  0.311026633236E+01
 -0.226240551274E+01  0.141017544377E+01  0.315122506236E+01
 -0.265737124955E+00  0.139202749136E+01  0.309499627507E+01
  0.129068530636E+01  0.885327149196E+00  0.283271359502E+01
  0.286041693278E+01  0.380173406390E+00  0.196297936199E+01
 -0.122267128449E+02  0.162723926942E+01  0.164675119217E+01
 -0.101845501518E+02  0.218780809027E+01  0.226999142855E+01
 -0.819152721471E+01  0.254068291208E+01  0.265449884445E+01
 -0.621318587536E+01  0.276689488027E+01  0.289607230022E+01
 -0.423890055161E+01  0.288886765659E+01  0.303078111258E+01
 -0.226346690168E+01  0.292091021842E+01  0.307167656616E+01
 -0.279838701284E+00  0.287006887696E+01  0.302407267811E+01
  0.110137147805E+01  0.240562791786E+01  0.281352616160E+01
  0.248829322337E+01  0.189873583354E+01  0.212543721890E+01
 -0.122201054014E+02  0.242807045638E+01  0.156758914041E+01
 -0.101753073083E+02  0.329076131188E+01  0.215398297724E+01
 -0.817760878276E+01  0.383179701092E+01  0.251324625337E+01
 -0.619127127715E+01  0.417576143942E+01  0.274166473948E+01
 -0.420616746632E+01  0.436334927209E+01  0.286771332093E+01
 -0.221983857880E+01  0.441351191230E+01  0.290777937425E+01
 -0.230031765386E+00  0.433193543275E+01  0.286416837937E+01
  0.100322937510E+01  0.390261563751E+01  0.267845717356E+01
  0.222242507346E+01  0.342581998517E+01  0.210577537629E+01
 -0.122117808308E+02  0.321009727595E+01  0.145222195048E+01
 -0.101675360750E+02  0.437281910149E+01  0.198282071968E+01
 -0.816599629702E+01  0.509539406979E+01  0.231155210407E+01
 -0.616093196343E+01  0.555268762703E+01  0.251805047136E+01
 -0.415332310095E+01  0.580272766582E+01  0.263358551204E+01
 -0.214201552466E+01  0.586786035294E+01  0.266648951511E+01
 -0.120970379283E+00  0.575401106626E+01  0.262311280478E+01
  0.991433396382E+00  0.535192788190E+01  0.243076393742E+01
  0.209750675274E+01  0.488783339640E+01  0.188719969184E+01
 -0.122003992456E+02  0.396826516951E+01  0.130267593329E+01
 -0.101890071603E+02  0.541572285488E+01  0.176839611868E+01
 -0.816236578131E+01  0.631361917027E+01  0.206071463740E+01
 -0.613033088934E+01  0.688205091305E+01  0.224326402424E+01
 -0.409373964926E+01  0.719062300116E+01  0.234247203377E+01
 -0.205460977055E+01  0.726929799312E+01  0.237002481859E+01
 -0.116705538013E-01  0.712089361467E+01  0.232581441469E+01
  0.101439122153E+01  0.673677886387E+01  0.210762751009E+01
  0.199630000000E+01  0.628446000000E+01  0.155276000000E+01
 -0.122225517772E+02 -0.373215551135E+01  0.192347653706E+01
 -0.102159431663E+02 -0.515557838352E+01  0.263836735585E+01
 -0.818898820520E+01 -0.602786493848E+01  0.307712919158E+01
 -0.615162132479E+01 -0.657109357074E+01  0.334910727278E+01
 -0.410770954468E+01 -0.686324025746E+01  0.349569830142E+01
 -0.206167912073E+01 -0.693209739987E+01  0.353320710788E+01
 -0.142245779681E-01 -0.677188117572E+01  0.346200578046E+01
  0.133772784973E+01 -0.644304237366E+01  0.310876569341E+01
  0.262348000000E+01 -0.606170000000E+01  0.196500000000E+01
 -0.122276166282E+02 -0.304287537576E+01  0.215385050328E+01
 -0.101952475229E+02 -0.421678727840E+01  0.296315086563E+01
 -0.819023589177E+01 -0.493140674404E+01  0.345725257877E+01
 -0.617051949920E+01 -0.537777742291E+01  0.376263625157E+01
 -0.414267515774E+01 -0.561566334876E+01  0.393136288636E+01
 -0.211076556613E+01 -0.566827602258E+01  0.397789360327E+01
 -0.731301442767E-01 -0.552946258186E+01  0.390729530123E+01
  0.132105754540E+01 -0.536201194796E+01  0.351998579613E+01
  0.267497795845E+01 -0.516022048246E+01  0.230513897845E+01
 -0.122314491300E+02 -0.231775983401E+01  0.233339010632E+01
 -0.101940303581E+02 -0.322051220688E+01  0.321561944076E+01
 -0.819033397694E+01 -0.377078230357E+01  0.375572701019E+01
 -0.618422263918E+01 -0.411437553607E+01  0.409022168860E+01
 -0.416928859821E+01 -0.429452320446E+01  0.427299525749E+01
 -0.214597748545E+01 -0.433061394961E+01  0.432544982632E+01
 -0.116309947388E+00 -0.421523346177E+01  0.424952277756E+01
  0.135224671770E+01 -0.421390740856E+01  0.382952476272E+01
  0.276446788527E+01 -0.418442749363E+01  0.254606261676E+01
 -0.122343685992E+02 -0.156405080450E+01  0.245749082813E+01
 -0.101966578532E+02 -0.218520421978E+01  0.339003174060E+01
 -0.819325102202E+01 -0.256312786649E+01  0.396344880114E+01
 -0.619219460249E+01 -0.279846816849E+01  0.431833890075E+01
 -0.418491934112E+01 -0.291959977569E+01  0.451421244720E+01
 -0.216695021519E+01 -0.293978798983E+01  0.456690899661E+01
 -0.134142009863E+00 -0.285183245592E+01  0.448497998245E+01
  0.141087301684E+01 -0.302115033126E+01  0.403650097488E+01
  0.290792258567E+01 -0.316542427205E+01  0.265879051921E+01
 -0.122361917129E+02 -0.790407399256E+00  0.252331455449E+01
 -0.101986923178E+02 -0.112367856017E+01  0.348167909180E+01
 -0.819579603373E+01 -0.132383097747E+01  0.407293542893E+01
 -0.619722389460E+01 -0.144764962775E+01  0.443687782367E+01
 -0.419230158645E+01 -0.151042928555E+01  0.463819681741E+01
 -0.217575061181E+01 -0.151825473756E+01  0.469038497943E+01
 -0.137596934834E+00 -0.146280100213E+01  0.460431149640E+01
  0.149338151393E+01 -0.180866898348E+01  0.413751951015E+01
  0.309122522339E+01 -0.213317571507E+01  0.264235269244E+01
 -0.122324819087E+02 -0.695501233999E-02  0.252802681661E+01
 -0.101962101973E+02 -0.488402625499E-01  0.348891147886E+01
 -0.819508323411E+01 -0.684688381135E-01  0.408160764362E+01
 -0.619899907530E+01 -0.783932077214E-01  0.444623352441E+01
 -0.419685803647E+01 -0.831767774839E-01  0.464675424521E+01
 -0.218187550506E+01 -0.812071065811E-01  0.469839713353E+01
 -0.145967074450E+00 -0.670175005923E-01  0.460172098057E+01
  0.158241927972E+01 -0.610274596644E+00  0.409224482038E+01
  0.333333000000E+01 -0.112691000000E+01  0.250000000000E+01
 -0.122277685642E+02  0.776161320085E+00  0.252081414345E+01
 -0.101922186774E+02  0.102778612010E+01  0.347853492956E+01
 -0.819367934195E+01  0.118855362461E+01  0.406812432536E+01
 -0.620081872336E+01  0.129367439405E+01  0.443305777125E+01
 -0.420477830334E+01  0.134807414873E+01  0.463584276454E+01
 -0.220043980402E+01  0.136116596680E+01  0.469348015853E+01
 -0.181077333167E+00  0.133872282852E+01  0.460866362588E+01
  0.138143442165E+01  0.831402528133E+00  0.421659358020E+01
  0.293309196914E+01  0.304159777048E+00  0.291928605588E+01
 -0.122250786032E+02  0.154933214534E+01  0.245206492745E+01
 -0.101863625436E+02  0.209125756065E+01  0.338134326560E+01
 -0.818680010003E+01  0.243073066000E+01  0.395124808819E+01
 -0.619462329111E+01  0.264983331794E+01  0.430691387381E+01
 -0.419984715105E+01  0.276582183284E+01  0.450280448039E+01
 -0.219815403246E+01  0.279510651964E+01  0.455846781476E+01
 -0.184937125732E+00  0.273976474630E+01  0.448327532545E+01
  0.122205076592E+01  0.228214769565E+01  0.416415522104E+01
  0.260799954130E+01  0.177530306618E+01  0.313287583912E+01
 -0.122190940865E+02  0.230338176106E+01  0.232557369313E+01
 -0.101768749442E+02  0.312780396636E+01  0.319915815570E+01
 -0.817614628889E+01  0.364291914574E+01  0.373000342503E+01
 -0.617857414503E+01  0.397304537543E+01  0.406511144930E+01
 -0.417584788370E+01  0.415054434384E+01  0.424812716772E+01
 -0.216763726050E+01  0.419602680942E+01  0.430366789000E+01
 -0.152989629223E+00  0.411081573042E+01  0.423556596795E+01
  0.111506590747E+01  0.370171843961E+01  0.395431534755E+01
  0.234680591885E+01  0.326168841482E+01  0.309028507155E+01
 -0.122111041925E+02  0.302863101514E+01  0.214423949810E+01
 -0.101707237629E+02  0.413030874938E+01  0.293125606328E+01
 -0.816723496337E+01  0.481306547671E+01  0.341427454342E+01
 -0.615432700349E+01  0.524795115560E+01  0.371930245227E+01
 -0.413682548650E+01  0.548384082443E+01  0.388833112270E+01
 -0.211552449096E+01  0.554405644142E+01  0.393587553644E+01
 -0.830556653426E-01  0.542999180765E+01  0.386952401660E+01
  0.106421173521E+01  0.506025326836E+01  0.358785649266E+01
  0.217835819344E+01  0.468064454753E+01  0.277774639078E+01
 -0.122025112827E+02  0.371745919929E+01  0.191255568312E+01
 -0.101910277926E+02  0.507734064014E+01  0.259878960328E+01
 -0.816414239030E+01  0.592155962590E+01  0.302678233789E+01
 -0.613133210323E+01  0.645616211145E+01  0.329490835572E+01
 -0.409411393279E+01  0.674693963874E+01  0.344271801986E+01
 -0.205462999720E+01  0.682004052822E+01  0.348417072973E+01
 -0.114796354426E-01  0.667833023353E+01  0.341823885452E+01
  0.105188418888E+01  0.633645579266E+01  0.309745238724E+01
  0.204947000000E+01  0.598972000000E+01  0.228122000000E+01
 -0.122241147932E+02 -0.339008704130E+01  0.248645081528E+01
 -0.102198391985E+02 -0.468383158932E+01  0.341523487210E+01
 -0.819094793575E+01 -0.548198752544E+01  0.398052409072E+01
 -0.615324426704E+01 -0.597655194868E+01  0.433415415676E+01
 -0.411093047486E+01 -0.624044603621E+01  0.452653427663E+01
 -0.205953094041E+01 -0.630136042136E+01  0.457705240315E+01
 -0.116080569221E-01 -0.615351926796E+01  0.448410510949E+01
  0.137250277519E+01 -0.591763148244E+01  0.402464412826E+01
  0.267357000000E+01 -0.571343000000E+01  0.254410000000E+01
 -0.122273449308E+02 -0.278940905647E+01  0.280968511745E+01
 -0.102023779333E+02 -0.386255132653E+01  0.386695169017E+01
 -0.819437082991E+01 -0.451905535367E+01  0.450569755645E+01
 -0.616426568560E+01 -0.492923924500E+01  0.490197429642E+01
 -0.412622928285E+01 -0.514718686260E+01  0.511971554106E+01
 -0.208629617554E+01 -0.519326916357E+01  0.517941253516E+01
 -0.343852231804E-01 -0.506559185328E+01  0.508435926094E+01
  0.139213825466E+01 -0.496784470335E+01  0.458200483775E+01
  0.276079295077E+01 -0.490470790033E+01  0.299154775523E+01
 -0.122298846338E+02 -0.213962258741E+01  0.306515233238E+01
 -0.101987802492E+02 -0.296791084718E+01  0.422361128861E+01
 -0.819339759096E+01 -0.347553540185E+01  0.492630972827E+01
 -0.617257539933E+01 -0.379062454321E+01  0.536129409856E+01
 -0.414096182453E+01 -0.395672203915E+01  0.559745614467E+01
 -0.210232387299E+01 -0.399011370697E+01  0.566014290362E+01
 -0.530962698032E-01 -0.388686388386E+01  0.555905104843E+01
  0.143795769399E+01 -0.393763277656E+01  0.501045019293E+01
  0.287074651500E+01 -0.401009721945E+01  0.331002402156E+01
 -0.122328855247E+02 -0.145144180535E+01  0.324742895230E+01
 -0.101988408202E+02 -0.201995053915E+01  0.447533975073E+01
 -0.819376811130E+01 -0.236921496144E+01  0.522328720512E+01
 -0.617619805077E+01 -0.258553116835E+01  0.568614353959E+01
 -0.414933346071E+01 -0.269751102085E+01  0.594218869762E+01
 -0.211371638905E+01 -0.271595070180E+01  0.600678864847E+01
 -0.629898941155E-01 -0.264080657221E+01  0.589505174657E+01
  0.149560632933E+01 -0.284840912703E+01  0.530782225139E+01
  0.300624084846E+01 -0.306242342885E+01  0.347430992393E+01
 -0.122344329833E+02 -0.736615375625E+00  0.335049487949E+01
 -0.101989663674E+02 -0.103652047828E+01  0.461736512224E+01
 -0.819354169244E+01 -0.121917721207E+01  0.539133027600E+01
 -0.617774023400E+01 -0.133184959094E+01  0.586662011138E+01
 -0.415344706761E+01 -0.138961312461E+01  0.613163108002E+01
 -0.211991843576E+01 -0.139717376612E+01  0.620135981190E+01
 -0.696226522537E-01 -0.135023393187E+01  0.608618185657E+01
  0.156454150870E+01 -0.172071103985E+01  0.547010772199E+01
  0.315247233508E+01 -0.209329127232E+01  0.348157229039E+01
 -0.122339752338E+02 -0.832279838099E-02  0.337094997066E+01
 -0.101973861360E+02 -0.355571018378E-01  0.464624298500E+01
 -0.819214788320E+01 -0.477785127456E-01  0.542603765552E+01
 -0.617772155114E+01 -0.541320711227E-01  0.590427237501E+01
 -0.415457547859E+01 -0.570406546042E-01  0.616974127411E+01
 -0.212193392826E+01 -0.551670885717E-01  0.623958821653E+01
 -0.743517569595E-01 -0.440271716780E-01  0.612311706856E+01
  0.162854493746E+01 -0.593750242757E+00  0.546292940807E+01
  0.333333000000E+01 -0.112691000000E+01  0.333333000000E+01
 -0.122309329725E+02  0.719843581895E+00  0.334601908445E+01
 -0.101957484216E+02  0.965949200479E+00  0.461154785878E+01
 -0.819158131532E+01  0.112466045438E+01  0.538464745039E+01
 -0.617882173460E+01  0.122485598687E+01  0.586043663075E+01
 -0.415832623471E+01  0.127735456319E+01  0.612679343164E+01
 -0.212902012365E+01  0.128981887894E+01  0.619901815667E+01
 -0.826634910061E-01  0.126569903368E+01  0.608511825075E+01
  0.148880650303E+01  0.753193396239E+00  0.557009054815E+01
  0.301635091722E+01  0.214509327111E+00  0.385608471061E+01
 -0.122260543752E+02  0.143484894910E+01  0.324000123672E+01
 -0.101906334855E+02  0.195009974840E+01  0.446274846476E+01
 -0.818817130056E+01  0.227393401197E+01  0.520838849984E+01
 -0.617536220106E+01  0.247919079974E+01  0.567145850543E+01
 -0.415484014314E+01  0.258689310336E+01  0.592532473062E+01
 -0.212599601489E+01  0.261235355826E+01  0.599214815476E+01
 -0.814055692985E-01  0.255882492142E+01  0.588692499514E+01
  0.135110635497E+01  0.211306911836E+01  0.546702612631E+01
  0.274151036703E+01  0.161177497674E+01  0.409386823147E+01
 -0.122189584232E+02  0.212390498803E+01  0.305574250070E+01
 -0.101876201187E+02  0.289699033011E+01  0.420427690123E+01
 -0.818319935767E+01  0.337883053215E+01  0.489645507983E+01
 -0.616589581910E+01  0.368429837340E+01  0.533244133775E+01
 -0.414228859716E+01  0.384896571159E+01  0.556782233363E+01
 -0.211028052640E+01  0.388768568957E+01  0.563556550664E+01
 -0.664201586764E-01  0.380653227184E+01  0.554145099718E+01
  0.123998018257E+01  0.343004365394E+01  0.516723157364E+01
  0.248861970202E+01  0.303188834511E+01  0.401304567896E+01
 -0.122125899172E+02  0.277421556248E+01  0.279866815606E+01
 -0.101813359728E+02  0.378827817148E+01  0.383304249157E+01
 -0.817443545201E+01  0.441889423896E+01  0.445937948720E+01
 -0.614896655057E+01  0.482100702545E+01  0.485555092283E+01
 -0.411957892688E+01  0.503546521470E+01  0.507594933197E+01
 -0.208685697684E+01  0.508593136168E+01  0.513786532424E+01
 -0.383639370823E-01  0.497988705389E+01  0.504709276254E+01
  0.115937461882E+01  0.466467780308E+01  0.467930908023E+01
  0.228214767484E+01  0.438243976229E+01  0.361358384391E+01
 -0.122055697392E+02  0.337530342164E+01  0.247458123669E+01
 -0.101932675921E+02  0.461554211942E+01  0.336314393426E+01
 -0.816710934446E+01  0.538546026126E+01  0.391651592902E+01
 -0.613386949493E+01  0.587358059513E+01  0.426620464399E+01
 -0.409547055192E+01  0.613548954586E+01  0.445915627339E+01
 -0.205464256952E+01  0.619958589561E+01  0.451262862568E+01
 -0.118236863798E-01  0.607051445294E+01  0.442710488966E+01
  0.110256987837E+01  0.579158929534E+01  0.401190577971E+01
  0.212207000000E+01  0.558730000000E+01  0.295352000000E+01
 -0.122264871552E+02 -0.296578324740E+01  0.298790487354E+01
 -0.102212355728E+02 -0.409937133307E+01  0.410635967061E+01
 -0.819500328155E+01 -0.479809253170E+01  0.478427569108E+01
 -0.615548019936E+01 -0.523115542807E+01  0.520974026649E+01
 -0.411003359917E+01 -0.546211758076E+01  0.544075748208E+01
 -0.205935201206E+01 -0.551398544557E+01  0.550185363344E+01
 -0.101601636278E-01 -0.538299484413E+01  0.539552700549E+01
  0.142158156186E+01 -0.526417019587E+01  0.483962801426E+01
  0.273585000000E+01 -0.528053000000E+01  0.306056000000E+01
 -0.122269606990E+02 -0.246901376872E+01  0.341618999404E+01
 -0.102238731680E+02 -0.341352241600E+01  0.469655629223E+01
 -0.819579366148E+01 -0.399905859198E+01  0.547233739309E+01
 -0.615658085744E+01 -0.436423230173E+01  0.595261372069E+01
 -0.411076138576E+01 -0.455565971320E+01  0.621628363042E+01
 -0.205849596425E+01 -0.459607545171E+01  0.628835902471E+01
 -0.721053436449E-02 -0.448487576269E+01  0.616987775013E+01
  0.147330699230E+01 -0.447370138414E+01  0.555435682725E+01
  0.283639000000E+01 -0.458160000000E+01  0.363581000000E+01
 -0.122280506103E+02 -0.191125515927E+01  0.376167211734E+01
 -0.102280330649E+02 -0.264206837709E+01  0.516884569141E+01
 -0.819657734216E+01 -0.309586477794E+01  0.602709731103E+01
 -0.615485012115E+01 -0.338387701961E+01  0.655675571305E+01
 -0.411113493306E+01 -0.353812174339E+01  0.684201569486E+01
 -0.205583503193E+01 -0.356738285239E+01  0.691732164903E+01
 -0.412410653072E-02 -0.347615658133E+01  0.679240120816E+01
  0.152975769364E+01 -0.358525448049E+01  0.612250357464E+01
  0.295176000000E+01 -0.377956000000E+01  0.404840000000E+01
 -0.122293482572E+02 -0.130500983085E+01  0.401496070725E+01
 -0.102305070971E+02 -0.180528516492E+01  0.551227043799E+01
 -0.819771819152E+01 -0.211610507976E+01  0.642826168957E+01
 -0.615423022470E+01 -0.231206103575E+01  0.699398574346E+01
 -0.410540975276E+01 -0.241798419938E+01  0.730624771623E+01
 -0.205444404208E+01 -0.244264103791E+01  0.738604908299E+01
 -0.226288653372E-02 -0.237391482503E+01  0.724655027894E+01
  0.158881283995E+01 -0.262186297028E+01  0.652979522961E+01
  0.307680000000E+01 -0.291030000000E+01  0.427989000000E+01
 -0.122290778746E+02 -0.666079832675E+00  0.416877391203E+01
 -0.102311015212E+02 -0.923156819352E+00  0.572070400632E+01
 -0.819807480759E+01 -0.108407047337E+01  0.667007533269E+01
 -0.615362614040E+01 -0.118459294111E+01  0.725498190531E+01
 -0.410350813935E+01 -0.123825567263E+01  0.758067518550E+01
 -0.205318352908E+01 -0.124871123825E+01  0.766794195945E+01
  0.370346187201E-03 -0.121412333186E+01  0.752666393113E+01
  0.165207857813E+01 -0.161073862371E+01  0.676430902821E+01
  0.320592000000E+01 -0.201270000000E+01  0.431991000000E+01
 -0.122275216552E+02 -0.101152197295E-01  0.421924467747E+01
 -0.102299307012E+02 -0.190704367144E-01  0.578814172100E+01
 -0.819724597445E+01 -0.245231620366E-01  0.674830230539E+01
 -0.615279051432E+01 -0.270118848961E-01  0.733984940375E+01
 -0.410298366931E+01 -0.266618213425E-01  0.766841409183E+01
 -0.205188991550E+01 -0.222972565397E-01  0.775820843705E+01
  0.149570740280E-02 -0.179627730579E-01  0.761956835773E+01
  0.171392168155E+01 -0.578038617641E+00  0.681644909692E+01
  0.333333000000E+01 -0.112691000000E+01  0.416667000000E+01
 -0.122261294430E+02  0.646006857698E+00  0.416507752446E+01
 -0.102272284184E+02  0.884986695853E+00  0.571248634227E+01
 -0.819484208169E+01  0.103330766460E+01  0.666056115547E+01
 -0.615085953945E+01  0.112941012819E+01  0.724582947243E+01
 -0.410258543216E+01  0.118341946946E+01  0.757119771348E+01
 -0.205210376200E+01  0.120000986081E+01  0.765933889741E+01
  0.131389416336E-02  0.117648456866E+01  0.751794648604E+01
  0.160213883846E+01  0.664550870496E+00  0.688282225128E+01
  0.311477000000E+01  0.846185000000E-01  0.477384000000E+01
 -0.122230080077E+02  0.128594276454E+01  0.400750666320E+01
 -0.102229608399E+02  0.176504332723E+01  0.549604750870E+01
 -0.819105492664E+01  0.206370509102E+01  0.640991539253E+01
 -0.614915512866E+01  0.225340920417E+01  0.697526865758E+01
 -0.410300844892E+01  0.236093378870E+01  0.728429745763E+01
 -0.205475417051E+01  0.239001473036E+01  0.736445773807E+01
 -0.236037640978E-02  0.233242720234E+01  0.723054772281E+01
  0.148760664451E+01  0.189910936822E+01  0.670922227189E+01
  0.287533000000E+01  0.141185000000E+01  0.502046000000E+01
 -0.122199254756E+02  0.189318135258E+01  0.375123068027E+01
 -0.102164266621E+02  0.259917894422E+01  0.514370844693E+01
 -0.818584766102E+01  0.303904448054E+01  0.599268650842E+01
 -0.614975442191E+01  0.332070823549E+01  0.652062314662E+01
 -0.410227792074E+01  0.346959927700E+01  0.680730269748E+01
 -0.205758293358E+01  0.350323557281E+01  0.688854836244E+01
 -0.259141163836E-02  0.342374732144E+01  0.676634450818E+01
  0.137757115612E+01  0.307933541926E+01  0.629946296723E+01
  0.263311000000E+01  0.275453000000E+01  0.488788000000E+01
 -0.122157545242E+02  0.245243783843E+01  0.340425660604E+01
 -0.102109855947E+02  0.337025931790E+01  0.466083464835E+01
 -0.818179121744E+01  0.393389632455E+01  0.542553143238E+01
 -0.614581568791E+01  0.429008015312E+01  0.590728204628E+01
 -0.410137050738E+01  0.448148591897E+01  0.617232808864E+01
 -0.205494126011E+01  0.452599735023E+01  0.624727078005E+01
 -0.437670320847E-02  0.442804698086E+01  0.613425588590E+01
  0.127395144796E+01  0.416896264156E+01  0.567248806124E+01
  0.240640000000E+01  0.401125000000E+01  0.438612000000E+01
 -0.122110383063E+02  0.295023041076E+01  0.297575794310E+01
 -0.101991085385E+02  0.404475968403E+01  0.405128626663E+01
 -0.817389311706E+01  0.471960466428E+01  0.471837348223E+01
 -0.613849972233E+01  0.514571076814E+01  0.514198372202E+01
 -0.409802892603E+01  0.537577256407E+01  0.537422327568E+01
 -0.205491625861E+01  0.543084873999E+01  0.543809430269E+01
 -0.949606105336E-02  0.531616974677E+01  0.533697867909E+01
  0.117289177325E+01  0.512113574702E+01  0.484252609302E+01
  0.221231000000E+01  0.508710000000E+01  0.355309000000E+01
  0.500000000000E+01 -0.169037000000E+01  0.489859000002E-15
  0.527591000000E+01 -0.788220000000E+00  0.391887000001E-15
  0.575887000000E+01 -0.658810000000E+00  0.391887000000E-15
  0.624183000000E+01 -0.529401000000E+00  0.391887000000E-15
  0.672480000000E+01 -0.399991000000E+00  0.391887000000E-15
  0.720776000000E+01 -0.270582000000E+00  0.391887000000E-15
  0.769072000000E+01 -0.141172000000E+00  0.391887000000E-15
  0.817369000000E+01 -0.117629000000E-01  0.391887000000E-15
  0.865665000000E+01  0.117647000000E+00  0.391887000000E-15
  0.913961000000E+01  0.247056000000E+00  0.391887000000E-15
  0.962257000000E+01  0.376466000000E+00  0.391887000000E-15
  0.447308880134E+01 -0.125495941184E+00  0.391887000000E-15
  0.477346758335E+01  0.413256602775E+00  0.313510000000E-15
  0.525224590978E+01  0.572179363384E+00  0.313510000000E-15
  0.574987679709E+01  0.701302431177E+00  0.313510000000E-15
  0.625290681734E+01  0.832142175999E+00  0.313510000000E-15
  0.675816548358E+01  0.964748080250E+00  0.313510000000E-15
  0.726394845044E+01  0.109862095608E+01  0.313510000000E-15
  0.776971191644E+01  0.123311760909E+01  0.313510000000E-15
  0.827523749961E+01  0.136745905977E+01  0.313510000000E-15
  0.878047133626E+01  0.150130813942E+01  0.313510000000E-15
  0.929129000000E+01  0.161285000000E+01  0.313510000000E-15
  0.382731379563E+01  0.141566547923E+01  0.293915000000E-15
  0.426086317846E+01  0.163999322280E+01  0.235132000000E-15
  0.475667422620E+01  0.176936494261E+01  0.235132000000E-15
  0.528035605163E+01  0.189651957241E+01  0.235132000000E-15
  0.581084071731E+01  0.202934512868E+01  0.235132000000E-15
  0.634150282121E+01  0.216699229767E+01  0.235132000000E-15
  0.687092302650E+01  0.230642152564E+01  0.235132000000E-15
  0.739862267378E+01  0.244649822613E+01  0.235132000000E-15
  0.792414067159E+01  0.258668484216E+01  0.235132000000E-15
  0.844640599717E+01  0.272370517241E+01  0.235132000000E-15
  0.896000000000E+01  0.284924000000E+01  0.235132000000E-15
  0.334592642281E+01  0.299587545417E+01  0.195943000000E-15
  0.389128214892E+01  0.290493612536E+01  0.156755000000E-15
  0.441360515000E+01  0.297579096132E+01  0.156755000000E-15
  0.494871183570E+01  0.309450155289E+01  0.156755000000E-15
  0.548317051150E+01  0.323028891243E+01  0.156755000000E-15
  0.601595184823E+01  0.336997492783E+01  0.156755000000E-15
  0.654632637239E+01  0.351116627542E+01  0.156755000000E-15
  0.707441741362E+01  0.365263094228E+01  0.156755000000E-15
  0.760011952925E+01  0.379375509442E+01  0.156755000000E-15
  0.812115741439E+01  0.393657355178E+01  0.156755000000E-15
  0.862871000000E+01  0.408562000000E+01  0.156755000000E-15
  0.313686798618E+01  0.453173926936E+01  0.979717000000E-16
  0.371226306191E+01  0.417443127579E+01  0.783774000000E-16
  0.425365653598E+01  0.422129595180E+01  0.783774000000E-16
  0.476686593974E+01  0.435069254886E+01  0.783774000000E-16
  0.527598725514E+01  0.448342327088E+01  0.783774000000E-16
  0.578263091725E+01  0.461881179493E+01  0.783774000000E-16
  0.628796986986E+01  0.475449439895E+01  0.783774000000E-16
  0.679257007904E+01  0.489019210547E+01  0.783774000000E-16
  0.729653881711E+01  0.502622455270E+01  0.783774000000E-16
  0.780002199342E+01  0.516277718537E+01  0.783774000000E-16
  0.829742000000E+01  0.532201000000E+01  0.783774000004E-16
  0.292945000000E+01  0.603704000000E+01  0.126342766429E-26
  0.361947000000E+01  0.539371000000E+01  0.710154895672E-27
  0.410243000000E+01  0.552311000000E+01  0.209484797037E-27
  0.458539000000E+01  0.565252000000E+01  0.312998011793E-27
  0.506835000000E+01  0.578193000000E+01  0.323091798780E-27
  0.555132000000E+01  0.591134000000E+01  0.323428638279E-27
  0.603428000000E+01  0.604075000000E+01  0.319831652027E-27
  0.651724000000E+01  0.617016000000E+01  0.315342783038E-27
  0.700021000000E+01  0.629957000000E+01  0.309807443662E-27
  0.748317000000E+01  0.642898000000E+01  0.280405128163E-27
  0.796613000000E+01  0.655839000000E+01  0.998229040587E-28
  0.498725000000E+01 -0.164280000000E+01  0.625738000000E+00
  0.526571000000E+01 -0.750165000000E+00  0.500590000000E+00
  0.574867000000E+01 -0.620756000000E+00  0.500590000000E+00
  0.623164000000E+01 -0.491346000000E+00  0.500590000000E+00
  0.671460000000E+01 -0.361937000000E+00  0.500590000000E+00
  0.719756000000E+01 -0.232527000000E+00  0.500590000000E+00
  0.768053000000E+01 -0.103118000000E+00  0.500590000000E+00
  0.816349000000E+01  0.262920000000E-01  0.500590000000E+00
  0.864645000000E+01  0.155702000000E+00  0.500590000000E+00
  0.912941000000E+01  0.285111000000E+00  0.500590000000E+00
  0.961238000000E+01  0.414521000000E+00  0.500590000000E+00
  0.448040761156E+01 -0.120972338332E+00  0.787073568324E+00
  0.478143395618E+01  0.419550748933E+00  0.638360214939E+00
  0.526219963854E+01  0.578013497522E+00  0.617512573229E+00
  0.575969220573E+01  0.706730287519E+00  0.611505608553E+00
  0.626140350921E+01  0.837300581913E+00  0.609580159808E+00
  0.676493360062E+01  0.969507533912E+00  0.609223780055E+00
  0.726884813035E+01  0.110292494644E+01  0.609360409996E+00
  0.777278531348E+01  0.123698749316E+01  0.609646477470E+00
  0.827660408228E+01  0.137096675383E+01  0.610199705752E+00
  0.878035929290E+01  0.150472745227E+01  0.611670786132E+00
  0.929009000000E+01  0.161731000000E+01  0.618286000000E+00
  0.385028879439E+01  0.141194166605E+01  0.886148414074E+00
  0.427835211601E+01  0.164021182127E+01  0.700817434319E+00
  0.477480111817E+01  0.177027140725E+01  0.675223994103E+00
  0.529752194504E+01  0.189780611930E+01  0.664074564551E+00
  0.582572071085E+01  0.203041168450E+01  0.660153151211E+00
  0.635346399465E+01  0.216746496270E+01  0.659797041439E+00
  0.687978121969E+01  0.230615899963E+01  0.660641044874E+00
  0.740453950362E+01  0.244551603498E+01  0.662034749346E+00
  0.792745499785E+01  0.258508387133E+01  0.664553356492E+00
  0.844778937096E+01  0.272179631235E+01  0.669783833430E+00
  0.896044000000E+01  0.284757000000E+01  0.680162000000E+00
  0.337181222854E+01  0.299473396397E+01  0.887139475055E+00
  0.390946829017E+01  0.290747980719E+01  0.697219842765E+00
  0.443155369657E+01  0.298078724399E+01  0.673813013280E+00
  0.496521341352E+01  0.310047901115E+01  0.661979555929E+00
  0.549710229810E+01  0.323613987308E+01  0.658629584011E+00
  0.602679627128E+01  0.337526036951E+01  0.658837895048E+00
  0.655396830126E+01  0.351570864814E+01  0.660089877671E+00
  0.707907218728E+01  0.365640144743E+01  0.661726557047E+00
  0.760219551077E+01  0.379679532784E+01  0.664371000448E+00
  0.812139238853E+01  0.393892417483E+01  0.669670183592E+00
  0.862826000000E+01  0.408729000000E+01  0.680162000000E+00
  0.315572894120E+01  0.452246206056E+01  0.788661604965E+00
  0.372761653994E+01  0.416907809471E+01  0.631232050421E+00
  0.426789614549E+01  0.422047289319E+01  0.610868449637E+00
  0.477930851206E+01  0.435054823235E+01  0.608042448468E+00
  0.528634736478E+01  0.448299905278E+01  0.608177712101E+00
  0.579089685293E+01  0.461792204043E+01  0.608984300098E+00
  0.629425352852E+01  0.475310359145E+01  0.609660598830E+00
  0.679706639546E+01  0.488830199774E+01  0.610147692870E+00
  0.729940971455E+01  0.502381932717E+01  0.610718950600E+00
  0.780160575701E+01  0.515973664105E+01  0.612057028696E+00
  0.829861000000E+01  0.531755000000E+01  0.618286000000E+00
  0.294219000000E+01  0.598947000000E+01  0.625738000000E+00
  0.362966000000E+01  0.535565000000E+01  0.500590000000E+00
  0.411263000000E+01  0.548506000000E+01  0.500590000000E+00
  0.459559000000E+01  0.561447000000E+01  0.500590000000E+00
  0.507855000000E+01  0.574388000000E+01  0.500590000000E+00
  0.556151000000E+01  0.587329000000E+01  0.500590000000E+00
  0.604448000000E+01  0.600270000000E+01  0.500590000000E+00
  0.652744000000E+01  0.613211000000E+01  0.500590000000E+00
  0.701040000000E+01  0.626152000000E+01  0.500590000000E+00
  0.749337000000E+01  0.639093000000E+01  0.500590000000E+00
  0.797633000000E+01  0.652034000000E+01  0.500590000000E+00
  0.494933000000E+01 -0.150127000000E+01  0.123607000000E+01
  0.523537000000E+01 -0.636938000000E+00  0.988854000000E+00
  0.571833000000E+01 -0.507528000000E+00  0.988854000000E+00
  0.620130000000E+01 -0.378118000000E+00  0.988854000000E+00
  0.668426000000E+01 -0.248709000000E+00  0.988854000000E+00
  0.716722000000E+01 -0.119299000000E+00  0.988854000000E+00
  0.765019000000E+01  0.101101000000E-01  0.988854000000E+00
  0.813315000000E+01  0.139520000000E+00  0.988854000000E+00
  0.861611000000E+01  0.268929000000E+00  0.988854000000E+00
  0.909907000000E+01  0.398339000000E+00  0.988854000000E+00
  0.958204000000E+01  0.527748000000E+00  0.988854000000E+00
  0.448599893846E+01 -0.605722000294E-01  0.155207809880E+01
  0.479221963270E+01  0.475073531611E+00  0.125793585554E+01
  0.527863567343E+01  0.631222789196E+00  0.122144660614E+01
  0.577514568582E+01  0.758884363204E+00  0.121241231305E+01
  0.627298515769E+01  0.888680205379E+00  0.120986515245E+01
  0.677176256549E+01  0.101963052658E+01  0.120955068845E+01
  0.727086924581E+01  0.115191650765E+01  0.120981077982E+01
  0.777011985590E+01  0.128493004886E+01  0.121021017517E+01
  0.826965437137E+01  0.141790361118E+01  0.121095676549E+01
  0.876964819968E+01  0.155139757705E+01  0.121306116368E+01
  0.927681000000E+01  0.166687000000E+01  0.122425000000E+01
  0.390990839362E+01  0.142521893256E+01  0.174313267706E+01
  0.432444570326E+01  0.166011891438E+01  0.138516272191E+01
  0.482344918643E+01  0.179149919681E+01  0.133756792374E+01
  0.534288504826E+01  0.191986622537E+01  0.131956934657E+01
  0.586397832359E+01  0.205158924858E+01  0.131420859350E+01
  0.638300641313E+01  0.218672970035E+01  0.131426968092E+01
  0.690041271531E+01  0.232332607824E+01  0.131581697832E+01
  0.741669212044E+01  0.246065230476E+01  0.131795749196E+01
  0.793221407236E+01  0.259844159638E+01  0.132173130658E+01
  0.844690158759E+01  0.273421979238E+01  0.133001988712E+01
  0.895686000000E+01  0.286093000000E+01  0.134800000000E+01
  0.345271939838E+01  0.296815459680E+01  0.174454056307E+01
  0.396781365100E+01  0.289665761539E+01  0.137952862148E+01
  0.448958438750E+01  0.297790231705E+01  0.133495126017E+01
  0.501840843600E+01  0.310018771741E+01  0.131579803095E+01
  0.554230789775E+01  0.323530031154E+01  0.131159160186E+01
  0.606268623953E+01  0.337268795978E+01  0.131265725657E+01
  0.658065801143E+01  0.351095141518E+01  0.131489036219E+01
  0.709721738171E+01  0.364936639249E+01  0.131742672032E+01
  0.761297213842E+01  0.378767253531E+01  0.132140232318E+01
  0.812680826895E+01  0.392778898979E+01  0.132980249644E+01
  0.863184000000E+01  0.407393000000E+01  0.134800000000E+01
  0.321660446490E+01  0.445143365305E+01  0.155230173898E+01
  0.377780152538E+01  0.411643044374E+01  0.124616570076E+01
  0.431485543833E+01  0.418098441037E+01  0.121074094360E+01
  0.482125290814E+01  0.431213120428E+01  0.120706402882E+01
  0.532262275116E+01  0.444366426686E+01  0.120783675898E+01
  0.582158457312E+01  0.457746344319E+01  0.120932905566E+01
  0.631999572538E+01  0.471133682085E+01  0.121038682797E+01
  0.681829741636E+01  0.484520642149E+01  0.121107198197E+01
  0.731660846562E+01  0.497954562188E+01  0.121182991979E+01
  0.781559059818E+01  0.511389319009E+01  0.121371631935E+01
  0.831189000000E+01  0.526799000000E+01  0.122425000000E+01
  0.298012000000E+01  0.584793000000E+01  0.123607000000E+01
  0.366000000000E+01  0.524242000000E+01  0.988854000000E+00
  0.414296000000E+01  0.537183000000E+01  0.988854000000E+00
  0.462593000000E+01  0.550124000000E+01  0.988854000000E+00
  0.510889000000E+01  0.563065000000E+01  0.988854000000E+00
  0.559185000000E+01  0.576006000000E+01  0.988854000000E+00
  0.607482000000E+01  0.588947000000E+01  0.988854000000E+00
  0.655778000000E+01  0.601888000000E+01  0.988854000000E+00
  0.704074000000E+01  0.614829000000E+01  0.988854000000E+00
  0.752371000000E+01  0.627770000000E+01  0.988854000000E+00
  0.800667000000E+01  0.640711000000E+01  0.988854000000E+00
  0.488716000000E+01 -0.126925000000E+01  0.181596000000E+01
  0.518564000000E+01 -0.451325000000E+00  0.145277000000E+01
  0.566860000000E+01 -0.321916000000E+00  0.145277000000E+01
  0.615156000000E+01 -0.192506000000E+00  0.145277000000E+01
  0.663453000000E+01 -0.630967000000E-01  0.145277000000E+01
  0.711749000000E+01  0.663128000000E-01  0.145277000000E+01
  0.760045000000E+01  0.195722000000E+00  0.145277000000E+01
  0.808341000000E+01  0.325132000000E+00  0.145277000000E+01
  0.856638000000E+01  0.454541000000E+00  0.145277000000E+01
  0.904934000000E+01  0.583951000000E+00  0.145277000000E+01
  0.953230000000E+01  0.713360000000E+00  0.145277000000E+01
  0.448839096938E+01  0.538457300529E-01  0.227450717926E+01
  0.480590715719E+01  0.577387058250E+00  0.184129503448E+01
  0.530006777696E+01  0.729458570783E+00  0.179995625008E+01
  0.579315424154E+01  0.855807017301E+00  0.179288900361E+01
  0.628411270070E+01  0.983558385932E+00  0.179122228226E+01
  0.677592137944E+01  0.111324135944E+01  0.179103814292E+01
  0.726830236148E+01  0.124412008187E+01  0.179131861222E+01
  0.776111582925E+01  0.137570279320E+01  0.179166775957E+01
  0.825419490414E+01  0.150757880658E+01  0.179208381079E+01
  0.874888885521E+01  0.164014890517E+01  0.179349761801E+01
  0.925190000000E+01  0.175986000000E+01  0.180586000000E+01
  0.399891157675E+01  0.145833062331E+01  0.254193565421E+01
  0.439757637720E+01  0.169942985696E+01  0.203461134159E+01
  0.490132477931E+01  0.183274427347E+01  0.197544944087E+01
  0.541353582892E+01  0.196206878540E+01  0.195960591530E+01
  0.592137539078E+01  0.209129806724E+01  0.195627893768E+01
  0.642628064501E+01  0.222360473861E+01  0.195706781454E+01
  0.693009942751E+01  0.235714924516E+01  0.195876917763E+01
  0.743370516974E+01  0.249147583560E+01  0.196066337435E+01
  0.793776101237E+01  0.262667244111E+01  0.196361856139E+01
  0.844396372690E+01  0.276076489877E+01  0.197109705554E+01
  0.894940000000E+01  0.288877000000E+01  0.199149000000E+01
  0.358044202216E+01  0.292109641679E+01  0.254170685190E+01
  0.406494877872E+01  0.287380316383E+01  0.202944730876E+01
  0.458651987561E+01  0.296823953992E+01  0.197226784238E+01
  0.510561740097E+01  0.309360054805E+01  0.195534207997E+01
  0.561436495740E+01  0.322731764751E+01  0.195359488394E+01
  0.611968275905E+01  0.336160980313E+01  0.195544064701E+01
  0.662366771358E+01  0.349638045673E+01  0.195781962086E+01
  0.712744060067E+01  0.363132159527E+01  0.196009300378E+01
  0.763185414501E+01  0.376620638259E+01  0.196323353982E+01
  0.813749055515E+01  0.390349041498E+01  0.197081495532E+01
  0.863930000000E+01  0.404608000000E+01  0.199149000000E+01
  0.331029278655E+01  0.432438442028E+01  0.226988149476E+01
  0.385848571795E+01  0.401965734726E+01  0.182929647978E+01
  0.439025317793E+01  0.410352656047E+01  0.178908444272E+01
  0.488814394393E+01  0.423514083165E+01  0.178799208429E+01
  0.537988038689E+01  0.436590512522E+01  0.178960481080E+01
  0.587126324658E+01  0.449775112417E+01  0.179104877881E+01
  0.636299262240E+01  0.462975366911E+01  0.179202107831E+01
  0.685517550323E+01  0.476182695900E+01  0.179259406160E+01
  0.734765933774E+01  0.489401985842E+01  0.179300575462E+01
  0.784187091979E+01  0.502659910160E+01  0.179420719680E+01
  0.833681000000E+01  0.517500000000E+01  0.180586000000E+01
  0.304229000000E+01  0.561592000000E+01  0.181596000000E+01
  0.370974000000E+01  0.505681000000E+01  0.145277000000E+01
  0.419270000000E+01  0.518622000000E+01  0.145277000000E+01
  0.467566000000E+01  0.531563000000E+01  0.145277000000E+01
  0.515863000000E+01  0.544504000000E+01  0.145277000000E+01
  0.564159000000E+01  0.557445000000E+01  0.145277000000E+01
  0.612455000000E+01  0.570386000000E+01  0.145277000000E+01
  0.660751000000E+01  0.583327000000E+01  0.145277000000E+01
  0.709048000000E+01  0.596268000000E+01  0.145277000000E+01
  0.757344000000E+01  0.609209000000E+01  0.145277000000E+01
  0.805640000000E+01  0.622150000000E+01  0.145277000000E+01
  0.480228000000E+01 -0.952469000000E+00  0.235114000000E+01
  0.511773000000E+01 -0.197899000000E+00  0.188091000000E+01
  0.560069000000E+01 -0.684892000000E-01  0.188091000000E+01
  0.608366000000E+01  0.609204000000E-01  0.188091000000E+01
  0.656662000000E+01  0.190330000000E+00  0.188091000000E+01
  0.704958000000E+01  0.319739000000E+00  0.188091000000E+01
  0.753255000000E+01  0.449149000000E+00  0.188091000000E+01
  0.801551000000E+01  0.578558000000E+00  0.188091000000E+01
  0.849847000000E+01  0.707968000000E+00  0.188091000000E+01
  0.898143000000E+01  0.837378000000E+00  0.188091000000E+01
  0.946440000000E+01  0.966787000000E+00  0.188091000000E+01
  0.447919889700E+01  0.220793876299E+00  0.294098122410E+01
  0.482029628187E+01  0.722098800398E+00  0.237321808745E+01
  0.532117654580E+01  0.867341458220E+00  0.234499082737E+01
  0.580478270414E+01  0.989139042229E+00  0.234359976308E+01
  0.628790445304E+01  0.111784980035E+01  0.234252201750E+01
  0.677267771069E+01  0.124685883180E+01  0.234250883841E+01
  0.725838737684E+01  0.137675109788E+01  0.234263267720E+01
  0.774470325244E+01  0.150698349851E+01  0.234273884671E+01
  0.823132681680E+01  0.163697321981E+01  0.234305914826E+01
  0.871761331989E+01  0.176903792321E+01  0.234260564887E+01
  0.921608000000E+01  0.189354000000E+01  0.235170000000E+01
  0.409758561138E+01  0.151399519303E+01  0.326075707723E+01
  0.449226264058E+01  0.175744177221E+01  0.262815535902E+01
  0.500161536779E+01  0.189144744819E+01  0.258257848025E+01
  0.549588306892E+01  0.201791403515E+01  0.257921794437E+01
  0.598529747550E+01  0.214542363177E+01  0.257766750368E+01
  0.647388799225E+01  0.227521302097E+01  0.257845248036E+01
  0.696314783802E+01  0.240573902805E+01  0.257928495247E+01
  0.745315246466E+01  0.253678013016E+01  0.258005626634E+01
  0.794402697351E+01  0.266860331066E+01  0.258141924828E+01
  0.843763438004E+01  0.280069311323E+01  0.258335504963E+01
  0.893831000000E+01  0.293018000000E+01  0.259920000000E+01
  0.372914886909E+01  0.285749239628E+01  0.325771603919E+01
  0.419403782054E+01  0.283919395678E+01  0.262529770221E+01
  0.471484139661E+01  0.295220686315E+01  0.257991918677E+01
  0.521111958621E+01  0.307991971186E+01  0.257669364659E+01
  0.569968480938E+01  0.321001107086E+01  0.257624657811E+01
  0.618801443916E+01  0.334011880644E+01  0.257756621650E+01
  0.667710893795E+01  0.347095456784E+01  0.257874349991E+01
  0.716711293207E+01  0.360220477299E+01  0.257969731644E+01
  0.765825218305E+01  0.373345864661E+01  0.258115214298E+01
  0.815188884598E+01  0.386604056429E+01  0.258310916812E+01
  0.865040000000E+01  0.400468000000E+01  0.259920000000E+01
  0.342089627209E+01  0.414435131160E+01  0.293082795189E+01
  0.396333471041E+01  0.388148591914E+01  0.236546048599E+01
  0.448594471800E+01  0.398972945668E+01  0.233821012904E+01
  0.496690684537E+01  0.412247471842E+01  0.234139409056E+01
  0.545003350378E+01  0.425010178937E+01  0.234187450144E+01
  0.593428454276E+01  0.437975000726E+01  0.234274007109E+01
  0.641973654048E+01  0.450967139090E+01  0.234317589429E+01
  0.690585457498E+01  0.463987926655E+01  0.234337891245E+01
  0.739211473773E+01  0.477059127842E+01  0.234367953271E+01
  0.787910781746E+01  0.489939882230E+01  0.234313992557E+01
  0.837263000000E+01  0.504132000000E+01  0.235170000000E+01
  0.312717000000E+01  0.529913000000E+01  0.235114000000E+01
  0.377764000000E+01  0.480338000000E+01  0.188091000000E+01
  0.426060000000E+01  0.493279000000E+01  0.188091000000E+01
  0.474357000000E+01  0.506220000000E+01  0.188091000000E+01
  0.522653000000E+01  0.519161000000E+01  0.188091000000E+01
  0.570949000000E+01  0.532102000000E+01  0.188091000000E+01
  0.619246000000E+01  0.545043000000E+01  0.188091000000E+01
  0.667542000000E+01  0.557984000000E+01  0.188091000000E+01
  0.715838000000E+01  0.570925000000E+01  0.188091000000E+01
  0.764135000000E+01  0.583866000000E+01  0.188091000000E+01
  0.812431000000E+01  0.596807000000E+01  0.188091000000E+01
  0.469677000000E+01 -0.558718000000E+00  0.282843000000E+01
  0.503333000000E+01  0.117102000000E+00  0.226274000000E+01
  0.551629000000E+01  0.246512000000E+00  0.226274000000E+01
  0.599925000000E+01  0.375921000000E+00  0.226274000000E+01
  0.648222000000E+01  0.505331000000E+00  0.226274000000E+01
  0.696518000000E+01  0.634740000000E+00  0.226274000000E+01
  0.744814000000E+01  0.764150000000E+00  0.226274000000E+01
  0.793110000000E+01  0.893559000000E+00  0.226274000000E+01
  0.841407000000E+01  0.102297000000E+01  0.226274000000E+01
  0.889703000000E+01  0.115238000000E+01  0.226274000000E+01
  0.937999000000E+01  0.128179000000E+01  0.226274000000E+01
  0.443473000000E+01  0.419249000000E+00  0.356403000000E+01
  0.482369000000E+01  0.899475000000E+00  0.285122000000E+01
  0.530665000000E+01  0.102888000000E+01  0.285122000000E+01
  0.578962000000E+01  0.115829000000E+01  0.285122000000E+01
  0.627258000000E+01  0.128770000000E+01  0.285122000000E+01
  0.675554000000E+01  0.141711000000E+01  0.285122000000E+01
  0.723851000000E+01  0.154652000000E+01  0.285122000000E+01
  0.772147000000E+01  0.167593000000E+01  0.285122000000E+01
  0.820443000000E+01  0.180534000000E+01  0.285122000000E+01
  0.868739000000E+01  0.193475000000E+01  0.285122000000E+01
  0.917036000000E+01  0.206416000000E+01  0.285122000000E+01
  0.412668000000E+01  0.156892000000E+01  0.395075000000E+01
  0.457725000000E+01  0.181921000000E+01  0.316060000000E+01
  0.506021000000E+01  0.194862000000E+01  0.316060000000E+01
  0.554317000000E+01  0.207803000000E+01  0.316060000000E+01
  0.602614000000E+01  0.220744000000E+01  0.316060000000E+01
  0.650910000000E+01  0.233685000000E+01  0.316060000000E+01
  0.699206000000E+01  0.246626000000E+01  0.316060000000E+01
  0.747503000000E+01  0.259567000000E+01  0.316060000000E+01
  0.795799000000E+01  0.272508000000E+01  0.316060000000E+01
  0.844095000000E+01  0.285449000000E+01  0.316060000000E+01
  0.892392000000E+01  0.298390000000E+01  0.316060000000E+01
  0.380277000000E+01  0.277775000000E+01  0.395075000000E+01
  0.431812000000E+01  0.278628000000E+01  0.316060000000E+01
  0.480109000000E+01  0.291569000000E+01  0.316060000000E+01
  0.528405000000E+01  0.304509000000E+01  0.316060000000E+01
  0.576701000000E+01  0.317450000000E+01  0.316060000000E+01
  0.624998000000E+01  0.330391000000E+01  0.316060000000E+01
  0.673294000000E+01  0.343332000000E+01  0.316060000000E+01
  0.721590000000E+01  0.356273000000E+01  0.316060000000E+01
  0.769886000000E+01  0.369214000000E+01  0.316060000000E+01
  0.818183000000E+01  0.382155000000E+01  0.316060000000E+01
  0.866479000000E+01  0.395096000000E+01  0.316060000000E+01
  0.349472000000E+01  0.392742000000E+01  0.356403000000E+01
  0.407168000000E+01  0.370601000000E+01  0.285122000000E+01
  0.455465000000E+01  0.383542000000E+01  0.285122000000E+01
  0.503761000000E+01  0.396483000000E+01  0.285122000000E+01
  0.552057000000E+01  0.409424000000E+01  0.285122000000E+01
  0.600353000000E+01  0.422365000000E+01  0.285122000000E+01
  0.648650000000E+01  0.435306000000E+01  0.285122000000E+01
  0.696946000000E+01  0.448247000000E+01  0.285122000000E+01
  0.745242000000E+01  0.461188000000E+01  0.285122000000E+01
  0.793539000000E+01  0.474129000000E+01  0.285122000000E+01
  0.841835000000E+01  0.487070000000E+01  0.285122000000E+01
  0.323267000000E+01  0.490538000000E+01  0.282843000000E+01
  0.386205000000E+01  0.448838000000E+01  0.226274000000E+01
  0.434501000000E+01  0.461779000000E+01  0.226274000000E+01
  0.482797000000E+01  0.474720000000E+01  0.226274000000E+01
  0.531093000000E+01  0.487661000000E+01  0.226274000000E+01
  0.579390000000E+01  0.500602000000E+01  0.226274000000E+01
  0.627686000000E+01  0.513543000000E+01  0.226274000000E+01
  0.675982000000E+01  0.526484000000E+01  0.226274000000E+01
  0.724279000000E+01  0.539425000000E+01  0.226274000000E+01
  0.772575000000E+01  0.552366000000E+01  0.226274000000E+01
  0.820871000000E+01  0.565307000000E+01  0.226274000000E+01
  0.560370000000E+01 -0.185213000000E+01  0.275546000000E-15
  0.620741000000E+01 -0.201389000000E+01  0.275546000000E-15
  0.681111000000E+01 -0.217566000000E+01  0.275546000000E-15
  0.741481000000E+01 -0.233742000000E+01  0.275546000000E-15
  0.801852000000E+01 -0.249918000000E+01  0.275546000000E-15
  0.862222000000E+01 -0.266094000000E+01  0.275546000000E-15
  0.922593000000E+01 -0.282270000000E+01  0.275546000000E-15
  0.982963000000E+01 -0.298447000000E+01  0.275546000000E-15
  0.453889127876E+01 -0.253182143338E+01  0.220436000000E-15
  0.515220146981E+01 -0.268003126887E+01  0.220436000000E-15
  0.579415957480E+01 -0.285230475197E+01  0.220436000000E-15
  0.643781661528E+01 -0.302262598606E+01  0.220436000000E-15
  0.707596213485E+01 -0.319280691092E+01  0.220436000000E-15
  0.770926547684E+01 -0.336196096671E+01  0.220436000000E-15
  0.833943313723E+01 -0.353024683909E+01  0.220436000000E-15
  0.896725449521E+01 -0.369904521797E+01  0.220436000000E-15
  0.959669000000E+01 -0.385380000000E+01  0.220436000000E-15
  0.419956381314E+01 -0.337905303808E+01  0.165327000000E-15
  0.482294335615E+01 -0.352119487040E+01  0.165327000000E-15
  0.547980131954E+01 -0.368963867770E+01  0.165327000000E-15
  0.613997228325E+01 -0.386484226566E+01  0.165327000000E-15
  0.679504124228E+01 -0.404035540199E+01  0.165327000000E-15
  0.744466608454E+01 -0.421467315932E+01  0.165327000000E-15
  0.809008231264E+01 -0.438800286580E+01  0.165327000000E-15
  0.873164776227E+01 -0.455962700271E+01  0.165327000000E-15
  0.936375000000E+01 -0.472313000000E+01  0.165327000000E-15
  0.397142635148E+01 -0.425449216742E+01  0.110218000000E-15
  0.460320416792E+01 -0.437726395750E+01  0.110218000000E-15
  0.526156100044E+01 -0.454376136118E+01  0.110218000000E-15
  0.591858911293E+01 -0.471950542914E+01  0.110218000000E-15
  0.657076832897E+01 -0.489536261171E+01  0.110218000000E-15
  0.721816281854E+01 -0.507010623679E+01  0.110218000000E-15
  0.786211755640E+01 -0.524347343657E+01  0.110218000000E-15
  0.850241370622E+01 -0.541642015375E+01  0.110218000000E-15
  0.913082000000E+01 -0.559247000000E+01  0.110218000000E-15
  0.385009461582E+01 -0.514661935027E+01  0.551091000000E-16
  0.449484238195E+01 -0.526400634947E+01  0.551091000000E-16
  0.513147687108E+01 -0.543463388197E+01  0.551091000000E-16
  0.576558166269E+01 -0.560434457014E+01  0.551091000000E-16
  0.639593747275E+01 -0.577473251402E+01  0.551091000000E-16
  0.702396973366E+01 -0.594408909509E+01  0.551091000000E-16
  0.765055019995E+01 -0.611304453824E+01  0.551091000000E-16
  0.827650367000E+01 -0.628065538768E+01  0.551091000000E-16
  0.889788000000E+01 -0.646180000000E+01  0.551091000003E-16
  0.383531000000E+01 -0.603704000000E+01  0.871671050740E-27
  0.443902000000E+01 -0.619880000000E+01  0.211107476250E-27
  0.504272000000E+01 -0.636056000000E+01  0.251320829648E-27
  0.564643000000E+01 -0.652232000000E+01  0.241777648615E-27
  0.625013000000E+01 -0.668408000000E+01  0.230460299948E-27
  0.685383000000E+01 -0.684585000000E+01  0.219732793360E-27
  0.745754000000E+01 -0.700761000000E+01  0.211913578632E-27
  0.806124000000E+01 -0.716937000000E+01  0.194410824021E-27
  0.866494000000E+01 -0.733113000000E+01  0.701508886500E-28
  0.499283000000E+01 -0.171713000000E+01  0.351978000000E+00
  0.559653000000E+01 -0.187889000000E+01  0.351978000000E+00
  0.620024000000E+01 -0.204065000000E+01  0.351978000000E+00
  0.680394000000E+01 -0.220241000000E+01  0.351978000000E+00
  0.740764000000E+01 -0.236418000000E+01  0.351978000000E+00
  0.801135000000E+01 -0.252594000000E+01  0.351978000000E+00
  0.861505000000E+01 -0.268770000000E+01  0.351978000000E+00
  0.921876000000E+01 -0.284946000000E+01  0.351978000000E+00
  0.982246000000E+01 -0.301122000000E+01  0.351978000000E+00
  0.455779829024E+01 -0.253544191417E+01  0.461315617093E+00
  0.517329357364E+01 -0.268810271378E+01  0.426457584989E+00
  0.581093333987E+01 -0.285822835193E+01  0.421547010323E+00
  0.644928186760E+01 -0.302750509232E+01  0.423761467167E+00
  0.708328016773E+01 -0.319678981264E+01  0.426495160638E+00
  0.771353359262E+01 -0.336531563671E+01  0.428238336785E+00
  0.834142167577E+01 -0.353313321490E+01  0.429228755646E+00
  0.896749883819E+01 -0.370156904636E+01  0.430152306038E+00
  0.959585000000E+01 -0.385693000000E+01  0.434732000000E+00
  0.422416742270E+01 -0.337861524077E+01  0.513604391055E+00
  0.484879203060E+01 -0.352576747536E+01  0.469425247433E+00
  0.550146572085E+01 -0.369381378939E+01  0.461825258160E+00
  0.615600736937E+01 -0.386750450691E+01  0.462255308827E+00
  0.680595983315E+01 -0.404162422869E+01  0.465094731456E+00
  0.745145663900E+01 -0.421481402907E+01  0.467361994825E+00
  0.809366507782E+01 -0.438730965534E+01  0.469143805139E+00
  0.873299522800E+01 -0.455839833783E+01  0.471985345652E+00
  0.936407000000E+01 -0.472196000000E+01  0.478239000000E+00
  0.399310883135E+01 -0.425624638816E+01  0.509393351769E+00
  0.462568656401E+01 -0.438429652040E+01  0.471382743014E+00
  0.528018820562E+01 -0.455109113863E+01  0.462389781065E+00
  0.593233701345E+01 -0.472547646856E+01  0.463315100916E+00
  0.658003631699E+01 -0.489993320028E+01  0.465835516191E+00
  0.722369474520E+01 -0.507349425583E+01  0.467861305113E+00
  0.786471039590E+01 -0.524594463388E+01  0.469448497163E+00
  0.850291393625E+01 -0.541820771911E+01  0.472146884304E+00
  0.913050000000E+01 -0.559364000000E+01  0.478239000000E+00
  0.386621409717E+01 -0.514357181875E+01  0.455052945270E+00
  0.451073199578E+01 -0.526580257628E+01  0.427694455191E+00
  0.514427079409E+01 -0.543643569036E+01  0.425123418277E+00
  0.577517269160E+01 -0.560517988039E+01  0.426584352859E+00
  0.640283832794E+01 -0.577459481380E+01  0.428289346244E+00
  0.702866835025E+01 -0.594317484524E+01  0.429301823359E+00
  0.765343332508E+01 -0.611148466147E+01  0.429862544840E+00
  0.827790937561E+01 -0.627856928397E+01  0.430499505220E+00
  0.889872000000E+01 -0.645867000000E+01  0.434732000000E+00
  0.384248000000E+01 -0.601028000000E+01  0.351978000000E+00
  0.444619000000E+01 -0.617204000000E+01  0.351978000000E+00
  0.504989000000E+01 -0.633380000000E+01  0.351978000000E+00
  0.565359000000E+01 -0.649556000000E+01  0.351978000000E+00
  0.625730000000E+01 -0.665733000000E+01  0.351978000000E+00
  0.686100000000E+01 -0.681909000000E+01  0.351978000000E+00
  0.746471000000E+01 -0.698085000000E+01  0.351978000000E+00
  0.806841000000E+01 -0.714261000000E+01  0.351978000000E+00
  0.867211000000E+01 -0.730437000000E+01  0.351978000000E+00
  0.497150000000E+01 -0.179674000000E+01  0.695288000000E+00
  0.557520000000E+01 -0.195850000000E+01  0.695288000000E+00
  0.617891000000E+01 -0.212026000000E+01  0.695288000000E+00
  0.678261000000E+01 -0.228203000000E+01  0.695288000000E+00
  0.738631000000E+01 -0.244379000000E+01  0.695288000000E+00
  0.799002000000E+01 -0.260555000000E+01  0.695288000000E+00
  0.859372000000E+01 -0.276731000000E+01  0.695288000000E+00
  0.919742000000E+01 -0.292907000000E+01  0.695288000000E+00
  0.980113000000E+01 -0.309084000000E+01  0.695288000000E+00
  0.459564061516E+01 -0.257192233737E+01  0.901751990959E+00
  0.521729559940E+01 -0.273500917770E+01  0.847151507232E+00
  0.584402545714E+01 -0.289982602732E+01  0.840216897789E+00
  0.646940499760E+01 -0.306644899747E+01  0.843872344104E+00
  0.709342883511E+01 -0.323343759418E+01  0.847994867939E+00
  0.771646944255E+01 -0.340055470914E+01  0.850487445900E+00
  0.833888483602E+01 -0.356720645929E+01  0.851859670004E+00
  0.896070722010E+01 -0.373472402333E+01  0.853098152143E+00
  0.958652000000E+01 -0.389178000000E+01  0.860798000000E+00
  0.428476349401E+01 -0.339091820085E+01  0.100421617895E+01
  0.491350909073E+01 -0.355056961576E+01  0.932386763212E+00
  0.555546166337E+01 -0.371730781228E+01  0.921139268110E+00
  0.619532547407E+01 -0.388688805651E+01  0.922465023706E+00
  0.683179867762E+01 -0.405729571986E+01  0.927009163768E+00
  0.746642211397E+01 -0.422761424444E+01  0.930323685578E+00
  0.810013783177E+01 -0.439792259978E+01  0.932817163437E+00
  0.873330470804E+01 -0.456747763270E+01  0.937111339858E+00
  0.936155000000E+01 -0.473135000000E+01  0.947812000000E+00
  0.405363370998E+01 -0.424892580307E+01  0.998553852199E+00
  0.468888473813E+01 -0.439083958038E+01  0.935298048722E+00
  0.533340510375E+01 -0.455800395627E+01  0.921745244825E+00
  0.597257108914E+01 -0.472894706730E+01  0.923903943437E+00
  0.660822742167E+01 -0.489974237499E+01  0.928035640986E+00
  0.724202451376E+01 -0.507019884531E+01  0.931040099104E+00
  0.787515631889E+01 -0.524017740089E+01  0.933267324986E+00
  0.850758769614E+01 -0.541060047440E+01  0.937355733861E+00
  0.913302000000E+01 -0.558424000000E+01  0.947812000000E+00
  0.391320339208E+01 -0.510884036762E+01  0.893708596487E+00
  0.455735660439E+01 -0.524350727594E+01  0.848601604055E+00
  0.518302703886E+01 -0.541361648236E+01  0.845257942016E+00
  0.580580108230E+01 -0.557994938936E+01  0.847890698488E+00
  0.642672421123E+01 -0.574710463112E+01  0.850611882002E+00
  0.704732735229E+01 -0.591374551998E+01  0.852080752906E+00
  0.766767593639E+01 -0.608054716689E+01  0.852843030892E+00
  0.828845088737E+01 -0.624642729770E+01  0.853655874389E+00
  0.890806000000E+01 -0.642382000000E+01  0.860798000000E+00
  0.386382000000E+01 -0.593067000000E+01  0.695288000000E+00
  0.446752000000E+01 -0.609243000000E+01  0.695288000000E+00
  0.507122000000E+01 -0.625419000000E+01  0.695288000000E+00
  0.567493000000E+01 -0.641595000000E+01  0.695288000000E+00
  0.627863000000E+01 -0.657771000000E+01  0.695288000000E+00
  0.688233000000E+01 -0.673948000000E+01  0.695288000000E+00
  0.748604000000E+01 -0.690124000000E+01  0.695288000000E+00
  0.808974000000E+01 -0.706300000000E+01  0.695288000000E+00
  0.869345000000E+01 -0.722476000000E+01  0.695288000000E+00
  0.493653000000E+01 -0.192725000000E+01  0.102148000000E+01
  0.554023000000E+01 -0.208901000000E+01  0.102148000000E+01
  0.614394000000E+01 -0.225077000000E+01  0.102148000000E+01
  0.674764000000E+01 -0.241254000000E+01  0.102148000000E+01
  0.735134000000E+01 -0.257430000000E+01  0.102148000000E+01
  0.795505000000E+01 -0.273606000000E+01  0.102148000000E+01
  0.855875000000E+01 -0.289782000000E+01  0.102148000000E+01
  0.916245000000E+01 -0.305958000000E+01  0.102148000000E+01
  0.976616000000E+01 -0.322134000000E+01  0.102148000000E+01
  0.463671562146E+01 -0.264293379713E+01  0.130807676869E+01
  0.526535878267E+01 -0.281489454911E+01  0.125507618474E+01
  0.587831502321E+01 -0.297388849645E+01  0.125035459410E+01
  0.648824166075E+01 -0.313665281645E+01  0.125403614010E+01
  0.710124667621E+01 -0.330148522908E+01  0.125747742408E+01
  0.771597575997E+01 -0.346675286392E+01  0.125957217172E+01
  0.833115394032E+01 -0.363196914426E+01  0.126060436872E+01
  0.894710638888E+01 -0.379787473331E+01  0.126129993510E+01
  0.956900000000E+01 -0.395716000000E+01  0.126974000000E+01
  0.436326050082E+01 -0.341967635553E+01  0.145598561982E+01
  0.499848440747E+01 -0.359132192708E+01  0.138167037283E+01
  0.562559590034E+01 -0.375558609489E+01  0.137385279448E+01
  0.624526812608E+01 -0.391924349033E+01  0.137614652611E+01
  0.686470072339E+01 -0.408529876833E+01  0.138025042084E+01
  0.748561961824E+01 -0.425202501712E+01  0.138297876555E+01
  0.810781653530E+01 -0.441946269480E+01  0.138475424585E+01
  0.873238928257E+01 -0.458676511606E+01  0.138828879768E+01
  0.935631000000E+01 -0.475093000000E+01  0.140026000000E+01
  0.413900851397E+01 -0.423632471736E+01  0.145214946817E+01
  0.477822128508E+01 -0.439404143834E+01  0.138417492130E+01
  0.540874043411E+01 -0.456031150278E+01  0.137388521607E+01
  0.602893939489E+01 -0.472658407577E+01  0.137718455248E+01
  0.664885045914E+01 -0.489256373181E+01  0.138102653062E+01
  0.726983805908E+01 -0.505909793728E+01  0.138356060996E+01
  0.789208244586E+01 -0.522568920779E+01  0.138514239247E+01
  0.851626927496E+01 -0.539364144538E+01  0.138850812318E+01
  0.913827000000E+01 -0.556467000000E+01  0.140026000000E+01
  0.398216968864E+01 -0.504597978383E+01  0.130336888686E+01
  0.462564893340E+01 -0.519553282071E+01  0.125540345344E+01
  0.524029054770E+01 -0.536372326356E+01  0.125430056114E+01
  0.585142856613E+01 -0.552736533894E+01  0.125730012576E+01
  0.646439871817E+01 -0.569147063748E+01  0.125972175245E+01
  0.707842077972E+01 -0.585592026856E+01  0.126102085467E+01
  0.769268112218E+01 -0.602052578400E+01  0.126155354130E+01
  0.830807036520E+01 -0.618492487095E+01  0.126187550198E+01
  0.892558000000E+01 -0.635843000000E+01  0.126974000000E+01
  0.389879000000E+01 -0.580016000000E+01  0.102148000000E+01
  0.450249000000E+01 -0.596192000000E+01  0.102148000000E+01
  0.510619000000E+01 -0.612368000000E+01  0.102148000000E+01
  0.570990000000E+01 -0.628544000000E+01  0.102148000000E+01
  0.631360000000E+01 -0.644720000000E+01  0.102148000000E+01
  0.691730000000E+01 -0.660897000000E+01  0.102148000000E+01
  0.752101000000E+01 -0.677073000000E+01  0.102148000000E+01
  0.812471000000E+01 -0.693249000000E+01  0.102148000000E+01
  0.872841000000E+01 -0.709425000000E+01  0.102148000000E+01
  0.488878000000E+01 -0.210544000000E+01  0.132252000000E+01
  0.549249000000E+01 -0.226720000000E+01  0.132252000000E+01
  0.609619000000E+01 -0.242896000000E+01  0.132252000000E+01
  0.669989000000E+01 -0.259073000000E+01  0.132252000000E+01
  0.730360000000E+01 -0.275249000000E+01  0.132252000000E+01
  0.790730000000E+01 -0.291425000000E+01  0.132252000000E+01
  0.851100000000E+01 -0.307601000000E+01  0.132252000000E+01
  0.911471000000E+01 -0.323777000000E+01  0.132252000000E+01
  0.971841000000E+01 -0.339954000000E+01  0.132252000000E+01
  0.466680238182E+01 -0.275043589270E+01  0.167597999825E+01
  0.530017549789E+01 -0.291974228755E+01  0.164291865631E+01
  0.589668332013E+01 -0.307353420862E+01  0.164297181838E+01
  0.649711302781E+01 -0.323617987917E+01  0.164457193220E+01
  0.710264488524E+01 -0.339909312193E+01  0.164621841337E+01
  0.771053983311E+01 -0.356266514395E+01  0.164717998008E+01
  0.831917420593E+01 -0.372575607892E+01  0.164777854416E+01
  0.892670230414E+01 -0.388971839751E+01  0.164743918836E+01
  0.954381000000E+01 -0.405116000000E+01  0.165354000000E+01
  0.444440819771E+01 -0.346813152750E+01  0.185976228549E+01
  0.508533047383E+01 -0.364209360257E+01  0.181235254149E+01
  0.568882201791E+01 -0.380023842907E+01  0.181341584227E+01
  0.629072545472E+01 -0.396070743665E+01  0.181399103627E+01
  0.689667600350E+01 -0.412356321605E+01  0.181596688765E+01
  0.750598607194E+01 -0.428715849403E+01  0.181699875674E+01
  0.811682794753E+01 -0.445132687111E+01  0.181781131540E+01
  0.872956908245E+01 -0.461574165146E+01  0.181848896474E+01
  0.934851000000E+01 -0.478004000000E+01  0.182756000000E+01
  0.423580976360E+01 -0.422251436736E+01  0.185927550001E+01
  0.487919916424E+01 -0.439080803262E+01  0.181316252635E+01
  0.548516925120E+01 -0.455351475668E+01  0.181303702551E+01
  0.608787255347E+01 -0.471431081207E+01  0.181439569677E+01
  0.669467900745E+01 -0.487637897503E+01  0.181627130635E+01
  0.730432295528E+01 -0.503966684769E+01  0.181726953254E+01
  0.791536839301E+01 -0.520324052989E+01  0.181800732709E+01
  0.852810333205E+01 -0.536755627621E+01  0.181860449185E+01
  0.914607000000E+01 -0.553555000000E+01  0.182756000000E+01
  0.406589340336E+01 -0.495820405989E+01  0.167449072070E+01
  0.470627187096E+01 -0.512138168633E+01  0.164230317255E+01
  0.530255936962E+01 -0.528603095691E+01  0.164481328861E+01
  0.590599313309E+01 -0.544570024715E+01  0.164608411498E+01
  0.651231633732E+01 -0.560770738871E+01  0.164741938224E+01
  0.712030787802E+01 -0.577026448682E+01  0.164801237236E+01
  0.772848238385E+01 -0.593346884409E+01  0.164836654227E+01
  0.833609574639E+01 -0.609531758912E+01  0.164783762021E+01
  0.895076000000E+01 -0.626444000000E+01  0.165354000000E+01
  0.394653000000E+01 -0.562197000000E+01  0.132252000000E+01
  0.455024000000E+01 -0.578373000000E+01  0.132252000000E+01
  0.515394000000E+01 -0.594549000000E+01  0.132252000000E+01
  0.575764000000E+01 -0.610725000000E+01  0.132252000000E+01
  0.636135000000E+01 -0.626901000000E+01  0.132252000000E+01
  0.696505000000E+01 -0.643078000000E+01  0.132252000000E+01
  0.756875000000E+01 -0.659254000000E+01  0.132252000000E+01
  0.817246000000E+01 -0.675430000000E+01  0.132252000000E+01
  0.877616000000E+01 -0.691606000000E+01  0.132252000000E+01
  0.482944000000E+01 -0.232692000000E+01  0.159099000000E+01
  0.543314000000E+01 -0.248869000000E+01  0.159099000000E+01
  0.603684000000E+01 -0.265045000000E+01  0.159099000000E+01
  0.664055000000E+01 -0.281221000000E+01  0.159099000000E+01
  0.724425000000E+01 -0.297397000000E+01  0.159099000000E+01
  0.784795000000E+01 -0.313573000000E+01  0.159099000000E+01
  0.845166000000E+01 -0.329750000000E+01  0.159099000000E+01
  0.905536000000E+01 -0.345926000000E+01  0.159099000000E+01
  0.965906000000E+01 -0.362102000000E+01  0.159099000000E+01
  0.468204000000E+01 -0.287703000000E+01  0.200476000000E+01
  0.528574000000E+01 -0.303879000000E+01  0.200476000000E+01
  0.588944000000E+01 -0.320055000000E+01  0.200476000000E+01
  0.649315000000E+01 -0.336232000000E+01  0.200476000000E+01
  0.709685000000E+01 -0.352408000000E+01  0.200476000000E+01
  0.770055000000E+01 -0.368584000000E+01  0.200476000000E+01
  0.830426000000E+01 -0.384760000000E+01  0.200476000000E+01
  0.890796000000E+01 -0.400936000000E+01  0.200476000000E+01
  0.951166000000E+01 -0.417113000000E+01  0.200476000000E+01
  0.450876000000E+01 -0.352372000000E+01  0.222230000000E+01
  0.511246000000E+01 -0.368548000000E+01  0.222230000000E+01
  0.571616000000E+01 -0.384724000000E+01  0.222230000000E+01
  0.631987000000E+01 -0.400900000000E+01  0.222230000000E+01
  0.692357000000E+01 -0.417077000000E+01  0.222230000000E+01
  0.752727000000E+01 -0.433253000000E+01  0.222230000000E+01
  0.813098000000E+01 -0.449429000000E+01  0.222230000000E+01
  0.873468000000E+01 -0.465605000000E+01  0.222230000000E+01
  0.933838000000E+01 -0.481781000000E+01  0.222230000000E+01
  0.432656000000E+01 -0.420369000000E+01  0.222230000000E+01
  0.493026000000E+01 -0.436545000000E+01  0.222230000000E+01
  0.553397000000E+01 -0.452721000000E+01  0.222230000000E+01
  0.613767000000E+01 -0.468897000000E+01  0.222230000000E+01
  0.674137000000E+01 -0.485074000000E+01  0.222230000000E+01
  0.734508000000E+01 -0.501250000000E+01  0.222230000000E+01
  0.794878000000E+01 -0.517426000000E+01  0.222230000000E+01
  0.855248000000E+01 -0.533602000000E+01  0.222230000000E+01
  0.915619000000E+01 -0.549778000000E+01  0.222230000000E+01
  0.415328000000E+01 -0.485038000000E+01  0.200476000000E+01
  0.475698000000E+01 -0.501214000000E+01  0.200476000000E+01
  0.536069000000E+01 -0.517390000000E+01  0.200476000000E+01
  0.596439000000E+01 -0.533566000000E+01  0.200476000000E+01
  0.656809000000E+01 -0.549742000000E+01  0.200476000000E+01
  0.717180000000E+01 -0.565919000000E+01  0.200476000000E+01
  0.777550000000E+01 -0.582095000000E+01  0.200476000000E+01
  0.837920000000E+01 -0.598271000000E+01  0.200476000000E+01
  0.898291000000E+01 -0.614447000000E+01  0.200476000000E+01
  0.400588000000E+01 -0.540048000000E+01  0.159099000000E+01
  0.460958000000E+01 -0.556224000000E+01  0.159099000000E+01
  0.521329000000E+01 -0.572401000000E+01  0.159099000000E+01
  0.581699000000E+01 -0.588577000000E+01  0.159099000000E+01
  0.642069000000E+01 -0.604753000000E+01  0.159099000000E+01
  0.702440000000E+01 -0.620929000000E+01  0.159099000000E+01
  0.762810000000E+01 -0.637105000000E+01  0.159099000000E+01
  0.823180000000E+01 -0.653282000000E+01  0.159099000000E+01
  0.883551000000E+01 -0.669458000000E+01  0.159099000000E+01
 -0.137054057723E+02 -0.401658924059E+01  0.000000000000E+00
 -0.121715302715E+02 -0.619089990459E+01  0.000000000000E+00
 -0.101642451922E+02 -0.771771595427E+01  0.000000000000E+00
 -0.815119348691E+01 -0.867266461620E+01  0.000000000000E+00
 -0.612915577853E+01 -0.925776572123E+01  0.000000000000E+00
 -0.409816676700E+01 -0.957966002154E+01  0.000000000000E+00
 -0.206201869284E+01 -0.965994074555E+01  0.000000000000E+00
 -0.333088478672E-01 -0.950684277651E+01  0.000000000000E+00
  0.130530123748E+01 -0.906647647195E+01  0.000000000000E+00
  0.264934000000E+01 -0.852255000000E+01  0.000000000000E+00
 -0.137065540569E+02 -0.396763920707E+01  0.636250847819E+00
 -0.121733928939E+02 -0.611780270439E+01  0.982805711848E+00
 -0.101670214945E+02 -0.762456713994E+01  0.122316701784E+01
 -0.815178364977E+01 -0.857006148535E+01  0.137059040748E+01
 -0.612958183920E+01 -0.915028650748E+01  0.146309013276E+01
 -0.409793378256E+01 -0.946800080952E+01  0.151049596453E+01
 -0.206205852160E+01 -0.954616120268E+01  0.152155151571E+01
 -0.329809457472E-01 -0.939216057952E+01  0.149836181457E+01
  0.131150036277E+01 -0.896660274486E+01  0.136426285480E+01
  0.265940000000E+01 -0.845929000000E+01  0.902720581447E+00
 -0.137092276730E+02 -0.382172948728E+01  0.125840757626E+01
 -0.121767443335E+02 -0.589503330627E+01  0.194164612651E+01
 -0.101718452004E+02 -0.734585527488E+01  0.241147966995E+01
 -0.815409952369E+01 -0.826100937613E+01  0.270197669012E+01
 -0.613022784490E+01 -0.882518933801E+01  0.288157274780E+01
 -0.409767033934E+01 -0.913071031696E+01  0.297771150981E+01
 -0.206204729323E+01 -0.920423141530E+01  0.300205724377E+01
 -0.322962747523E-01 -0.904982270833E+01  0.295730334244E+01
  0.133075731483E+01 -0.866931797903E+01  0.269264719546E+01
  0.268944000000E+01 -0.827083000000E+01  0.178619492939E+01
 -0.137125861328E+02 -0.358184238534E+01  0.184709094886E+01
 -0.121802949147E+02 -0.552590544016E+01  0.284905753966E+01
 -0.101767681600E+02 -0.689048888402E+01  0.353544503999E+01
 -0.815748679697E+01 -0.774985944853E+01  0.395994158762E+01
 -0.613071529432E+01 -0.828090844632E+01  0.422130050834E+01
 -0.409716608953E+01 -0.856610862171E+01  0.436577433427E+01
 -0.206208777213E+01 -0.863409426877E+01  0.440420251115E+01
 -0.316713778353E-01 -0.848837410130E+01  0.434202577213E+01
  0.136179281835E+01 -0.818439039337E+01  0.395195108294E+01
  0.273896000000E+01 -0.796106000000E+01  0.263037645141E+01
 -0.137154390391E+02 -0.325377405755E+01  0.238882597525E+01
 -0.121840270589E+02 -0.502136485670E+01  0.368415035070E+01
 -0.101816150031E+02 -0.626686139199E+01  0.456910051625E+01
 -0.816040802866E+01 -0.704871247563E+01  0.511562883579E+01
 -0.613114938257E+01 -0.753565622326E+01  0.545713859006E+01
 -0.409673431428E+01 -0.779862944475E+01  0.564343043075E+01
 -0.206182663676E+01 -0.785869630816E+01  0.569367690143E+01
 -0.316303724633E-01 -0.772281730644E+01  0.561547143901E+01
  0.140228021702E+01 -0.752515874545E+01  0.511189935927E+01
  0.280715000000E+01 -0.753640000000E+01  0.341693130610E+01
 -0.137174868995E+02 -0.284606652968E+01  0.287123726574E+01
 -0.121887239557E+02 -0.439323177260E+01  0.442835400984E+01
 -0.101881364198E+02 -0.548676741877E+01  0.548895143939E+01
 -0.816528357124E+01 -0.617693911662E+01  0.614490490017E+01
 -0.613622691602E+01 -0.660440863459E+01  0.655546887616E+01
 -0.409948736734E+01 -0.683315721180E+01  0.677881403721E+01
 -0.206057177002E+01 -0.688448889949E+01  0.683930741015E+01
 -0.242543591071E-01 -0.676292895013E+01  0.674719540837E+01
  0.145022616503E+01 -0.670753998237E+01  0.614671547185E+01
  0.289295000000E+01 -0.700555000000E+01  0.413017690415E+01
 -0.137181886225E+02 -0.236737954445E+01  0.328311112871E+01
 -0.121960151224E+02 -0.365757803642E+01  0.506186943746E+01
 -0.101928738585E+02 -0.457303622349E+01  0.627184988735E+01
 -0.817023944111E+01 -0.514995671022E+01  0.702477775971E+01
 -0.614234805689E+01 -0.550571383137E+01  0.749632894746E+01
 -0.410172093189E+01 -0.569622585038E+01  0.775279660156E+01
 -0.205905136224E+01 -0.573636325131E+01  0.782290784465E+01
 -0.174319348819E-01 -0.563265123890E+01  0.771693118257E+01
  0.151849213718E+01 -0.571406684627E+01  0.706264947072E+01
  0.303424000000E+01 -0.614055000000E+01  0.495336904578E+01
 -0.137179292521E+02 -0.183051541279E+01  0.361381486038E+01
 -0.122006388637E+02 -0.283149419768E+01  0.557003853751E+01
 -0.101981915717E+02 -0.354359464997E+01  0.689785829924E+01
 -0.817260868782E+01 -0.399338402643E+01  0.772609465515E+01
 -0.614154652510E+01 -0.427456248436E+01  0.824773968772E+01
 -0.410033912684E+01 -0.442080392043E+01  0.853704135798E+01
 -0.206034156401E+01 -0.444932724857E+01  0.861716291869E+01
 -0.139136034263E-01 -0.436370528607E+01  0.849795329295E+01
  0.159042620789E+01 -0.459374487557E+01  0.780073987732E+01
  0.320142000000E+01 -0.513372000000E+01  0.558647150143E+01
 -0.137185732849E+02 -0.124842445926E+01  0.385533400249E+01
 -0.122025538494E+02 -0.193376410935E+01  0.594112645511E+01
 -0.102037256694E+02 -0.242227460036E+01  0.735567587447E+01
 -0.817698169881E+01 -0.272958303723E+01  0.823435534671E+01
 -0.613936816826E+01 -0.292565484695E+01  0.878518231007E+01
 -0.409821343820E+01 -0.303150470135E+01  0.909114614916E+01
 -0.205508689840E+01 -0.305233591104E+01  0.918516432351E+01
 -0.181408362810E-01 -0.298674815540E+01  0.906541773349E+01
  0.166581116832E+01 -0.337451750512E+01  0.833864646781E+01
  0.339046000000E+01 -0.402099000000E+01  0.600289165537E+01
 -0.137190126870E+02 -0.635649579856E+00  0.400152677011E+01
 -0.122038623593E+02 -0.986411699276E+00  0.616587384630E+01
 -0.102065914767E+02 -0.123806280048E+01  0.763311801198E+01
 -0.817942253563E+01 -0.139519356801E+01  0.854246424870E+01
 -0.614079740071E+01 -0.149450206595E+01  0.911398426573E+01
 -0.409700622143E+01 -0.154865706421E+01  0.942648553800E+01
 -0.205310021294E+01 -0.155986666646E+01  0.952199858135E+01
 -0.138317998272E-01 -0.152440214483E+01  0.940308098417E+01
  0.174645998501E+01 -0.208451748521E+01  0.866472104798E+01
  0.359729000000E+01 -0.284101000000E+01  0.618373962669E+01
 -0.137191631023E+02 -0.886145864097E-02  0.404931772035E+01
 -0.122034254126E+02 -0.140568579203E-01  0.623953819742E+01
 -0.102061842449E+02 -0.214904718255E-01  0.772376550117E+01
 -0.817916411252E+01 -0.256840935093E-01  0.864346775991E+01
 -0.614017435763E+01 -0.274438591851E-01  0.922172546598E+01
 -0.409697979615E+01 -0.265425363762E-01  0.953958354440E+01
 -0.205171067776E+01 -0.222362148306E-01  0.963598311049E+01
 -0.124146126741E-01 -0.199629363900E-01  0.951431688414E+01
  0.183106769293E+01 -0.754402614091E+00  0.877410127323E+01
  0.381812000000E+01 -0.163350000000E+01  0.611671206922E+01
 -0.137165456500E+02  0.618973084157E+00  0.399845108438E+01
 -0.122003892660E+02  0.957696728691E+00  0.616025605409E+01
 -0.102025962025E+02  0.119454712356E+01  0.762589201004E+01
 -0.817589734468E+01  0.134296266997E+01  0.853540007139E+01
 -0.613788395370E+01  0.143896613525E+01  0.910679699379E+01
 -0.409557552006E+01  0.149454998624E+01  0.942127347494E+01
 -0.205190383006E+01  0.151360445273E+01  0.951821206358E+01
 -0.152707703509E-01  0.148431936000E+01  0.940151216267E+01
  0.168468053620E+01  0.855366955904E+00  0.883035228783E+01
  0.346924000000E+01  0.119503000000E+00  0.683854482648E+01
 -0.137138136216E+02  0.123118062347E+01  0.384943289788E+01
 -0.121957926597E+02  0.190601318373E+01  0.592964193890E+01
 -0.101957097414E+02  0.237638748216E+01  0.734018967166E+01
 -0.816927993277E+01  0.267528625638E+01  0.821829064386E+01
 -0.613430841205E+01  0.286644054796E+01  0.877036813883E+01
 -0.409701364796E+01  0.297103192273E+01  0.908081657725E+01
 -0.205499404703E+01  0.299161903544E+01  0.917557737927E+01
 -0.145943351513E-01  0.294170252674E+01  0.905495882467E+01
  0.153793208640E+01  0.244440382148E+01  0.858990598625E+01
  0.311159000000E+01  0.194949000000E+01  0.703599809372E+01
 -0.137118237309E+02  0.181491004983E+01  0.360520076320E+01
 -0.121897867013E+02  0.280402070951E+01  0.555272256333E+01
 -0.101857203621E+02  0.349575770994E+01  0.687218569089E+01
 -0.816372179680E+01  0.393099813553E+01  0.769930916205E+01
 -0.613160038840E+01  0.420509917005E+01  0.821957686661E+01
 -0.409947077169E+01  0.435207916192E+01  0.850794053477E+01
 -0.205398343056E+01  0.438555300031E+01  0.858845265554E+01
 -0.139272994569E-01  0.431198597382E+01  0.847496399900E+01
  0.139790854096E+01  0.395576452703E+01  0.805535320898E+01
  0.276762000000E+01  0.373421000000E+01  0.672446775997E+01
 -0.137097084887E+02  0.235282208997E+01  0.327308806536E+01
 -0.121810828600E+02  0.363318317500E+01  0.503705705221E+01
 -0.101746832434E+02  0.451967522382E+01  0.622828385113E+01
 -0.815653938216E+01  0.507962215951E+01  0.697363793015E+01
 -0.612866632123E+01  0.543116137727E+01  0.744301274273E+01
 -0.409356460778E+01  0.562184515606E+01  0.770142241297E+01
 -0.205357562835E+01  0.566706146078E+01  0.777635465388E+01
 -0.192865222537E-01  0.557466194098E+01  0.767588322459E+01
  0.125991621829E+01  0.533860905454E+01  0.723595337098E+01
  0.245735000000E+01  0.536055000000E+01  0.593609121890E+01
 -0.137083282367E+02  0.283391426223E+01  0.286095532989E+01
 -0.121761484658E+02  0.437194463561E+01  0.440076475056E+01
 -0.101696703655E+02  0.543179381647E+01  0.544314765058E+01
 -0.814662359502E+01  0.610069336493E+01  0.609481461067E+01
 -0.612119265364E+01  0.652306230755E+01  0.650411652702E+01
 -0.408854677220E+01  0.675100068432E+01  0.672935930756E+01
 -0.205291520955E+01  0.680758608137E+01  0.679423115527E+01
 -0.284463375959E-01  0.669759721591E+01  0.670739870414E+01
  0.114533819585E+01  0.654778023065E+01  0.618622642215E+01
  0.219858000000E+01  0.672672000000E+01  0.475031651387E+01
 -0.137059903167E+02  0.324254904609E+01  0.237877547317E+01
 -0.121741104591E+02  0.500082841171E+01  0.365917727313E+01
 -0.101659046367E+02  0.620792226063E+01  0.452677756548E+01
 -0.814342723205E+01  0.696771496221E+01  0.506916432346E+01
 -0.611598449127E+01  0.744641274184E+01  0.541214756015E+01
 -0.408599973562E+01  0.770865643648E+01  0.560101521129E+01
 -0.205497776972E+01  0.777443275877E+01  0.565438340005E+01
 -0.285452919132E-01  0.765107541852E+01  0.557792933535E+01
  0.106946311790E+01  0.740526711299E+01  0.513991225437E+01
  0.208004000000E+01  0.735507000000E+01  0.393212995191E+01
 -0.137018943750E+02  0.357033769460E+01  0.183864695790E+01
 -0.121702644540E+02  0.550420606219E+01  0.282708888169E+01
 -0.101610559503E+02  0.682685295640E+01  0.349768554198E+01
 -0.814011754786E+01  0.765976493022E+01  0.391617909605E+01
 -0.611465630947E+01  0.818338869073E+01  0.417998820426E+01
 -0.408549955170E+01  0.846824626893E+01  0.432676102971E+01
 -0.205482499024E+01  0.854173461099E+01  0.436830908144E+01
 -0.271078485180E-01  0.840925650339E+01  0.430834005707E+01
  0.100514451892E+01  0.809655564526E+01  0.396891662865E+01
  0.198540000000E+01  0.785780000000E+01  0.302796129953E+01
 -0.136989619223E+02  0.381074500456E+01  0.125222189860E+01
 -0.121677993048E+02  0.587232539456E+01  0.192452448862E+01
 -0.101571564837E+02  0.727935798239E+01  0.238285522143E+01
 -0.813726385163E+01  0.816644432628E+01  0.266764043363E+01
 -0.611345608252E+01  0.872409395214E+01  0.284519090506E+01
 -0.408542405537E+01  0.902813742571E+01  0.294411446979E+01
 -0.205490471648E+01  0.910668190223E+01  0.297222640128E+01
 -0.275424381771E-01  0.896747641732E+01  0.293263249031E+01
  0.957225882670E+00  0.860649057304E+01  0.270128151538E+01
  0.191647000000E+01  0.822453000000E+01  0.205666064455E+01
 -0.136966225734E+02  0.395736177342E+01  0.633575099016E+00
 -0.121665789819E+02  0.609580052460E+01  0.973672130225E+00
 -0.101544825475E+02  0.755465219581E+01  0.120626760404E+01
 -0.813524817443E+01  0.847458828743E+01  0.135136286916E+01
 -0.611243463386E+01  0.905252149442E+01  0.144048303911E+01
 -0.408534307282E+01  0.936882684943E+01  0.149016921790E+01
 -0.205512947968E+01  0.945114121169E+01  0.150433862172E+01
 -0.287175887738E-01  0.930939743284E+01  0.148475061572E+01
  0.926166864160E+00  0.891826843676E+01  0.136750862964E+01
  0.187456000000E+01  0.844766000000E+01  0.103980332358E+01
 -0.136956380792E+02  0.400631979783E+01  0.000000000000E+00
 -0.121659754472E+02  0.617087299785E+01  0.000000000000E+00
 -0.101535574270E+02  0.764714047840E+01  0.000000000000E+00
 -0.813442211301E+01  0.857750057698E+01  0.000000000000E+00
 -0.611214468315E+01  0.916247404226E+01  0.000000000000E+00
 -0.408523272586E+01  0.948312539131E+01  0.000000000000E+00
 -0.205522991664E+01  0.956684268084E+01  0.000000000000E+00
 -0.293512632266E-01  0.942443825709E+01  0.000000000000E+00
  0.915890957500E+00  0.902311491831E+01  0.000000000000E+00
  0.186051000000E+01  0.852255000000E+01  0.000000000000E+00
 -0.140901681078E+02 -0.200656441672E+01  0.000000000000E+00
 -0.141301030732E+02 -0.160849125592E+01  0.000000000000E+00
 -0.141595287770E+02 -0.120846463487E+01  0.000000000000E+00
 -0.141799351142E+02 -0.808124091066E+00  0.000000000000E+00
 -0.141915372662E+02 -0.406940760057E+00  0.000000000000E+00
 -0.141947832075E+02 -0.551514810647E-02  0.000000000000E+00
 -0.141901267895E+02  0.395989740732E+00  0.000000000000E+00
 -0.141771974954E+02  0.797367802743E+00  0.000000000000E+00
 -0.141556776685E+02  0.119810236732E+01  0.000000000000E+00
 -0.141252995064E+02  0.159852631021E+01  0.000000000000E+00
 -0.140847735698E+02  0.199755585098E+01  0.000000000000E+00
 -0.140905277917E+02 -0.198177680121E+01  0.319358919789E+00
 -0.141277429428E+02 -0.159716045443E+01  0.355635435226E+00
 -0.141560858702E+02 -0.120563877842E+01  0.383043045587E+00
 -0.141757935990E+02 -0.808612667163E+00  0.400844830750E+00
 -0.141873274321E+02 -0.408013266643E+00  0.409508436816E+00
 -0.141907305062E+02 -0.548598265100E-02  0.408321311334E+00
 -0.141860051928E+02  0.397020392231E+00  0.409487743688E+00
 -0.141731642494E+02  0.797829165664E+00  0.400715641703E+00
 -0.141523097373E+02  0.119520787153E+01  0.382779673167E+00
 -0.141230518987E+02  0.158731295928E+01  0.355428426623E+00
 -0.140850196900E+02  0.197273220983E+01  0.319136291441E+00
 -0.140909739848E+02 -0.190828359718E+01  0.628238090693E+00
 -0.141224349164E+02 -0.154688142142E+01  0.700582313619E+00
 -0.141470518257E+02 -0.117316489767E+01  0.756721310051E+00
 -0.141645703616E+02 -0.789495488161E+00  0.795106427697E+00
 -0.141747528546E+02 -0.399083907029E+00  0.814362032867E+00
 -0.141784228115E+02 -0.544390580119E-02  0.813997610638E+00
 -0.141739497661E+02  0.388162953053E+00  0.814530342627E+00
 -0.141622498512E+02  0.778566364804E+00  0.795233470247E+00
 -0.141435202020E+02  0.116256465085E+01  0.756687672931E+00
 -0.141180384556E+02  0.153697555790E+01  0.700498219207E+00
 -0.140855515506E+02  0.189915936168E+01  0.628072534018E+00
 -0.140910951428E+02 -0.178842138561E+01  0.921394171086E+00
 -0.141145025484E+02 -0.145941198846E+01  0.103333950031E+01
 -0.141329609285E+02 -0.111247133258E+01  0.112083584104E+01
 -0.141459892436E+02 -0.751385644584E+00  0.118179411084E+01
 -0.141538387429E+02 -0.380643609183E+00  0.121460944480E+01
 -0.141580227518E+02 -0.525681031130E-02  0.121788855610E+01
 -0.141548089904E+02  0.369865685296E+00  0.121498201083E+01
 -0.141442402810E+02  0.740271154627E+00  0.118197233165E+01
 -0.141296269808E+02  0.110159233487E+01  0.112067876672E+01
 -0.141103772911E+02  0.144906851542E+01  0.103294553987E+01
 -0.140862120461E+02  0.177881167606E+01  0.920900397390E+00
 -0.140913063207E+02 -0.162498028312E+01  0.119201483085E+01
 -0.141037663072E+02 -0.133698577968E+01  0.134737058582E+01
 -0.141136267617E+02 -0.102548087699E+01  0.147049978122E+01
 -0.141204913383E+02 -0.695612463691E+00  0.155839459832E+01
 -0.141246777088E+02 -0.353529989026E+00  0.160842464000E+01
 -0.141265682954E+02 -0.527763243829E-02  0.161902387568E+01
 -0.141238412281E+02  0.342662476638E+00  0.160764794563E+01
 -0.141183635205E+02  0.684518246665E+00  0.155758383849E+01
 -0.141106264456E+02  0.101444397277E+01  0.146992951997E+01
 -0.140998757862E+02  0.132618445267E+01  0.134663822801E+01
 -0.140867659678E+02  0.161463102889E+01  0.119111816048E+01
 -0.140908833371E+02 -0.142141025834E+01  0.143253411443E+01
 -0.140905584544E+02 -0.118265218593E+01  0.163752699077E+01
 -0.140895537250E+02 -0.914248272150E+00  0.180209120976E+01
 -0.140881277549E+02 -0.623789653960E+00  0.192246383209E+01
 -0.140873610574E+02 -0.318323138789E+00  0.199585624020E+01
 -0.140869382019E+02 -0.552123273249E-02  0.202020712766E+01
 -0.140864389348E+02  0.307249641723E+00  0.199492434094E+01
 -0.140863675224E+02  0.612625605781E+00  0.192103706363E+01
 -0.140864569826E+02  0.903106134666E+00  0.180065665433E+01
 -0.140866255751E+02  0.117141760797E+01  0.163631423075E+01
 -0.140866913533E+02  0.141054629187E+01  0.143141067030E+01
CELLS       1130     10170
8      0      9     10      1     99    108    109    100
8     99    108    109    100    198    207    208    199
8    198    207    208    199    297    306    307    298
8    297    306    307    298    396    405    406    397
8    396    405    406    397    495    504    505    496
8      9     18     19     10    108    117    118    109
8    108    117    118    109    207    216    217    208
8    207    216    217    208    306    315    316    307
8    306    315    316    307    405    414    415    406
8    405    414    415    406    504    513    514    505
8     18     27     28     19    117    126    127    118
8    117    126    127    118    216    225    226    217
8    216    225    226    217    315    324    325    316
8    315    324    325    316    414    423    424    415
8    414    423    424    415    513    522    523    514
8     27     36     37     28    126    135    136    127
8    126    135    136    127    225    234    235    226
8    225    234    235    226    324    333    334    325
8    324    333    334    325    423    432    433    424
8    423    432    433    424    522    531    532    523
8     36     45     46     37    135    144    145    136
8    135    144    145    136    234    243    244    235
8    234    243    244    235    333    342    343    334
8    333    342    343    334    432    441    442    433
8    432    441    442    433    531    540    541    532
8     45     54     55     46    144    153    154    145
8    144    153    154    145    243    252    253    244
8    243    252    253    244    342    351    352    343
8    342    351    352    343    441    450    451    442
8    441    450    451    442    540    549    550    541
8     54     63     64     55    153    162    163    154
8    153    162    163    154    252    261    262    253
8    252    261    262    253    351    360    361    352
8    351    360    361    352    450    459    460    451
8    450    459    460    451    549    558    559    550
8     63     72     73     64    162    171    172    163
8    162    171    172    163    261    270    271    262
8    261    270    271    262    360    369    370    361
8    360    369    370    361    459    468    469    460
8    459    468    469    460    558    567    568    559
8     72     81     82     73    171    180    181    172
8    171    180    181    172    270    279    280    271
8    270    279    280    271    369    378    379    370
8    369    378    379    370    468    477    478    469
8    468    477    478    469    567    576    577    568
8     81     90     91     82    180    189    190    181
8    180    189    190    181    279    288    289    280
8    279    288    289    280    378    387    388    379
8    378    387    388    379    477    486    487    478
8    477    486    487    478    576    585    586    577
8      1     10     11      2    100    109    110    101
8    100    109    110    101    199    208    209    200
8    199    208    209    200    298    307    308    299
8    298    307    308    299    397    406    407    398
8    397    406    407    398    496    505    506    497
8     10     19     20     11    109    118    119    110
8    109    118    119    110    208    217    218    209
8    208    217    218    209    307    316    317    308
8    307    316    317    308    406    415    416    407
8    406    415    416    407    505    514    515    506
8     19     28     29     20    118    127    128    119
8    118    127    128    119    217    226    227    218
8    217    226    227    218    316    325    326    317
8    316    325    326    317    415    424    425    416
8    415    424    425    416    514    523    524    515
8     28     37     38     29    127    136    137    128
8    127    136    137    128    226    235    236    227
8    226    235    236    227    325    334    335    326
8    325    334    335    326    424    433    434    425
8    424    433    434    425    523    532    533    524
8     37     46     47     38    136    145    146    137
8    136    145    146    137    235    244    245    236
8    235    244    245    236    334    343    344    335
8    334    343    344    335    433    442    443    434
8    433    442    443    434    532    541    542    533
8     46     55     56     47    145    154    155    146
8    145    154    155    146    244    253    254    245
8    244    253    254    245    343    352    353    344
8    343    352    353    344    442    451    452    443
8    442    451    452    443    541    550    551    542
8     55     64     65     56    154    163    164    155
8    154    163    164    155    253    262    263    254
8    253    262    263    254    352    361    362    353
8    352    361    362    353    451    460    461    452
8    451    460    461    452    550    559    560    551
8     64     73     74     65    163    172    173    164
8    163    172    173    164    262    271    272    263
8    262    271    272    263    361    370    371    362
8    361    370    371    362    460    469    470    461
8    460    469    470    461    559    568    569    560
8     73     82     83     74    172    181    182    173
8    172    181    182    173    271    280    281    272
8    271    280    281    272    370    379    380    371
8    370    379    380    371    469    478    479    470
8    469    478    479    470    568    577    578    569
8     82     91     92     83    181    190    191    182
8    181    190    191    182    280    289    290    281
8    280    289    290    281    379    388    389    380
8    379    388    389    380    478    487    488    479
8    478    487    488    479    577    586    587    578
8      2     11     12      3    101    110    111    102
8    101    110    111    102    200    209    210    201
8    200    209    210    201    299    308    309    300
8    299    308    309    300    398    407    408    399
8    398    407    408    399    497    506    507    498
8     11     20     21     12    110    119    120    111
8    110    119    120    111    209    218    219    210
8    209    218    219    210    308    317    318    309
8    308    317    318    309    407    416    417    408
8    407    416    417    408    506    515    516    507
8     20     29     30     21    119    128    129    120
8    119    128    129    120    218    227    228    219
8    218    227    228    219    317    326    327    318
8    317    326    327    318    416    425    426    417
8    416    425    426    417    515    524    525    516
8     29     38     39     30    128    137    138    129
8    128    137    138    129    227    236    237    228
8    227    236    237    228    326    335    336    327
8    326    335    336    327    425    434    435    426
8    425    434    435    426    524    533    534    525
8     38     47     48     39    137    146    147    138
8    137    146    147    138    236    245    246    237
8    236    245    246    237    335    344    345    336
8    335    344    345    336    434    443    444    435
8    434    443    444    435    533    542    543    534
8     47     56     57     48    146    155    156    147
8    146    155    156    147    245    254    255    246
8    245    254    255    246    344    353    354    345
8    344    353    354    345    443    452    453    444
8    443    452    453    444    542    551    552    543
8     56     65     66     57    155    164    165    156
8    155    164    165    156    254    263    264    255
8    254    263    264    255    353    362    363    354
8    353    362    363    354    452    461    462    453
8    452    461    462    453    551    560    561    552
8     65     74     75     66    164    173    174    165
8    164    173    174    165    263    272    273    264
8    263    272    273    264    362    371    372    363
8    362    371    372    363    461    470    471    462
8    461    470    471    462    560    569    570    561
8     74     83     84     75    173    182    183    174
8    173    182    183    174    272    281    282    273
8    272    281    282    273    371    380    381    372
8    371    380    381    372    470    479    480    471
8    470    479    480    471    569    578    579    570
8     83     92     93     84    182    191    192    183
8    182    191    192    183    281    290    291    282
8    281    290    291    282    380    389    390    381
8    380    389    390    381    479    488    489    480
8    479    488    489    480    578    587    588    579
8      3     12     13      4    102    111    112    103
8    102    111    112    103    201    210    211    202
8    201    210    211    202    300    309    310    301
8    300    309    310    301    399    408    409    400
8    399    408    409    400    498    507    508    499
8     12     21     22     13    111    120    121    112
8    111    120    121    112    210    219    220    211
8    210    219    220    211    309    318    319    310
8    309    318    319    310    408    417    418    409
8    408    417    418    409    507    516    517    508
8     21     30     31     22    120    129    130    121
8    120    129    130    121    219    228    229    220
8    219    228    229    220    318    327    328    319
8    318    327    328    319    417    426    427    418
8    417    426    427    418    516    525    526    517
8     30     39     40     31    129    138    139    130
8    129    138    139    130    228    237    238    229
8    228    237    238    229    327    336    337    328
8    327    336    337    328    426    435    436    427
8    426    435    436    427    525    534    535    526
8     39     48     49     40    138    147    148    139
8    138    147    148    139    237    246    247    238
8    237    246    247    238    336    345    346    337
8    336    345    346    337    435    444    445    436
8    435    444    445    436    534    543    544    535
8     48     57     58     49    147    156    157    148
8    147    156    157    148    246    255    256    247
8    246    255    256    247    345    354    355    346
8    345    354    355    346    444    453    454    445
8    444    453    454    445    543    552    553    544
8     57     66     67     58    156    165    166    157
8    156    165    166    157    255    264    265    256
8    255    264    265    256    354    363    364    355
8    354    363    364    355    453    462    463    454
8    453    462    463    454    552    561    562    553
8     66     75     76     67    165    174    175    166
8    165    174    175    166    264    273    274    265
8    264    273    274    265    363    372    373    364
8    363    372    373    364    462    471    472    463
8    462    471    472    463    561    570    571    562
8     75     84     85     76    174    183    184    175
8    174    183    184    175    273    282    283    274
8    273    282    283    274    372    381    382    373
8    372    381    382    373    471    480    481    472
8    471    480    481    472    570    579    580    571
8     84     93     94     85    183    192    193    184
8    183    192    193    184    282    291    292    283
8    282    291    292    283    381    390    391    382
8    381    390    391    382    480    489    490    481
8    480    489    490    481    579    588    589    580
8      4     13     14      5    103    112    113    104
8    103    112    113    104    202    211    212    203
8    202    211    212    203    301    310    311    302
8    301    310    311    302    400    409    410    401
8    400    409    410    401    499    508    509    500
8     13     22     23     14    112    121    122    113
8    112    121    122    113    211    220    221    212
8    211    220    221    212    310    319    320    311
8    310    319    320    311    409    418    419    410
8    409    418    419    410    508    517    518    509
8     22     31     32     23    121    130    131    122
8    121    130    131    122    220    229    230    221
8    220    229    230    221    319    328    329    320
8    319    328    329    320    418    427    428    419
8    418    427    428    419    517    526    527    518
8     31     40     41     32    130    139    140    131
8    130    139    140    131    229    238    239    230
8    229    238    239    230    328    337    338    329
8    328    337    338    329    427    436    437    428
8    427    436    437    428    526    535    536    527
8     40     49     50     41    139    148    149    140
8    139    148    149    140    238    247    248    239
8    238    247    248    239    337    346    347    338
8    337    346    347    338    436    445    446    437
8    436    445    446    437    535    544    545    536
8     49     58     59     50    148    157    158    149
8    148    157    158    149    247    256    257    248
8    247    256    257    248    346    355    356    347
8    346    355    356    347    445    454    455    446
8    445    454    455    446    544    553    554    545
8     58     67     68     59    157    166    167    158
8    157    166    167    158    256    265    266    257
8    256    265    266    257    355    364    365    356
8    355    364    365    356    454    463    464    455
8    454    463    464    455    553    562    563    554
8     67     76     77     68    166    175    176    167
8    166    175    176    167    265    274    275    266
8    265    274    275    266    364    373    374    365
8    364    373    374    365    463    472    473    464
8    463    472    473    464    562    571    572    563
8     76     85     86     77    175    184    185    176
8    175    184    185    176    274    283    284    275
8    274    283    284    275    373    382    383    374
8    373    382    383    374    472    481    482    473
8    472    481    482    473    571    580    581    572
8     85     94     95     86    184    193    194    185
8    184    193    194    185    283    292    293    284
8    283    292    293    284    382    391    392    383
8    382    391    392    383    481    490    491    482
8    481    490    491    482    580    589    590    581
8      5     14     15      6    104    113    114    105
8    104    113    114    105    203    212    213    204
8    203    212    213    204    302    311    312    303
8    302    311    312    303    401    410    411    402
8    401    410    411    402    500    509    510    501
8     14     23     24     15    113    122    123    114
8    113    122    123    114    212    221    222    213
8    212    221    222    213    311    320    321    312
8    311    320    321    312    410    419    420    411
8    410    419    420    411    509    518    519    510
8     23     32     33     24    122    131    132    123
8    122    131    132    123    221    230    231    222
8    221    230    231    222    320    329    330    321
8    320    329    330    321    419    428    429    420
8    419    428    429    420    518    527    528    519
8     32     41     42     33    131    140    141    132
8    131    140    141    132    230    239    240    231
8    230    239    240    231    329    338    339    330
8    329    338    339    330    428    437    438    429
8    428    437    438    429    527    536    537    528
8     41     50     51     42    140    149    150    141
8    140    149    150    141    239    248    249    240
8    239    248    249    240    338    347    348    339
8    338    347    348    339    437    446    447    438
8    437    446    447    438    536    545    546    537
8     50     59     60     51    149    158    159    150
8    149    158    159    150    248    257    258    249
8    248    257    258    249    347    356    357    348
8    347    356    357    348    446    455    456    447
8    446    455    456    447    545    554    555    546
8     59     68     69     60    158    167    168    159
8    158    167    168    159    257    266    267    258
8    257    266    267    258    356    365    366    357
8    356    365    366    357    455    464    465    456
8    455    464    465    456    554    563    564    555
8     68     77     78     69    167    176    177    168
8    167    176    177    168    266    275    276    267
8    266    275    276    267    365    374    375    366
8    365    374    375    366    464    473    474    465
8    464    473    474    465    563    572    573    564
8     77     86     87     78    176    185    186    177
8    176    185    186    177    275    284    285    276
8    275    284    285    276    374    383    384    375
8    374    383    384    375    473    482    483    474
8    473    482    483    474    572    581    582    573
8     86     95     96     87    185    194    195    186
8    185    194    195    186    284    293    294    285
8    284    293    294    285    383    392    393    384
8    383    392    393    384    482    491    492    483
8    482    491    492    483    581    590    591    582
8      6     15     16      7    105    114    115    106
8    105    114    115    106    204    213    214    205
8    204    213    214    205    303    312    313    304
8    303    312    313    304    402    411    412    403
8    402    411    412    403    501    510    511    502
8     15     24     25     16    114    123    124    115
8    114    123    124    115    213    222    223    214
8    213    222    223    214    312    321    322    313
8    312    321    322    313    411    420    421    412
8    411    420    421    412    510    519    520    511
8     24     33     34     25    123    132    133    124
8    123    132    133    124    222    231    232    223
8    222    231    232    223    321    330    331    322
8    321    330    331    322    420    429    430    421
8    420    429    430    421    519    528    529    520
8     33     42     43     34    132    141    142    133
8    132    141    142    133    231    240    241    232
8    231    240    241    232    330    339    340    331
8    330    339    340    331    429    438    439    430
8    429    438    439    430    528    537    538    529
8     42     51     52     43    141    150    151    142
8    141    150    151    142    240    249    250    241
8    240    249    250    241    339    348    349    340
8    339    348    349    340    438    447    448    439
8    438    447    448    439    537    546    547    538
8     51     60     61     52    150    159    160    151
8    150    159    160    151    249    258    259    250
8    249    258    259    250    348    357    358    349
8    348    357    358    349    447    456    457    448
8    447    456    457    448    546    555    556    547
8     60     69     70     61    159    168    169    160
8    159    168    169    160    258    267    268    259
8    258    267    268    259    357    366    367    358
8    357    366    367    358    456    465    466    457
8    456    465    466    457    555    564    565    556
8     69     78     79     70    168    177    178    169
8    168    177    178    169    267    276    277    268
8    267    276    277    268    366    375    376    367
8    366    375    376    367    465    474    475    466
8    465    474    475    466    564    573    574    565
8     78     87     88     79    177    186    187    178
8    177    186    187    178    276    285    286    277
8    276    285    286    277    375    384    385    376
8    375    384    385    376    474    483    484    475
8    474    483    484    475    573    582    583    574
8     87     96     97     88    186    195    196    187
8    186    195    196    187    285    294    295    286
8    285    294    295    286    384    393    394    385
8    384    393    394    385    483    492    493    484
8    483    492    493    484    582    591    592    583
8      7     16     17      8    106    115    116    107
8    106    115    116    107    205    214    215    206
8    205    214    215    206    304    313    314    305
8    304    313    314    305    403    412    413    404
8    403    412    413    404    502    511    512    503
8     16     25     26     17    115    124    125    116
8    115    124    125    116    214    223    224    215
8    214    223    224    215    313    322    323    314
8    313    322    323    314    412    421    422    413
8    412    421    422    413    511    520    521    512
8     25     34     35     26    124    133    134    125
8    124    133    134    125    223    232    233    224
8    223    232    233    224    322    331    332    323
8    322    331    332    323    421    430    431    422
8    421    430    431    422    520    529    530    521
8     34     43     44     35    133    142    143    134
8    133    142    143    134    232    241    242    233
8    232    241    242    233    331    340    341    332
8    331    340    341    332    430    439    440    431
8    430    439    440    431    529    538    539    530
8     43     52     53     44    142    151    152    143
8    142    151    152    143    241    250    251    242
8    241    250    251    242    340    349    350    341
8    340    349    350    341    439    448    449    440
8    439    448    449    440    538    547    548    539
8     52     61     62     53    151    160    161    152
8    151    160    161    152    250    259    260    251
8    250    259    260    251    349    358    359    350
8    349    358    359    350    448    457    458    449
8    448    457    458    449    547    556    557    548
8     61     70     71     62    160    169    170    161
8    160    169    170    161    259    268    269    260
8    259    268    269    260    358    367    368    359
8    358    367    368    359    457    466    467    458
8    457    466    467    458    556    565    566    557
8     70     79     80     71    169    178    179    170
8    169    178    179    170    268    277    278    269
8    268    277    278    269    367    376    377    368
8    367    376    377    368    466    475    476    467
8    466    475    476    467    565    574    575    566
8     79     88     89     80    178    187    188    179
8    178    187    188    179    277    286    287    278
8    277    286    287    278    376    385    386    377
8    376    385    386    377    475    484    485    476
8    475    484    485    476    574    583    584    575
8     88     97     98     89    187    196    197    188
8    187    196    197    188    286    295    296    287
8    286    295    296    287    385    394    395    386
8    385    394    395    386    484    493    494    485
8    484    493    494    485    583    592    593    584
8     53     62    605    594    152    161    671    660
8    152    161    671    660    251    260    737    726
8    251    260    737    726    350    359    803    792
8    350    359    803    792    449    458    869    858
8    449    458    869    858    548    557    935    924
8     62     71    616    605    161    170    682    671
8    161    170    682    671    260    269    748    737
8    260    269    748    737    359    368    814    803
8    359    368    814    803    458    467    880    869
8    458    467    880    869    557    566    946    935
8     71     80    627    616    170    179    693    682
8    170    179    693    682    269    278    759    748
8    269    278    759    748    368    377    825    814
8    368    377    825    814    467    476    891    880
8    467    476    891    880    566    575    957    946
8     80     89    638    627    179    188    704    693
8    179    188    704    693    278    287    770    759
8    278    287    770    759    377    386    836    825
8    377    386    836    825    476    485    902    891
8    476    485    902    891    575    584    968    957
8     89     98    649    638    188    197    715    704
8    188    197    715    704    287    296    781    770
8    287    296    781    770    386    395    847    836
8    386    395    847    836    485    494    913    902
8    485    494    913    902    584    593    979    968
8      8     17   1025   1034    107    116   1079   1088
8    107    116   1079   1088    206    215   1133   1142
8    206    215   1133   1142    305    314   1187   1196
8    305    314   1187   1196    404    413   1241   1250
8    404    413   1241   1250    503    512   1295   1304
8     17     26   1016   1025    116    125   1070   1079
8    116    125   1070   1079    215    224   1124   1133
8    215    224   1124   1133    314    323   1178   1187
8    314    323   1178   1187    413    422   1232   1241
8    413    422   1232   1241    512    521   1286   1295
8     26     35   1007   1016    125    134   1061   1070
8    125    134   1061   1070    224    233   1115   1124
8    224    233   1115   1124    323    332   1169   1178
8    323    332   1169   1178    422    431   1223   1232
8    422    431   1223   1232    521    530   1277   1286
8     35     44    998   1007    134    143   1052   1061
8    134    143   1052   1061    233    242   1106   1115
8    233    242   1106   1115    332    341   1160   1169
8    332    341   1160   1169    431    440   1214   1223
8    431    440   1214   1223    530    539   1268   1277
8     44     53    594    998    143    152   1043   1052
8    143    152   1043   1052    242    251   1097   1106
8    242    251   1097   1106    341    350   1151   1160
8    341    350   1151   1160    440    449   1205   1214
8    440    449   1205   1214    539    548   1259   1268
8    594    605    606    595    660    671    672    661
8    660    671    672    661    726    737    738    727
8    726    737    738    727    792    803    804    793
8    792    803    804    793    858    869    870    859
8    858    869    870    859    924    935    936    925
8    605    616    617    606    671    682    683    672
8    671    682    683    672    737    748    749    738
8    737    748    749    738    803    814    815    804
8    803    814    815    804    869    880    881    870
8    869    880    881    870    935    946    947    936
8    616    627    628    617    682    693    694    683
8    682    693    694    683    748    759    760    749
8    748    759    760    749    814    825    826    815
8    814    825    826    815    880    891    892    881
8    880    891    892    881    946    957    958    947
8    627    638    639    628    693    704    705    694
8    693    704    705    694    759    770    771    760
8    759    770    771    760    825    836    837    826
8    825    836    837    826    891    902    903    892
8    891    902    903    892    957    968    969    958
8    638    649    650    639    704    715    716    705
8    704    715    716    705    770    781    782    771
8    770    781    782    771    836    847    848    837
8    836    847    848    837    902    913    914    903
8    902    913    914    903    968    979    980    969
8    595    606    607    596    661    672    673    662
8    661    672    673    662    727    738    739    728
8    727    738    739    728    793    804    805    794
8    793    804    805    794    859    870    871    860
8    859    870    871    860    925    936    937    926
8    606    617    618    607    672    683    684    673
8    672    683    684    673    738    749    750    739
8    738    749    750    739    804    815    816    805
8    804    815    816    805    870    881    882    871
8    870    881    882    871    936    947    948    937
8    617    628    629    618    683    694    695    684
8    683    694    695    684    749    760    761    750
8    749    760    761    750    815    826    827    816
8    815    826    827    816    881    892    893    882
8    881    892    893    882    947    958    959    948
8    628    639    640    629    694    705    706    695
8    694    705    706    695    760    771    772    761
8    760    771    772    761    826    837    838    827
8    826    837    838    827    892    903    904    893
8    892    903    904    893    958    969    970    959
8    639    650    651    640    705    716    717    706
8    705    716    717    706    771    782    783    772
8    771    782    783    772    837    848    849    838
8    837    848    849    838    903    914    915    904
8    903    914    915    904    969    980    981    970
8    596    607    608    597    662    673    674    663
8    662    673    674    663    728    739    740    729
8    728    739    740    729    794    805    806    795
8    794    805    806    795    860    871    872    861
8    860    871    872    861    926    937    938    927
8    607    618    619    608    673    684    685    674
8    673    684    685    674    739    750    751    740
8    739    750    751    740    805    816    817    806
8    805    816    817    806    871    882    883    872
8    871    882    883    872    937    948    949    938
8    618    629    630    619    684    695    696    685
8    684    695    696    685    750    761    762    751
8    750    761    762    751    816    827    828    817
8    816    827    828    817    882    893    894    883
8    882    893    894    883    948    959    960    949
8    629    640    641    630    695    706    707    696
8    695    706    707    696    761    772    773    762
8    761    772    773    762    827    838    839    828
8    827    838    839    828    893    904    905    894
8    893    904    905    894    959    970    971    960
8    640    651    652    641    706    717    718    707
8    706    717    718    707    772    783    784    773
8    772    783    784    773    838    849    850    839
8    838    849    850    839    904    915    916    905
8    904    915    916    905    970    981    982    971
8    597    608    609    598    663    674    675    664
8    663    674    675    664    729    740    741    730
8    729    740    741    730    795    806    807    796
8    795    806    807    796    861    872    873    862
8    861    872    873    862    927    938    939    928
8    608    619    620    609    674    685    686    675
8    674    685    686    675    740    751    752    741
8    740    751    752    741    806    817    818    807
8    806    817    818    807    872    883    884    873
8    872    883    884    873    938    949    950    939
8    619    630    631    620    685    696    697    686
8    685    696    697    686    751    762    763    752
8    751    762    763    752    817    828    829    818
8    817    828    829    818    883    894    895    884
8    883    894    895    884    949    960    961    950
8    630    641    642    631    696    707    708    697
8    696    707    708    697    762    773    774    763
8    762    773    774    763    828    839    840    829
8    828    839    840    829    894    905    906    895
8    894    905    906    895    960    971    972    961
8    641    652    653    642    707    718    719    708
8    707    718    719    708    773    784    785    774
8    773    784    785    774    839    850    851    840
8    839    850    851    840    905    916    917    906
8    905    916    917    906    971    982    983    972
8    598    609    610    599    664    675    676    665
8    664    675    676    665    730    741    742    731
8    730    741    742    731    796    807    808    797
8    796    807    808    797    862    873    874    863
8    862    873    874    863    928    939    940    929
8    609    620    621    610    675    686    687    676
8    675    686    687    676    741    752    753    742
8    741    752    753    742    807    818    819    808
8    807    818    819    808    873    884    885    874
8    873    884    885    874    939    950    951    940
8    620    631    632    621    686    697    698    687
8    686    697    698    687    752    763    764    753
8    752    763    764    753    818    829    830    819
8    818    829    830    819    884    895    896    885
8    884    895    896    885    950    961    962    951
8    631    642    643    632    697    708    709    698
8    697    708    709    698    763    774    775    764
8    763    774    775    764    829    840    841    830
8    829    840    841    830    895    906    907    896
8    895    906    907    896    961    972    973    962
8    642    653    654    643    708    719    720    709
8    708    719    720    709    774    785    786    775
8    774    785    786    775    840    851    852    841
8    840    851    852    841    906    917    918    907
8    906    917    918    907    972    983    984    973
8    599    610    611    600    665    676    677    666
8    665    676    677    666    731    742    743    732
8    731    742    743    732    797    808    809    798
8    797    808    809    798    863    874    875    864
8    863    874    875    864    929    940    941    930
8    610    621    622    611    676    687    688    677
8    676    687    688    677    742    753    754    743
8    742    753    754    743    808    819    820    809
8    808    819    820    809    874    885    886    875
8    874    885    886    875    940    951    952    941
8    621    632    633    622    687    698    699    688
8    687    698    699    688    753    764    765    754
8    753    764    765    754    819    830    831    820
8    819    830    831    820    885    896    897    886
8    885    896    897    886    951    962    963    952
8    632    643    644    633    698    709    710    699
8    698    709    710    699    764    775    776    765
8    764    775    776    765    830    841    842    831
8    830    841    842    831    896    907    908    897
8    896    907    908    897    962    973    974    963
8    643    654    655    644    709    720    721    710
8    709    720    721    710    775    786    787    776
8    775    786    787    776    841    852    853    842
8    841    852    853    842    907    918    919    908
8    907    918    919    908    973    984    985    974
8    600    611    612    601    666    677    678    667
8    666    677    678    667    732    743    744    733
8    732    743    744    733    798    809    810    799
8    798    809    810    799    864    875    876    865
8    864    875    876    865    930    941    942    931
8    611    622    623    612    677    688    689    678
8    677    688    689    678    743    754    755    744
8    743    754    755    744    809    820    821    810
8    809    820    821    810    875    886    887    876
8    875    886    887    876    941    952    953    942
8    622    633    634    623    688    699    700    689
8    688    699    700    689    754    765    766    755
8    754    765    766    755    820    831    832    821
8    820    831    832    821    886    897    898    887
8    886    897    898    887    952    963    964    953
8    633    644    645    634    699    710    711    700
8    699    710    711    700    765    776    777    766
8    765    776    777    766    831    842    843    832
8    831    842    843    832    897    908    909    898
8    897    908    909    898    963    974    975    964
8    644    655    656    645    710    721    722    711
8    710    721    722    711    776    787    788    777
8    776    787    788    777    842    853    854    843
8    842    853    854    843    908    919    920    909
8    908    919    920    909    974    985    986    975
8    601    612    613    602    667    678    679    668
8    667    678    679    668    733    744    745    734
8    733    744    745    734    799    810    811    800
8    799    810    811    800    865    876    877    866
8    865    876    877    866    931    942    943    932
8    612    623    624    613    678    689    690    679
8    678    689    690    679    744    755    756    745
8    744    755    756    745    810    821    822    811
8    810    821    822    811    876    887    888    877
8    876    887    888    877    942    953    954    943
8    623    634    635    624    689    700    701    690
8    689    700    701    690    755    766    767    756
8    755    766    767    756    821    832    833    822
8    821    832    833    822    887    898    899    888
8    887    898    899    888    953    964    965    954
8    634    645    646    635    700    711    712    701
8    700    711    712    701    766    777    778    767
8    766    777    778    767    832    843    844    833
8    832    843    844    833    898    909    910    899
8    898    909    910    899    964    975    976    965
8    645    656    657    646    711    722    723    712
8    711    722    723    712    777    788    789    778
8    777    788    789    778    843    854    855    844
8    843    854    855    844    909    920    921    910
8    909    920    921    910    975    986    987    976
8    602    613    614    603    668    679    680    669
8    668    679    680    669    734    745    746    735
8    734    745    746    735    800    811    812    801
8    800    811    812    801    866    877    878    867
8    866    877    878    867    932    943    944    933
8    613    624    625    614    679    690    691    680
8    679    690    691    680    745    756    757    746
8    745    756    757    746    811    822    823    812
8    811    822    823    812    877    888    889    878
8    877    888    889    878    943    954    955    944
8    624    635    636    625    690    701    702    691
8    690    701    702    691    756    767    768    757
8    756    767    768    757    822    833    834    823
8    822    833    834    823    888    899    900    889
8    888    899    900    889    954    965    966    955
8    635    646    647    636    701    712    713    702
8    701    712    713    702    767    778    779    768
8    767    778    779    768    833    844    845    834
8    833    844    845    834    899    910    911    900
8    899    910    911    900    965    976    977    966
8    646    657    658    647    712    723    724    713
8    712    723    724    713    778    789    790    779
8    778    789    790    779    844    855    856    845
8    844    855    856    845    910    921    922    911
8    910    921    922    911    976    987    988    977
8    603    614    615    604    669    680    681    670
8    669    680    681    670    735    746    747    736
8    735    746    747    736    801    812    813    802
8    801    812    813    802    867    878    879    868
8    867    878    879    868    933    944    945    934
8    614    625    626    615    680    691    692    681
8    680    691    692    681    746    757    758    747
8    746    757    758    747    812    823    824    813
8    812    823    824    813    878    889    890    879
8    878    889    890    879    944    955    956    945
8    625    636    637    626    691    702    703    692
8    691    702    703    692    757    768    769    758
8    757    768    769    758    823    834    835    824
8    823    834    835    824    889    900    901    890
8    889    900    901    890    955    966    967    956
8    636    647    648    637    702    713    714    703
8    702    713    714    703    768    779    780    769
8    768    779    780    769    834    845    846    835
8    834    845    846    835    900    911    912    901
8    900    911    912    901    966    977    978    967
8    647    658    659    648    713    724    725    714
8    713    724    725    714    779    790    791    780
8    779    790    791    780    845    856    857    846
8    845    856    857    846    911    922    923    912
8    911    922    923    912    977    988    989    978
8    998    594    990    999   1052   1043   1044   1053
8   1052   1043   1044   1053   1106   1097   1098   1107
8   1106   1097   1098   1107   1160   1151   1152   1161
8   1160   1151   1152   1161   1214   1205   1206   1215
8   1214   1205   1206   1215   1268   1259   1260   1269
8   1007    998    999   1008   1061   1052   1053   1062
8   1061   1052   1053   1062   1115   1106   1107   1116
8   1115   1106   1107   1116   1169   1160   1161   1170
8   1169   1160   1161   1170   1223   1214   1215   1224
8   1223   1214   1215   1224   1277   1268   1269   1278
8   1016   1007   1008   1017   1070   1061   1062   1071
8   1070   1061   1062   1071   1124   1115   1116   1125
8   1124   1115   1116   1125   1178   1169   1170   1179
8   1178   1169   1170   1179   1232   1223   1224   1233
8   1232   1223   1224   1233   1286   1277   1278   1287
8   1025   1016   1017   1026   1079   1070   1071   1080
8   1079   1070   1071   1080   1133   1124   1125   1134
8   1133   1124   1125   1134   1187   1178   1179   1188
8   1187   1178   1179   1188   1241   1232   1233   1242
8   1241   1232   1233   1242   1295   1286   1287   1296
8   1034   1025   1026   1035   1088   1079   1080   1089
8   1088   1079   1080   1089   1142   1133   1134   1143
8   1142   1133   1134   1143   1196   1187   1188   1197
8   1196   1187   1188   1197   1250   1241   1242   1251
8   1250   1241   1242   1251   1304   1295   1296   1305
8    999    990    991   1000   1053   1044   1045   1054
8   1053   1044   1045   1054   1107   1098   1099   1108
8   1107   1098   1099   1108   1161   1152   1153   1162
8   1161   1152   1153   1162   1215   1206   1207   1216
8   1215   1206   1207   1216   1269   1260   1261   1270
8   1008    999   1000   1009   1062   1053   1054   1063
8   1062   1053   1054   1063   1116   1107   1108   1117
8   1116   1107   1108   1117   1170   1161   1162   1171
8   1170   1161   1162   1171   1224   1215   1216   1225
8   1224   1215   1216   1225   1278   1269   1270   1279
8   1017   1008   1009   1018   1071   1062   1063   1072
8   1071   1062   1063   1072   1125   1116   1117   1126
8   1125   1116   1117   1126   1179   1170   1171   1180
8   1179   1170   1171   1180   1233   1224   1225   1234
8   1233   1224   1225   1234   1287   1278   1279   1288
8   1026   1017   1018   1027   1080   1071   1072   1081
8   1080   1071   1072   1081   1134   1125   1126   1135
8   1134   1125   1126   1135   1188   1179   1180   1189
8   1188   1179   1180   1189   1242   1233   1234   1243
8   1242   1233   1234   1243   1296   1287   1288   1297
8   1035   1026   1027   1036   1089   1080   1081   1090
8   1089   1080   1081   1090   1143   1134   1135   1144
8   1143   1134   1135   1144   1197   1188   1189   1198
8   1197   1188   1189   1198   1251   1242   1243   1252
8   1251   1242   1243   1252   1305   1296   1297   1306
8   1000    991    992   1001   1054   1045   1046   1055
8   1054   1045   1046   1055   1108   1099   1100   1109
8   1108   1099   1100   1109   1162   1153   1154   1163
8   1162   1153   1154   1163   1216   1207   1208   1217
8   1216   1207   1208   1217   1270   1261   1262   1271
8   1009   1000   1001   1010   1063   1054   1055   1064
8   1063   1054   1055   1064   1117   1108   1109   1118
8   1117   1108   1109   1118   1171   1162   1163   1172
8   1171   1162   1163   1172   1225   1216   1217   1226
8   1225   1216   1217   1226   1279   1270   1271   1280
8   1018   1009   1010   1019   1072   1063   1064   1073
8   1072   1063   1064   1073   1126   1117   1118   1127
8   1126   1117   1118   1127   1180   1171   1172   1181
8   1180   1171   1172   1181   1234   1225   1226   1235
8   1234   1225   1226   1235   1288   1279   1280   1289
8   1027   1018   1019   1028   1081   1072   1073   1082
8   1081   1072   1073   1082   1135   1126   1127   1136
8   1135   1126   1127   1136   1189   1180   1181   1190
8   1189   1180   1181   1190   1243   1234   1235   1244
8   1243   1234   1235   1244   1297   1288   1289   1298
8   1036   1027   1028   1037   1090   1081   1082   1091
8   1090   1081   1082   1091   1144   1135   1136   1145
8   1144   1135   1136   1145   1198   1189   1190   1199
8   1198   1189   1190   1199   1252   1243   1244   1253
8   1252   1243   1244   1253   1306   1297   1298   1307
8   1001    992    993   1002   1055   1046   1047   1056
8   1055   1046   1047   1056   1109   1100   1101   1110
8   1109   1100   1101   1110   1163   1154   1155   1164
8   1163   1154   1155   1164   1217   1208   1209   1218
8   1217   1208   1209   1218   1271   1262   1263   1272
8   1010   1001   1002   1011   1064   1055   1056   1065
8   1064   1055   1056   1065   1118   1109   1110   1119
8   1118   1109   1110   1119   1172   1163   1164   1173
8   1172   1163   1164   1173   1226   1217   1218   1227
8   1226   1217   1218   1227   1280   1271   1272   1281
8   1019   1010   1011   1020   1073   1064   1065   1074
8   1073   1064   1065   1074   1127   1118   1119   1128
8   1127   1118   1119   1128   1181   1172   1173   1182
8   1181   1172   1173   1182   1235   1226   1227   1236
8   1235   1226   1227   1236   1289   1280   1281   1290
8   1028   1019   1020   1029   1082   1073   1074   1083
8   1082   1073   1074   1083   1136   1127   1128   1137
8   1136   1127   1128   1137   1190   1181   1182   1191
8   1190   1181   1182   1191   1244   1235   1236   1245
8   1244   1235   1236   1245   1298   1289   1290   1299
8   1037   1028   1029   1038   1091   1082   1083   1092
8   1091   1082   1083   1092   1145   1136   1137   1146
8   1145   1136   1137   1146   1199   1190   1191   1200
8   1199   1190   1191   1200   1253   1244   1245   1254
8   1253   1244   1245   1254   1307   1298   1299   1308
8   1002    993    994   1003   1056   1047   1048   1057
8   1056   1047   1048   1057   1110   1101   1102   1111
8   1110   1101   1102   1111   1164   1155   1156   1165
8   1164   1155   1156   1165   1218   1209   1210   1219
8   1218   1209   1210   1219   1272   1263   1264   1273
8   1011   1002   1003   1012   1065   1056   1057   1066
8   1065   1056   1057   1066   1119   1110   1111   1120
8   1119   1110   1111   1120   1173   1164   1165   1174
8   1173   1164   1165   1174   1227   1218   1219   1228
8   1227   1218   1219   1228   1281   1272   1273   1282
8   1020   1011   1012   1021   1074   1065   1066   1075
8   1074   1065   1066   1075   1128   1119   1120   1129
8   1128   1119   1120   1129   1182   1173   1174   1183
8   1182   1173   1174   1183   1236   1227   1228   1237
8   1236   1227   1228   1237   1290   1281   1282   1291
8   1029   1020   1021   1030   1083   1074   1075   1084
8   1083   1074   1075   1084   1137   1128   1129   1138
8   1137   1128   1129   1138   1191   1182   1183   1192
8   1191   1182   1183   1192   1245   1236   1237   1246
8   1245   1236   1237   1246   1299   1290   1291   1300
8   1038   1029   1030   1039   1092   1083   1084   1093
8   1092   1083   1084   1093   1146   1137   1138   1147
8   1146   1137   1138   1147   1200   1191   1192   1201
8   1200   1191   1192   1201   1254   1245   1246   1255
8   1254   1245   1246   1255   1308   1299   1300   1309
8   1003    994    995   1004   1057   1048   1049   1058
8   1057   1048   1049   1058   1111   1102   1103   1112
8   1111   1102   1103   1112   1165   1156   1157   1166
8   1165   1156   1157   1166   1219   1210   1211   1220
8   1219   1210   1211   1220   1273   1264   1265   1274
8   1012   1003   1004   1013   1066   1057   1058   1067
8   1066   1057   1058   1067   1120   1111   1112   1121
8   1120   1111   1112   1121   1174   1165   1166   1175
8   1174   1165   1166   1175   1228   1219   1220   1229
8   1228   1219   1220   1229   1282   1273   1274   1283
8   1021   1012   1013   1022   1075   1066   1067   1076
8   1075   1066   1067   1076   1129   1120   1121   1130
8   1129   1120   1121   1130   1183   1174   1175   1184
8   1183   1174   1175   1184   1237   1228   1229   1238
8   1237   1228   1229   1238   1291   1282   1283   1292
8   1030   1021   1022   1031   1084   1075   1076   1085
8   1084   1075   1076   1085   1138   1129   1130   1139
8   1138   1129   1130   1139   1192   1183   1184   1193
8   1192   1183   1184   1193   1246   1237   1238   1247
8   1246   1237   1238   1247   1300   1291   1292   1301
8   1039   1030   1031   1040   1093   1084   1085   1094
8   1093   1084   1085   1094   1147   1138   1139   1148
8   1147   1138   1139   1148   1201   1192   1193   1202
8   1201   1192   1193   1202   1255   1246   1247   1256
8   1255   1246   1247   1256   1309   1300   1301   1310
8   1004    995    996   1005   1058   1049   1050   1059
8   1058   1049   1050   1059   1112   1103   1104   1113
8   1112   1103   1104   1113   1166   1157   1158   1167
8   1166   1157   1158   1167   1220   1211   1212   1221
8   1220   1211   1212   1221   1274   1265   1266   1275
8   1013   1004   1005   1014   1067   1058   1059   1068
8   1067   1058   1059   1068   1121   1112   1113   1122
8   1121   1112   1113   1122   1175   1166   1167   1176
8   1175   1166   1167   1176   1229   1220   1221   1230
8   1229   1220   1221   1230   1283   1274   1275   1284
8   1022   1013   1014   1023   1076   1067   1068   1077
8   1076   1067   1068   1077   1130   1121   1122   1131
8   1130   1121   1122   1131   1184   1175   1176   1185
8   1184   1175   1176   1185   1238   1229   1230   1239
8   1238   1229   1230   1239   1292   1283   1284   1293
8   1031   1022   1023   1032   1085   1076   1077   1086
8   1085   1076   1077   1086   1139   1130   1131   1140
8   1139   1130   1131   1140   1193   1184   1185   1194
8   1193   1184   1185   1194   1247   1238   1239   1248
8   1247   1238   1239   1248   1301   1292   1293   1302
8   1040   1031   1032   1041   1094   1085   1086   1095
8   1094   1085   1086   1095   1148   1139   1140   1149
8   1148   1139   1140   1149   1202   1193   1194   1203
8   1202   1193   1194   1203   1256   1247   1248   1257
8   1256   1247   1248   1257   1310   1301   1302   1311
8   1005    996    997   1006   1059   1050   1051   1060
8   1059   1050   1051   1060   1113   1104   1105   1114
8   1113   1104   1105   1114   1167   1158   1159   1168
8   1167   1158   1159   1168   1221   1212   1213   1222
8   1221   1212   1213   1222   1275   1266   1267   1276
8   1014   1005   1006   1015   1068   1059   1060   1069
8   1068   1059   1060   1069   1122   1113   1114   1123
8   1122   1113   1114   1123   1176   1167   1168   1177
8   1176   1167   1168   1177   1230   1221   1222   1231
8   1230   1221   1222   1231   1284   1275   1276   1285
8   1023   1014   1015   1024   1077   1068   1069   1078
8   1077   1068   1069   1078   1131   1122   1123   1132
8   1131   1122   1123   1132   1185   1176   1177   1186
8   1185   1176   1177   1186   1239   1230   1231   1240
8   1239   1230   1231   1240   1293   1284   1285   1294
8   1032   1023   1024   1033   1086   1077   1078   1087
8   1086   1077   1078   1087   1140   1131   1132   1141
8   1140   1131   1132   1141   1194   1185   1186   1195
8   1194   1185   1186   1195   1248   1239   1240   1249
8   1248   1239   1240   1249   1302   1293   1294   1303
8   1041   1032   1033   1042   1095   1086   1087   1096
8   1095   1086   1087   1096   1149   1140   1141   1150
8   1149   1140   1141   1150   1203   1194   1195   1204
8   1203   1194   1195   1204   1257   1248   1249   1258
8   1257   1248   1249   1258   1311   1302   1303   1312
8      0   1314   1324     99      1   1315   1325    100
8     99   1324   1334    198    100   1325   1335    199
8    198   1334   1344    297    199   1335   1345    298
8    297   1344   1354    396    298   1345   1355    397
8    396   1354   1364    495    397   1355   1365    496
8    495   1364   1374    504    496   1365   1375    505
8    504   1374   1384    513    505   1375   1385    514
8    513   1384   1394    522    514   1385   1395    523
8    522   1394   1404    531    523   1395   1405    532
8    531   1404   1414    540    532   1405   1415    541
8    540   1414   1424    549    541   1415   1425    550
8    549   1424   1434    558    550   1425   1435    559
8    558   1434   1444    567    559   1435   1445    568
8    567   1444   1454    576    568   1445   1455    577
8    576   1454   1464    585    577   1455   1465    586
8     90    189   1504   1514     91    190   1505   1515
8    189    288   1494   1504    190    289   1495   1505
8    288    387   1484   1494    289    388   1485   1495
8    387    486   1474   1484    388    487   1475   1485
8    486    585   1464   1474    487    586   1465   1475
8      1   1315   1325    100      2   1316   1326    101
8    100   1325   1335    199    101   1326   1336    200
8    199   1335   1345    298    200   1336   1346    299
8    298   1345   1355    397    299   1346   1356    398
8    397   1355   1365    496    398   1356   1366    497
8    496   1365   1375    505    497   1366   1376    506
8    505   1375   1385    514    506   1376   1386    515
8    514   1385   1395    523    515   1386   1396    524
8    523   1395   1405    532    524   1396   1406    533
8    532   1405   1415    541    533   1406   1416    542
8    541   1415   1425    550    542   1416   1426    551
8    550   1425   1435    559    551   1426   1436    560
8    559   1435   1445    568    560   1436   1446    569
8    568   1445   1455    577    569   1446   1456    578
8    577   1455   1465    586    578   1456   1466    587
8     91    190   1505   1515     92    191   1506   1516
8    190    289   1495   1505    191    290   1496   1506
8    289    388   1485   1495    290    389   1486   1496
8    388    487   1475   1485    389    488   1476   1486
8    487    586   1465   1475    488    587   1466   1476
8      2   1316   1326    101      3   1317   1327    102
8    101   1326   1336    200    102   1327   1337    201
8    200   1336   1346    299    201   1337   1347    300
8    299   1346   1356    398    300   1347   1357    399
8    398   1356   1366    497    399   1357   1367    498
8    497   1366   1376    506    498   1367   1377    507
8    506   1376   1386    515    507   1377   1387    516
8    515   1386   1396    524    516   1387   1397    525
8    524   1396   1406    533    525   1397   1407    534
8    533   1406   1416    542    534   1407   1417    543
8    542   1416   1426    551    543   1417   1427    552
8    551   1426   1436    560    552   1427   1437    561
8    560   1436   1446    569    561   1437   1447    570
8    569   1446   1456    578    570   1447   1457    579
8    578   1456   1466    587    579   1457   1467    588
8     92    191   1506   1516     93    192   1507   1517
8    191    290   1496   1506    192    291   1497   1507
8    290    389   1486   1496    291    390   1487   1497
8    389    488   1476   1486    390    489   1477   1487
8    488    587   1466   1476    489    588   1467   1477
8      3   1317   1327    102      4   1318   1328    103
8    102   1327   1337    201    103   1328   1338    202
8    201   1337   1347    300    202   1338   1348    301
8    300   1347   1357    399    301   1348   1358    400
8    399   1357   1367    498    400   1358   1368    499
8    498   1367   1377    507    499   1368   1378    508
8    507   1377   1387    516    508   1378   1388    517
8    516   1387   1397    525    517   1388   1398    526
8    525   1397   1407    534    526   1398   1408    535
8    534   1407   1417    543    535   1408   1418    544
8    543   1417   1427    552    544   1418   1428    553
8    552   1427   1437    561    553   1428   1438    562
8    561   1437   1447    570    562   1438   1448    571
8    570   1447   1457    579    571   1448   1458    580
8    579   1457   1467    588    580   1458   1468    589
8     93    192   1507   1517     94    193   1508   1518
8    192    291   1497   1507    193    292   1498   1508
8    291    390   1487   1497    292    391   1488   1498
8    390    489   1477   1487    391    490   1478   1488
8    489    588   1467   1477    490    589   1468   1478
8      4   1318   1328    103      5   1319   1329    104
8    103   1328   1338    202    104   1329   1339    203
8    202   1338   1348    301    203   1339   1349    302
8    301   1348   1358    400    302   1349   1359    401
8    400   1358   1368    499    401   1359   1369    500
8    499   1368   1378    508    500   1369   1379    509
8    508   1378   1388    517    509   1379   1389    518
8    517   1388   1398    526    518   1389   1399    527
8    526   1398   1408    535    527   1399   1409    536
8    535   1408   1418    544    536   1409   1419    545
8    544   1418   1428    553    545   1419   1429    554
8    553   1428   1438    562    554   1429   1439    563
8    562   1438   1448    571    563   1439   1449    572
8    571   1448   1458    580    572   1449   1459    581
8    580   1458   1468    589    581   1459   1469    590
8     94    193   1508   1518     95    194   1509   1519
8    193    292   1498   1508    194    293   1499   1509
8    292    391   1488   1498    293    392   1489   1499
8    391    490   1478   1488    392    491   1479   1489
8    490    589   1468   1478    491    590   1469   1479
8      5   1319   1329    104      6   1320   1330    105
8    104   1329   1339    203    105   1330   1340    204
8    203   1339   1349    302    204   1340   1350    303
8    302   1349   1359    401    303   1350   1360    402
8    401   1359   1369    500    402   1360   1370    501
8    500   1369   1379    509    501   1370   1380    510
8    509   1379   1389    518    510   1380   1390    519
8    518   1389   1399    527    519   1390   1400    528
8    527   1399   1409    536    528   1400   1410    537
8    536   1409   1419    545    537   1410   1420    546
8    545   1419   1429    554    546   1420   1430    555
8    554   1429   1439    563    555   1430   1440    564
8    563   1439   1449    572    564   1440   1450    573
8    572   1449   1459    581    573   1450   1460    582
8    581   1459   1469    590    582   1460   1470    591
8     95    194   1509   1519     96    195   1510   1520
8    194    293   1499   1509    195    294   1500   1510
8    293    392   1489   1499    294    393   1490   1500
8    392    491   1479   1489    393    492   1480   1490
8    491    590   1469   1479    492    591   1470   1480
8      6   1320   1330    105      7   1321   1331    106
8    105   1330   1340    204    106   1331   1341    205
8    204   1340   1350    303    205   1341   1351    304
8    303   1350   1360    402    304   1351   1361    403
8    402   1360   1370    501    403   1361   1371    502
8    501   1370   1380    510    502   1371   1381    511
8    510   1380   1390    519    511   1381   1391    520
8    519   1390   1400    528    520   1391   1401    529
8    528   1400   1410    537    529   1401   1411    538
8    537   1410   1420    546    538   1411   1421    547
8    546   1420   1430    555    547   1421   1431    556
8    555   1430   1440    564    556   1431   1441    565
8    564   1440   1450    573    565   1441   1451    574
8    573   1450   1460    582    574   1451   1461    583
8    582   1460   1470    591    583   1461   1471    592
8     96    195   1510   1520     97    196   1511   1521
8    195    294   1500   1510    196    295   1501   1511
8    294    393   1490   1500    295    394   1491   1501
8    393    492   1480   1490    394    493   1481   1491
8    492    591   1470   1480    493    592   1471   1481
8      7   1321   1331    106      8   1322   1332    107
8    106   1331   1341    205    107   1332   1342    206
8    205   1341   1351    304    206   1342   1352    305
8    304   1351   1361    403    305   1352   1362    404
8    403   1361   1371    502    404   1362   1372    503
8    502   1371   1381    511    503   1372   1382    512
8    511   1381   1391    520    512   1382   1392    521
8    520   1391   1401    529    521   1392   1402    530
8    529   1401   1411    538    530   1402   1412    539
8    538   1411   1421    547    539   1412   1422    548
8    547   1421   1431    556    548   1422   1432    557
8    556   1431   1441    565    557   1432   1442    566
8    565   1441   1451    574    566   1442   1452    575
8    574   1451   1461    583    575   1452   1462    584
8    583   1461   1471    592    584   1462   1472    593
8     97    196   1511   1521     98    197   1512   1522
8    196    295   1501   1511    197    296   1502   1512
8    295    394   1491   1501    296    395   1492   1502
8    394    493   1481   1491    395    494   1482   1492
8    493    592   1471   1481    494    593   1472   1482
8   1523   1524      9      0   1534   1535    108     99
8   1534   1535    108     99   1545   1546    207    198
8   1545   1546    207    198   1556   1557    306    297
8   1556   1557    306    297   1567   1568    405    396
8   1567   1568    405    396   1578   1579    504    495
8   1524   1525     18      9   1535   1536    117    108
8   1535   1536    117    108   1546   1547    216    207
8   1546   1547    216    207   1557   1558    315    306
8   1557   1558    315    306   1568   1569    414    405
8   1568   1569    414    405   1579   1580    513    504
8   1525   1526     27     18   1536   1537    126    117
8   1536   1537    126    117   1547   1548    225    216
8   1547   1548    225    216   1558   1559    324    315
8   1558   1559    324    315   1569   1570    423    414
8   1569   1570    423    414   1580   1581    522    513
8   1526   1527     36     27   1537   1538    135    126
8   1537   1538    135    126   1548   1549    234    225
8   1548   1549    234    225   1559   1560    333    324
8   1559   1560    333    324   1570   1571    432    423
8   1570   1571    432    423   1581   1582    531    522
8   1527   1528     45     36   1538   1539    144    135
8   1538   1539    144    135   1549   1550    243    234
8   1549   1550    243    234   1560   1561    342    333
8   1560   1561    342    333   1571   1572    441    432
8   1571   1572    441    432   1582   1583    540    531
8   1528   1529     54     45   1539   1540    153    144
8   1539   1540    153    144   1550   1551    252    243
8   1550   1551    252    243   1561   1562    351    342
8   1561   1562    351    342   1572   1573    450    441
8   1572   1573    450    441   1583   1584    549    540
8   1529   1530     63     54   1540   1541    162    153
8   1540   1541    162    153   1551   1552    261    252
8   1551   1552    261    252   1562   1563    360    351
8   1562   1563    360    351   1573   1574    459    450
8   1573   1574    459    450   1584   1585    558    549
8   1530   1531     72     63   1541   1542    171    162
8   1541   1542    171    162   1552   1553    270    261
8   1552   1553    270    261   1563   1564    369    360
8   1563   1564    369    360   1574   1575    468    459
8   1574   1575    468    459   1585   1586    567    558
8   1531   1532     81     72   1542   1543    180    171
8   1542   1543    180    171   1553   1554    279    270
8   1553   1554    279    270   1564   1565    378    369
8   1564   1565    378    369   1575   1576    477    468
8   1575   1576    477    468   1586   1587    576    567
8   1532   1533     90     81   1543   1544    189    180
8   1543   1544    189    180   1554   1555    288    279
8   1554   1555    288    279   1565   1566    387    378
8   1565   1566    387    378   1576   1577    486    477
8   1576   1577    486    477   1587   1588    585    576
8   1523   1313   1323   1534      0   1314   1324     99
8   1534   1323   1333   1545     99   1324   1334    198
8   1545   1333   1343   1556    198   1334   1344    297
8   1556   1343   1353   1567    297   1344   1354    396
8   1567   1353   1363   1578    396   1354   1364    495
8   1578   1363   1373   1579    495   1364   1374    504
8   1579   1373   1383   1580    504   1374   1384    513
8   1580   1383   1393   1581    513   1384   1394    522
8   1581   1393   1403   1582    522   1394   1404    531
8   1582   1403   1413   1583    531   1404   1414    540
8   1583   1413   1423   1584    540   1414   1424    549
8   1584   1423   1433   1585    549   1424   1434    558
8   1585   1433   1443   1586    558   1434   1444    567
8   1586   1443   1453   1587    567   1444   1454    576
8   1587   1453   1463   1588    576   1454   1464    585
8   1533   1544   1503   1513     90    189   1504   1514
8   1544   1555   1493   1503    189    288   1494   1504
8   1555   1566   1483   1493    288    387   1484   1494
8   1566   1577   1473   1483    387    486   1474   1484
8   1577   1588   1463   1473    486    585   1464   1474
CELL_TYPES  1130
12
12
12
12
12
12
12
12
12
12
12
12
12
12
12
12
12
12
12
12
12
12
12
12
12
12
12
12
12
12
12
12
12
12
12
12
12
12
12
12
12
12
12
12
12
12
12
12
12
12
12
12
12
12
12
12
12
12
12
12
12
12
12
12
12
12
12
12
12
12
12
12
12
12
12
12
12
12
12
12
12
12
12
12
12
12
12
12
12
12
12
12
12
12
12
12
12
12
12
12
12
12
12
12
12
12
12
12
12
12
12
12
12
12
12
12
12
12
12
12
12
12
12
12
12
12
12
12
12
12
12
12
12
12
12
12
12
12
12
12
12
12
12
12
12
12
12
12
12
12
12
12
12
12
12
12
12
12
12
12
12
12
12
12
12
12
12
12
12
12
12
12
12
12
12
12
12
12
12
12
12
12
12
12
12
12
12
12
12
12
12
12
12
12
12
12
12
12
12
12
12
12
12
12
12
12
12
12
12
12
12
12
12
12
12
12
12
12
12
12
12
12
12
12
12
12
12
12
12
12
12
12
12
12
12
12
12
12
12
12
12
12
12
12
12
12
12
12
12
12
12
12
12
12
12
12
12
12
12
12
12
12
12
12
12
12
12
12
12
12
12
12
12
12
12
12
12
12
12
12
12
12
12
12
12
12
12
12
12
12
12
12
12
12
12
12
12
12
12
12
12
12
12
12
12
12
12
12
12
12
12
12
12
12
12
12
12
12
12
12
12
12
12
12
12
12
12
12
12
12
12
12
12
12
12
12
12
12
12
12
12
12
12
12
12
12
12
12
12
12
12
12
12
12
12
12
12
12
12
12
12
12
12
12
12
12
12
12
12
12
12
12
12
12
12
12
12
12
12
12
12
12
12
12
12
12
12
12
12
12
12
12
12
12
12
12
12
12
12
12
12
12
12
12
12
12
12
12
12
12
12
12
12
12
12
12
12
12
12
12
12
12
12
12
12
12
12
12
12
12
12
12
12
12
12
12
12
12
12
12
12
12
12
12
12
12
12
12
12
12
12
12
12
12
12
12
12
12
12
12
12
12
12
12
12
12
12
12
12
12
12
12
12
12
12
12
12
12
12
12
12
12
12
12
12
12
12
12
12
12
12
12
12
12
12
12
12
12
12
12
12
12
12
12
12
12
12
12
12
12
12
12
12
12
12
12
12
12
12
12
12
12
12
12
12
12
12
12
12
12
12
12
12
12
12
12
12
12
12
12
12
12
12
12
12
12
12
12
12
12
12
12
12
12
12
12
12
12
12
12
12
12
12
12
12
12
12
12
12
12
12
12
12
12
12
12
12
12
12
12
12
12
12
12
12
12
12
12
12
12
12
12
12
12
12
12
12
12
12
12
12
12
12
12
12
12
12
12
12
12
12
12
12
12
12
12
12
12
12
12
12
12
12
12
12
12
12
12
12
12
12
12
12
12
12
12
12
12
12
12
12
12
12
12
12
12
12
12
12
12
12
12
12
12
12
12
12
12
12
12
12
12
12
12
12
12
12
12
12
12
12
12
12
12
12
12
12
12
12
12
12
12
12
12
12
12
12
12
12
12
12
12
12
12
12
12
12
12
12
12
12
12
12
12
12
12
12
12
12
12
12
12
12
12
12
12
12
12
12
12
12
12
12
12
12
12
12
12
12
12
12
12
12
12
12
12
12
12
12
12
12
12
12
12
12
12
12
12
12
12
12
12
12
12
12
12
12
12
12
12
12
12
12
12
12
12
12
12
12
12
12
12
12
12
12
12
12
12
12
12
12
12
12
12
12
12
12
12
12
12
12
12
12
12
12
12
12
12
12
12
12
12
12
12
12
12
12
12
12
12
12
12
12
12
12
12
12
12
12
12
12
12
12
12
12
12
12
12
12
12
12
12
12
12
12
12
12
12
12
12
12
12
12
12
12
12
12
12
12
12
12
12
12
12
12
12
12
12
12
12
12
12
12
12
12
12
12
12
12
12
12
12
12
12
12
12
12
12
12
12
12
12
12
12
12
12
12
12
12
12
12
12
12
12
12
12
12
12
12
12
12
12
12
12
12
12
12
12
12
12
12
12
12
12
12
12
12
12
12
12
12
12
12
12
12
12
12
12
12
12
12
12
12
12
12
12
12
12
12
12
12
12
12
12
12
12
12
12
12
12
12
12
12
12
12
12
12
12
12
12
12
12
12
12
12
12
12
12
12
12
12
12
12
12
12
12
12
12
12
12
12
12
12
12
12
12
12
12
12
12
12
12
12
12
12
12
12
12
12
12
12
12
12
12
12
12
12
12
12
12
12
12
12
12
12
12
12
12
12
12
12
12
12
12
12
12
12
12
12
12
12
12
12
12
12
12
12
12
12
12
12
12
12
12
12
12
12
12
12
12
12
12
12
12
12
12
12
12
12
12
12
12
12
12
12
12
12
12
12
12
12
12
12
12
12
12
12
12
12
12
12
12
12
12
12
12
12
12
12
12
12
12
12
12
12
12
12
12
12
12
12
12
12
12
12
12
12
12
12
12
12
12
12
12
12
12
12
12
12
12
12
12
12
12
12
12
12
12
12
12
POINT_DATA      1589
VECTORS Velocities float 
     0.00000000     0.00000000     0.00000000
     0.00000000     0.00000000     0.00000000
     0.00000000     0.00000000     0.00000000
     0.00000000     0.00000000     0.00000000
     0.00000000     0.00000000     0.00000000
     0.00000000     0.00000000     0.00000000
     0.00000000     0.00000000     0.00000000
     0.00000000     0.00000000     0.00000000
     0.00000000     0.00000000     0.00000000
     0.00000000     0.00000000     0.00000000
  -112.42695403    78.77038080     0.00000000
   -17.89067132    -1.79224173     0.00000000
    37.00199263     4.09424488     0.00000000
  -140.93488038    22.85052252     0.00000000
  -266.91722947    15.30081062     0.00000000
  -356.20009030   -49.25719377     0.00000000
  -431.66356512   -16.75162369     0.00000000
  -568.14522098   -75.62518764     0.00000000
     0.00000000     0.00000000     0.00000000
  -187.38107213   -43.24233103     0.00000000
   -80.43101673    65.44135682     0.00000000
   -22.34871382    29.40011529     0.00000000
  -199.64093723    67.05338726     0.00000000
  -238.18240686    56.26450949     0.00000000
  -293.46587125   143.42504091     0.00000000
  -129.09225394    93.45919987     0.00000000
   231.96992479   170.41323026     0.00000000
     0.00000000     0.00000000     0.00000000
  -193.12928041   -90.48604552     0.00000000
   -92.16843569    89.36462624     0.00000000
   -63.09646472    63.17195427     0.00000000
  -145.57081681    45.95583452     0.00000000
  -165.18170371   102.24434748     0.00000000
  -109.95922855   163.09227848     0.00000000
    41.82252117   143.56863592     0.00000000
    97.19968191   160.98506332     0.00000000
     0.00000000     0.00000000     0.00000000
  -164.45291849   -61.87450235     0.00000000
  -102.84192015   105.11939405     0.00000000
   -25.17435223    44.12585180     0.00000000
  -106.86384549    58.00826783     0.00000000
   -38.02700231   -30.95409668     0.00000000
    68.76531202     5.60827660     0.00000000
    97.28630522   177.64795222     0.00000000
   370.02045841    80.99711885     0.00000000
     0.00000000     0.00000000     0.00000000
  -195.64896878   -63.25234680     0.00000000
   -95.22360881    42.93231690     0.00000000
   -32.74696141    44.25605594     0.00000000
   -23.26847301    -3.48452117     0.00000000
   -98.38012066   -11.99324269     0.00000000
  -101.60608115  -104.67123000     0.00000000
    67.44109432   215.21377681     0.00000000
     0.00000000     0.00000000     0.00000000
     0.00000000     0.00000000     0.00000000
  -129.38022278   -64.70924370     0.00000000
   -83.63944138   -48.24896478     0.00000000
    70.35750748     7.98700066     0.00000000
   -64.81163480   -31.60157695     0.00000000
    94.98646679    -9.00940359     0.00000000
  -110.61797066    80.16383556     0.00000000
   101.87163264  -272.29072704     0.00000000
   219.32550182   243.27851612     0.00000000
     0.00000000     0.00000000     0.00000000
  -167.25872508   -64.23101252     0.00000000
  -111.68714962   -77.07598365     0.00000000
   -67.32327580   -61.37438821     0.00000000
   -82.83476748    -8.28636759     0.00000000
   -32.04702656   -81.25564965     0.00000000
   125.92315072   132.74888757     0.00000000
    10.47365465  -294.73342273     0.00000000
   -19.95065213   244.69204008     0.00000000
     0.00000000     0.00000000     0.00000000
  -130.25101303   -63.07591287     0.00000000
  -129.06200432   -88.58356071     0.00000000
  -137.62463603   -64.76917669     0.00000000
  -184.20675732   -60.82883894     0.00000000
   -94.30369009   -18.56996331     0.00000000
   -40.32136983   -35.10972302     0.00000000
    49.65506334    21.42422934     0.00000000
    27.83585619    65.77324078     0.00000000
     0.00000000     0.00000000     0.00000000
   -37.13337721   -70.21173697     0.00000000
   -69.60312100   -34.50765446     0.00000000
  -142.04010211   -50.47864301     0.00000000
  -238.62343497   -35.90765346     0.00000000
  -297.16040566   -27.72101046     0.00000000
  -354.56736572    40.91184909     0.00000000
  -400.66485566   136.03703130     0.00000000
  -320.38677057   280.73630898     0.00000000
     0.00000000     0.00000000     0.00000000
     0.00000000     0.00000000     0.00000000
     0.00000000     0.00000000     0.00000000
     0.00000000     0.00000000     0.00000000
     0.00000000     0.00000000     0.00000000
     0.00000000     0.00000000     0.00000000
     0.00000000     0.00000000     0.00000000
     0.00000000     0.00000000     0.00000000
     0.00000000     0.00000000     0.00000000
     0.00000000     0.00000000     0.00000000
     0.00000000     0.00000000     0.00000000
     0.00000000     0.00000000     0.00000000
     0.00000000     0.00000000     0.00000000
     0.00000000     0.00000000     0.00000000
     0.00000000     0.00000000     0.00000000
     0.00000000     0.00000000     0.00000000
     0.00000000     0.00000000     0.00000000
     0.00000000     0.00000000     0.00000000
     0.00000000     0.00000000     0.00000000
    25.28448322   -51.95070465    73.91380502
   -14.24138631     1.12995734   -78.91177138
   -34.49213673    15.57436221    46.21442089
   -31.30842657    13.77989986    37.59959307
  -153.85924541    42.66705456    62.00335891
  -233.91555369    16.76106250   -29.33926412
  -344.70418230   -14.92803902   -53.67447136
  -597.82895623  -102.26134422   -60.40186053
     0.00000000     0.00000000     0.00000000
    62.96752314   -22.11837910   152.65167483
    15.98341748   -48.20732048  -102.14207523
   -19.62108996    41.14393922    47.51229207
   -69.55492780    63.01312112    23.24925275
   -62.42003461   -30.78993432    15.17777555
   -76.50180816    79.56208641   -83.75639656
  -169.23238272   119.94382657  -150.40994834
   189.30018260   -27.46677782  -186.37500866
     0.00000000     0.00000000     0.00000000
    84.46950004   -49.80145617    66.34123099
    12.42443046   -57.03809617   -79.56391961
   -73.63596619   109.99394924    60.19573405
    12.38148557    18.36190989    -3.24939709
   -65.63888845     5.72665170    39.35717370
    68.84141358  -138.21663155    51.79359615
   167.01459107   205.82009468  -115.12806434
     3.99112923   -83.55364660  -102.06173036
     0.00000000     0.00000000     0.00000000
    36.28065501   -88.01644583    99.71089982
   -45.89630191   -30.27319465   -83.36446037
     6.00532553    83.97661567    53.37628137
   -42.57160522    50.30794311   -14.72287493
     8.95181202   -25.22753657    82.03423908
    13.49902240  -135.07594146   -78.41267335
   111.31109222    97.77878139    23.89666865
   330.81437155   -20.01991327  -129.31216781
     0.00000000     0.00000000     0.00000000
   -21.34293459   -68.06688910    87.08806727
   -23.07442411   -61.65813763   -48.49679008
   -49.44730674    83.20070936    62.77778981
    42.98531499    44.95758060   -11.36781733
   -43.59072042   -11.77097812    12.55803136
   -72.94747985   -41.64895478   -99.73894707
   -15.31693346    85.88217564     4.03932834
     0.00000000     0.00000000     0.00000000
     0.00000000     0.00000000     0.00000000
    36.11923311   -64.92566412    95.51306894
   -21.46941582   -71.72492323   -59.75375366
     7.96843153    62.13317885    56.65238405
    51.56671031    18.18930665     1.92090881
    63.25915853     2.71416416    30.82981241
   -34.35861960   102.33771821   -41.85530112
    92.89811627  -210.76772218    36.51591933
   151.90015635   210.11816476   -77.80156154
     0.00000000     0.00000000     0.00000000
   -27.05863264   -80.14087762    60.57656042
   -83.83969459   -71.45361863   -50.88284423
   -75.84018115   -40.63241106    63.55233013
    70.00521672    24.24486720   -17.52656791
   -83.86488656   -42.62699577    16.23727685
   127.52969711   164.85889056   -61.15407611
    40.93050906  -291.57200453   -67.49685368
   -20.30239926   280.95250053   -96.79986434
     0.00000000     0.00000000     0.00000000
   -17.14141192   -31.98281332    86.86146292
  -117.61860222   -90.23866096   -41.95147921
  -149.17475739   -58.02350574    43.59818225
  -158.68263288   -59.94033016   -25.68205109
  -104.92598587    14.03340894     2.33444041
   -54.89761122   -14.16838853   -73.24531632
    51.02249248   -12.92635918    96.60966102
    58.92690215    74.17140023  -220.32502512
     0.00000000     0.00000000     0.00000000
   -12.21981238    25.04272509     7.56827284
   -84.56070224   -58.61220584    -1.91246106
  -159.48944256   -44.75936539    29.25166475
  -199.22695088   -37.79494699     3.15378450
  -284.40782294   -28.73542915    12.74166621
  -286.95432965    43.23851299    -9.94836820
  -343.74951351   150.88628092   -19.80991304
  -308.08883354   274.50530640   -11.21924118
     0.00000000     0.00000000     0.00000000
     0.00000000     0.00000000     0.00000000
     0.00000000     0.00000000     0.00000000
     0.00000000     0.00000000     0.00000000
     0.00000000     0.00000000     0.00000000
     0.00000000     0.00000000     0.00000000
     0.00000000     0.00000000     0.00000000
     0.00000000     0.00000000     0.00000000
     0.00000000     0.00000000     0.00000000
     0.00000000     0.00000000     0.00000000
     0.00000000     0.00000000     0.00000000
     0.00000000     0.00000000     0.00000000
     0.00000000     0.00000000     0.00000000
     0.00000000     0.00000000     0.00000000
     0.00000000     0.00000000     0.00000000
     0.00000000     0.00000000     0.00000000
     0.00000000     0.00000000     0.00000000
     0.00000000     0.00000000     0.00000000
     0.00000000     0.00000000     0.00000000
    62.11864795    -1.87494649    74.89590887
    58.79358037   -29.55658858    -4.29001332
    42.86740053   -10.20305138     1.28428037
    36.99710287    31.88089531    70.75651303
   110.58802008    -5.38626231    19.00802899
   123.57161941    21.70507956   -44.81811557
  -107.82505652    -2.49038008   -15.67943242
  -655.74290717   -63.83737432   -54.13731015
     0.00000000     0.00000000     0.00000000
    60.67086679   -28.82346493    59.96559396
    95.70367141   -58.36514324    20.22999140
    66.90184833     0.87669751    -5.23403938
    62.93905691    25.53245975    53.87406048
    70.54953144    33.48223243     9.55590542
   161.85889426   -89.18750842    16.46354583
   -54.26752819   175.65777534   -71.54487873
     9.69990840   -43.64723641  -221.22517682
     0.00000000     0.00000000     0.00000000
    36.38265827   -44.65302755    72.39240220
    83.10581069   -92.15991368     3.22359641
    29.45402586    54.67473297     4.45434761
    57.57903471   -38.41750836    23.74217378
   107.95961138   106.49779524     3.48600098
    81.01917742  -144.70117093    26.44048661
   175.27787078   248.45632024  -114.63501418
   -51.01047134  -172.36256845  -160.39826268
     0.00000000     0.00000000     0.00000000
    33.42183426   -66.98180748    65.48055250
    24.20482096   -82.87533731    -4.38015156
    40.45941691    46.18078614    17.00691000
    41.05261802   -12.29371996   -19.02060420
    67.41757181    78.70893596    70.43939340
   114.89438671   -91.45256707  -133.83748929
   142.47812255   114.99232248    50.96400708
   297.50548880   -61.71888600  -168.60226203
     0.00000000     0.00000000     0.00000000
    -1.54992703   -64.59108351    88.40094489
    12.56001409   -87.59525308    -8.78984775
   -11.74286922    47.43005571    25.97598903
    33.65904538     0.07746127    -0.96778015
    83.19484483    46.24875175     2.68333670
   -13.40046513   -54.88279834  -101.75020332
    28.11954998    27.23533645   -66.46047234
     0.00000000     0.00000000     0.00000000
     0.00000000     0.00000000     0.00000000
    40.18645000   -57.04625667    68.61663854
   -25.18415379   -82.05606525    -1.26361891
    36.38894271     6.17025567    46.31381083
     4.40687123    36.25107754   -19.52684369
   110.66285236   -40.01403268    57.12547971
     7.32521904   149.69301425  -106.24380404
   129.85411667  -227.31806846    -7.22045609
   106.69472141   212.87646412  -133.03341465
     0.00000000     0.00000000     0.00000000
   -36.73775520   -61.71695446    69.77704263
   -58.22353117   -70.42314007     8.80853176
   -46.43568765   -57.08139101    23.00404243
    60.80707951    52.44541935    -0.99149197
    40.96480569   -36.85626649    59.58807487
    54.56186143    97.06005521   -62.57307888
   131.73552299  -234.00826621   -87.95776746
    52.28612893   261.74277733  -183.73250311
     0.00000000     0.00000000     0.00000000
   -10.46285032   -21.92054150    43.57050152
   -82.96337402   -79.01475763    19.19754761
  -101.74523769   -52.22627452    10.59383872
  -121.11500855   -46.86005981    25.13517909
   -71.26609988    21.39455690     0.55287445
  -158.59211960   -14.60669868   -53.55382877
   -51.62622307    -4.45237396   -93.68119055
    62.52462913   143.14013611  -236.89429045
     0.00000000     0.00000000     0.00000000
    -8.32885309   -27.06129105    42.36494494
   -60.54530527   -34.50695552    22.59283908
  -113.07011553   -55.80517801    21.32269390
  -177.21142120   -30.17135972    26.62444589
  -247.14987926   -31.81068614    11.59284195
  -305.99078941    65.62891421    15.35584041
  -369.33046076   158.13507610     6.16927997
  -351.27082867   239.02359472    21.55007090
     0.00000000     0.00000000     0.00000000
     0.00000000     0.00000000     0.00000000
     0.00000000     0.00000000     0.00000000
     0.00000000     0.00000000     0.00000000
     0.00000000     0.00000000     0.00000000
     0.00000000     0.00000000     0.00000000
     0.00000000     0.00000000     0.00000000
     0.00000000     0.00000000     0.00000000
     0.00000000     0.00000000     0.00000000
     0.00000000     0.00000000     0.00000000
     0.00000000     0.00000000     0.00000000
     0.00000000     0.00000000     0.00000000
     0.00000000     0.00000000     0.00000000
     0.00000000     0.00000000     0.00000000
     0.00000000     0.00000000     0.00000000
     0.00000000     0.00000000     0.00000000
     0.00000000     0.00000000     0.00000000
     0.00000000     0.00000000     0.00000000
     0.00000000     0.00000000     0.00000000
     7.31986162    -7.27021897    10.61664762
    77.61133376   -35.34472763    33.56866252
    79.63058270   -10.99453892    -2.33823274
   100.59186416     9.82445986    51.80974068
   119.42488931    -8.26893070   -17.86432769
   106.31457761     6.28986619   -14.77604554
   220.77953812    -7.78342830    -8.45115538
  -515.72927177    16.01941390   -43.91651920
     0.00000000     0.00000000     0.00000000
    27.60799464   -12.12828924    49.10422867
    95.91883921   -65.25963746    20.27656889
    78.92236869    10.09249478    18.57937459
   130.89457974   -31.35090599    14.96807905
    79.69510542    40.51798759    16.57165024
   181.52438998   -29.52905639   -17.78377528
    74.99627493    68.61232831    80.12952832
    36.56867155   160.59552051  -194.56628192
     0.00000000     0.00000000     0.00000000
    14.44720921   -22.91215457    47.62436031
    75.42686266   -91.58077039    11.65541122
    70.48984818    54.10789457    17.73952015
    85.57153834   -89.11757751    -8.00422027
   107.64083214   107.53912092     3.41966352
   111.31589231  -126.99002224   -43.81132333
    67.28690729   270.12044804   -89.37497167
   -46.07340751   -55.02838648  -153.00495353
     0.00000000     0.00000000     0.00000000
    55.31117994   -51.35929052    70.17583060
    27.94048196   -69.97053101    -1.66745773
    79.02605005     3.49308301    34.50115694
    61.94223457   -47.43980943   -47.21087849
   105.98954502    44.44549329    46.54039028
    87.31452766   -84.82373347   -61.19274542
   241.05787148   135.01426411    29.29116973
   290.43999021   -55.40936718   -66.71230975
     0.00000000     0.00000000     0.00000000
    -1.25853702   -48.10592035    53.55946416
    48.78321287   -60.35955617    10.73818094
    32.58194197   -44.14696861    33.45333194
    68.71137722   -25.04760229   -20.65197258
    73.98977735     7.80536519    18.29259055
   -34.55207941   -14.45768159   -87.67506679
   -24.44988492   147.30344869  -170.89958487
     0.00000000     0.00000000     0.00000000
     0.00000000     0.00000000     0.00000000
    13.63975543   -47.94104536    64.28625458
     8.01029305   -61.01239518    17.96879602
    33.25720624   -64.82091212    43.50146771
    51.26745160   -10.11493081   -34.44355521
    74.61631290   -41.69045977    27.76272219
    68.88538307    96.76960527   -72.77122198
    37.68801765   -86.30585048    52.98946178
    70.42982871   259.56027817  -135.04773731
     0.00000000     0.00000000     0.00000000
   -21.54554199   -46.66545829    48.17048626
    22.12776019   -53.28024009    28.67476380
   -26.04208924   -78.50280207    22.69419664
    56.25424060   -24.26859802   -17.40869334
    26.85873376   -30.07427983    50.91582381
   101.78278718   114.25503278   -39.13151031
    38.06544643  -218.76329551   -72.64043372
    46.88727260   307.22514163  -263.61851332
     0.00000000     0.00000000     0.00000000
     5.98228302   -19.47831792    59.01554172
    -1.50354238   -60.65988403    30.20657346
   -33.72820983   -44.38939816    31.98579672
   -46.24185454   -77.65916238    21.36077319
    -0.11204264    29.07924069    41.83673948
    81.50486221    -4.10225947   -55.03507376
  -105.51578787   -39.17236050   -67.06205472
   -89.58006050   174.78725904  -220.79847875
     0.00000000     0.00000000     0.00000000
     5.17338226    -9.01624268    38.53130871
    13.23876825   -27.24861593    38.81566614
   -53.61544639   -37.86196557    28.72558887
   -73.70393392   -31.23737632    24.41282773
  -142.16657258   -22.78609108    43.27071417
  -166.52134983    -6.03720515    15.69032665
  -302.54426009   108.33172690    73.88695259
  -435.39332396   211.08409155    36.54171105
     0.00000000     0.00000000     0.00000000
     0.00000000     0.00000000     0.00000000
     0.00000000     0.00000000     0.00000000
     0.00000000     0.00000000     0.00000000
     0.00000000     0.00000000     0.00000000
     0.00000000     0.00000000     0.00000000
     0.00000000     0.00000000     0.00000000
     0.00000000     0.00000000     0.00000000
     0.00000000     0.00000000     0.00000000
     0.00000000     0.00000000     0.00000000
     0.00000000     0.00000000     0.00000000
     0.00000000     0.00000000     0.00000000
     0.00000000     0.00000000     0.00000000
     0.00000000     0.00000000     0.00000000
     0.00000000     0.00000000     0.00000000
     0.00000000     0.00000000     0.00000000
     0.00000000     0.00000000     0.00000000
     0.00000000     0.00000000     0.00000000
     0.00000000     0.00000000     0.00000000
    18.43387259    -5.05817114    16.47413703
    70.60659505   -27.01094869    16.09819495
    95.44398538    -3.23568135    25.13426592
    74.24751864     1.91685752     8.07741019
   112.32284553    -5.98096936     4.86248663
    56.14436786    34.17274487    -1.99363894
   190.75357688     9.12445827   -31.34129895
  -226.37590116    30.34493596    40.54071586
     0.00000000     0.00000000     0.00000000
    37.86533882   -16.27659936    30.66346005
    74.58344753   -45.63073397     0.97949658
    79.31494016    17.08235493    38.70536698
    96.70538542   -21.98023854   -16.16886048
    90.69315133    33.35631754    46.68886544
   104.97338915   -28.85205106   -85.08949775
   132.00316184    72.17599411    68.62973986
    49.00949058   233.59370908   -98.10918533
     0.00000000     0.00000000     0.00000000
    26.80287917     0.43385091    45.77309159
    72.63900093   -61.70985578     7.04272785
    75.99838918    28.07606649    20.17868550
    80.65393244   -58.68674144   -15.15660431
    98.24333011    55.62549686     5.35256356
    68.74325070   -65.09509980   -20.49041636
    50.89115697   100.36661459   -55.72717109
    -0.33392223    94.36246462  -136.44720687
     0.00000000     0.00000000     0.00000000
    63.88234641   -18.00934093    46.37538312
    54.62028547   -31.01502401    11.11967005
    93.45401050   -17.77104872    32.32608018
    90.75301923   -25.97286906   -13.72101847
    64.08948905    10.57977077    11.77724887
   178.05431432   -63.48058914   -28.72115218
    57.82684951   189.47949774     6.09154521
   441.79930291   -22.12560022  -211.36700942
     0.00000000     0.00000000     0.00000000
    63.27386143   -46.96040697    63.34020223
   101.87367167     0.88167591    16.02791972
   100.93761983   -53.48326708    49.39286656
    86.44752341    10.64573486   -27.70997415
   104.58457935   -34.39192614    24.85107724
   -68.41814363     6.98861633   -36.16320539
   -88.88395339   181.27208603  -120.74945703
     0.00000000     0.00000000     0.00000000
     0.00000000     0.00000000     0.00000000
    21.39104162   -47.44528201    43.94827545
    30.51431106     1.59859768     6.89312945
    76.56747087   -52.55575462    50.05878643
    55.99331078     7.42383649   -44.79021926
    70.70579538   -53.36307181    60.61029140
    36.27355343   113.61815564  -101.09118578
   165.70769754  -199.30478364   150.06023803
   -24.22353453   176.25443223  -241.67680788
     0.00000000     0.00000000     0.00000000
    33.26559882   -29.89060490    52.52008936
    55.07603225     6.34042008     7.28956957
    72.74381319   -60.43687031    53.69115534
    48.19970750     3.55091522   -40.22194720
    72.99234072   -70.94909846    56.18878932
    64.04595797   113.58431606   -91.94562771
    54.47953567  -139.08259942    27.96536332
   -21.21612454   167.38121001  -261.87034777
     0.00000000     0.00000000     0.00000000
    12.42786468   -17.74361726    35.09162725
    49.95095213   -11.22572395    20.80806866
    60.08286117   -36.90763616    48.85495895
    42.75874883   -29.19147475    -8.64267524
    57.62472297   -55.68744050    69.26108642
   105.09827653    67.42736660   -67.92500200
   134.27628436  -121.86261876    31.18610638
  -167.90687931    21.93658509  -128.83780990
     0.00000000     0.00000000     0.00000000
    47.45439292    10.52079659    44.02393669
    47.09379304   -16.94515053    24.02747639
    58.38296368    -7.00507713    45.43080084
     9.27636395   -34.60241389     4.86150501
    28.50366253   -23.81049204    59.90248552
    69.52980599    22.71258408   -61.24188670
    96.16087255   -34.36058030   -16.51131368
  -381.67635274   171.71124691    72.64369522
     0.00000000     0.00000000     0.00000000
     0.00000000     0.00000000     0.00000000
     0.00000000     0.00000000     0.00000000
     0.00000000     0.00000000     0.00000000
     0.00000000     0.00000000     0.00000000
     0.00000000     0.00000000     0.00000000
     0.00000000     0.00000000     0.00000000
     0.00000000     0.00000000     0.00000000
     0.00000000     0.00000000     0.00000000
     0.00000000     0.00000000     0.00000000
     0.00000000     0.00000000     0.00000000
     0.00000000     0.00000000     0.00000000
     0.00000000     0.00000000     0.00000000
     0.00000000     0.00000000     0.00000000
     0.00000000     0.00000000     0.00000000
     0.00000000     0.00000000     0.00000000
     0.00000000     0.00000000     0.00000000
     0.00000000     0.00000000     0.00000000
     0.00000000     0.00000000     0.00000000
     0.00000000     0.00000000     0.00000000
     0.00000000     0.00000000     0.00000000
     0.00000000     0.00000000     0.00000000
     0.00000000     0.00000000     0.00000000
     0.00000000     0.00000000     0.00000000
     0.00000000     0.00000000     0.00000000
     0.00000000     0.00000000     0.00000000
     0.00000000     0.00000000     0.00000000
     0.00000000     0.00000000     0.00000000
     0.00000000     0.00000000     0.00000000
     0.00000000     0.00000000     0.00000000
     0.00000000     0.00000000     0.00000000
     0.00000000     0.00000000     0.00000000
     0.00000000     0.00000000     0.00000000
     0.00000000     0.00000000     0.00000000
     0.00000000     0.00000000     0.00000000
     0.00000000     0.00000000     0.00000000
     0.00000000     0.00000000     0.00000000
     0.00000000     0.00000000     0.00000000
     0.00000000     0.00000000     0.00000000
     0.00000000     0.00000000     0.00000000
     0.00000000     0.00000000     0.00000000
     0.00000000     0.00000000     0.00000000
     0.00000000     0.00000000     0.00000000
     0.00000000     0.00000000     0.00000000
     0.00000000     0.00000000     0.00000000
     0.00000000     0.00000000     0.00000000
     0.00000000     0.00000000     0.00000000
     0.00000000     0.00000000     0.00000000
     0.00000000     0.00000000     0.00000000
     0.00000000     0.00000000     0.00000000
     0.00000000     0.00000000     0.00000000
     0.00000000     0.00000000     0.00000000
     0.00000000     0.00000000     0.00000000
     0.00000000     0.00000000     0.00000000
     0.00000000     0.00000000     0.00000000
     0.00000000     0.00000000     0.00000000
     0.00000000     0.00000000     0.00000000
     0.00000000     0.00000000     0.00000000
     0.00000000     0.00000000     0.00000000
     0.00000000     0.00000000     0.00000000
     0.00000000     0.00000000     0.00000000
     0.00000000     0.00000000     0.00000000
     0.00000000     0.00000000     0.00000000
     0.00000000     0.00000000     0.00000000
     0.00000000     0.00000000     0.00000000
     0.00000000     0.00000000     0.00000000
     0.00000000     0.00000000     0.00000000
     0.00000000     0.00000000     0.00000000
     0.00000000     0.00000000     0.00000000
     0.00000000     0.00000000     0.00000000
     0.00000000     0.00000000     0.00000000
     0.00000000     0.00000000     0.00000000
     0.00000000     0.00000000     0.00000000
     0.00000000     0.00000000     0.00000000
     0.00000000     0.00000000     0.00000000
     0.00000000     0.00000000     0.00000000
     0.00000000     0.00000000     0.00000000
     0.00000000     0.00000000     0.00000000
     0.00000000     0.00000000     0.00000000
     0.00000000     0.00000000     0.00000000
     0.00000000     0.00000000     0.00000000
     0.00000000     0.00000000     0.00000000
     0.00000000     0.00000000     0.00000000
     0.00000000     0.00000000     0.00000000
     0.00000000     0.00000000     0.00000000
     0.00000000     0.00000000     0.00000000
     0.00000000     0.00000000     0.00000000
     0.00000000     0.00000000     0.00000000
     0.00000000     0.00000000     0.00000000
     0.00000000     0.00000000     0.00000000
     0.00000000     0.00000000     0.00000000
     0.00000000     0.00000000     0.00000000
     0.00000000     0.00000000     0.00000000
     0.00000000     0.00000000     0.00000000
     0.00000000     0.00000000     0.00000000
     0.00000000     0.00000000     0.00000000
     0.00000000     0.00000000     0.00000000
     0.00000000     0.00000000     0.00000000
     0.00000000     0.00000000     0.00000000
     0.00000000     0.00000000     0.00000000
     0.00000000     0.00000000     0.00000000
     0.00000000     0.00000000     0.00000000
     0.00000000     0.00000000     0.00000000
     0.00000000     0.00000000     0.00000000
     0.00000000     0.00000000     0.00000000
     0.00000000     0.00000000     0.00000000
     0.00000000     0.00000000     0.00000000
     0.00000000     0.00000000     0.00000000
     0.00000000     0.00000000     0.00000000
     0.00000000     0.00000000     0.00000000
     0.00000000     0.00000000     0.00000000
     0.00000000     0.00000000     0.00000000
     0.00000000     0.00000000     0.00000000
     0.00000000     0.00000000     0.00000000
     0.00000000     0.00000000     0.00000000
     0.00000000     0.00000000     0.00000000
     0.00000000     0.00000000     0.00000000
     0.00000000     0.00000000     0.00000000
     0.00000000     0.00000000     0.00000000
   -16.11102605   -56.28269354     0.00000000
   -69.01152812   -16.16453990     0.00000000
  -118.01722202    24.06952351     0.00000000
  -107.01230542   -49.99429231     0.00000000
  -121.02122410   -32.16194428     0.00000000
   -78.28850873   -80.92215576     0.00000000
   -84.79182664   -19.34053299     0.00000000
   -52.01872652   -55.69289325     0.00000000
   -49.26368432   -11.76142270     0.00000000
   -28.62245038   -27.31563328     0.00000000
   -24.72772000    -6.62576000     0.00000000
   -71.46224578   343.76377247     0.00000000
  -138.31512955    16.77029479     0.00000000
  -126.17024182   -34.26419636     0.00000000
   -96.95796637   -37.33545914     0.00000000
  -112.89809698   -50.39167616     0.00000000
   -95.89288507  -102.74144196     0.00000000
   -77.97676282  -111.21771647     0.00000000
   -32.78766369  -105.47887825     0.00000000
   -34.12236519   -61.69415694     0.00000000
   -19.39520104   -40.93821649     0.00000000
   -37.09156000    -9.93864000     0.00000000
   120.82599868   430.66470965     0.00000000
   121.01749964   374.04783688     0.00000000
   -51.60530901   104.56157941     0.00000000
  -138.66522438    56.56712320     0.00000000
   -95.41183172   -82.68825576     0.00000000
    -9.66771772   -87.03627211     0.00000000
    21.86571946  -155.16316791     0.00000000
    22.18839971  -115.01118717     0.00000000
     2.78455321   -97.85893025     0.00000000
   -21.06348170   -34.15905382     0.00000000
   -37.09156000    -9.93864000     0.00000000
  -115.59103060   240.13964403     0.00000000
    26.40233790   263.97630483     0.00000000
   151.33234434   224.39263341     0.00000000
   256.33086597   153.01295706     0.00000000
   252.83133014    29.90550405     0.00000000
   219.96549948    -2.31106815     0.00000000
   146.40644459   -34.13377406     0.00000000
    94.98872956   -34.68681790     0.00000000
    25.68489213   -40.50938530     0.00000000
    -4.23817203   -11.99762406     0.00000000
   -24.72772000    -6.62576000     0.00000000
     0.00000000     0.00000000     0.00000000
     0.00000000     0.00000000     0.00000000
     0.00000000     0.00000000     0.00000000
     0.00000000     0.00000000     0.00000000
     0.00000000     0.00000000     0.00000000
     0.00000000     0.00000000     0.00000000
     0.00000000     0.00000000     0.00000000
     0.00000000     0.00000000     0.00000000
     0.00000000     0.00000000     0.00000000
     0.00000000     0.00000000     0.00000000
     0.00000000     0.00000000     0.00000000
     0.00000000     0.00000000     0.00000000
     0.00000000     0.00000000     0.00000000
     0.00000000     0.00000000     0.00000000
     0.00000000     0.00000000     0.00000000
     0.00000000     0.00000000     0.00000000
     0.00000000     0.00000000     0.00000000
     0.00000000     0.00000000     0.00000000
     0.00000000     0.00000000     0.00000000
     0.00000000     0.00000000     0.00000000
     0.00000000     0.00000000     0.00000000
     0.00000000     0.00000000     0.00000000
    44.95121865   -45.94740875    73.83476209
   -60.74154298    -6.90780619    36.60881542
  -114.85078744    18.07009612    -4.89643718
  -113.84282083   -62.36924974    28.80136811
  -114.49549210   -33.53999846    -7.06339574
   -86.59703289   -80.16705679    17.64695384
   -78.87080344   -23.53907174   -10.13829534
   -55.38594881   -55.64135246     7.69600657
   -46.00471092   -16.27711112   -11.01787913
   -28.25301025   -27.70952452    -3.95247481
   -23.35208000    -6.25716000     0.00000000
  -106.50630402   286.29627784   133.70952755
  -163.74050421   -27.75943100    -0.18054693
  -123.88347359    -0.53776132    17.44572814
  -107.33611470   -40.43856080    -5.88957221
  -109.11660756   -39.32547115     6.38803415
   -96.28350930  -114.05183267   -12.76715043
   -64.37667022  -103.58564925    11.53166187
   -35.17368812  -113.32554678     6.63766722
   -20.74492951   -59.80265540    13.74119872
   -26.00102398   -42.89376426     7.11502295
   -35.33764000    -9.46868000     0.00000000
    65.27771073   451.13182392    21.75330786
    51.84888107   318.81054226    35.46856616
   -57.39998457    87.52831722    21.69095484
  -129.44033495    64.10488491   -68.25965560
   -35.95035353   -77.69207130   -41.32655447
    -8.67266320   -89.11135938   -27.67997744
    45.49107248  -150.36437998   -15.80253884
    21.60982414  -110.96660248     5.08162767
    14.07987156   -94.78769783    13.93220351
   -25.40064225   -29.50274184    12.43901690
   -35.33764000    -9.46868000     0.00000000
  -129.32595449   218.97581068    59.06108196
    10.20815669   230.72797135    50.85277062
   176.17279433   197.53209976    21.27847888
   237.50770403   108.89513052    31.33543087
   264.62658065    23.33840781     8.17852763
   203.22487224   -13.40693152    19.45934764
   153.95825438   -31.00157481     8.88850133
    80.44483720   -38.49830852    15.36736720
    38.52264432   -36.64748504    14.57877345
   -18.21393416   -13.04955898    16.45379881
   -23.35208000    -6.25716000     0.00000000
     0.00000000     0.00000000     0.00000000
     0.00000000     0.00000000     0.00000000
     0.00000000     0.00000000     0.00000000
     0.00000000     0.00000000     0.00000000
     0.00000000     0.00000000     0.00000000
     0.00000000     0.00000000     0.00000000
     0.00000000     0.00000000     0.00000000
     0.00000000     0.00000000     0.00000000
     0.00000000     0.00000000     0.00000000
     0.00000000     0.00000000     0.00000000
     0.00000000     0.00000000     0.00000000
     0.00000000     0.00000000     0.00000000
     0.00000000     0.00000000     0.00000000
     0.00000000     0.00000000     0.00000000
     0.00000000     0.00000000     0.00000000
     0.00000000     0.00000000     0.00000000
     0.00000000     0.00000000     0.00000000
     0.00000000     0.00000000     0.00000000
     0.00000000     0.00000000     0.00000000
     0.00000000     0.00000000     0.00000000
     0.00000000     0.00000000     0.00000000
     0.00000000     0.00000000     0.00000000
   -29.34658884  -106.31220118   164.04322846
   -54.68491273    -8.10803340    80.41354027
  -119.75726435    11.84704208     8.75379670
  -108.38268705   -66.32739784    56.17583718
  -127.43645596   -25.60903110    -8.27532276
   -83.69806195   -73.88358197    28.74008477
   -82.40563740   -26.25296156   -13.77169206
   -49.70747194   -56.42282830    12.83999547
   -42.43392908   -22.46574307   -14.54609045
   -25.27700740   -30.08667198    -9.04748509
   -19.87104000    -5.32444000     0.00000000
  -138.43726490   283.70413170   221.22343095
  -181.87530378   -55.87231374   -65.66018811
  -155.62430600    15.78906997    27.91374440
  -121.55140034   -46.09273293   -46.46496644
  -120.66362090   -48.45411262     7.95913335
   -83.72863140  -110.69419584   -29.85867306
   -67.65218391  -104.01307416    25.64339790
   -24.31759546  -103.79028073     6.22640065
   -25.65126461   -59.84534990    24.08309512
   -13.08549706   -40.01741963    11.08402674
   -30.29328000    -8.11708000     0.00000000
    37.94900167   460.25949575    54.24245179
    51.26073443   295.33162314    93.54035962
   -62.17989786    60.10366060    -9.44904801
   -51.25476759    40.66088864  -104.30113976
   -14.56654510   -94.74210546   -46.66468437
    42.84083039   -95.04353823   -47.20558601
    51.01644951  -142.18335076    -9.67494490
    35.74116429  -108.10706739    15.80050624
     7.39708886   -85.47001768    34.42377945
   -18.21568397   -25.31910883    20.22215906
   -30.29328000    -8.11708000     0.00000000
  -169.21158692   234.82768768   104.58300354
     3.33376627   207.60747838    79.01403498
   158.98579560   122.08275500     9.07791053
   270.34356282    72.39243351    33.58970724
   249.06723190     1.19466869    16.55882628
   212.85267090   -20.23648621    22.22841284
   144.95441769   -37.57898181    14.68139863
    96.85557940   -35.62893092    25.37317049
    21.62422155   -37.95579635    40.12706310
    -8.26034507   -10.81182652    26.57843013
   -19.87104000    -5.32444000     0.00000000
     0.00000000     0.00000000     0.00000000
     0.00000000     0.00000000     0.00000000
     0.00000000     0.00000000     0.00000000
     0.00000000     0.00000000     0.00000000
     0.00000000     0.00000000     0.00000000
     0.00000000     0.00000000     0.00000000
     0.00000000     0.00000000     0.00000000
     0.00000000     0.00000000     0.00000000
     0.00000000     0.00000000     0.00000000
     0.00000000     0.00000000     0.00000000
     0.00000000     0.00000000     0.00000000
     0.00000000     0.00000000     0.00000000
     0.00000000     0.00000000     0.00000000
     0.00000000     0.00000000     0.00000000
     0.00000000     0.00000000     0.00000000
     0.00000000     0.00000000     0.00000000
     0.00000000     0.00000000     0.00000000
     0.00000000     0.00000000     0.00000000
     0.00000000     0.00000000     0.00000000
     0.00000000     0.00000000     0.00000000
     0.00000000     0.00000000     0.00000000
     0.00000000     0.00000000     0.00000000
   -10.74401744  -134.52769378   255.56680049
  -108.55206398    17.69074694    29.78710864
  -111.23674424    14.67323366    85.62267359
  -139.74314661   -19.99652645    37.48054441
  -109.45498411   -18.91636282     9.78346096
   -99.12549074   -45.49845723    22.86097534
   -72.55424111   -27.23966542    -7.57344414
   -52.02911960   -41.06429293    10.38589768
   -30.59778667   -20.33860911    -9.50981318
   -18.79718294   -28.38725769   -11.67644850
   -14.54072000    -3.89616000     0.00000000
  -123.50645652   190.38455528   299.57636461
  -198.75362655  -105.69593993  -149.15772434
  -166.34079327    10.95958183    69.55086504
  -159.49146353   -85.60983831   -90.63325609
  -127.73420131   -43.82392786    12.60134900
  -105.65834555  -110.68209649   -30.91446045
   -71.20853822   -78.31893837    23.85395077
   -40.52472637   -88.28923079     5.61230194
   -19.56805660   -46.19660569    16.12539744
   -13.48091641   -37.92179233    12.61977058
   -22.31856000    -5.98024000     0.00000000
    35.12245333   423.75883568   159.14413379
    33.50414220   197.78318569    71.25673900
    -0.41066553    37.88376670   -43.85414382
   -60.59801481   -20.13153661   -77.81057099
    -0.20291587  -112.93952379   -71.04569938
     5.06094720  -112.39366134   -16.32720658
    16.84750797  -135.29747668    -0.95167687
    -7.41213844   -91.46167899    40.75194156
    -4.61564583   -70.43036890    32.82729717
   -18.66285337   -17.22978802    20.10784581
   -22.31856000    -5.98024000     0.00000000
  -175.67714411   206.42963504   114.99242631
    50.17583300   152.78502799    47.78156087
   255.71810601   127.45684005   -22.27711868
   270.74284158    49.08416117    43.01647591
   264.62110702    -1.46366945     2.64930290
   195.31908384   -31.08224311    27.00076806
   130.90460159   -34.17832195    12.49713330
    42.94797997   -44.60365333    52.17876147
     2.35661796   -41.47289836    51.54461831
   -22.65499783   -13.53695276    25.53604740
   -14.54072000    -3.89616000     0.00000000
     0.00000000     0.00000000     0.00000000
     0.00000000     0.00000000     0.00000000
     0.00000000     0.00000000     0.00000000
     0.00000000     0.00000000     0.00000000
     0.00000000     0.00000000     0.00000000
     0.00000000     0.00000000     0.00000000
     0.00000000     0.00000000     0.00000000
     0.00000000     0.00000000     0.00000000
     0.00000000     0.00000000     0.00000000
     0.00000000     0.00000000     0.00000000
     0.00000000     0.00000000     0.00000000
     0.00000000     0.00000000     0.00000000
     0.00000000     0.00000000     0.00000000
     0.00000000     0.00000000     0.00000000
     0.00000000     0.00000000     0.00000000
     0.00000000     0.00000000     0.00000000
     0.00000000     0.00000000     0.00000000
     0.00000000     0.00000000     0.00000000
     0.00000000     0.00000000     0.00000000
     0.00000000     0.00000000     0.00000000
     0.00000000     0.00000000     0.00000000
     0.00000000     0.00000000     0.00000000
   -65.00487621     8.74466166   441.17869429
  -142.85975627   -39.16938469   -32.71564147
  -163.98218719    44.20187380   107.13125244
   -96.02800654   -25.69439461   -11.85939367
  -115.17997973    -0.03682118    31.52571042
   -83.03936827   -29.58644616    -1.35291690
   -69.70036494   -17.49686085     3.68368497
   -43.21472391   -23.55576706    -1.59908782
   -20.98791435   -15.33383557    -5.35416204
   -10.07599781   -14.30082149    -7.21271078
    -7.75208000    -2.07716000     0.00000000
   -92.42311342   278.33303456   310.60267582
  -170.06515023  -112.46251877  -124.99373310
  -167.44161533    32.89245526    85.96067963
  -144.37771886   -45.17158369   -75.54254443
  -146.50328069   -39.49431560    29.67668792
  -112.68375487   -61.59245245   -32.17889255
   -86.80419127   -61.34979823    18.09189736
   -45.60683083   -50.45499522    -8.92964304
   -31.22524682   -39.94087725     6.87967447
   -11.75834755   -22.53677872     3.55477711
   -11.97896000    -3.20976000     0.00000000
  -151.77182626   476.15066022   239.01919770
    43.96890947    18.47437205   -50.44761738
   -54.05313524    25.82806996    30.01860517
   -52.76243786   -65.36566736   -82.28160552
   -89.73978863  -104.02215672    -4.14363647
   -78.00229006  -110.43689528   -19.08725927
   -66.08552477   -95.49412701    22.13116585
   -46.08641067   -71.51586764    16.25269468
   -22.86718910   -49.89532204    18.38758895
   -13.03185461   -26.54294411     7.31160942
   -11.97896000    -3.20976000     0.00000000
  -274.05326157   211.19653994   112.74672777
    99.33436365   107.64609947   -61.65588408
   213.46014383    41.56037944    42.52754342
   227.74644755    16.34631442    12.47072324
   158.63649361   -15.62052180    37.27738958
    61.97069295   -36.24532733     9.11935028
   -19.60188583   -43.90900771    28.56870848
   -31.73738459   -52.09722098    32.89128377
   -21.75857636   -40.41603359    37.28281645
    -5.56757895   -19.80168601    16.13861892
    -7.75208000    -2.07716000     0.00000000
     0.00000000     0.00000000     0.00000000
     0.00000000     0.00000000     0.00000000
     0.00000000     0.00000000     0.00000000
     0.00000000     0.00000000     0.00000000
     0.00000000     0.00000000     0.00000000
     0.00000000     0.00000000     0.00000000
     0.00000000     0.00000000     0.00000000
     0.00000000     0.00000000     0.00000000
     0.00000000     0.00000000     0.00000000
     0.00000000     0.00000000     0.00000000
     0.00000000     0.00000000     0.00000000
     0.00000000     0.00000000     0.00000000
     0.00000000     0.00000000     0.00000000
     0.00000000     0.00000000     0.00000000
     0.00000000     0.00000000     0.00000000
     0.00000000     0.00000000     0.00000000
     0.00000000     0.00000000     0.00000000
     0.00000000     0.00000000     0.00000000
     0.00000000     0.00000000     0.00000000
     0.00000000     0.00000000     0.00000000
     0.00000000     0.00000000     0.00000000
     0.00000000     0.00000000     0.00000000
     0.00000000     0.00000000     0.00000000
     0.00000000     0.00000000     0.00000000
     0.00000000     0.00000000     0.00000000
     0.00000000     0.00000000     0.00000000
     0.00000000     0.00000000     0.00000000
     0.00000000     0.00000000     0.00000000
     0.00000000     0.00000000     0.00000000
     0.00000000     0.00000000     0.00000000
     0.00000000     0.00000000     0.00000000
     0.00000000     0.00000000     0.00000000
     0.00000000     0.00000000     0.00000000
     0.00000000     0.00000000     0.00000000
     0.00000000     0.00000000     0.00000000
     0.00000000     0.00000000     0.00000000
     0.00000000     0.00000000     0.00000000
     0.00000000     0.00000000     0.00000000
     0.00000000     0.00000000     0.00000000
     0.00000000     0.00000000     0.00000000
     0.00000000     0.00000000     0.00000000
     0.00000000     0.00000000     0.00000000
     0.00000000     0.00000000     0.00000000
     0.00000000     0.00000000     0.00000000
     0.00000000     0.00000000     0.00000000
     0.00000000     0.00000000     0.00000000
     0.00000000     0.00000000     0.00000000
     0.00000000     0.00000000     0.00000000
     0.00000000     0.00000000     0.00000000
     0.00000000     0.00000000     0.00000000
     0.00000000     0.00000000     0.00000000
     0.00000000     0.00000000     0.00000000
     0.00000000     0.00000000     0.00000000
     0.00000000     0.00000000     0.00000000
     0.00000000     0.00000000     0.00000000
     0.00000000     0.00000000     0.00000000
     0.00000000     0.00000000     0.00000000
     0.00000000     0.00000000     0.00000000
     0.00000000     0.00000000     0.00000000
     0.00000000     0.00000000     0.00000000
     0.00000000     0.00000000     0.00000000
     0.00000000     0.00000000     0.00000000
     0.00000000     0.00000000     0.00000000
     0.00000000     0.00000000     0.00000000
     0.00000000     0.00000000     0.00000000
     0.00000000     0.00000000     0.00000000
     0.00000000     0.00000000     0.00000000
     0.00000000     0.00000000     0.00000000
     0.00000000     0.00000000     0.00000000
     0.00000000     0.00000000     0.00000000
     0.00000000     0.00000000     0.00000000
     0.00000000     0.00000000     0.00000000
     0.00000000     0.00000000     0.00000000
     0.00000000     0.00000000     0.00000000
     0.00000000     0.00000000     0.00000000
     0.00000000     0.00000000     0.00000000
     0.00000000     0.00000000     0.00000000
     0.00000000     0.00000000     0.00000000
     0.00000000     0.00000000     0.00000000
     0.00000000     0.00000000     0.00000000
     0.00000000     0.00000000     0.00000000
     0.00000000     0.00000000     0.00000000
     0.00000000     0.00000000     0.00000000
     0.00000000     0.00000000     0.00000000
     0.00000000     0.00000000     0.00000000
    27.80161471  -373.75364037     0.00000000
  -222.37097852    21.24040109     0.00000000
  -318.41727834   116.01880447     0.00000000
  -288.75122312   115.80825027     0.00000000
  -256.39757503   145.29032306     0.00000000
  -175.19931261   148.14572712     0.00000000
   -94.27838924   116.70713774     0.00000000
   -10.98273077   101.16534122     0.00000000
     0.00000000     0.00000000     0.00000000
    12.11408552  -593.53049334     0.00000000
    44.58563703  -232.72083501     0.00000000
  -160.67407333   -16.47079782     0.00000000
  -189.94099202    27.32850954     0.00000000
   -72.60606701   166.25036685     0.00000000
    71.91335386   166.66253328     0.00000000
    91.22201964   155.65242044     0.00000000
    96.65266905   151.46675045     0.00000000
     0.00000000     0.00000000     0.00000000
   141.60486526  -764.90951223     0.00000000
  -127.92849505  -375.48595834     0.00000000
  -249.84744971   -97.88070852     0.00000000
  -147.95227001    69.00627972     0.00000000
    59.42539585   147.49629377     0.00000000
   153.00221728   142.25144738     0.00000000
   181.72325841   109.92001851     0.00000000
    93.30127530   108.22555863     0.00000000
     0.00000000     0.00000000     0.00000000
   -10.45397300  -443.02851494     0.00000000
   503.06699349  -394.30108791     0.00000000
   643.89109227  -229.06003868     0.00000000
   620.23035343  -101.27160130     0.00000000
   456.87647328   -21.74442845     0.00000000
   351.68079713   -16.50256795     0.00000000
   195.61648584    19.84716855     0.00000000
   113.41937955    12.50218967     0.00000000
     0.00000000     0.00000000     0.00000000
     0.00000000     0.00000000     0.00000000
     0.00000000     0.00000000     0.00000000
     0.00000000     0.00000000     0.00000000
     0.00000000     0.00000000     0.00000000
     0.00000000     0.00000000     0.00000000
     0.00000000     0.00000000     0.00000000
     0.00000000     0.00000000     0.00000000
     0.00000000     0.00000000     0.00000000
     0.00000000     0.00000000     0.00000000
     0.00000000     0.00000000     0.00000000
     0.00000000     0.00000000     0.00000000
     0.00000000     0.00000000     0.00000000
     0.00000000     0.00000000     0.00000000
     0.00000000     0.00000000     0.00000000
     0.00000000     0.00000000     0.00000000
     0.00000000     0.00000000     0.00000000
     0.00000000     0.00000000     0.00000000
     0.00000000     0.00000000     0.00000000
    -6.74001870  -335.57285680    15.32228186
  -260.61528536    78.97912593   180.66445571
  -319.14178916   100.49042226   -60.41818049
  -278.33891865   114.60107684    78.13326857
  -283.33620606    98.99198073   -13.40408462
  -170.90653795   165.96123824    51.84034733
  -109.12260650   100.27086447     9.10317957
   -18.36086912    86.45238686    29.32094504
     0.00000000     0.00000000     0.00000000
   -89.16279941  -600.15259068   -11.87650786
   -12.24856243  -139.05454345    67.43626930
  -204.01724453   -86.73642244   -33.80866323
  -181.61357615   130.99957358   -94.82763927
   -13.92654089   111.06692118   -83.50925604
    73.16048246   203.31507005   -36.69122545
   116.11540143   142.27710623   -10.44174724
    69.25965301   153.70438381    56.12449727
     0.00000000     0.00000000     0.00000000
    44.50830438  -801.19872891    46.23837259
  -195.00962802  -334.30145270   144.71405309
  -184.02240332  -103.34716011    29.23183932
    50.71487639    84.29021327   -43.04862671
   169.64076444   145.39839352   -67.41244138
   222.52635123   116.92366815   -37.35371685
   192.81364731   121.43285975   -12.76325041
   105.00543047    98.56889748    60.36132666
     0.00000000     0.00000000     0.00000000
    -1.87389800  -503.08475954    -9.85655612
   488.06086157  -342.21594217    30.85343316
   659.46095815  -186.45860350    37.02157106
   568.32183057   -83.77983704    31.40526852
   460.39158442   -29.02868604    10.36336661
   289.49410458     7.34756128    11.44476718
   215.33988184     6.62819910     6.15954275
    46.96566799    29.27141610    54.06434190
     0.00000000     0.00000000     0.00000000
     0.00000000     0.00000000     0.00000000
     0.00000000     0.00000000     0.00000000
     0.00000000     0.00000000     0.00000000
     0.00000000     0.00000000     0.00000000
     0.00000000     0.00000000     0.00000000
     0.00000000     0.00000000     0.00000000
     0.00000000     0.00000000     0.00000000
     0.00000000     0.00000000     0.00000000
     0.00000000     0.00000000     0.00000000
     0.00000000     0.00000000     0.00000000
     0.00000000     0.00000000     0.00000000
     0.00000000     0.00000000     0.00000000
     0.00000000     0.00000000     0.00000000
     0.00000000     0.00000000     0.00000000
     0.00000000     0.00000000     0.00000000
     0.00000000     0.00000000     0.00000000
     0.00000000     0.00000000     0.00000000
     0.00000000     0.00000000     0.00000000
  -282.49628662  -271.76174250    89.70051517
  -240.98907062   207.11006094   243.89484514
  -346.55953295   -19.35660643   -54.95128510
  -268.19484461   175.12628254    90.58617244
  -321.65316471   -15.80169815     9.40516156
  -189.72238541   215.79141925    55.55661612
  -122.95608948    16.38261862    48.24739305
   -64.08124039    91.79768951    26.35704904
     0.00000000     0.00000000     0.00000000
  -323.08786874  -546.65146152    67.49238868
  -153.35263171   154.87492356   -45.67786328
  -342.35951936  -226.97415563   -72.76522440
  -153.88455860   297.83617833  -168.02456193
   -79.83966518    61.80920054   -73.47885602
    55.02712953   234.28892778   -64.29520859
    14.49499516   132.66583346    20.18478603
    81.31672742   123.10454869   105.06455575
     0.00000000     0.00000000     0.00000000
   -76.98915961  -863.86898556   133.79703363
  -290.97937515   -96.78741964   250.27329646
   -43.39780086   -63.95906837   -34.29272578
   282.56118915   125.99492358  -110.89284538
   274.09993526   150.42817554   -90.34618758
   229.54330237   107.99814726   -45.61247894
   173.50197548   141.37679810    -8.72771808
    43.05091274   102.25835528    91.99948407
     0.00000000     0.00000000     0.00000000
   -70.08205592  -561.01708032     6.57293116
   562.51609582  -246.00154254    21.00114086
   645.20932404   -45.16538804    53.56547990
   542.12553259   -78.91996538    56.89252305
   388.54802064    -6.27763175    17.86983932
   290.37232712    14.00061304    13.52020718
   120.38017700    10.77499888    24.61637989
    78.30239679    31.10202136    87.23667204
     0.00000000     0.00000000     0.00000000
     0.00000000     0.00000000     0.00000000
     0.00000000     0.00000000     0.00000000
     0.00000000     0.00000000     0.00000000
     0.00000000     0.00000000     0.00000000
     0.00000000     0.00000000     0.00000000
     0.00000000     0.00000000     0.00000000
     0.00000000     0.00000000     0.00000000
     0.00000000     0.00000000     0.00000000
     0.00000000     0.00000000     0.00000000
     0.00000000     0.00000000     0.00000000
     0.00000000     0.00000000     0.00000000
     0.00000000     0.00000000     0.00000000
     0.00000000     0.00000000     0.00000000
     0.00000000     0.00000000     0.00000000
     0.00000000     0.00000000     0.00000000
     0.00000000     0.00000000     0.00000000
     0.00000000     0.00000000     0.00000000
     0.00000000     0.00000000     0.00000000
  -468.67255615  -238.99963302   113.81212576
  -227.41382331   255.67358047   192.05924147
  -341.54093057  -205.25753529     1.02330932
  -285.04738989   230.43461735    68.21588101
  -332.47797092   -77.63211361    12.34345486
  -198.67921262   191.59806885    55.92678467
  -181.62846710   -72.87578853    62.32948384
   -57.57801891   110.36338276     8.84498470
     0.00000000     0.00000000     0.00000000
  -346.64654908  -577.11941734   169.08834436
  -228.77110086   413.16296224  -182.21334864
  -411.75480879  -221.20115626   -61.36718171
  -215.95555878   366.69174745  -172.79200431
  -227.21412717   -20.90836873     4.46386376
  -110.38129101   259.59140110   -86.78151919
   -91.53916902    13.28782399    82.04624225
    24.00662219   113.39479702    89.86948139
     0.00000000     0.00000000     0.00000000
  -209.40382290  -862.31143235   172.28364240
  -130.64289330    66.04308455   170.32565281
   179.65895611    99.55059096  -111.87086040
   248.69422780    92.28365715   -88.95665986
   109.18496245   175.10551115   -73.05199099
    43.77693565   105.49493644   -12.24481464
   -24.20818804   156.01189577   -15.85950620
   -21.67034694    67.06900100    71.97968815
     0.00000000     0.00000000     0.00000000
  -129.56625090  -580.36241252     8.05806724
   609.14747514  -158.19091956   -54.24920141
   644.90085528   -39.49530830    57.32751575
   457.23451848   -23.70682920    55.39555472
   374.97081435    -0.19924964    19.77935558
   171.28675696    27.24420365    21.94701784
    91.03627337    26.95913294    44.44660175
    -0.43424844    61.93446420    88.49254784
     0.00000000     0.00000000     0.00000000
     0.00000000     0.00000000     0.00000000
     0.00000000     0.00000000     0.00000000
     0.00000000     0.00000000     0.00000000
     0.00000000     0.00000000     0.00000000
     0.00000000     0.00000000     0.00000000
     0.00000000     0.00000000     0.00000000
     0.00000000     0.00000000     0.00000000
     0.00000000     0.00000000     0.00000000
     0.00000000     0.00000000     0.00000000
     0.00000000     0.00000000     0.00000000
     0.00000000     0.00000000     0.00000000
     0.00000000     0.00000000     0.00000000
     0.00000000     0.00000000     0.00000000
     0.00000000     0.00000000     0.00000000
     0.00000000     0.00000000     0.00000000
     0.00000000     0.00000000     0.00000000
     0.00000000     0.00000000     0.00000000
     0.00000000     0.00000000     0.00000000
  -474.43619590  -254.04072868   189.01337737
  -214.60325372   258.45007887    -9.59817409
  -268.22426340  -206.59312097    94.09310030
  -282.51888207   219.24258625   -18.36587896
  -268.26676399   -63.53655879    36.55357858
  -229.79780319   127.84908438    15.39115778
  -139.76527996   -55.00620973    41.89080882
  -112.02826272    72.96632337    -3.11976899
     0.00000000     0.00000000     0.00000000
  -170.34871534  -581.50046823   146.93906518
  -214.58238830   259.90553101   -92.71462496
  -389.83400391   -64.51731863   -21.00444506
  -186.82760258   230.84340598   -83.85651441
  -290.49473978     1.18414809    22.06037971
  -152.52668122   136.35541896   -49.66643623
  -209.38882179   -46.23568073    66.94112863
    33.10018814    47.19756896    27.09859583
     0.00000000     0.00000000     0.00000000
  -172.23864546  -748.03645585    42.56390085
   103.60173164   -22.80327428    -3.83480033
   108.30213672   137.83090123   -35.55536028
  -102.34705384   109.50867256   -31.45690236
  -105.90997596   162.72443007    -8.98444153
  -168.28002249    82.48551423    -3.71866174
   -93.96012155    68.29765932   -19.08836065
   -63.80876742    41.32642101    22.71800291
     0.00000000     0.00000000     0.00000000
  -118.94025792  -404.57126797   -87.73355441
   660.49789035  -130.45437160   -62.68512380
   417.01090025   -85.93414052    58.04859148
   334.16433638     7.37188104    17.51764207
   121.17969863     5.60915211    39.82526789
    22.95878177    46.05157876     7.96132526
   -69.15012802    66.60396485    49.96782069
   -11.02661589    45.39441951    40.70623062
     0.00000000     0.00000000     0.00000000
     0.00000000     0.00000000     0.00000000
     0.00000000     0.00000000     0.00000000
     0.00000000     0.00000000     0.00000000
     0.00000000     0.00000000     0.00000000
     0.00000000     0.00000000     0.00000000
     0.00000000     0.00000000     0.00000000
     0.00000000     0.00000000     0.00000000
     0.00000000     0.00000000     0.00000000
     0.00000000     0.00000000     0.00000000
     0.00000000     0.00000000     0.00000000
     0.00000000     0.00000000     0.00000000
     0.00000000     0.00000000     0.00000000
     0.00000000     0.00000000     0.00000000
     0.00000000     0.00000000     0.00000000
     0.00000000     0.00000000     0.00000000
     0.00000000     0.00000000     0.00000000
     0.00000000     0.00000000     0.00000000
     0.00000000     0.00000000     0.00000000
     0.00000000     0.00000000     0.00000000
     0.00000000     0.00000000     0.00000000
     0.00000000     0.00000000     0.00000000
     0.00000000     0.00000000     0.00000000
     0.00000000     0.00000000     0.00000000
     0.00000000     0.00000000     0.00000000
     0.00000000     0.00000000     0.00000000
     0.00000000     0.00000000     0.00000000
     0.00000000     0.00000000     0.00000000
     0.00000000     0.00000000     0.00000000
     0.00000000     0.00000000     0.00000000
     0.00000000     0.00000000     0.00000000
     0.00000000     0.00000000     0.00000000
     0.00000000     0.00000000     0.00000000
     0.00000000     0.00000000     0.00000000
     0.00000000     0.00000000     0.00000000
     0.00000000     0.00000000     0.00000000
     0.00000000     0.00000000     0.00000000
     0.00000000     0.00000000     0.00000000
     0.00000000     0.00000000     0.00000000
     0.00000000     0.00000000     0.00000000
     0.00000000     0.00000000     0.00000000
     0.00000000     0.00000000     0.00000000
     0.00000000     0.00000000     0.00000000
     0.00000000     0.00000000     0.00000000
     0.00000000     0.00000000     0.00000000
     0.00000000     0.00000000     0.00000000
     0.00000000     0.00000000     0.00000000
     0.00000000     0.00000000     0.00000000
     0.00000000     0.00000000     0.00000000
     0.00000000     0.00000000     0.00000000
     0.00000000     0.00000000     0.00000000
     0.00000000     0.00000000     0.00000000
     0.00000000     0.00000000     0.00000000
     0.00000000     0.00000000     0.00000000
     0.00000000     0.00000000     0.00000000
     0.00000000     0.00000000     0.00000000
     0.00000000     0.00000000     0.00000000
     0.00000000     0.00000000     0.00000000
     0.00000000     0.00000000     0.00000000
     0.00000000     0.00000000     0.00000000
     0.00000000     0.00000000     0.00000000
     0.00000000     0.00000000     0.00000000
     0.00000000     0.00000000     0.00000000
     0.00000000     0.00000000     0.00000000
     0.00000000     0.00000000     0.00000000
     0.00000000     0.00000000     0.00000000
     0.00000000     0.00000000     0.00000000
     0.00000000     0.00000000     0.00000000
     0.00000000     0.00000000     0.00000000
     0.00000000     0.00000000     0.00000000
     0.00000000     0.00000000     0.00000000
     0.00000000     0.00000000     0.00000000
     0.00000000     0.00000000     0.00000000
     0.00000000     0.00000000     0.00000000
     0.00000000     0.00000000     0.00000000
     0.00000000     0.00000000     0.00000000
     0.00000000     0.00000000     0.00000000
     0.00000000     0.00000000     0.00000000
     0.00000000     0.00000000     0.00000000
     0.00000000     0.00000000     0.00000000
     0.00000000     0.00000000     0.00000000
     0.00000000     0.00000000     0.00000000
     0.00000000     0.00000000     0.00000000
     0.00000000     0.00000000     0.00000000
     0.00000000     0.00000000     0.00000000
     0.00000000     0.00000000     0.00000000
     0.00000000     0.00000000     0.00000000
     0.00000000     0.00000000     0.00000000
     0.00000000     0.00000000     0.00000000
     0.00000000     0.00000000     0.00000000
     0.00000000     0.00000000     0.00000000
     0.00000000     0.00000000     0.00000000
     0.00000000     0.00000000     0.00000000
     0.00000000     0.00000000     0.00000000
     0.00000000     0.00000000     0.00000000
     0.00000000     0.00000000     0.00000000
     0.00000000     0.00000000     0.00000000
     0.00000000     0.00000000     0.00000000
     0.00000000     0.00000000     0.00000000
     0.00000000     0.00000000     0.00000000
     0.00000000     0.00000000     0.00000000
     0.00000000     0.00000000     0.00000000
     0.00000000     0.00000000     0.00000000
     0.00000000     0.00000000     0.00000000
     0.00000000     0.00000000     0.00000000
     0.00000000     0.00000000     0.00000000
     0.00000000     0.00000000     0.00000000
     0.00000000     0.00000000     0.00000000
     0.00000000     0.00000000     0.00000000
     0.00000000     0.00000000     0.00000000
     0.00000000     0.00000000     0.00000000
     0.00000000     0.00000000     0.00000000
     0.00000000     0.00000000     0.00000000
     0.00000000     0.00000000     0.00000000
     0.00000000     0.00000000     0.00000000
     0.00000000     0.00000000     0.00000000
     0.00000000     0.00000000     0.00000000
     0.00000000     0.00000000     0.00000000
     0.00000000     0.00000000     0.00000000
     0.00000000     0.00000000     0.00000000
     0.00000000     0.00000000     0.00000000
     0.00000000     0.00000000     0.00000000
     0.00000000     0.00000000     0.00000000
     0.00000000     0.00000000     0.00000000
     0.00000000     0.00000000     0.00000000
     0.00000000     0.00000000     0.00000000
     0.00000000     0.00000000     0.00000000
     0.00000000     0.00000000     0.00000000
     0.00000000     0.00000000     0.00000000
     0.00000000     0.00000000     0.00000000
     0.00000000     0.00000000     0.00000000
     0.00000000     0.00000000     0.00000000
     0.00000000     0.00000000     0.00000000
     0.00000000     0.00000000     0.00000000
     0.00000000     0.00000000     0.00000000
     0.00000000     0.00000000     0.00000000
     0.00000000     0.00000000     0.00000000
     0.00000000     0.00000000     0.00000000
     0.00000000     0.00000000     0.00000000
     0.00000000     0.00000000     0.00000000
     0.00000000     0.00000000     0.00000000
     0.00000000     0.00000000     0.00000000
     0.00000000     0.00000000     0.00000000
     0.00000000     0.00000000     0.00000000
     0.00000000     0.00000000     0.00000000
     0.00000000     0.00000000     0.00000000
     0.00000000     0.00000000     0.00000000
     0.00000000     0.00000000     0.00000000
     0.00000000     0.00000000     0.00000000
     0.00000000     0.00000000     0.00000000
     0.00000000     0.00000000     0.00000000
     0.00000000     0.00000000     0.00000000
     0.00000000     0.00000000     0.00000000
     0.00000000     0.00000000     0.00000000
     0.00000000     0.00000000     0.00000000
     0.00000000     0.00000000     0.00000000
     0.00000000     0.00000000     0.00000000
     0.00000000     0.00000000     0.00000000
     0.00000000     0.00000000     0.00000000
     0.00000000     0.00000000     0.00000000
     0.00000000     0.00000000     0.00000000
     0.00000000     0.00000000     0.00000000
     0.00000000     0.00000000     0.00000000
     0.00000000     0.00000000     0.00000000
     0.00000000     0.00000000     0.00000000
     0.00000000     0.00000000     0.00000000
     0.00000000     0.00000000     0.00000000
     0.00000000     0.00000000     0.00000000
     0.00000000     0.00000000     0.00000000
     0.00000000     0.00000000     0.00000000
     0.00000000     0.00000000     0.00000000
     0.00000000     0.00000000     0.00000000
     0.00000000     0.00000000     0.00000000
     0.00000000     0.00000000     0.00000000
     0.00000000     0.00000000     0.00000000
     0.00000000     0.00000000     0.00000000
     0.00000000     0.00000000     0.00000000
     0.00000000     0.00000000     0.00000000
     0.00000000     0.00000000     0.00000000
     0.00000000     0.00000000     0.00000000
     0.00000000     0.00000000     0.00000000
     0.00000000     0.00000000     0.00000000
     0.00000000     0.00000000     0.00000000
     0.00000000     0.00000000     0.00000000
     0.00000000     0.00000000     0.00000000
     0.00000000     0.00000000     0.00000000
     0.00000000     0.00000000     0.00000000
     0.00000000     0.00000000     0.00000000
     0.00000000     0.00000000     0.00000000
     0.00000000     0.00000000     0.00000000
     0.00000000     0.00000000     0.00000000
     0.00000000     0.00000000     0.00000000
     0.00000000     0.00000000     0.00000000
     0.00000000     0.00000000     0.00000000
     0.00000000     0.00000000     0.00000000
     0.00000000     0.00000000     0.00000000
     0.00000000     0.00000000     0.00000000
     0.00000000     0.00000000     0.00000000
     0.00000000     0.00000000     0.00000000
     0.00000000     0.00000000     0.00000000
     0.00000000     0.00000000     0.00000000
     0.00000000     0.00000000     0.00000000
     0.00000000     0.00000000     0.00000000
     0.00000000     0.00000000     0.00000000
     0.00000000     0.00000000     0.00000000
     0.00000000     0.00000000     0.00000000
     0.00000000     0.00000000     0.00000000
     0.00000000     0.00000000     0.00000000
     0.00000000     0.00000000     0.00000000
     0.00000000     0.00000000     0.00000000
     0.00000000     0.00000000     0.00000000
     0.00000000     0.00000000     0.00000000
     0.00000000     0.00000000     0.00000000
     0.00000000     0.00000000     0.00000000
     0.00000000     0.00000000     0.00000000
     0.00000000     0.00000000     0.00000000
     0.00000000     0.00000000     0.00000000
     0.00000000     0.00000000     0.00000000
     0.00000000     0.00000000     0.00000000
     0.00000000     0.00000000     0.00000000
     0.00000000     0.00000000     0.00000000
     0.00000000     0.00000000     0.00000000
     0.00000000     0.00000000     0.00000000
     0.00000000     0.00000000     0.00000000
     0.00000000     0.00000000     0.00000000
     0.00000000     0.00000000     0.00000000
     0.00000000     0.00000000     0.00000000
     0.00000000     0.00000000     0.00000000
     0.00000000     0.00000000     0.00000000
     0.00000000     0.00000000     0.00000000
     0.00000000     0.00000000     0.00000000
     0.00000000     0.00000000     0.00000000
     0.00000000     0.00000000     0.00000000
     0.00000000     0.00000000     0.00000000
     0.00000000     0.00000000     0.00000000
     0.00000000     0.00000000     0.00000000
     0.00000000     0.00000000     0.00000000
     0.00000000     0.00000000     0.00000000
     0.00000000     0.00000000     0.00000000
     0.00000000     0.00000000     0.00000000
     0.00000000     0.00000000     0.00000000
     0.00000000     0.00000000     0.00000000
     0.00000000     0.00000000     0.00000000
     0.00000000     0.00000000     0.00000000
     0.00000000     0.00000000     0.00000000
     0.00000000     0.00000000     0.00000000
     0.00000000     0.00000000     0.00000000
     0.00000000     0.00000000     0.00000000
     0.00000000     0.00000000     0.00000000
     0.00000000     0.00000000     0.00000000
     0.00000000     0.00000000     0.00000000
     0.00000000     0.00000000     0.00000000
     0.00000000     0.00000000     0.00000000
     0.00000000     0.00000000     0.00000000
     0.00000000     0.00000000     0.00000000
     0.00000000     0.00000000     0.00000000
     0.00000000     0.00000000     0.00000000
     0.00000000     0.00000000     0.00000000
     0.00000000     0.00000000     0.00000000
     0.00000000     0.00000000     0.00000000
     0.00000000     0.00000000     0.00000000
     0.00000000     0.00000000     0.00000000
     0.00000000     0.00000000     0.00000000
     0.00000000     0.00000000     0.00000000
     0.00000000     0.00000000     0.00000000
     0.00000000     0.00000000     0.00000000
     0.00000000     0.00000000     0.00000000
     0.00000000     0.00000000     0.00000000
     0.00000000     0.00000000     0.00000000
     0.00000000     0.00000000     0.00000000
     0.00000000     0.00000000     0.00000000
     0.00000000     0.00000000     0.00000000
     0.00000000     0.00000000     0.00000000
     0.00000000     0.00000000     0.00000000
     0.00000000     0.00000000     0.00000000
     0.00000000     0.00000000     0.00000000
     0.00000000     0.00000000     0.00000000
     0.00000000     0.00000000     0.00000000
     0.00000000     0.00000000     0.00000000
     0.00000000     0.00000000     0.00000000
     0.00000000     0.00000000     0.00000000
     0.00000000     0.00000000     0.00000000
     0.00000000     0.00000000     0.00000000
     0.00000000     0.00000000     0.00000000
     0.00000000     0.00000000     0.00000000
     0.00000000     0.00000000     0.00000000
     0.00000000     0.00000000     0.00000000
     0.00000000     0.00000000     0.00000000
     0.00000000     0.00000000     0.00000000
     0.00000000     0.00000000     0.00000000
     0.00000000     0.00000000     0.00000000
     0.00000000     0.00000000     0.00000000
     0.00000000     0.00000000     0.00000000
     0.00000000     0.00000000     0.00000000
     0.00000000     0.00000000     0.00000000
     0.00000000     0.00000000     0.00000000
     0.00000000     0.00000000     0.00000000
     0.00000000     0.00000000     0.00000000
     0.00000000     0.00000000     0.00000000
     0.00000000     0.00000000     0.00000000
     0.00000000     0.00000000     0.00000000
     0.00000000     0.00000000     0.00000000
     0.00000000     0.00000000     0.00000000
     0.00000000     0.00000000     0.00000000
     0.00000000     0.00000000     0.00000000
     0.00000000     0.00000000     0.00000000
     0.00000000     0.00000000     0.00000000
     0.00000000     0.00000000     0.00000000
     0.00000000     0.00000000     0.00000000
     0.00000000     0.00000000     0.00000000
     0.00000000     0.00000000     0.00000000
     0.00000000     0.00000000     0.00000000
     0.00000000     0.00000000     0.00000000
     0.00000000     0.00000000     0.00000000
     0.00000000     0.00000000     0.00000000
     0.00000000     0.00000000     0.00000000
     0.00000000     0.00000000     0.00000000
     0.00000000     0.00000000     0.00000000
     0.00000000     0.00000000     0.00000000
     0.00000000     0.00000000     0.00000000
     0.00000000     0.00000000     0.00000000
     0.00000000     0.00000000     0.00000000
     0.00000000     0.00000000     0.00000000
     0.00000000     0.00000000     0.00000000
     0.00000000     0.00000000     0.00000000
     0.00000000     0.00000000     0.00000000
     0.00000000     0.00000000     0.00000000
     0.00000000     0.00000000     0.00000000
     0.00000000     0.00000000     0.00000000
     0.00000000     0.00000000     0.00000000
     0.00000000     0.00000000     0.00000000
     0.00000000     0.00000000     0.00000000
     0.00000000     0.00000000     0.00000000
     0.00000000     0.00000000     0.00000000
     0.00000000     0.00000000     0.00000000
     0.00000000     0.00000000     0.00000000
     0.00000000     0.00000000     0.00000000
     0.00000000     0.00000000     0.00000000
     0.00000000     0.00000000     0.00000000
     0.00000000     0.00000000     0.00000000
SCALARS Temperatures float
LOOKUP_TABLE default
     0.00000000
     0.00000000
     0.00000000
     0.00000000
     0.00000000
     0.00000000
     0.00000000
     0.00000000
     0.00000000
     0.00000000
     0.00000000
     0.00000000
     0.00000000
     0.00000000
     0.00000000
     0.00000000
     0.00000000
     0.00000000
     0.00000000
     0.00000000
     0.00000000
     0.00000000
     0.00000000
     0.00000000
     0.00000000
     0.00000000
     0.00000000
     0.00000000
     0.00000000
     0.00000000
     0.00000000
     0.00000000
     0.00000000
     0.00000000
     0.00000000
     0.00000000
     0.00000000
     0.00000000
     0.00000000
     0.00000000
     0.00000000
     0.00000000
     0.00000000
     0.00000000
     0.00000000
     0.00000000
     0.00000000
     0.00000000
     0.00000000
     0.00000000
     0.00000000
     0.00000000
     0.00000000
     0.00000000
     0.00000000
     0.00000000
     0.00000000
     0.00000000
     0.00000000
     0.00000000
     0.00000000
     0.00000000
     0.00000000
     0.00000000
     0.00000000
     0.00000000
     0.00000000
     0.00000000
     0.00000000
     0.00000000
     0.00000000
     0.00000000
     0.00000000
     0.00000000
     0.00000000
     0.00000000
     0.00000000
     0.00000000
     0.00000000
     0.00000000
     0.00000000
     0.00000000
     0.00000000
     0.00000000
     0.00000000
     0.00000000
     0.00000000
     0.00000000
     0.00000000
     0.00000000
     0.00000000
     0.00000000
     0.00000000
     0.00000000
     0.00000000
     0.00000000
     0.00000000
     0.00000000
     0.00000000
     0.00000000
     0.00000000
     0.00000000
     0.00000000
     0.00000000
     0.00000000
     0.00000000
     0.00000000
     0.00000000
     0.00000000
     0.00000000
     0.00000000
     0.00000000
     0.00000000
     0.00000000
     0.00000000
     0.00000000
     0.00000000
     0.00000000
     0.00000000
     0.00000000
     0.00000000
     0.00000000
     0.00000000
     0.00000000
     0.00000000
     0.00000000
     0.00000000
     0.00000000
     0.00000000
     0.00000000
     0.00000000
     0.00000000
     0.00000000
     0.00000000
     0.00000000
     0.00000000
     0.00000000
     0.00000000
     0.00000000
     0.00000000
     0.00000000
     0.00000000
     0.00000000
     0.00000000
     0.00000000
     0.00000000
     0.00000000
     0.00000000
     0.00000000
     0.00000000
     0.00000000
     0.00000000
     0.00000000
     0.00000000
     0.00000000
     0.00000000
     0.00000000
     0.00000000
     0.00000000
     0.00000000
     0.00000000
     0.00000000
     0.00000000
     0.00000000
     0.00000000
     0.00000000
     0.00000000
     0.00000000
     0.00000000
     0.00000000
     0.00000000
     0.00000000
     0.00000000
     0.00000000
     0.00000000
     0.00000000
     0.00000000
     0.00000000
     0.00000000
     0.00000000
     0.00000000
     0.00000000
     0.00000000
     0.00000000
     0.00000000
     0.00000000
     0.00000000
     0.00000000
     0.00000000
     0.00000000
     0.00000000
     0.00000000
     0.00000000
     0.00000000
     0.00000000
     0.00000000
     0.00000000
     0.00000000
     0.00000000
     0.00000000
     0.00000000
     0.00000000
     0.00000000
     0.00000000
     0.00000000
     0.00000000
     0.00000000
     0.00000000
     0.00000000
     0.00000000
     0.00000000
     0.00000000
     0.00000000
     0.00000000
     0.00000000
     0.00000000
     0.00000000
     0.00000000
     0.00000000
     0.00000000
     0.00000000
     0.00000000
     0.00000000
     0.00000000
     0.00000000
     0.00000000
     0.00000000
     0.00000000
     0.00000000
     0.00000000
     0.00000000
     0.00000000
     0.00000000
     0.00000000
     0.00000000
     0.00000000
     0.00000000
     0.00000000
     0.00000000
     0.00000000
     0.00000000
     0.00000000
     0.00000000
     0.00000000
     0.00000000
     0.00000000
     0.00000000
     0.00000000
     0.00000000
     0.00000000
     0.00000000
     0.00000000
     0.00000000
     0.00000000
     0.00000000
     0.00000000
     0.00000000
     0.00000000
     0.00000000
     0.00000000
     0.00000000
     0.00000000
     0.00000000
     0.00000000
     0.00000000
     0.00000000
     0.00000000
     0.00000000
     0.00000000
     0.00000000
     0.00000000
     0.00000000
     0.00000000
     0.00000000
     0.00000000
     0.00000000
     0.00000000
     0.00000000
     0.00000000
     0.00000000
     0.00000000
     0.00000000
     0.00000000
     0.00000000
     0.00000000
     0.00000000
     0.00000000
     0.00000000
     0.00000000
     0.00000000
     0.00000000
     0.00000000
     0.00000000
     0.00000000
     0.00000000
     0.00000000
     0.00000000
     0.00000000
     0.00000000
     0.00000000
     0.00000000
     0.00000000
     0.00000000
     0.00000000
     0.00000000
     0.00000000
     0.00000000
     0.00000000
     0.00000000
     0.00000000
     0.00000000
     0.00000000
     0.00000000
     0.00000000
     0.00000000
     0.00000000
     0.00000000
     0.00000000
     0.00000000
     0.00000000
     0.00000000
     0.00000000
     0.00000000
     0.00000000
     0.00000000
     0.00000000
     0.00000000
     0.00000000
     0.00000000
     0.00000000
     0.00000000
     0.00000000
     0.00000000
     0.00000000
     0.00000000
     0.00000000
     0.00000000
     0.00000000
     0.00000000
     0.00000000
     0.00000000
     0.00000000
     0.00000000
     0.00000000
     0.00000000
     0.00000000
     0.00000000
     0.00000000
     0.00000000
     0.00000000
     0.00000000
     0.00000000
     0.00000000
     0.00000000
     0.00000000
     0.00000000
     0.00000000
     0.00000000
     0.00000000
     0.00000000
     0.00000000
     0.00000000
     0.00000000
     0.00000000
     0.00000000
     0.00000000
     0.00000000
     0.00000000
     0.00000000
     0.00000000
     0.00000000
     0.00000000
     0.00000000
     0.00000000
     0.00000000
     0.00000000
     0.00000000
     0.00000000
     0.00000000
     0.00000000
     0.00000000
     0.00000000
     0.00000000
     0.00000000
     0.00000000
     0.00000000
     0.00000000
     0.00000000
     0.00000000
     0.00000000
     0.00000000
     0.00000000
     0.00000000
     0.00000000
     0.00000000
     0.00000000
     0.00000000
     0.00000000
     0.00000000
     0.00000000
     0.00000000
     0.00000000
     0.00000000
     0.00000000
     0.00000000
     0.00000000
     0.00000000
     0.00000000
     0.00000000
     0.00000000
     0.00000000
     0.00000000
     0.00000000
     0.00000000
     0.00000000
     0.00000000
     0.00000000
     0.00000000
     0.00000000
     0.00000000
     0.00000000
     0.00000000
     0.00000000
     0.00000000
     0.00000000
     0.00000000
     0.00000000
     0.00000000
     0.00000000
     0.00000000
     0.00000000
     0.00000000
     0.00000000
     0.00000000
     0.00000000
     0.00000000
     0.00000000
     0.00000000
     0.00000000
     0.00000000
     0.00000000
     0.00000000
     0.00000000
     0.00000000
     0.00000000
     0.00000000
     0.00000000
     0.00000000
     0.00000000
     0.00000000
     0.00000000
     0.00000000
     0.00000000
     0.00000000
     0.00000000
     0.00000000
     0.00000000
     0.00000000
     0.00000000
     0.00000000
     0.00000000
     0.00000000
     0.00000000
     0.00000000
     0.00000000
     0.00000000
     0.00000000
     0.00000000
     0.00000000
     0.00000000
     0.00000000
     0.00000000
     0.00000000
     0.00000000
     0.00000000
     0.00000000
     0.00000000
     0.00000000
     0.00000000
     0.00000000
     0.00000000
     0.00000000
     0.00000000
     0.00000000
     0.00000000
     0.00000000
     0.00000000
     0.00000000
     0.00000000
     0.00000000
     0.00000000
     0.00000000
     0.00000000
     0.00000000
     0.00000000
     0.00000000
     0.00000000
     0.00000000
     0.00000000
     0.00000000
     0.00000000
     0.00000000
     0.00000000
     0.00000000
     0.00000000
     0.00000000
     0.00000000
     0.00000000
     0.00000000
     0.00000000
     0.00000000
     0.00000000
     0.00000000
     0.00000000
     0.00000000
     0.00000000
     0.00000000
     0.00000000
     0.00000000
     0.00000000
     0.00000000
     0.00000000
     0.00000000
     0.00000000
     0.00000000
     0.00000000
     0.00000000
     0.00000000
     0.00000000
     0.00000000
     0.00000000
     0.00000000
     0.00000000
     0.00000000
     0.00000000
     0.00000000
     0.00000000
     0.00000000
     0.00000000
     0.00000000
     0.00000000
     0.00000000
     0.00000000
     0.00000000
     0.00000000
     0.00000000
     0.00000000
     0.00000000
     0.00000000
     0.00000000
     0.00000000
     0.00000000
     0.00000000
     0.00000000
     0.00000000
     0.00000000
     0.00000000
     0.00000000
     0.00000000
     0.00000000
     0.00000000
     0.00000000
     0.00000000
     0.00000000
     0.00000000
     0.00000000
     0.00000000
     0.00000000
     0.00000000
     0.00000000
     0.00000000
     0.00000000
     0.00000000
     0.00000000
     0.00000000
     0.00000000
     0.00000000
     0.00000000
     0.00000000
     0.00000000
     0.00000000
     0.00000000
     0.00000000
     0.00000000
     0.00000000
     0.00000000
     0.00000000
     0.00000000
     0.00000000
     0.00000000
     0.00000000
     0.00000000
     0.00000000
     0.00000000
     0.00000000
     0.00000000
     0.00000000
     0.00000000
     0.00000000
     0.00000000
     0.00000000
     0.00000000
     0.00000000
     0.00000000
     0.00000000
     0.00000000
     0.00000000
     0.00000000
     0.00000000
     0.00000000
     0.00000000
     0.00000000
     0.00000000
     0.00000000
     0.00000000
     0.00000000
     0.00000000
     0.00000000
     0.00000000
     0.00000000
     0.00000000
     0.00000000
     0.00000000
     0.00000000
     0.00000000
     0.00000000
     0.00000000
     0.00000000
     0.00000000
     0.00000000
     0.00000000
     0.00000000
     0.00000000
     0.00000000
     0.00000000
     0.00000000
     0.00000000
     0.00000000
     0.00000000
     0.00000000
     0.00000000
     0.00000000
     0.00000000
     0.00000000
     0.00000000
     0.00000000
     0.00000000
     0.00000000
     0.00000000
     0.00000000
     0.00000000
     0.00000000
     0.00000000
     0.00000000
     0.00000000
     0.00000000
     0.00000000
     0.00000000
     0.00000000
     0.00000000
     0.00000000
     0.00000000
     0.00000000
     0.00000000
     0.00000000
     0.00000000
     0.00000000
     0.00000000
     0.00000000
     0.00000000
     0.00000000
     0.00000000
     0.00000000
     0.00000000
     0.00000000
     0.00000000
     0.00000000
     0.00000000
     0.00000000
     0.00000000
     0.00000000
     0.00000000
     0.00000000
     0.00000000
     0.00000000
     0.00000000
     0.00000000
     0.00000000
     0.00000000
     0.00000000
     0.00000000
     0.00000000
     0.00000000
     0.00000000
     0.00000000
     0.00000000
     0.00000000
     0.00000000
     0.00000000
     0.00000000
     0.00000000
     0.00000000
     0.00000000
     0.00000000
     0.00000000
     0.00000000
     0.00000000
     0.00000000
     0.00000000
     0.00000000
     0.00000000
     0.00000000
     0.00000000
     0.00000000
     0.00000000
     0.00000000
     0.00000000
     0.00000000
     0.00000000
     0.00000000
     0.00000000
     0.00000000
     0.00000000
     0.00000000
     0.00000000
     0.00000000
     0.00000000
     0.00000000
     0.00000000
     0.00000000
     0.00000000
     0.00000000
     0.00000000
     0.00000000
     0.00000000
     0.00000000
     0.00000000
     0.00000000
     0.00000000
     0.00000000
     0.00000000
     0.00000000
     0.00000000
     0.00000000
     0.00000000
     0.00000000
     0.00000000
     0.00000000
     0.00000000
     0.00000000
     0.00000000
     0.00000000
     0.00000000
     0.00000000
     0.00000000
     0.00000000
     0.00000000
     0.00000000
     0.00000000
     0.00000000
     0.00000000
     0.00000000
     0.00000000
     0.00000000
     0.00000000
     0.00000000
     0.00000000
     0.00000000
     0.00000000
     0.00000000
     0.00000000
     0.00000000
     0.00000000
     0.00000000
     0.00000000
     0.00000000
     0.00000000
     0.00000000
     0.00000000
     0.00000000
     0.00000000
     0.00000000
     0.00000000
     0.00000000
     0.00000000
     0.00000000
     0.00000000
     0.00000000
     0.00000000
     0.00000000
     0.00000000
     0.00000000
     0.00000000
     0.00000000
     0.00000000
     0.00000000
     0.00000000
     0.00000000
     0.00000000
     0.00000000
     0.00000000
     0.00000000
     0.00000000
     0.00000000
     0.00000000
     0.00000000
     0.00000000
     0.00000000
     0.00000000
     0.00000000
     0.00000000
     0.00000000
     0.00000000
     0.00000000
     0.00000000
     0.00000000
     0.00000000
     0.00000000
     0.00000000
     0.00000000
     0.00000000
     0.00000000
     0.00000000
     0.00000000
     0.00000000
     0.00000000
     0.00000000
     0.00000000
     0.00000000
     0.00000000
     0.00000000
     0.00000000
     0.00000000
     0.00000000
     0.00000000
     0.00000000
     0.00000000
     0.00000000
     0.00000000
     0.00000000
     0.00000000
     0.00000000
     0.00000000
     0.00000000
     0.00000000
     0.00000000
     0.00000000
     0.00000000
     0.00000000
     0.00000000
     0.00000000
     0.00000000
     0.00000000
     0.00000000
     0.00000000
     0.00000000
     0.00000000
     0.00000000
     0.00000000
     0.00000000
     0.00000000
     0.00000000
     0.00000000
     0.00000000
     0.00000000
     0.00000000
     0.00000000
     0.00000000
     0.00000000
     0.00000000
     0.00000000
     0.00000000
     0.00000000
     0.00000000
     0.00000000
     0.00000000
     0.00000000
     0.00000000
     0.00000000
     0.00000000
     0.00000000
     0.00000000
     0.00000000
     0.00000000
     0.00000000
     0.00000000
     0.00000000
     0.00000000
     0.00000000
     0.00000000
     0.00000000
     0.00000000
     0.00000000
     0.00000000
     0.00000000
     0.00000000
     0.00000000
     0.00000000
     0.00000000
     0.00000000
     0.00000000
     0.00000000
     0.00000000
     0.00000000
     0.00000000
     0.00000000
     0.00000000
     0.00000000
     0.00000000
     0.00000000
     0.00000000
     0.00000000
     0.00000000
     0.00000000
     0.00000000
     0.00000000
     0.00000000
     0.00000000
     0.00000000
     0.00000000
     0.00000000
     0.00000000
     0.00000000
     0.00000000
     0.00000000
     0.00000000
     0.00000000
     0.00000000
     0.00000000
     0.00000000
     0.00000000
     0.00000000
     0.00000000
     0.00000000
     0.00000000
     0.00000000
     0.00000000
     0.00000000
     0.00000000
     0.00000000
     0.00000000
     0.00000000
     0.00000000
     0.00000000
     0.00000000
     0.00000000
     0.00000000
     0.00000000
     0.00000000
     0.00000000
     0.00000000
     0.00000000
     0.00000000
     0.00000000
     0.00000000
     0.00000000
     0.00000000
     0.00000000
     0.00000000
     0.00000000
     0.00000000
     0.00000000
     0.00000000
     0.00000000
     0.00000000
     0.00000000
     0.00000000
     0.00000000
     0.00000000
     0.00000000
     0.00000000
     0.00000000
     0.00000000
     0.00000000
     0.00000000
     0.00000000
     0.00000000
     0.00000000
     0.00000000
     0.00000000
     0.00000000
     0.00000000
     0.00000000
     0.00000000
     0.00000000
     0.00000000
     0.00000000
     0.00000000
     0.00000000
     0.00000000
     0.00000000
     0.00000000
     0.00000000
     0.00000000
     0.00000000
     0.00000000
     0.00000000
     0.00000000
     0.00000000
     0.00000000
     0.00000000
     0.00000000
     0.00000000
     0.00000000
     0.00000000
     0.00000000
     0.00000000
     0.00000000
     0.00000000
     0.00000000
     0.00000000
     0.00000000
     0.00000000
     0.00000000
     0.00000000
     0.00000000
     0.00000000
     0.00000000
     0.00000000
     0.00000000
     0.00000000
     0.00000000
     0.00000000
     0.00000000
     0.00000000
     0.00000000
     0.00000000
     0.00000000
     0.00000000
     0.00000000
     0.00000000
     0.00000000
     0.00000000
     0.00000000
     0.00000000
     0.00000000
     0.00000000
     0.00000000
     0.00000000
     0.00000000
     0.00000000
     0.00000000
     0.00000000
     0.00000000
     0.00000000
     0.00000000
     0.00000000
     0.00000000
     0.00000000
     0.00000000
     0.00000000
     0.00000000
     0.00000000
     0.00000000
     0.00000000
     0.00000000
     0.00000000
     0.00000000
     0.00000000
     0.00000000
     0.00000000
     0.00000000
     0.00000000
     0.00000000
     0.00000000
     0.00000000
     0.00000000
     0.00000000
     0.00000000
     0.00000000
     0.00000000
     0.00000000
     0.00000000
     0.00000000
     0.00000000
     0.00000000
     0.00000000
     0.00000000
     0.00000000
     0.00000000
     0.00000000
     0.00000000
     0.00000000
     0.00000000
     0.00000000
     0.00000000
     0.00000000
     0.00000000
     0.00000000
     0.00000000
     0.00000000
     0.00000000
     0.00000000
     0.00000000
     0.00000000
     0.00000000
     0.00000000
     0.00000000
     0.00000000
     0.00000000
     0.00000000
     0.00000000
     0.00000000
     0.00000000
     0.00000000
     0.00000000
     0.00000000
     0.00000000
     0.00000000
     0.00000000
     0.00000000
     0.00000000
     0.00000000
     0.00000000
     0.00000000
     0.00000000
     0.00000000
     0.00000000
     0.00000000
     0.00000000
     0.00000000
     0.00000000
     0.00000000
     0.00000000
     0.00000000
     0.00000000
     0.00000000
     0.00000000
     0.00000000
     0.00000000
     0.00000000
     0.00000000
     0.00000000
     0.00000000
     0.00000000
     0.00000000
     0.00000000
     0.00000000
     0.00000000
     0.00000000
     0.00000000
     0.00000000
     0.00000000
     0.00000000
     0.00000000
     0.00000000
     0.00000000
     0.00000000
     0.00000000
     0.00000000
     0.00000000
     0.00000000
     0.00000000
     0.00000000
     0.00000000
     0.00000000
     0.00000000
     0.00000000
     0.00000000
     0.00000000
     0.00000000
     0.00000000
     0.00000000
     0.00000000
     0.00000000
     0.00000000
     0.00000000
     0.00000000
     0.00000000
     0.00000000
     0.00000000
     0.00000000
     0.00000000
     0.00000000
     0.00000000
     0.00000000
     0.00000000
     0.00000000
     0.00000000
     0.00000000
     0.00000000
     0.00000000
     0.00000000
     0.00000000
     0.00000000
     0.00000000
     0.00000000
     0.00000000
     0.00000000
     0.00000000
     0.00000000
     0.00000000
     0.00000000
     0.00000000
     0.00000000
     0.00000000
     0.00000000
     0.00000000
     0.00000000
     0.00000000
     0.00000000
     0.00000000
     0.00000000
     0.00000000
     0.00000000
     0.00000000
     0.00000000
     0.00000000
     0.00000000
     0.00000000
     0.00000000
     0.00000000
     0.00000000
     0.00000000
     0.00000000
     0.00000000
     0.00000000
     0.00000000
     0.00000000
     0.00000000
     0.00000000
     0.00000000
     0.00000000
     0.00000000
     0.00000000
     0.00000000
     0.00000000
     0.00000000
     0.00000000
     0.00000000
     0.00000000
     0.00000000
     0.00000000
     0.00000000
     0.00000000
     0.00000000
     0.00000000
     0.00000000
     0.00000000
     0.00000000
     0.00000000
     0.00000000
     0.00000000
     0.00000000
     0.00000000
     0.00000000
     0.00000000
     0.00000000
     0.00000000
     0.00000000
     0.00000000
     0.00000000
     0.00000000
     0.00000000
     0.00000000
     0.00000000
     0.00000000
     0.00000000
     0.00000000
     0.00000000
     0.00000000
     0.00000000
     0.00000000
     0.00000000
     0.00000000
     0.00000000
     0.00000000
     0.00000000
     0.00000000
     0.00000000
     0.00000000
     0.00000000
     0.00000000
     0.00000000
     0.00000000
     0.00000000
     0.00000000
     0.00000000
     0.00000000
     0.00000000
     0.00000000
     0.00000000
     0.00000000
     0.00000000
     0.00000000
     0.00000000
     0.00000000
     0.00000000
     0.00000000
     0.00000000
     0.00000000
     0.00000000
     0.00000000
     0.00000000
     0.00000000
     0.00000000
     0.00000000
     0.00000000
     0.00000000
     0.00000000
     0.00000000
     0.00000000
     0.00000000
     0.00000000
     0.00000000
     0.00000000
     0.00000000
     0.00000000
     0.00000000
     0.00000000
     0.00000000
     0.00000000
     0.00000000
     0.00000000
     0.00000000
     0.00000000
     0.00000000
     0.00000000
     0.00000000
     0.00000000
     0.00000000
     0.00000000
     0.00000000
     0.00000000
     0.00000000
     0.00000000
     0.00000000
     0.00000000
     0.00000000
     0.00000000
     0.00000000
     0.00000000
     0.00000000
     0.00000000
     0.00000000
     0.00000000
     0.00000000
     0.00000000
     0.00000000
     0.00000000
     0.00000000
     0.00000000
     0.00000000
     0.00000000
     0.00000000
     0.00000000
     0.00000000
     0.00000000
     0.00000000
     0.00000000
     0.00000000
     0.00000000
     0.00000000
     0.00000000
     0.00000000
     0.00000000
     0.00000000
     0.00000000
     0.00000000
     0.00000000
     0.00000000
     0.00000000
     0.00000000
     0.00000000
     0.00000000
     0.00000000
     0.00000000
     0.00000000
     0.00000000
     0.00000000
     0.00000000
     0.00000000
     0.00000000
     0.00000000
     0.00000000
     0.00000000
     0.00000000
     0.00000000
     0.00000000
     0.00000000
     0.00000000
     0.00000000
     0.00000000
     0.00000000
     0.00000000
     0.00000000
     0.00000000
     0.00000000
     0.00000000
     0.00000000
     0.00000000
     0.00000000
     0.00000000
     0.00000000
     0.00000000
     0.00000000
     0.00000000
     0.00000000
     0.00000000
     0.00000000
     0.00000000
     0.00000000
     0.00000000
     0.00000000
     0.00000000
     0.00000000
     0.00000000
     0.00000000
     0.00000000
     0.00000000
     0.00000000
     0.00000000
     0.00000000
     0.00000000
     0.00000000
     0.00000000
     0.00000000
     0.00000000
     0.00000000
     0.00000000
     0.00000000
     0.00000000
     0.00000000
     0.00000000
     0.00000000
     0.00000000
     0.00000000
     0.00000000
     0.00000000
     0.00000000
     0.00000000
     0.00000000
     0.00000000
     0.00000000
     0.00000000
     0.00000000
     0.00000000
     0.00000000
     0.00000000
     0.00000000
     0.00000000
     0.00000000
     0.00000000
     0.00000000
     0.00000000
     0.00000000
     0.00000000
     0.00000000
     0.00000000
     0.00000000
     0.00000000
     0.00000000
     0.00000000
     0.00000000
     0.00000000
     0.00000000
     0.00000000
     0.00000000
     0.00000000
     0.00000000
     0.00000000
     0.00000000
     0.00000000
     0.00000000
     0.00000000
     0.00000000
     0.00000000
     0.00000000
     0.00000000
     0.00000000
     0.00000000
     0.00000000
     0.00000000
     0.00000000
     0.00000000
     0.00000000
     0.00000000
     0.00000000
     0.00000000
     0.00000000
     0.00000000
     0.00000000
     0.00000000
     0.00000000
     0.00000000
     0.00000000
     0.00000000
     0.00000000
     0.00000000
     0.00000000
     0.00000000
     0.00000000
     0.00000000
     0.00000000
     0.00000000
     0.00000000
     0.00000000
     0.00000000
     0.00000000
     0.00000000
     0.00000000
     0.00000000
     0.00000000
     0.00000000
     0.00000000
     0.00000000
     0.00000000
     0.00000000
     0.00000000
     0.00000000
     0.00000000
     0.00000000
     0.00000000
     0.00000000
     0.00000000
     0.00000000
     0.00000000
     0.00000000
     0.00000000
     0.00000000
     0.00000000
     0.00000000
     0.00000000
     0.00000000
     0.00000000
     0.00000000
     0.00000000
     0.00000000
     0.00000000
     0.00000000
     0.00000000
     0.00000000
     0.00000000
     0.00000000
     0.00000000
     0.00000000
     0.00000000
     0.00000000
     0.00000000
     0.00000000
     0.00000000
     0.00000000
     0.00000000
     0.00000000
     0.00000000
     0.00000000
     0.00000000
     0.00000000
     0.00000000
     0.00000000
     0.00000000
     0.00000000
     0.00000000
     0.00000000
     0.00000000
     0.00000000
     0.00000000
     0.00000000
     0.00000000
     0.00000000
     0.00000000
     0.00000000
     0.00000000
     0.00000000
     0.00000000
     0.00000000
     0.00000000
     0.00000000
     0.00000000
     0.00000000
     0.00000000
     0.00000000
     0.00000000
     0.00000000
     0.00000000
     0.00000000
     0.00000000
     0.00000000
     0.00000000
     0.00000000
     0.00000000
     0.00000000
     0.00000000
     0.00000000
     0.00000000
     0.00000000
     0.00000000
     0.00000000
     0.00000000
VECTORS ShearStress float 
    -0.00763925     0.00782609     0.00201240
    -0.06365491     0.04042231     0.01025729
    -0.01497024     0.00581073    -0.00798210
    -0.00038861     0.00000183     0.00489333
    -0.07441256     0.00698485     0.00586408
    -0.14681043    -0.00248989     0.00731163
    -0.20403541    -0.04208116    -0.00115647
    -0.28566921    -0.11215822    -0.00159858
    -0.69891381    -0.29060320    -0.00905058
    -0.00007046     0.01657110     0.00699095
     0.00000000     0.00000000     0.00000000
     0.00000000     0.00000000     0.00000000
     0.00000000     0.00000000     0.00000000
     0.00000000     0.00000000     0.00000000
     0.00000000     0.00000000     0.00000000
     0.00000000     0.00000000     0.00000000
     0.00000000     0.00000000     0.00000000
     0.00000000     0.00000000     0.00000000
     0.00001783    -0.01551601     0.01299203
     0.00000000     0.00000000     0.00000000
     0.00000000     0.00000000     0.00000000
     0.00000000     0.00000000     0.00000000
     0.00000000     0.00000000     0.00000000
     0.00000000     0.00000000     0.00000000
     0.00000000     0.00000000     0.00000000
     0.00000000     0.00000000     0.00000000
     0.00000000     0.00000000     0.00000000
     0.00008719    -0.03453817     0.00757558
     0.00000000     0.00000000     0.00000000
     0.00000000     0.00000000     0.00000000
     0.00000000     0.00000000     0.00000000
     0.00000000     0.00000000     0.00000000
     0.00000000     0.00000000     0.00000000
     0.00000000     0.00000000     0.00000000
     0.00000000     0.00000000     0.00000000
     0.00000000     0.00000000     0.00000000
     0.00000937    -0.03113790     0.00916811
     0.00000000     0.00000000     0.00000000
     0.00000000     0.00000000     0.00000000
     0.00000000     0.00000000     0.00000000
     0.00000000     0.00000000     0.00000000
     0.00000000     0.00000000     0.00000000
     0.00000000     0.00000000     0.00000000
     0.00000000     0.00000000     0.00000000
     0.00000000     0.00000000     0.00000000
    -0.00004305    -0.02925293     0.00861501
     0.00000000     0.00000000     0.00000000
     0.00000000     0.00000000     0.00000000
     0.00000000     0.00000000     0.00000000
     0.00000000     0.00000000     0.00000000
     0.00000000     0.00000000     0.00000000
     0.00000000     0.00000000     0.00000000
     0.00000000     0.00000000     0.00000000
     0.59558919    -0.20238349    -0.04730365
    -0.00009404    -0.02945612     0.00875397
     0.00000000     0.00000000     0.00000000
     0.00000000     0.00000000     0.00000000
     0.00000000     0.00000000     0.00000000
     0.00000000     0.00000000     0.00000000
     0.00000000     0.00000000     0.00000000
     0.00000000     0.00000000     0.00000000
     0.00000000     0.00000000     0.00000000
     0.00000000     0.00000000     0.00000000
    -0.00013905    -0.03018921     0.00641440
     0.00000000     0.00000000     0.00000000
     0.00000000     0.00000000     0.00000000
     0.00000000     0.00000000     0.00000000
     0.00000000     0.00000000     0.00000000
     0.00000000     0.00000000     0.00000000
     0.00000000     0.00000000     0.00000000
     0.00000000     0.00000000     0.00000000
     0.00000000     0.00000000     0.00000000
    -0.00015549    -0.02607862     0.00725198
     0.00000000     0.00000000     0.00000000
     0.00000000     0.00000000     0.00000000
     0.00000000     0.00000000     0.00000000
     0.00000000     0.00000000     0.00000000
     0.00000000     0.00000000     0.00000000
     0.00000000     0.00000000     0.00000000
     0.00000000     0.00000000     0.00000000
     0.00000000     0.00000000     0.00000000
    -0.00018594    -0.02085197     0.00144975
     0.00000000     0.00000000     0.00000000
     0.00000000     0.00000000     0.00000000
     0.00000000     0.00000000     0.00000000
     0.00000000     0.00000000     0.00000000
     0.00000000     0.00000000     0.00000000
     0.00000000     0.00000000     0.00000000
     0.00000000     0.00000000     0.00000000
     0.00000000     0.00000000     0.00000000
    -0.00444702    -0.00509703     0.00034782
    -0.04114438    -0.02445689     0.00255138
    -0.06062622    -0.02241813     0.00107092
    -0.09945467    -0.02220260     0.00396885
    -0.14284487    -0.01420509     0.00159193
    -0.17843201     0.00232095     0.00240634
    -0.20841517     0.05012067     0.00048235
    -0.24830536     0.11761396    -0.00118665
    -0.40093194     0.20838521    -0.00766028
     0.00323413    -0.00256432     0.00890183
     0.02346262    -0.00788453     0.04420877
    -0.00448486    -0.00344131    -0.03039476
    -0.01432903     0.00613794     0.01836258
    -0.03032072     0.00720765     0.02652830
    -0.08645310     0.00281891     0.02908130
    -0.13521573    -0.02978503    -0.00870344
    -0.24467303    -0.10314684    -0.02241985
    -0.76143551    -0.33903669    -0.05716940
     0.00011088    -0.01295994     0.02937506
     0.00000000     0.00000000     0.00000000
     0.00000000     0.00000000     0.00000000
     0.00000000     0.00000000     0.00000000
     0.00000000     0.00000000     0.00000000
     0.00000000     0.00000000     0.00000000
     0.00000000     0.00000000     0.00000000
     0.00000000     0.00000000     0.00000000
     0.00000000     0.00000000     0.00000000
     0.00000748    -0.01344133     0.05103061
     0.00000000     0.00000000     0.00000000
     0.00000000     0.00000000     0.00000000
     0.00000000     0.00000000     0.00000000
     0.00000000     0.00000000     0.00000000
     0.00000000     0.00000000     0.00000000
     0.00000000     0.00000000     0.00000000
     0.00000000     0.00000000     0.00000000
     0.00000000     0.00000000     0.00000000
     0.00004705    -0.02492206     0.03162551
     0.00000000     0.00000000     0.00000000
     0.00000000     0.00000000     0.00000000
     0.00000000     0.00000000     0.00000000
     0.00000000     0.00000000     0.00000000
     0.00000000     0.00000000     0.00000000
     0.00000000     0.00000000     0.00000000
     0.00000000     0.00000000     0.00000000
     0.00000000     0.00000000     0.00000000
     0.00002142    -0.03588204     0.03755985
     0.00000000     0.00000000     0.00000000
     0.00000000     0.00000000     0.00000000
     0.00000000     0.00000000     0.00000000
     0.00000000     0.00000000     0.00000000
     0.00000000     0.00000000     0.00000000
     0.00000000     0.00000000     0.00000000
     0.00000000     0.00000000     0.00000000
     0.00000000     0.00000000     0.00000000
    -0.00003007    -0.03111732     0.03625834
     0.00000000     0.00000000     0.00000000
     0.00000000     0.00000000     0.00000000
     0.00000000     0.00000000     0.00000000
     0.00000000     0.00000000     0.00000000
     0.00000000     0.00000000     0.00000000
     0.00000000     0.00000000     0.00000000
     0.00000000     0.00000000     0.00000000
     0.54203863    -0.18995862    -0.21259103
    -0.00007084    -0.02966979     0.03616100
     0.00000000     0.00000000     0.00000000
     0.00000000     0.00000000     0.00000000
     0.00000000     0.00000000     0.00000000
     0.00000000     0.00000000     0.00000000
     0.00000000     0.00000000     0.00000000
     0.00000000     0.00000000     0.00000000
     0.00000000     0.00000000     0.00000000
     0.00000000     0.00000000     0.00000000
    -0.00012366    -0.03210840     0.02725406
     0.00000000     0.00000000     0.00000000
     0.00000000     0.00000000     0.00000000
     0.00000000     0.00000000     0.00000000
     0.00000000     0.00000000     0.00000000
     0.00000000     0.00000000     0.00000000
     0.00000000     0.00000000     0.00000000
     0.00000000     0.00000000     0.00000000
     0.00000000     0.00000000     0.00000000
    -0.00005968    -0.01547137     0.02934418
     0.00000000     0.00000000     0.00000000
     0.00000000     0.00000000     0.00000000
     0.00000000     0.00000000     0.00000000
     0.00000000     0.00000000     0.00000000
     0.00000000     0.00000000     0.00000000
     0.00000000     0.00000000     0.00000000
     0.00000000     0.00000000     0.00000000
     0.00000000     0.00000000     0.00000000
     0.00003182     0.00174274     0.00728660
     0.00000000     0.00000000     0.00000000
     0.00000000     0.00000000     0.00000000
     0.00000000     0.00000000     0.00000000
     0.00000000     0.00000000     0.00000000
     0.00000000     0.00000000     0.00000000
     0.00000000     0.00000000     0.00000000
     0.00000000     0.00000000     0.00000000
     0.00000000     0.00000000     0.00000000
    -0.00038305    -0.00011947     0.00124112
    -0.01267630    -0.00767362     0.00688897
    -0.06805611    -0.02620081     0.00519904
    -0.10692826    -0.02665798     0.01550913
    -0.13574033    -0.01484929     0.00685224
    -0.17769981     0.00105683     0.00809386
    -0.19647046     0.04806583    -0.00142186
    -0.24457304     0.11994015    -0.00813252
    -0.41484509     0.22230273    -0.01275220
     0.00566639    -0.00209908     0.01088643
     0.05277184    -0.01302731     0.06356481
     0.05011142    -0.01945653     0.00140918
     0.03442287    -0.00588888     0.00835090
     0.03285129     0.01097410     0.04357607
     0.06086758     0.00477389     0.01232446
     0.05337896     0.00239724    -0.02204399
    -0.10874121    -0.05600745    -0.01001317
    -0.87659064    -0.43351697    -0.01359196
     0.00007946    -0.00410286     0.02727637
     0.00000000     0.00000000     0.00000000
     0.00000000     0.00000000     0.00000000
     0.00000000     0.00000000     0.00000000
     0.00000000     0.00000000     0.00000000
     0.00000000     0.00000000     0.00000000
     0.00000000     0.00000000     0.00000000
     0.00000000     0.00000000     0.00000000
     0.00000000     0.00000000     0.00000000
     0.00007753    -0.01217500     0.03085292
     0.00000000     0.00000000     0.00000000
     0.00000000     0.00000000     0.00000000
     0.00000000     0.00000000     0.00000000
     0.00000000     0.00000000     0.00000000
     0.00000000     0.00000000     0.00000000
     0.00000000     0.00000000     0.00000000
     0.00000000     0.00000000     0.00000000
     0.00000000     0.00000000     0.00000000
     0.00005658    -0.02037718     0.03128987
     0.00000000     0.00000000     0.00000000
     0.00000000     0.00000000     0.00000000
     0.00000000     0.00000000     0.00000000
     0.00000000     0.00000000     0.00000000
     0.00000000     0.00000000     0.00000000
     0.00000000     0.00000000     0.00000000
     0.00000000     0.00000000     0.00000000
     0.00000000     0.00000000     0.00000000
     0.00001751    -0.02966434     0.03239515
     0.00000000     0.00000000     0.00000000
     0.00000000     0.00000000     0.00000000
     0.00000000     0.00000000     0.00000000
     0.00000000     0.00000000     0.00000000
     0.00000000     0.00000000     0.00000000
     0.00000000     0.00000000     0.00000000
     0.00000000     0.00000000     0.00000000
     0.00000000     0.00000000     0.00000000
     0.00000370    -0.02873472     0.03725272
     0.00000000     0.00000000     0.00000000
     0.00000000     0.00000000     0.00000000
     0.00000000     0.00000000     0.00000000
     0.00000000     0.00000000     0.00000000
     0.00000000     0.00000000     0.00000000
     0.00000000     0.00000000     0.00000000
     0.00000000     0.00000000     0.00000000
     0.40932655    -0.16069660    -0.26713372
    -0.00002589    -0.02634030     0.03293048
     0.00000000     0.00000000     0.00000000
     0.00000000     0.00000000     0.00000000
     0.00000000     0.00000000     0.00000000
     0.00000000     0.00000000     0.00000000
     0.00000000     0.00000000     0.00000000
     0.00000000     0.00000000     0.00000000
     0.00000000     0.00000000     0.00000000
     0.00000000     0.00000000     0.00000000
    -0.00005302    -0.02609446     0.02971075
     0.00000000     0.00000000     0.00000000
     0.00000000     0.00000000     0.00000000
     0.00000000     0.00000000     0.00000000
     0.00000000     0.00000000     0.00000000
     0.00000000     0.00000000     0.00000000
     0.00000000     0.00000000     0.00000000
     0.00000000     0.00000000     0.00000000
     0.00000000     0.00000000     0.00000000
    -0.00002541    -0.01205213     0.02292045
     0.00000000     0.00000000     0.00000000
     0.00000000     0.00000000     0.00000000
     0.00000000     0.00000000     0.00000000
     0.00000000     0.00000000     0.00000000
     0.00000000     0.00000000     0.00000000
     0.00000000     0.00000000     0.00000000
     0.00000000     0.00000000     0.00000000
     0.00000000     0.00000000     0.00000000
    -0.00003121    -0.00813751     0.01618348
     0.00000000     0.00000000     0.00000000
     0.00000000     0.00000000     0.00000000
     0.00000000     0.00000000     0.00000000
     0.00000000     0.00000000     0.00000000
     0.00000000     0.00000000     0.00000000
     0.00000000     0.00000000     0.00000000
     0.00000000     0.00000000     0.00000000
     0.00000000     0.00000000     0.00000000
    -0.00094362    -0.00303473     0.00613053
    -0.01375087    -0.02111946     0.03947124
    -0.05318127    -0.02840973     0.02402689
    -0.09367709    -0.02916791     0.02241408
    -0.13089164    -0.01999273     0.01949323
    -0.17880208    -0.00275450     0.01636692
    -0.22406455     0.05338126     0.01305160
    -0.29142286     0.14633816     0.01618278
    -0.51060683     0.28276799     0.02771579
     0.00246563    -0.00112398     0.00317823
     0.03163572    -0.00918274     0.02262279
     0.09113080    -0.02590700     0.02482538
     0.08813554    -0.01601166     0.01236605
     0.09719087     0.00786175     0.03730175
     0.11518920    -0.00176917    -0.00716256
     0.11640702     0.01665949    -0.02000963
     0.11471389     0.03108366    -0.03640688
    -0.82697325    -0.45102324     0.06873579
     0.00003471    -0.00319449     0.00850251
     0.00000000     0.00000000     0.00000000
     0.00000000     0.00000000     0.00000000
     0.00000000     0.00000000     0.00000000
     0.00000000     0.00000000     0.00000000
     0.00000000     0.00000000     0.00000000
     0.00000000     0.00000000     0.00000000
     0.00000000     0.00000000     0.00000000
     0.00000000     0.00000000     0.00000000
     0.00006585    -0.00686126     0.02052356
     0.00000000     0.00000000     0.00000000
     0.00000000     0.00000000     0.00000000
     0.00000000     0.00000000     0.00000000
     0.00000000     0.00000000     0.00000000
     0.00000000     0.00000000     0.00000000
     0.00000000     0.00000000     0.00000000
     0.00000000     0.00000000     0.00000000
     0.00000000     0.00000000     0.00000000
     0.00005685    -0.01163247     0.02351908
     0.00000000     0.00000000     0.00000000
     0.00000000     0.00000000     0.00000000
     0.00000000     0.00000000     0.00000000
     0.00000000     0.00000000     0.00000000
     0.00000000     0.00000000     0.00000000
     0.00000000     0.00000000     0.00000000
     0.00000000     0.00000000     0.00000000
     0.00000000     0.00000000     0.00000000
     0.00000299    -0.02144459     0.02926806
     0.00000000     0.00000000     0.00000000
     0.00000000     0.00000000     0.00000000
     0.00000000     0.00000000     0.00000000
     0.00000000     0.00000000     0.00000000
     0.00000000     0.00000000     0.00000000
     0.00000000     0.00000000     0.00000000
     0.00000000     0.00000000     0.00000000
     0.00000000     0.00000000     0.00000000
    -0.00005751    -0.02260920     0.02717639
     0.00000000     0.00000000     0.00000000
     0.00000000     0.00000000     0.00000000
     0.00000000     0.00000000     0.00000000
     0.00000000     0.00000000     0.00000000
     0.00000000     0.00000000     0.00000000
     0.00000000     0.00000000     0.00000000
     0.00000000     0.00000000     0.00000000
     0.35447305    -0.17022868    -0.15705647
    -0.00007221    -0.02214700     0.02775184
     0.00000000     0.00000000     0.00000000
     0.00000000     0.00000000     0.00000000
     0.00000000     0.00000000     0.00000000
     0.00000000     0.00000000     0.00000000
     0.00000000     0.00000000     0.00000000
     0.00000000     0.00000000     0.00000000
     0.00000000     0.00000000     0.00000000
     0.00000000     0.00000000     0.00000000
    -0.00006730    -0.02001822     0.02396967
     0.00000000     0.00000000     0.00000000
     0.00000000     0.00000000     0.00000000
     0.00000000     0.00000000     0.00000000
     0.00000000     0.00000000     0.00000000
     0.00000000     0.00000000     0.00000000
     0.00000000     0.00000000     0.00000000
     0.00000000     0.00000000     0.00000000
     0.00000000     0.00000000     0.00000000
    -0.00002212    -0.00961996     0.02407922
     0.00000000     0.00000000     0.00000000
     0.00000000     0.00000000     0.00000000
     0.00000000     0.00000000     0.00000000
     0.00000000     0.00000000     0.00000000
     0.00000000     0.00000000     0.00000000
     0.00000000     0.00000000     0.00000000
     0.00000000     0.00000000     0.00000000
     0.00000000     0.00000000     0.00000000
     0.00000174    -0.00406372     0.01689219
     0.00000000     0.00000000     0.00000000
     0.00000000     0.00000000     0.00000000
     0.00000000     0.00000000     0.00000000
     0.00000000     0.00000000     0.00000000
     0.00000000     0.00000000     0.00000000
     0.00000000     0.00000000     0.00000000
     0.00000000     0.00000000     0.00000000
     0.00000000     0.00000000     0.00000000
     0.00180487    -0.00203258     0.00771453
     0.01509161    -0.01732757     0.05394335
     0.00235202    -0.02355881     0.04902878
    -0.04865668    -0.03057233     0.03652356
    -0.07984466    -0.02419624     0.03024404
    -0.12869242    -0.01786206     0.03869536
    -0.16231273     0.03219859     0.02679206
    -0.29273772     0.13918413     0.06943806
    -0.70926091     0.40283137     0.10745146
     0.00459302    -0.00158749     0.00449401
     0.05415030    -0.01452678     0.03287386
     0.13638537    -0.04045741     0.03172605
     0.15629919    -0.01472075     0.03975314
     0.13395702    -0.00106425     0.02171383
     0.16510547     0.00377307     0.00087991
     0.13503655     0.03399039    -0.00231996
     0.23290079     0.07828533    -0.07502836
    -0.63272513    -0.32387782     0.21077308
     0.00002408    -0.00255778     0.00640106
     0.00000000     0.00000000     0.00000000
     0.00000000     0.00000000     0.00000000
     0.00000000     0.00000000     0.00000000
     0.00000000     0.00000000     0.00000000
     0.00000000     0.00000000     0.00000000
     0.00000000     0.00000000     0.00000000
     0.00000000     0.00000000     0.00000000
     0.00000000     0.00000000     0.00000000
     0.00005431    -0.00559909     0.01328259
     0.00000000     0.00000000     0.00000000
     0.00000000     0.00000000     0.00000000
     0.00000000     0.00000000     0.00000000
     0.00000000     0.00000000     0.00000000
     0.00000000     0.00000000     0.00000000
     0.00000000     0.00000000     0.00000000
     0.00000000     0.00000000     0.00000000
     0.00000000     0.00000000     0.00000000
     0.00005450    -0.00263680     0.01835637
     0.00000000     0.00000000     0.00000000
     0.00000000     0.00000000     0.00000000
     0.00000000     0.00000000     0.00000000
     0.00000000     0.00000000     0.00000000
     0.00000000     0.00000000     0.00000000
     0.00000000     0.00000000     0.00000000
     0.00000000     0.00000000     0.00000000
     0.00000000     0.00000000     0.00000000
     0.00005252    -0.00937846     0.02051144
     0.00000000     0.00000000     0.00000000
     0.00000000     0.00000000     0.00000000
     0.00000000     0.00000000     0.00000000
     0.00000000     0.00000000     0.00000000
     0.00000000     0.00000000     0.00000000
     0.00000000     0.00000000     0.00000000
     0.00000000     0.00000000     0.00000000
     0.00000000     0.00000000     0.00000000
    -0.00000243    -0.01816094     0.02415159
     0.00000000     0.00000000     0.00000000
     0.00000000     0.00000000     0.00000000
     0.00000000     0.00000000     0.00000000
     0.00000000     0.00000000     0.00000000
     0.00000000     0.00000000     0.00000000
     0.00000000     0.00000000     0.00000000
     0.00000000     0.00000000     0.00000000
     0.39542882    -0.27185507    -0.33923317
    -0.00006422    -0.01866147     0.01984991
     0.00000000     0.00000000     0.00000000
     0.00000000     0.00000000     0.00000000
     0.00000000     0.00000000     0.00000000
     0.00000000     0.00000000     0.00000000
     0.00000000     0.00000000     0.00000000
     0.00000000     0.00000000     0.00000000
     0.00000000     0.00000000     0.00000000
     0.00000000     0.00000000     0.00000000
    -0.00005859    -0.01304015     0.02040170
     0.00000000     0.00000000     0.00000000
     0.00000000     0.00000000     0.00000000
     0.00000000     0.00000000     0.00000000
     0.00000000     0.00000000     0.00000000
     0.00000000     0.00000000     0.00000000
     0.00000000     0.00000000     0.00000000
     0.00000000     0.00000000     0.00000000
     0.00000000     0.00000000     0.00000000
    -0.00002157    -0.00676519     0.01636553
     0.00000000     0.00000000     0.00000000
     0.00000000     0.00000000     0.00000000
     0.00000000     0.00000000     0.00000000
     0.00000000     0.00000000     0.00000000
     0.00000000     0.00000000     0.00000000
     0.00000000     0.00000000     0.00000000
     0.00000000     0.00000000     0.00000000
     0.00000000     0.00000000     0.00000000
     0.00003372     0.00198562     0.01565499
     0.00000000     0.00000000     0.00000000
     0.00000000     0.00000000     0.00000000
     0.00000000     0.00000000     0.00000000
     0.00000000     0.00000000     0.00000000
     0.00000000     0.00000000     0.00000000
     0.00000000     0.00000000     0.00000000
     0.00000000     0.00000000     0.00000000
     0.00000000     0.00000000     0.00000000
     0.01133209     0.00251181     0.01261281
     0.10037045     0.00900244     0.08986501
     0.08086869    -0.01248084     0.06920652
     0.07580046    -0.02493277     0.06440952
     0.01037758    -0.02875238     0.04144642
     0.02508620    -0.04296037     0.05747654
     0.07723224     0.02132908    -0.06230003
     0.01701029     0.00772148    -0.00919626
    -0.88255543     0.50368709     0.22186970
     0.00301486    -0.00081383     0.00256061
     0.02838462    -0.00695802     0.01639158
     0.06761235    -0.02060970     0.01527307
     0.07901814    -0.00542985     0.02014318
     0.06534606    -0.00058714     0.00871455
     0.08148888     0.00224593     0.00074070
     0.06448147     0.01917746     0.00006035
     0.11594784     0.03971562    -0.04327377
    -0.28730803    -0.15495936     0.14343223
     0.00553988    -0.00166029     0.00478790
     0.06111211    -0.01571306     0.03287506
     0.13514979    -0.04512192     0.02980458
     0.15755505    -0.00717776     0.03926657
     0.13334042    -0.00226867     0.01540628
     0.16186564     0.00740106     0.00262576
     0.13269965     0.03486279    -0.00788401
     0.22597795     0.09271360    -0.08862227
    -0.50179941    -0.26442047     0.32503894
     0.00627604    -0.00242399     0.00547016
     0.06090319    -0.01995069     0.03055537
     0.08820765    -0.04605091     0.01372582
     0.09133264     0.00689444     0.02687137
     0.09477396    -0.01626666     0.00271124
     0.09551485     0.02465183     0.01140625
     0.10733578    -0.01740052    -0.03436130
     0.12361250     0.14044652    -0.01645798
     0.17307600     0.23653930    -0.08731494
     0.00504103    -0.00015017     0.00561999
     0.04740198    -0.00534889     0.02828245
     0.06385397    -0.04064878     0.01185807
     0.06431330     0.00382640     0.01676297
     0.06489347    -0.02726600    -0.00199174
     0.06988242     0.01915796     0.00566040
     0.06451585    -0.02463272    -0.02264360
     0.08091169     0.10012292    -0.04008458
     0.17591637     0.03821296    -0.22042378
     0.00651160    -0.00267576     0.00645208
     0.05817521    -0.01766627     0.03321076
     0.05145577    -0.02315855     0.01564493
     0.06440063    -0.01321715     0.01294973
     0.05765279    -0.01532705     0.00347395
     0.05285573     0.00011869    -0.00036741
     0.08206699    -0.01528264    -0.02191637
     0.07244351     0.14442838    -0.05023462
     0.40071367    -0.03519703    -0.59517995
     0.00653402    -0.00594087     0.00712818
     0.05955450    -0.03415533     0.03624275
     0.06352656    -0.00923506     0.02365059
     0.06604674    -0.02626911     0.01530290
     0.05291563    -0.00231084     0.00533545
     0.05020172    -0.01460433     0.00025015
    -0.00473421     0.01362253     0.00124370
     0.01515661     0.11384489    -0.01989958
     0.08601963     0.03594795    -0.10998768
     0.00377277    -0.00659058     0.00539010
     0.03315436    -0.03880247     0.02681149
     0.03422489    -0.00727468     0.01393145
     0.05355037    -0.03079488     0.01741735
     0.03938015    -0.00070240     0.00415950
     0.04423154    -0.02267098     0.00373520
     0.03411376     0.04348770    -0.01722074
     0.03890288    -0.09682584    -0.01466228
     0.13151302     0.23639277    -0.13505300
     0.00455470    -0.00516290     0.00677562
     0.04123539    -0.03206599     0.03693917
     0.04713470    -0.00463366     0.02013037
     0.05730274    -0.03874148     0.02680962
     0.03933578    -0.00366444     0.00556845
     0.05195472    -0.03627100     0.01187050
     0.05694748     0.05509203    -0.03332325
     0.05426569    -0.09084678    -0.01753962
     0.10612091     0.31002824    -0.16950001
     0.00403952    -0.00372266     0.00643224
     0.03858656    -0.02703678     0.04001780
     0.05927221    -0.01562486     0.03343757
     0.06582715    -0.03876158     0.03739538
     0.04349996    -0.02430474     0.01813773
     0.05928602    -0.04945340     0.02520202
     0.10091576     0.03734935    -0.04786656
     0.09925861    -0.10917723    -0.01567827
    -0.16735256     0.26864521     0.02426830
     0.01221358     0.00171829     0.01175400
     0.10802390     0.00284466     0.07971962
     0.09289032    -0.02171012     0.06070335
     0.09594678    -0.03343662     0.05346131
     0.02972437    -0.04069950     0.03500531
     0.05359352    -0.05488201     0.04034568
     0.12237167     0.03172681    -0.06380578
     0.08303379    -0.02802790    -0.02331004
    -0.94386936     0.66957269     0.37807750
     0.00780660     0.00153299     0.00703153
     0.05765719     0.00498887     0.04466629
     0.04631689    -0.00814315     0.03338933
     0.04777540    -0.01392814     0.03025685
     0.01260313    -0.01749713     0.01979408
     0.02506368    -0.02505889     0.02490686
     0.05867180     0.01294508    -0.03499841
     0.03551458    -0.00663434    -0.01186551
    -0.45241352     0.28677114     0.14828611
     0.21013458    -0.12500317     0.06182525
    -0.13317802    -0.10926845     0.03572769
    -0.28754746    -0.07619053     0.01052863
    -0.32421990    -0.08605360     0.01007008
    -0.33240752    -0.08925983    -0.00235298
    -0.27483916    -0.07387184    -0.00280613
    -0.23477780    -0.06332526    -0.00511798
    -0.18209540    -0.04917787    -0.00473320
    -0.13865689    -0.03766892    -0.00632925
    -0.09777915    -0.02668548    -0.00595914
    -0.03429470    -0.02450781    -0.00135965
     0.00000000     0.00000000     0.00000000
     0.00000000     0.00000000     0.00000000
     0.00000000     0.00000000     0.00000000
     0.00000000     0.00000000     0.00000000
     0.00000000     0.00000000     0.00000000
     0.00000000     0.00000000     0.00000000
     0.00000000     0.00000000     0.00000000
     0.00000000     0.00000000     0.00000000
     0.00000000     0.00000000     0.00000000
     0.00000000     0.00000000     0.00000000
     0.03465019    -0.12931694    -0.00360805
     0.00000000     0.00000000     0.00000000
     0.00000000     0.00000000     0.00000000
     0.00000000     0.00000000     0.00000000
     0.00000000     0.00000000     0.00000000
     0.00000000     0.00000000     0.00000000
     0.00000000     0.00000000     0.00000000
     0.00000000     0.00000000     0.00000000
     0.00000000     0.00000000     0.00000000
     0.00000000     0.00000000     0.00000000
     0.00000000     0.00000000     0.00000000
     0.05886704    -0.21969427     0.00973148
     0.00000000     0.00000000     0.00000000
     0.00000000     0.00000000     0.00000000
     0.00000000     0.00000000     0.00000000
     0.00000000     0.00000000     0.00000000
     0.00000000     0.00000000     0.00000000
     0.00000000     0.00000000     0.00000000
     0.00000000     0.00000000     0.00000000
     0.00000000     0.00000000     0.00000000
     0.00000000     0.00000000     0.00000000
     0.00000000     0.00000000     0.00000000
     0.04677157    -0.17455345     0.01838860
     0.00000000     0.00000000     0.00000000
     0.00000000     0.00000000     0.00000000
     0.00000000     0.00000000     0.00000000
     0.00000000     0.00000000     0.00000000
     0.00000000     0.00000000     0.00000000
     0.00000000     0.00000000     0.00000000
     0.00000000     0.00000000     0.00000000
     0.00000000     0.00000000     0.00000000
     0.00000000     0.00000000     0.00000000
     0.00000000     0.00000000     0.00000000
     0.01969146    -0.07348981     0.02157789
    -0.68610481     0.49258191     0.01604008
    -0.13429671     0.32273695    -0.00419667
     0.56603705     0.15350416    -0.02256002
     0.74922661     0.20070662     0.00061365
     0.69749119     0.18578434     0.01360267
     0.56750916     0.15014130     0.02359476
     0.37755360     0.09939461     0.02174206
     0.21843821     0.05675402     0.02180555
     0.05810847     0.01405291     0.01862327
    -0.02432988    -0.00746180     0.01156962
    -0.02886179    -0.01579189     0.00397062
     0.03755307    -0.09142538     0.20741618
    -0.13575677    -0.08232928     0.16290485
    -0.30319489    -0.07518245     0.02937604
    -0.35724571    -0.08609765     0.05379945
    -0.34687429    -0.09394094    -0.00533622
    -0.29971846    -0.07829839     0.01398657
    -0.24238936    -0.06863770    -0.01978413
    -0.19420845    -0.05316163    -0.00401378
    -0.14177451    -0.04301227    -0.02723872
    -0.10031475    -0.03078521    -0.02022479
    -0.03441136    -0.02544522    -0.00543244
     0.00000000     0.00000000     0.00000000
     0.00000000     0.00000000     0.00000000
     0.00000000     0.00000000     0.00000000
     0.00000000     0.00000000     0.00000000
     0.00000000     0.00000000     0.00000000
     0.00000000     0.00000000     0.00000000
     0.00000000     0.00000000     0.00000000
     0.00000000     0.00000000     0.00000000
     0.00000000     0.00000000     0.00000000
     0.00000000     0.00000000     0.00000000
     0.03566007    -0.13308412    -0.01800496
     0.00000000     0.00000000     0.00000000
     0.00000000     0.00000000     0.00000000
     0.00000000     0.00000000     0.00000000
     0.00000000     0.00000000     0.00000000
     0.00000000     0.00000000     0.00000000
     0.00000000     0.00000000     0.00000000
     0.00000000     0.00000000     0.00000000
     0.00000000     0.00000000     0.00000000
     0.00000000     0.00000000     0.00000000
     0.00000000     0.00000000     0.00000000
     0.05852256    -0.21840960     0.04377874
     0.00000000     0.00000000     0.00000000
     0.00000000     0.00000000     0.00000000
     0.00000000     0.00000000     0.00000000
     0.00000000     0.00000000     0.00000000
     0.00000000     0.00000000     0.00000000
     0.00000000     0.00000000     0.00000000
     0.00000000     0.00000000     0.00000000
     0.00000000     0.00000000     0.00000000
     0.00000000     0.00000000     0.00000000
     0.00000000     0.00000000     0.00000000
     0.04064507    -0.15168991     0.08363579
     0.00000000     0.00000000     0.00000000
     0.00000000     0.00000000     0.00000000
     0.00000000     0.00000000     0.00000000
     0.00000000     0.00000000     0.00000000
     0.00000000     0.00000000     0.00000000
     0.00000000     0.00000000     0.00000000
     0.00000000     0.00000000     0.00000000
     0.00000000     0.00000000     0.00000000
     0.00000000     0.00000000     0.00000000
     0.00000000     0.00000000     0.00000000
     0.01639236    -0.06117792     0.09809615
    -0.73594178     0.51619115     0.15032140
    -0.15383971     0.32010917     0.10665448
     0.60367908     0.16333308     0.00188039
     0.75431675     0.19282338     0.05489417
     0.73796604     0.18767134     0.05238851
     0.57567413     0.13970674     0.07655172
     0.40413143     0.09620366     0.06211127
     0.21704530     0.04493384     0.06890295
     0.07584850     0.00766421     0.06566327
    -0.04012955    -0.01932393     0.04653631
    -0.03165270    -0.01603012     0.01749978
    -0.09894312    -0.17324769     0.49780388
    -0.20370549    -0.09199490     0.37287725
    -0.36959951    -0.05817867     0.11137381
    -0.42330141    -0.07488821     0.11193056
    -0.41679896    -0.10820114     0.00856713
    -0.34616374    -0.08521278     0.02343281
    -0.28165209    -0.08636538    -0.03142496
    -0.21278961    -0.06195273    -0.01261744
    -0.15110090    -0.05713281    -0.04780341
    -0.10399588    -0.04404297    -0.04560752
    -0.03384592    -0.02876094    -0.01219781
     0.00000000     0.00000000     0.00000000
     0.00000000     0.00000000     0.00000000
     0.00000000     0.00000000     0.00000000
     0.00000000     0.00000000     0.00000000
     0.00000000     0.00000000     0.00000000
     0.00000000     0.00000000     0.00000000
     0.00000000     0.00000000     0.00000000
     0.00000000     0.00000000     0.00000000
     0.00000000     0.00000000     0.00000000
     0.00000000     0.00000000     0.00000000
     0.03941625    -0.14710245    -0.04164878
     0.00000000     0.00000000     0.00000000
     0.00000000     0.00000000     0.00000000
     0.00000000     0.00000000     0.00000000
     0.00000000     0.00000000     0.00000000
     0.00000000     0.00000000     0.00000000
     0.00000000     0.00000000     0.00000000
     0.00000000     0.00000000     0.00000000
     0.00000000     0.00000000     0.00000000
     0.00000000     0.00000000     0.00000000
     0.00000000     0.00000000     0.00000000
     0.05894193    -0.21997379     0.06855423
     0.00000000     0.00000000     0.00000000
     0.00000000     0.00000000     0.00000000
     0.00000000     0.00000000     0.00000000
     0.00000000     0.00000000     0.00000000
     0.00000000     0.00000000     0.00000000
     0.00000000     0.00000000     0.00000000
     0.00000000     0.00000000     0.00000000
     0.00000000     0.00000000     0.00000000
     0.00000000     0.00000000     0.00000000
     0.00000000     0.00000000     0.00000000
     0.03625906    -0.13532133     0.13597377
     0.00000000     0.00000000     0.00000000
     0.00000000     0.00000000     0.00000000
     0.00000000     0.00000000     0.00000000
     0.00000000     0.00000000     0.00000000
     0.00000000     0.00000000     0.00000000
     0.00000000     0.00000000     0.00000000
     0.00000000     0.00000000     0.00000000
     0.00000000     0.00000000     0.00000000
     0.00000000     0.00000000     0.00000000
     0.00000000     0.00000000     0.00000000
     0.01573765    -0.05873254     0.15858444
    -0.96527698     0.65155770     0.30927984
    -0.19484816     0.35321559     0.16275466
     0.65383637     0.18854997    -0.03256204
     0.90457655     0.21099972     0.09036294
     0.83012288     0.18236409     0.11315310
     0.67155665     0.13013747     0.14028849
     0.45490464     0.07768939     0.12419504
     0.26736959     0.02004099     0.14468739
     0.06459722    -0.03725856     0.15465374
    -0.03165888    -0.03865534     0.08698045
    -0.02972910    -0.01775312     0.02903550
    -0.27409196    -0.18946355     0.95568989
    -0.36876774    -0.12733624     0.46125665
    -0.53744523     0.03786534     0.33103457
    -0.59019314    -0.07410217     0.15749878
    -0.51326811    -0.10017710     0.06668719
    -0.45837701    -0.10566781     0.03302063
    -0.34397507    -0.10594911    -0.02616261
    -0.25778227    -0.08096525    -0.02094434
    -0.15367233    -0.07010264    -0.05368724
    -0.10070048    -0.06375958    -0.06794718
    -0.03242271    -0.03035288    -0.01684890
     0.00000000     0.00000000     0.00000000
     0.00000000     0.00000000     0.00000000
     0.00000000     0.00000000     0.00000000
     0.00000000     0.00000000     0.00000000
     0.00000000     0.00000000     0.00000000
     0.00000000     0.00000000     0.00000000
     0.00000000     0.00000000     0.00000000
     0.00000000     0.00000000     0.00000000
     0.00000000     0.00000000     0.00000000
     0.00000000     0.00000000     0.00000000
     0.03770905    -0.14073169    -0.05339541
     0.00000000     0.00000000     0.00000000
     0.00000000     0.00000000     0.00000000
     0.00000000     0.00000000     0.00000000
     0.00000000     0.00000000     0.00000000
     0.00000000     0.00000000     0.00000000
     0.00000000     0.00000000     0.00000000
     0.00000000     0.00000000     0.00000000
     0.00000000     0.00000000     0.00000000
     0.00000000     0.00000000     0.00000000
     0.00000000     0.00000000     0.00000000
     0.05344647    -0.19946090     0.07057108
     0.00000000     0.00000000     0.00000000
     0.00000000     0.00000000     0.00000000
     0.00000000     0.00000000     0.00000000
     0.00000000     0.00000000     0.00000000
     0.00000000     0.00000000     0.00000000
     0.00000000     0.00000000     0.00000000
     0.00000000     0.00000000     0.00000000
     0.00000000     0.00000000     0.00000000
     0.00000000     0.00000000     0.00000000
     0.00000000     0.00000000     0.00000000
     0.02800061    -0.10449847     0.13319366
     0.00000000     0.00000000     0.00000000
     0.00000000     0.00000000     0.00000000
     0.00000000     0.00000000     0.00000000
     0.00000000     0.00000000     0.00000000
     0.00000000     0.00000000     0.00000000
     0.00000000     0.00000000     0.00000000
     0.00000000     0.00000000     0.00000000
     0.00000000     0.00000000     0.00000000
     0.00000000     0.00000000     0.00000000
     0.00000000     0.00000000     0.00000000
     0.01514921    -0.05653597     0.15457268
    -1.29614606     0.86083245     0.44529026
    -0.04007753     0.41569010     0.03147849
     1.08365288     0.34281599    -0.09838170
     1.19735786     0.24122617     0.14651739
     1.07196572     0.19607510     0.16505314
     0.77597761     0.09032359     0.21583826
     0.47249023     0.02424110     0.18719463
     0.17112320    -0.09350173     0.25671842
     0.00154730    -0.12750478     0.23670730
    -0.07461825    -0.07868509     0.10921787
    -0.03346920    -0.02175052     0.03029528
    -0.72568891     0.16977218     2.12947395
    -0.71683785    -0.35496609     0.57727314
    -1.00177784     0.15277229     0.54767998
    -0.71429263    -0.13295693     0.07885996
    -0.73143659    -0.06775836     0.16562229
    -0.58505636    -0.15141498     0.00787974
    -0.46521403    -0.12185487     0.00295293
    -0.31014849    -0.11259369    -0.03800264
    -0.16185599    -0.08612054    -0.05589738
    -0.08588740    -0.07065468    -0.06266421
    -0.02881746    -0.02257022    -0.01305019
     0.00000000     0.00000000     0.00000000
     0.00000000     0.00000000     0.00000000
     0.00000000     0.00000000     0.00000000
     0.00000000     0.00000000     0.00000000
     0.00000000     0.00000000     0.00000000
     0.00000000     0.00000000     0.00000000
     0.00000000     0.00000000     0.00000000
     0.00000000     0.00000000     0.00000000
     0.00000000     0.00000000     0.00000000
     0.00000000     0.00000000     0.00000000
     0.02022032    -0.07546315    -0.03640792
     0.00000000     0.00000000     0.00000000
     0.00000000     0.00000000     0.00000000
     0.00000000     0.00000000     0.00000000
     0.00000000     0.00000000     0.00000000
     0.00000000     0.00000000     0.00000000
     0.00000000     0.00000000     0.00000000
     0.00000000     0.00000000     0.00000000
     0.00000000     0.00000000     0.00000000
     0.00000000     0.00000000     0.00000000
     0.00000000     0.00000000     0.00000000
     0.03282892    -0.12251754     0.02405058
     0.00000000     0.00000000     0.00000000
     0.00000000     0.00000000     0.00000000
     0.00000000     0.00000000     0.00000000
     0.00000000     0.00000000     0.00000000
     0.00000000     0.00000000     0.00000000
     0.00000000     0.00000000     0.00000000
     0.00000000     0.00000000     0.00000000
     0.00000000     0.00000000     0.00000000
     0.00000000     0.00000000     0.00000000
     0.00000000     0.00000000     0.00000000
     0.03419101    -0.12760140     0.05971512
     0.00000000     0.00000000     0.00000000
     0.00000000     0.00000000     0.00000000
     0.00000000     0.00000000     0.00000000
     0.00000000     0.00000000     0.00000000
     0.00000000     0.00000000     0.00000000
     0.00000000     0.00000000     0.00000000
     0.00000000     0.00000000     0.00000000
     0.00000000     0.00000000     0.00000000
     0.00000000     0.00000000     0.00000000
     0.00000000     0.00000000     0.00000000
     0.02550817    -0.09519695     0.09429247
    -2.14111312     1.50851689     0.66442192
     0.18203502     0.67783073    -0.42937359
     1.40215809     0.28408380     0.11432069
     1.47296703     0.23196473     0.21086818
     1.07296273     0.05401243     0.30192802
     0.46381887    -0.05347440     0.23189331
    -0.01921302    -0.19280841     0.24456588
    -0.16767951    -0.26037696     0.28217912
    -0.13364886    -0.23538484     0.26154833
    -0.06209456    -0.11588354     0.12961923
    -0.02511537    -0.02897109     0.02557150
    -0.57398545     0.11044928     1.20668283
    -0.45284146    -0.19097132     0.35221532
    -0.60915076     0.14561554     0.25926696
    -0.40486560    -0.07047573     0.03151892
    -0.42698821    -0.01648772     0.08206044
    -0.33182467    -0.08913694     0.00004477
    -0.26651023    -0.06873659     0.00240983
    -0.17288468    -0.07204680    -0.02114815
    -0.08772935    -0.05596491    -0.02697287
    -0.04384720    -0.04637745    -0.02883981
    -0.02131991    -0.01260371    -0.00546913
    -1.73975821     0.47809555     2.81727892
    -1.14745593    -0.41077201     0.79496260
    -1.52056596     0.39157273     0.42946723
    -1.03066121    -0.18581304     0.05110177
    -1.08123198    -0.05057291     0.13197801
    -0.83590448    -0.25794918    -0.01125436
    -0.66873203    -0.20316586    -0.00630414
    -0.42429128    -0.21666433    -0.04809239
    -0.22026739    -0.16663377    -0.05311321
    -0.10760106    -0.13137391    -0.05269404
    -0.03932954    -0.03164400    -0.01053855
    -1.28855957     1.69122229     1.36665656
    -0.68943993    -0.26177855     0.23249525
    -1.05476839     0.12241640     0.07799791
    -0.89913971    -0.28713706    -0.00742825
    -0.91206584    -0.28453188     0.00701617
    -0.72606792    -0.41954939    -0.02925363
    -0.56024554    -0.38430153    -0.02753412
    -0.32692537    -0.33132970    -0.03403697
    -0.20202345    -0.24611764    -0.02641260
    -0.09442750    -0.14203832    -0.01690065
    -0.03660651    -0.03755664     0.00023731
    -1.79371321     2.61842971     0.83723829
    -0.11129730     0.58527471    -0.07386961
    -0.18624392     0.10675357    -0.01576763
    -0.25303346    -0.27230902     0.02965616
    -0.43934319    -0.55109287     0.07359023
    -0.45661573    -0.61454173     0.07928174
    -0.41938604    -0.58044841     0.07788446
    -0.30129632    -0.46210199     0.06449215
    -0.16574464    -0.33314904     0.04965182
    -0.08986285    -0.17711855     0.02586195
    -0.03601446    -0.04335390     0.00885292
    -2.76557742     2.49947715     1.07348854
     0.34437677     1.20517153    -0.54752237
     1.73957465     0.32597863     0.08513237
     1.83149572     0.12775261     0.19200280
     1.27051255    -0.19524293     0.27812013
     0.46534762    -0.32750938     0.22800729
    -0.16102386    -0.46927524     0.21755578
    -0.28770298    -0.52144746     0.23163466
    -0.19050103    -0.43510903     0.20302635
    -0.07176811    -0.21751372     0.10447076
    -0.03360546    -0.04330353     0.02164063
    -1.20668350     0.93881819     0.40694311
     0.12881197     0.46222946    -0.27241391
     0.79689607     0.13946020     0.06298962
     0.84036630     0.09466583     0.10825352
     0.59688977    -0.02551703     0.15430402
     0.23233629    -0.07989201     0.11739711
    -0.05161800    -0.15577867     0.11832887
    -0.11592672    -0.18805416     0.13114329
    -0.07928323    -0.16310367     0.11891720
    -0.02861478    -0.08002275     0.06056995
    -0.01843525    -0.01712870     0.01028516
    -0.81024281     0.20606040     0.13548451
    -1.26722283     0.34153120    -0.02425183
    -1.21231403     0.32210680     0.03363524
    -1.10899461     0.29859331    -0.01768650
    -0.81776771     0.21877639     0.00417966
    -0.48711700     0.13166773    -0.01407363
    -0.16900483     0.04571456    -0.00527504
    -0.00111729     0.05923026     0.00340416
     0.00000000     0.00000000     0.00000000
     0.00000000     0.00000000     0.00000000
     0.00000000     0.00000000     0.00000000
     0.00000000     0.00000000     0.00000000
     0.00000000     0.00000000     0.00000000
     0.00000000     0.00000000     0.00000000
     0.00000000     0.00000000     0.00000000
     0.00000000     0.00000000     0.00000000
     0.13494392     0.50361199     0.03547371
     0.00000000     0.00000000     0.00000000
     0.00000000     0.00000000     0.00000000
     0.00000000     0.00000000     0.00000000
     0.00000000     0.00000000     0.00000000
     0.00000000     0.00000000     0.00000000
     0.00000000     0.00000000     0.00000000
     0.00000000     0.00000000     0.00000000
     0.00000000     0.00000000     0.00000000
     0.23409252     0.87365089     0.06540530
     0.00000000     0.00000000     0.00000000
     0.00000000     0.00000000     0.00000000
     0.00000000     0.00000000     0.00000000
     0.00000000     0.00000000     0.00000000
     0.00000000     0.00000000     0.00000000
     0.00000000     0.00000000     0.00000000
     0.00000000     0.00000000     0.00000000
     0.00000000     0.00000000     0.00000000
     0.18253556     0.68124166     0.07222760
     0.00000000     0.00000000     0.00000000
     0.00000000     0.00000000     0.00000000
     0.00000000     0.00000000     0.00000000
     0.00000000     0.00000000     0.00000000
     0.00000000     0.00000000     0.00000000
     0.00000000     0.00000000     0.00000000
     0.00000000     0.00000000     0.00000000
     0.00000000     0.00000000     0.00000000
     0.06878239     0.25669618     0.06021185
    -0.10249455    -0.32274381    -0.12028384
     2.14147480    -0.57819644    -0.05396684
     2.61463520    -0.69950457     0.01320753
     2.37660458    -0.63328967     0.04313568
     1.78708131    -0.47563231     0.03959215
     1.29482624    -0.34418199     0.03399730
     0.76679915    -0.20291609     0.03122053
     0.36833252    -0.09459728     0.05027324
     0.04565335     0.01480760     0.01353192
     0.21690116    -0.13102117     0.22145109
    -1.02286162     0.17623607     0.54825955
    -1.33755034     0.37046086    -0.07259522
    -1.26701574     0.30825933     0.18084422
    -1.20297692     0.32053780     0.00631586
    -0.88492458     0.22383981     0.08695115
    -0.53996528     0.13955587     0.02955155
    -0.20675101     0.04866461     0.04570514
    -0.00735610     0.05240681     0.02203068
     0.00000000     0.00000000     0.00000000
     0.00000000     0.00000000     0.00000000
     0.00000000     0.00000000     0.00000000
     0.00000000     0.00000000     0.00000000
     0.00000000     0.00000000     0.00000000
     0.00000000     0.00000000     0.00000000
     0.00000000     0.00000000     0.00000000
     0.00000000     0.00000000     0.00000000
     0.12009880     0.44820986     0.15192321
     0.00000000     0.00000000     0.00000000
     0.00000000     0.00000000     0.00000000
     0.00000000     0.00000000     0.00000000
     0.00000000     0.00000000     0.00000000
     0.00000000     0.00000000     0.00000000
     0.00000000     0.00000000     0.00000000
     0.00000000     0.00000000     0.00000000
     0.00000000     0.00000000     0.00000000
     0.22426980     0.83698479     0.30236923
     0.00000000     0.00000000     0.00000000
     0.00000000     0.00000000     0.00000000
     0.00000000     0.00000000     0.00000000
     0.00000000     0.00000000     0.00000000
     0.00000000     0.00000000     0.00000000
     0.00000000     0.00000000     0.00000000
     0.00000000     0.00000000     0.00000000
     0.00000000     0.00000000     0.00000000
     0.17521696     0.65392268     0.32642462
     0.00000000     0.00000000     0.00000000
     0.00000000     0.00000000     0.00000000
     0.00000000     0.00000000     0.00000000
     0.00000000     0.00000000     0.00000000
     0.00000000     0.00000000     0.00000000
     0.00000000     0.00000000     0.00000000
     0.00000000     0.00000000     0.00000000
     0.00000000     0.00000000     0.00000000
     0.06838301     0.25520587     0.27312536
    -0.15291721    -0.41659150    -0.29132825
     2.21233168    -0.60269581    -0.03426622
     2.72833548    -0.70619694     0.13575835
     2.37587711    -0.60594876     0.16252935
     1.83527345    -0.47035550     0.10964200
     1.21929168    -0.30789156     0.09631691
     0.78995783    -0.19371246     0.09207620
     0.25390315    -0.03073153     0.20238277
     0.02934843     0.02372798     0.05868859
    -0.62516128    -0.00867097     0.62300417
    -1.40546258     0.12464824     0.74765136
    -1.53526946     0.37594770     0.08281527
    -1.50033075     0.33553240     0.20260336
    -1.45006910     0.32714190     0.16790279
    -1.12354048     0.28277508     0.06240723
    -0.66637919     0.10994588     0.19182000
    -0.37647891     0.09463332     0.02525446
    -0.02965867     0.05645616     0.01532750
     0.00000000     0.00000000     0.00000000
     0.00000000     0.00000000     0.00000000
     0.00000000     0.00000000     0.00000000
     0.00000000     0.00000000     0.00000000
     0.00000000     0.00000000     0.00000000
     0.00000000     0.00000000     0.00000000
     0.00000000     0.00000000     0.00000000
     0.00000000     0.00000000     0.00000000
     0.11063143     0.41287038     0.17302037
     0.00000000     0.00000000     0.00000000
     0.00000000     0.00000000     0.00000000
     0.00000000     0.00000000     0.00000000
     0.00000000     0.00000000     0.00000000
     0.00000000     0.00000000     0.00000000
     0.00000000     0.00000000     0.00000000
     0.00000000     0.00000000     0.00000000
     0.00000000     0.00000000     0.00000000
     0.19332561     0.72148380     0.51548739
     0.00000000     0.00000000     0.00000000
     0.00000000     0.00000000     0.00000000
     0.00000000     0.00000000     0.00000000
     0.00000000     0.00000000     0.00000000
     0.00000000     0.00000000     0.00000000
     0.00000000     0.00000000     0.00000000
     0.00000000     0.00000000     0.00000000
     0.00000000     0.00000000     0.00000000
     0.15466119     0.57719598     0.50583206
     0.00000000     0.00000000     0.00000000
     0.00000000     0.00000000     0.00000000
     0.00000000     0.00000000     0.00000000
     0.00000000     0.00000000     0.00000000
     0.00000000     0.00000000     0.00000000
     0.00000000     0.00000000     0.00000000
     0.00000000     0.00000000     0.00000000
     0.00000000     0.00000000     0.00000000
     0.07635034     0.28494381     0.43853236
    -0.44726427    -0.70937076    -0.58040345
     2.65071625    -0.74725859    -0.09525326
     3.03035305    -0.68977874     0.34404179
     2.57787724    -0.57303830     0.33407973
     1.87778223    -0.42264367     0.22578364
     1.27410590    -0.27341006     0.19020826
     0.63448526    -0.09666179     0.20654702
     0.30467569     0.04966378     0.37695264
     0.04079771     0.03828833     0.10075610
    -1.51036431     0.03692170     1.10006746
    -1.92015690     0.22896112     0.56030833
    -1.85685126     0.14630076     0.62436631
    -2.04005127     0.51469463     0.07395757
    -1.90428258     0.30910852     0.36443894
    -1.51898860     0.38062849     0.05504074
    -1.03086141     0.03959999     0.43352483
    -0.53832354     0.18917776    -0.07762945
    -0.04444319     0.07683101    -0.01309027
     0.00000000     0.00000000     0.00000000
     0.00000000     0.00000000     0.00000000
     0.00000000     0.00000000     0.00000000
     0.00000000     0.00000000     0.00000000
     0.00000000     0.00000000     0.00000000
     0.00000000     0.00000000     0.00000000
     0.00000000     0.00000000     0.00000000
     0.00000000     0.00000000     0.00000000
     0.11782547     0.43973514     0.09416458
     0.00000000     0.00000000     0.00000000
     0.00000000     0.00000000     0.00000000
     0.00000000     0.00000000     0.00000000
     0.00000000     0.00000000     0.00000000
     0.00000000     0.00000000     0.00000000
     0.00000000     0.00000000     0.00000000
     0.00000000     0.00000000     0.00000000
     0.00000000     0.00000000     0.00000000
     0.15510124     0.57883471     0.43546050
     0.00000000     0.00000000     0.00000000
     0.00000000     0.00000000     0.00000000
     0.00000000     0.00000000     0.00000000
     0.00000000     0.00000000     0.00000000
     0.00000000     0.00000000     0.00000000
     0.00000000     0.00000000     0.00000000
     0.00000000     0.00000000     0.00000000
     0.00000000     0.00000000     0.00000000
     0.09868013     0.36827262     0.41809320
     0.00000000     0.00000000     0.00000000
     0.00000000     0.00000000     0.00000000
     0.00000000     0.00000000     0.00000000
     0.00000000     0.00000000     0.00000000
     0.00000000     0.00000000     0.00000000
     0.00000000     0.00000000     0.00000000
     0.00000000     0.00000000     0.00000000
     0.00000000     0.00000000     0.00000000
     0.07725325     0.28831756     0.42634716
    -0.79305763    -1.29670979    -1.04912750
     3.53256554    -1.10369938    -0.28680764
     3.80846995    -0.75064189     0.49804820
     2.89382508    -0.50399506     0.50013774
     2.10892249    -0.37016073     0.35657783
     1.06235340    -0.12333854     0.29626031
     0.46707794     0.07493428     0.36709954
     0.06245979     0.24966171     0.49643186
     0.01108603     0.06693743     0.11413129
    -2.13290676    -0.38910551     1.71515995
    -2.55309990     0.82484563    -0.15957441
    -2.37160991    -0.30843130     1.21859282
    -2.79618584     0.96989673    -0.27669202
    -2.48222993     0.24070688     0.54969795
    -2.21482781     0.59440295     0.00232291
    -1.37382930    -0.01283554     0.49775719
    -1.00090754     0.34707707    -0.10225110
    -0.11001208     0.07501533    -0.02466084
     0.00000000     0.00000000     0.00000000
     0.00000000     0.00000000     0.00000000
     0.00000000     0.00000000     0.00000000
     0.00000000     0.00000000     0.00000000
     0.00000000     0.00000000     0.00000000
     0.00000000     0.00000000     0.00000000
     0.00000000     0.00000000     0.00000000
     0.00000000     0.00000000     0.00000000
     0.05938534     0.22163478     0.01122206
     0.00000000     0.00000000     0.00000000
     0.00000000     0.00000000     0.00000000
     0.00000000     0.00000000     0.00000000
     0.00000000     0.00000000     0.00000000
     0.00000000     0.00000000     0.00000000
     0.00000000     0.00000000     0.00000000
     0.00000000     0.00000000     0.00000000
     0.00000000     0.00000000     0.00000000
     0.07602912     0.28375181     0.15642907
     0.00000000     0.00000000     0.00000000
     0.00000000     0.00000000     0.00000000
     0.00000000     0.00000000     0.00000000
     0.00000000     0.00000000     0.00000000
     0.00000000     0.00000000     0.00000000
     0.00000000     0.00000000     0.00000000
     0.00000000     0.00000000     0.00000000
     0.00000000     0.00000000     0.00000000
     0.04444298     0.16586443     0.16194350
     0.00000000     0.00000000     0.00000000
     0.00000000     0.00000000     0.00000000
     0.00000000     0.00000000     0.00000000
     0.00000000     0.00000000     0.00000000
     0.00000000     0.00000000     0.00000000
     0.00000000     0.00000000     0.00000000
     0.00000000     0.00000000     0.00000000
     0.00000000     0.00000000     0.00000000
     0.05020441     0.18736509     0.20764691
    -0.82878709    -2.17707253    -1.71576784
     5.19770671    -1.66339945    -0.35676938
     4.28494987    -0.81309424     0.44287678
     3.08302002    -0.41585208     0.53505175
     1.43292487    -0.06260904     0.42031096
     0.30695596     0.16996914     0.32882810
    -0.40795503     0.48380415     0.48850773
    -0.14727147     0.36740339     0.43261859
    -0.00595413     0.06524282     0.07701170
    -1.29784870    -0.59993938     0.90370771
    -1.43245438     0.60375953    -0.17710579
    -1.39636952    -0.39924321     0.64095282
    -1.57963974     0.64631444    -0.18246243
    -1.43421337     0.03853110     0.28610897
    -1.26960006     0.37355642    -0.02480257
    -0.79824810    -0.07370677     0.23924250
    -0.58588992     0.22856190    -0.05827041
    -0.09002513     0.04846460    -0.01714479
    -3.66446584    -2.74413514     2.33806495
    -3.41953810     1.72880157    -0.39702059
    -3.61302101    -1.17558842     1.13659003
    -3.74830344     1.80767676    -0.39078424
    -3.56685059    -0.01090259     0.51208197
    -3.02924632     1.04121553    -0.09778113
    -2.03289468    -0.29145128     0.43370316
    -1.29551104     0.58950500    -0.12124665
    -0.14117646     0.11283995    -0.02520982
    -1.87495993    -4.55370248     0.87035155
    -1.94801705     1.17009820    -0.13638905
    -2.85510533     0.06816872     0.15703506
    -2.04520841     1.63903636    -0.18181569
    -2.42686440     0.43895690     0.06669620
    -1.72368945     0.97549102    -0.08318178
    -1.63655645    -0.12890073     0.11717779
    -0.15426814     0.29923708    -0.03536977
     0.01387251     0.07595569     0.00724938
    -1.59916965    -5.65588536    -0.63318958
     0.96645067    -0.66840330    -0.08077965
     0.76995476     0.73758694     0.16534952
    -0.49465785     0.99803050     0.12778098
    -0.98228067     1.13522494     0.14975623
    -1.33325852     0.80817067     0.07024105
    -0.99879733     0.54790215     0.06152326
    -0.47571311     0.40615190     0.05004282
    -0.04529960     0.06464061     0.02151828
    -1.08803204    -4.90167895    -1.76427096
     6.79976219    -2.22741203    -0.21785041
     5.44146479    -0.77215820     0.34563766
     3.78939806    -0.03102751     0.50684120
     1.50014782     0.32007723     0.36569641
     0.07934821     0.57320680     0.30794263
    -0.76788936     0.92192221     0.38504108
    -0.25612701     0.65676032     0.31666252
    -0.01544467     0.09571764     0.05877304
    -0.45736297    -1.61633643    -0.90223908
     3.00376566    -0.96999285    -0.14134260
     2.39359303    -0.41599653     0.18924706
     1.72734297    -0.13603050     0.27003248
     0.72769049     0.04111768     0.19711365
     0.11082264     0.17072984     0.16569886
    -0.29460161     0.35287426     0.22932143
    -0.08698683     0.24943275     0.18940657
    -0.00749162     0.04086617     0.03299541
     0.00000000     0.00000000     0.00000000
     0.00000000     0.00000000     0.00000000
     0.00000000     0.00000000     0.00000000
     0.00000000     0.00000000     0.00000000
     0.00000000     0.00000000     0.00000000
     0.00000000     0.00000000     0.00000000
     0.00000000     0.00000000     0.00000000
     0.00000000     0.00000000     0.00000000
     0.00000000     0.00000000     0.00000000
     0.00000000     0.00000000     0.00000000
     0.00000000     0.00000000     0.00000000
     0.00000000     0.00000000     0.00000000
     0.00000000     0.00000000     0.00000000
     0.00000000     0.00000000     0.00000000
     0.00000000     0.00000000     0.00000000
     0.00000000     0.00000000     0.00000000
     0.00000000     0.00000000     0.00000000
     0.00000000     0.00000000     0.00000000
     0.00000000     0.00000000     0.00000000
     0.00000000     0.00000000     0.00000000
     0.00000000     0.00000000     0.00000000
     0.00000000     0.00000000     0.00000000
     0.00000000     0.00000000     0.00000000
     0.00000000     0.00000000     0.00000000
     0.00000000     0.00000000     0.00000000
     0.00000000     0.00000000     0.00000000
     0.00000000     0.00000000     0.00000000
     0.00000000     0.00000000     0.00000000
     0.00000000     0.00000000     0.00000000
     0.00000000     0.00000000     0.00000000
     0.00000000     0.00000000     0.00000000
     0.00000000     0.00000000     0.00000000
     0.00000000     0.00000000     0.00000000
     0.00000000     0.00000000     0.00000000
     0.00000000     0.00000000     0.00000000
     0.00000000     0.00000000     0.00000000
     0.00000000     0.00000000     0.00000000
     0.00000000     0.00000000     0.00000000
     0.00000000     0.00000000     0.00000000
     0.00000000     0.00000000     0.00000000
     0.00000000     0.00000000     0.00000000
     0.00000000     0.00000000     0.00000000
     0.00000000     0.00000000     0.00000000
     0.00000000     0.00000000     0.00000000
     0.00000000     0.00000000     0.00000000
     0.00000000     0.00000000     0.00000000
     0.00000000     0.00000000     0.00000000
     0.00000000     0.00000000     0.00000000
     0.00000000     0.00000000     0.00000000
     0.00000000     0.00000000     0.00000000
     0.00000000     0.00000000     0.00000000
     0.00000000     0.00000000     0.00000000
     0.00000000     0.00000000     0.00000000
     0.00000000     0.00000000     0.00000000
     0.00000000     0.00000000     0.00000000
     0.00000000     0.00000000     0.00000000
     0.00000000     0.00000000     0.00000000
     0.00000000     0.00000000     0.00000000
     0.00000000     0.00000000     0.00000000
     0.00000000     0.00000000     0.00000000
     0.00000000     0.00000000     0.00000000
     0.00000000     0.00000000     0.00000000
     0.00000000     0.00000000     0.00000000
     0.00000000     0.00000000     0.00000000
     0.00000000     0.00000000     0.00000000
     0.00000000     0.00000000     0.00000000
     0.00000000     0.00000000     0.00000000
     0.00000000     0.00000000     0.00000000
     0.00000000     0.00000000     0.00000000
     0.00000000     0.00000000     0.00000000
     0.00000000     0.00000000     0.00000000
     0.00000000     0.00000000     0.00000000
     0.00000000     0.00000000     0.00000000
     0.00000000     0.00000000     0.00000000
     0.00000000     0.00000000     0.00000000
     0.00000000     0.00000000     0.00000000
     0.00000000     0.00000000     0.00000000
     0.00000000     0.00000000     0.00000000
     0.00000000     0.00000000     0.00000000
     0.00000000     0.00000000     0.00000000
     0.00000000     0.00000000     0.00000000
     0.00000000     0.00000000     0.00000000
     0.00000000     0.00000000     0.00000000
     0.00000000     0.00000000     0.00000000
     0.00000000     0.00000000     0.00000000
     0.00000000     0.00000000     0.00000000
     0.00000000     0.00000000     0.00000000
     0.00000000     0.00000000     0.00000000
     0.00000000     0.00000000     0.00000000
     0.00000000     0.00000000     0.00000000
     0.00000000     0.00000000     0.00000000
     0.00000000     0.00000000     0.00000000
     0.00000000     0.00000000     0.00000000
     0.00000000     0.00000000     0.00000000
     0.00000000     0.00000000     0.00000000
     0.00000000     0.00000000     0.00000000
     0.00000000     0.00000000     0.00000000
     0.00000000     0.00000000     0.00000000
     0.00000000     0.00000000     0.00000000
     0.00000000     0.00000000     0.00000000
     0.00000000     0.00000000     0.00000000
     0.00000000     0.00000000     0.00000000
     0.00000000     0.00000000     0.00000000
     0.00000000     0.00000000     0.00000000
     0.00000000     0.00000000     0.00000000
     0.00000000     0.00000000     0.00000000
     0.00000000     0.00000000     0.00000000
     0.00000000     0.00000000     0.00000000
     0.00000000     0.00000000     0.00000000
     0.00000000     0.00000000     0.00000000
     0.00000000     0.00000000     0.00000000
     0.00000000     0.00000000     0.00000000
     0.00000000     0.00000000     0.00000000
     0.00000000     0.00000000     0.00000000
     0.00000000     0.00000000     0.00000000
     0.00000000     0.00000000     0.00000000
     0.00000000     0.00000000     0.00000000
     0.00000000     0.00000000     0.00000000
     0.00000000     0.00000000     0.00000000
     0.00000000     0.00000000     0.00000000
     0.00000000     0.00000000     0.00000000
     0.00000000     0.00000000     0.00000000
     0.00000000     0.00000000     0.00000000
     0.00000000     0.00000000     0.00000000
     0.00000000     0.00000000     0.00000000
     0.00000000     0.00000000     0.00000000
     0.00000000     0.00000000     0.00000000
     0.00000000     0.00000000     0.00000000
     0.00000000     0.00000000     0.00000000
     0.00000000     0.00000000     0.00000000
     0.00000000     0.00000000     0.00000000
     0.00000000     0.00000000     0.00000000
     0.00000000     0.00000000     0.00000000
     0.00000000     0.00000000     0.00000000
     0.00000000     0.00000000     0.00000000
     0.00000000     0.00000000     0.00000000
     0.00000000     0.00000000     0.00000000
     0.00000000     0.00000000     0.00000000
     0.00000000     0.00000000     0.00000000
     0.00000000     0.00000000     0.00000000
     0.00000000     0.00000000     0.00000000
     0.00000000     0.00000000     0.00000000
     0.00000000     0.00000000     0.00000000
     0.00000000     0.00000000     0.00000000
     0.00000000     0.00000000     0.00000000
     0.00000000     0.00000000     0.00000000
     0.00000000     0.00000000     0.00000000
     0.00000000     0.00000000     0.00000000
     0.00000000     0.00000000     0.00000000
     0.00000000     0.00000000     0.00000000
     0.00000000     0.00000000     0.00000000
     0.00000000     0.00000000     0.00000000
     0.00000000     0.00000000     0.00000000
     0.00000000     0.00000000     0.00000000
     0.00000000     0.00000000     0.00000000
     0.00000000     0.00000000     0.00000000
     0.00000000     0.00000000     0.00000000
     0.00000000     0.00000000     0.00000000
     0.00000000     0.00000000     0.00000000
     0.00000000     0.00000000     0.00000000
     0.00000000     0.00000000     0.00000000
     0.00000000     0.00000000     0.00000000
     0.00000000     0.00000000     0.00000000
     0.00000000     0.00000000     0.00000000
     0.00000000     0.00000000     0.00000000
     0.00000000     0.00000000     0.00000000
     0.00000000     0.00000000     0.00000000
     0.00000000     0.00000000     0.00000000
     0.00000000     0.00000000     0.00000000
     0.00000000     0.00000000     0.00000000
     0.00000000     0.00000000     0.00000000
     0.00000000     0.00000000     0.00000000
     0.00000000     0.00000000     0.00000000
     0.00000000     0.00000000     0.00000000
     0.00000000     0.00000000     0.00000000
     0.00000000     0.00000000     0.00000000
     0.00000000     0.00000000     0.00000000
     0.00000000     0.00000000     0.00000000
     0.00000000     0.00000000     0.00000000
     0.00000000     0.00000000     0.00000000
     0.00000000     0.00000000     0.00000000
     0.00000000     0.00000000     0.00000000
     0.00000000     0.00000000     0.00000000
     0.00000000     0.00000000     0.00000000
     0.00000000     0.00000000     0.00000000
     0.00000000     0.00000000     0.00000000
     0.00000000     0.00000000     0.00000000
     0.00000000     0.00000000     0.00000000
     0.00000000     0.00000000     0.00000000
     0.00000000     0.00000000     0.00000000
     0.00000000     0.00000000     0.00000000
     0.00000000     0.00000000     0.00000000
     0.00000000     0.00000000     0.00000000
     0.00000000     0.00000000     0.00000000
     0.00000000     0.00000000     0.00000000
     0.00000000     0.00000000     0.00000000
     0.00000000     0.00000000     0.00000000
     0.00000000     0.00000000     0.00000000
     0.00000000     0.00000000     0.00000000
     0.00000000     0.00000000     0.00000000
     0.00000000     0.00000000     0.00000000
     0.00000000     0.00000000     0.00000000
     0.00000000     0.00000000     0.00000000
     0.00000000     0.00000000     0.00000000
     0.00000000     0.00000000     0.00000000
     0.00000000     0.00000000     0.00000000
     0.00000000     0.00000000     0.00000000
     0.00000000     0.00000000     0.00000000
     0.00000000     0.00000000     0.00000000
     0.00000000     0.00000000     0.00000000
     0.00000000     0.00000000     0.00000000
     0.00000000     0.00000000     0.00000000
     0.00000000     0.00000000     0.00000000
     0.00000000     0.00000000     0.00000000
     0.00000000     0.00000000     0.00000000
     0.00000000     0.00000000     0.00000000
     0.00000000     0.00000000     0.00000000
     0.00000000     0.00000000     0.00000000
     0.00000000     0.00000000     0.00000000
     0.00000000     0.00000000     0.00000000
     0.00000000     0.00000000     0.00000000
     0.00000000     0.00000000     0.00000000
     0.00000000     0.00000000     0.00000000
     0.00000000     0.00000000     0.00000000
     0.00000000     0.00000000     0.00000000
     0.00000000     0.00000000     0.00000000
     0.00000000     0.00000000     0.00000000
     0.00000000     0.00000000     0.00000000
     0.00000000     0.00000000     0.00000000
     0.00000000     0.00000000     0.00000000
     0.00000000     0.00000000     0.00000000
     0.00000000     0.00000000     0.00000000
     0.00000000     0.00000000     0.00000000
     0.00000000     0.00000000     0.00000000
     0.00000000     0.00000000     0.00000000
     0.00000000     0.00000000     0.00000000
     0.00000000     0.00000000     0.00000000
     0.00000000     0.00000000     0.00000000
     0.00000000     0.00000000     0.00000000
     0.00000000     0.00000000     0.00000000
     0.00000000     0.00000000     0.00000000
     0.00000000     0.00000000     0.00000000
     0.00000000     0.00000000     0.00000000
     0.00000000     0.00000000     0.00000000
     0.00000000     0.00000000     0.00000000
     0.00000000     0.00000000     0.00000000
     0.00000000     0.00000000     0.00000000
     0.00000000     0.00000000     0.00000000
     0.00000000     0.00000000     0.00000000
     0.00000000     0.00000000     0.00000000
     0.00000000     0.00000000     0.00000000
     0.00000000     0.00000000     0.00000000
     0.00000000     0.00000000     0.00000000
     0.00000000     0.00000000     0.00000000
     0.00000000     0.00000000     0.00000000
     0.00000000     0.00000000     0.00000000
     0.00000000     0.00000000     0.00000000
     0.00000000     0.00000000     0.00000000
     0.00000000     0.00000000     0.00000000
     0.00000000     0.00000000     0.00000000
     0.00000000     0.00000000     0.00000000
     0.00000000     0.00000000     0.00000000
     0.00000000     0.00000000     0.00000000
     0.00000000     0.00000000     0.00000000
     0.00000000     0.00000000     0.00000000
     0.00000000     0.00000000     0.00000000
     0.00000000     0.00000000     0.00000000
     0.00000000     0.00000000     0.00000000
     0.00000000     0.00000000     0.00000000
     0.00000000     0.00000000     0.00000000
     0.00000000     0.00000000     0.00000000
     0.00000000     0.00000000     0.00000000
     0.00000000     0.00000000     0.00000000
     0.00000000     0.00000000     0.00000000
     0.00000000     0.00000000     0.00000000
     0.00000000     0.00000000     0.00000000
SCALARS Pressures float
LOOKUP_TABLE default
  1424.43196511
  2840.31898475
  2826.79367208
  2825.44295841
  2823.43340498
  2819.48626041
  2814.16202211
  2824.56997299
  3818.25127665
  2860.25852990
  5686.92023072
  5652.80145690
  5651.14321131
  5646.77952531
  5637.29380319
  5632.25443411
  5644.89313030
  5663.75760269
  2865.23987484
  5690.97775635
  5651.74588200
  5650.53575397
  5645.63340077
  5636.33205912
  5631.15467548
  5635.25141907
  5594.60651112
  2864.62766933
  5690.41524529
  5651.08106279
  5648.73645014
  5644.40512544
  5638.57955372
  5632.85852242
  5634.43793583
  5610.63634205
  2866.21426392
  5692.93878794
  5651.76779294
  5647.34475070
  5643.40453190
  5640.85909784
  5641.60967207
  5655.42806435
  5638.79896545
  2867.16362238
  5695.54057980
  5653.43023896
  5647.45975399
  5642.57175183
  5640.78029466
  5645.22865319
  5668.95636559
  5651.21504569
  2867.05443466
  5696.17471302
  5654.94750512
  5647.65174162
  5642.86765575
  5638.98984051
  5637.48094749
  5641.49732161
  5649.42595458
  2865.78622139
  5695.74582565
  5655.76112247
  5648.23314762
  5642.69205070
  5638.58448672
  5629.62425876
  5620.03795195
  5631.55951691
  2865.66805148
  5695.30159074
  5657.05473346
  5650.69088840
  5644.86879766
  5641.75560951
  5633.55533552
  5625.54439068
  5630.20377922
  2859.35468936
  5690.10409850
  5658.65121931
  5653.36655366
  5649.34756410
  5649.96516562
  5648.20124817
  5645.50213909
  5663.37550735
  1428.58214235
  2843.01414716
  2829.41551483
  2827.27302361
  2825.58822632
  2827.78043652
  2830.20446396
  2831.53635406
  3791.76046244
  1425.24527013
  2841.50413066
  2827.20423979
  2825.36970252
  2823.09328097
  2817.75150752
  2813.84026787
  2824.19879815
  3819.37218984
  2857.97211921
  5685.96325015
  5653.88569872
  5650.84486043
  5646.02300684
  5634.56393252
  5629.69030163
  5643.02943417
  5663.87899590
  2860.29745674
  5688.13015155
  5653.36026512
  5650.05933005
  5645.16872345
  5635.04486640
  5629.16480443
  5632.27294302
  5590.72165346
  2860.60942185
  5688.61243844
  5652.77309626
  5648.32273492
  5644.29809633
  5637.62901506
  5631.45899341
  5630.50455618
  5607.88102770
  2861.98411286
  5690.33458161
  5652.95388919
  5646.97816226
  5643.45579281
  5639.48697793
  5639.39154077
  5653.05987644
  5641.12275124
  2862.63039362
  5692.36560237
  5654.15081656
  5647.04647970
  5642.62650776
  5639.81567657
  5643.59096050
  5667.27866268
  5651.09971964
  2862.30076140
  5692.97192079
  5655.72820702
  5647.40123257
  5642.70622963
  5638.47897060
  5636.13497753
  5640.01378202
  5648.18462622
  2860.99144721
  5692.91348422
  5656.99567714
  5648.01577988
  5642.43082643
  5638.04184563
  5629.40144320
  5618.29871798
  5629.69418049
  2860.79621500
  5692.42670688
  5658.21438649
  5650.09380877
  5644.31652355
  5640.53850985
  5632.85740781
  5622.08965588
  5624.85015869
  2857.46933517
  5689.42931578
  5659.23817617
  5652.67272079
  5648.50193816
  5647.91830361
  5645.26583529
  5640.52616405
  5658.30109119
  1429.04890093
  2843.91659945
  2829.58247724
  2827.00033957
  2825.13982511
  2826.66794109
  2828.01853561
  2828.00247955
  3788.59557724
  1425.58840653
  2841.78598246
  2827.90602410
  2825.25845060
  2822.37452444
  2816.13999629
  2813.06747696
  2819.84127972
  3817.69228840
  2854.92323515
  5684.72210631
  5655.83210483
  5650.39250660
  5644.61543378
  5632.90786457
  5629.05635819
  5641.04390976
  5664.65893912
  2855.34799671
  5685.73723465
  5655.87642196
  5649.38263789
  5644.24493068
  5634.64937791
  5630.44944295
  5636.05960178
  5592.08146191
  2855.94440091
  5686.58970839
  5655.18800923
  5647.81902429
  5643.73533934
  5636.46931121
  5630.98564193
  5630.03250980
  5610.95369816
  2857.13501132
  5687.50216877
  5654.75983068
  5646.70816526
  5643.14139760
  5638.31853700
  5636.57739615
  5648.47465539
  5649.36266232
  2857.53790534
  5688.38867128
  5655.25035846
  5646.74415076
  5642.56305993
  5639.43188047
  5640.97916281
  5661.80311513
  5652.28365636
  2857.67385119
  5688.98081857
  5656.49720296
  5647.16529912
  5642.32697275
  5638.20048614
  5635.08285297
  5638.65186095
  5645.39537930
  2856.84437120
  5689.14636803
  5657.76392022
  5647.87829572
  5641.89781055
  5636.95473786
  5629.52567996
  5615.76479316
  5624.96876526
  2856.84822470
  5689.03465003
  5658.75424707
  5649.54587406
  5643.19354194
  5637.77740991
  5631.06678355
  5615.42413282
  5614.09211540
  2855.70869789
  5688.05471098
  5659.37851772
  5651.55806142
  5646.46611056
  5643.05793461
  5638.09064794
  5630.31066179
  5648.40226936
  1428.36512002
  2843.86071050
  2829.61918369
  2826.33161187
  2823.99638674
  2823.73592147
  2822.39353824
  2820.50345898
  3782.75532405
  1423.73880515
  2841.21393159
  2828.56022853
  2825.08259680
  2821.93897261
  2817.44616807
  2813.59859753
  2817.23102069
  3807.58807596
  2853.54813746
  5684.47782394
  5656.93503585
  5649.99332475
  5643.91305711
  5635.66527751
  5631.49042562
  5640.76872611
  5667.85068774
  2854.62662810
  5685.88576502
  5656.79525533
  5648.94107524
  5643.60998976
  5636.54474178
  5633.59063628
  5644.78109860
  5608.45032954
  2855.10024971
  5686.36828578
  5655.94511563
  5647.71072084
  5643.05132008
  5636.84063131
  5634.02706599
  5637.43967271
  5622.06915450
  2856.40176982
  5686.94896972
  5655.50386250
  5647.03336954
  5642.85430098
  5638.62446874
  5637.91326892
  5646.50258005
  5656.81182384
  2856.13373238
  5687.20697397
  5655.81721294
  5647.00305426
  5642.54560530
  5640.39306080
  5640.07300711
  5656.19237936
  5651.79470301
  2856.27835935
  5687.39850038
  5656.37205720
  5647.12736419
  5642.20458260
  5639.15826029
  5634.87087637
  5636.54941726
  5641.95045567
  2855.80795920
  5687.46620047
  5657.03448343
  5647.74916151
  5641.85386184
  5636.81826407
  5629.62486607
  5615.60510421
  5623.14976549
  2855.97502708
  5687.55545855
  5657.74186194
  5649.13244522
  5642.66452062
  5636.00933266
  5629.54591310
  5612.22284222
  5611.62141347
  2854.69155473
  5686.59124154
  5658.46331044
  5650.38054861
  5644.77055569
  5638.15564822
  5630.67233273
  5618.63488793
  5641.91967797
  1428.26104397
  2843.10790044
  2829.22189279
  2825.51995899
  2822.86203344
  2820.08991037
  2816.36840531
  2811.35381150
  3776.34521230
  1423.80730155
  2841.25037435
  2828.73195869
  2824.70507207
  2822.03541945
  2818.80139770
  2815.25794847
  2817.38110860
  3792.46005249
  2853.00406218
  5683.88258619
  5656.94026297
  5649.24155935
  5643.88543342
  5637.80474143
  5633.01306711
  5639.67724438
  5667.02162552
  2853.98138378
  5684.85094342
  5656.38854098
  5648.45375901
  5643.35364324
  5638.05732706
  5635.36979607
  5644.87707818
  5628.60794759
  2854.60201478
  5685.38996884
  5655.68902923
  5647.78549348
  5643.10567826
  5638.16398489
  5638.70509195
  5644.96742272
  5632.52347326
  2855.15365537
  5685.46018051
  5655.39550813
  5647.41936736
  5643.35439706
  5639.17258470
  5641.13664286
  5652.64335644
  5660.71355224
  2854.64063330
  5685.39659490
  5655.48413837
  5647.29533353
  5643.11498067
  5640.69090377
  5639.80874382
  5652.13620162
  5654.81392050
  2855.06181914
  5685.68894529
  5655.71737261
  5647.28149258
  5642.74953164
  5640.26802813
  5634.83661383
  5633.89750731
  5644.78539896
  2854.84950021
  5685.77042934
  5656.18810158
  5647.54169320
  5642.59516011
  5638.22210096
  5629.30961752
  5616.74233675
  5633.83412313
  2854.62749628
  5685.65858267
  5656.76884467
  5648.34385122
  5642.84512055
  5636.65088356
  5627.15712523
  5609.10468268
  5623.95262337
  2853.78693224
  5684.90701331
  5657.42248939
  5649.06639211
  5643.85239010
  5636.13853045
  5625.33013913
  5606.79933429
  5639.78884220
  1428.25148660
  2842.43756634
  2828.72179647
  2824.72692944
  2822.21553062
  2818.07004036
  2812.40853307
  2802.41880655
  3767.43656413
   950.17015382
  1893.97038257
  1885.69380069
  1882.97693674
  1881.45919039
  1879.31579815
  1877.29009479
  1877.43674129
  2838.47657013
  1426.53630561
  2841.62373377
  2828.35236168
  2824.36748642
  2821.95456590
  2819.13029756
  2817.01591511
  2819.36955900
  3775.77290980
  1427.02523307
  2842.06113968
  2827.98238349
  2824.10386860
  2821.63656110
  2819.28312635
  2818.64113605
  2821.50834787
  3758.42757607
  1427.15057880
  2842.20657566
  2827.69935797
  2823.93928708
  2821.69416392
  2819.45342660
  2820.63393569
  2824.27467155
  3758.46021366
  1427.00991596
  2842.14819191
  2827.58148359
  2823.78837617
  2821.88796681
  2819.80922394
  2821.21406536
  2829.26958752
  3775.38816293
  1426.99622382
  2841.98297973
  2827.48158681
  2823.71982732
  2821.79180345
  2820.30419420
  2819.73826562
  2824.94645751
  3773.08090274
  1427.68376690
  2842.38669920
  2827.58806391
  2823.74406575
  2821.59952004
  2820.32620363
  2817.65408665
  2816.73482978
  3766.34489822
  1427.78757569
  2842.41002551
  2827.80242246
  2823.77162134
  2821.55430774
  2819.60897247
  2814.62111759
  2808.62228370
  3762.31826782
  1427.53850464
  2842.36186264
  2828.09421004
  2824.00891549
  2821.49201715
  2818.75825572
  2812.59825563
  2802.98851275
  3755.56674163
  1427.01208492
  2841.99321623
  2828.42513016
  2824.25446096
  2821.71978885
  2818.10509604
  2811.58324313
  2800.70001364
  3759.54412810
   951.46364387
  1894.37446738
  1885.65915672
  1882.89967275
  1881.33889596
  1878.58443817
  1874.02314981
  1865.77886868
  2821.69699478
  5588.78075385
  5620.42110443
  5586.18650436
  5584.12662125
  5588.25489807
  5584.20757675
  5589.75102425
  5587.95200157
  5591.47745705
  5589.41236305
  5508.16581726
  5678.63176322
  5638.59589863
  5579.91648960
  5581.10443020
  5582.17072678
  5583.63547421
  5585.97451687
  5587.70937729
  5589.31139660
  5588.95260763
  5582.91155148
  5670.70414162
  5633.11894321
  5568.28034496
  5567.01012897
  5568.52003670
  5573.11015415
  5579.52608490
  5585.20481634
  5588.01230812
  5589.47511911
  5591.39600754
  5658.98502922
  5625.44043970
  5561.37372828
  5551.87487030
  5554.66882896
  5567.05066872
  5579.35778046
  5588.04458189
  5591.88061380
  5593.47699451
  5595.35958481
  5708.77737570
  5665.97784805
  5591.72799921
  5577.97671890
  5573.06940460
  5579.56463814
  5588.88114452
  5595.12453842
  5598.31905288
  5598.01284760
  5591.74777126
  5761.52392864
  5690.54201031
  5623.62275696
  5608.14171600
  5597.75466919
  5588.18487549
  5595.90088844
  5597.10279274
  5601.75615823
  5599.52909219
  5517.91110229
  5671.54469609
  5617.45998096
  5586.28406239
  5582.79321671
  5587.10114002
  5584.07937050
  5589.31086922
  5587.81414032
  5591.08851099
  5589.16760302
  5508.97146416
  5674.99389231
  5635.85722733
  5579.35135603
  5580.26078320
  5581.55888462
  5583.23402071
  5585.75025034
  5587.47676110
  5589.06701112
  5588.72316480
  5582.03891706
  5668.90904427
  5630.88995981
  5566.48930264
  5566.02787495
  5568.03067303
  5573.07602739
  5579.63932896
  5585.15280271
  5587.87484777
  5589.25949347
  5591.41341686
  5656.17564297
  5623.68946290
  5558.95355725
  5551.19439125
  5555.46734667
  5567.75588036
  5579.73568153
  5587.90907192
  5591.53567231
  5592.98892963
  5595.11169100
  5706.33332944
  5664.57942915
  5590.20961404
  5576.97671318
  5573.01420879
  5579.56674385
  5588.74591303
  5594.57814944
  5597.64383754
  5597.26183507
  5590.49167919
  5759.69037294
  5689.30537844
  5623.07206917
  5605.89204407
  5595.13844109
  5587.38511086
  5595.10948944
  5596.50437856
  5600.92051476
  5598.78607124
  5518.48044014
  5656.06221533
  5609.58486080
  5584.82650089
  5580.06222916
  5585.17463398
  5583.85133648
  5588.46197605
  5587.45606136
  5590.22821951
  5588.65406990
  5517.06375217
  5666.22268081
  5627.84100866
  5577.16952896
  5577.98956823
  5580.11779213
  5582.49136066
  5585.30031109
  5587.12505436
  5588.59558177
  5588.30193663
  5580.64165640
  5663.42728090
  5623.96234369
  5562.69810534
  5563.95535851
  5567.33448744
  5573.36825275
  5579.93443441
  5585.10508013
  5587.56468105
  5588.75723338
  5590.89126348
  5651.17656946
  5619.73772621
  5555.35535669
  5551.04585314
  5557.65619564
  5569.80448103
  5580.30947590
  5587.41933775
  5590.51463938
  5591.78141117
  5593.89883614
  5702.82803869
  5662.25624943
  5586.95801687
  5574.27901459
  5572.75978565
  5579.96637774
  5588.09401506
  5593.14154059
  5595.80583513
  5595.54556704
  5587.61586523
  5753.77435398
  5686.86457729
  5619.08897400
  5598.46013260
  5589.81520462
  5585.92891407
  5593.29930103
  5594.86051857
  5598.74880958
  5597.09297514
  5524.99702454
  5640.55672455
  5603.84650803
  5579.76113129
  5578.65266800
  5582.91279793
  5583.87770748
  5587.19713879
  5587.53487635
  5589.30794454
  5588.28345156
  5550.45830488
  5653.96597862
  5616.11513424
  5572.06188774
  5574.96804714
  5578.56549454
  5581.69448709
  5584.84585261
  5586.93383718
  5588.26577258
  5587.97710633
  5582.85282993
  5656.23654604
  5615.57318926
  5558.79428720
  5562.57350588
  5567.90871668
  5574.31458616
  5580.55715883
  5585.16090715
  5587.43156040
  5588.27349293
  5589.59923601
  5653.58924937
  5620.50236511
  5554.35183525
  5553.46820021
  5561.81648302
  5572.39509964
  5581.00855649
  5586.72041619
  5589.50674653
  5590.49346054
  5591.87065721
  5703.77690721
  5661.68963575
  5582.19487047
  5570.66676760
  5573.10416842
  5580.09173733
  5586.95699656
  5591.20720571
  5593.75692201
  5593.72791886
  5588.69701171
  5745.47317505
  5685.13715935
  5608.91200066
  5588.26072025
  5584.17461300
  5584.51118100
  5590.51663136
  5592.96259534
  5596.13987112
  5595.34514141
  5557.60382605
  5632.51507759
  5597.27283871
  5572.64367878
  5576.13407278
  5580.49317074
  5583.04616833
  5585.99068141
  5587.57445908
  5588.70062149
  5588.04445028
  5580.89725757
  5649.17359471
  5603.79149562
  5566.00968891
  5572.19662714
  5576.62696719
  5580.58020675
  5584.17031968
  5586.66141111
  5588.02054545
  5587.93459526
  5586.35596561
  5662.37873912
  5610.29202294
  5556.06314707
  5562.24402976
  5568.36700094
  5575.05753279
  5581.03241944
  5585.10820436
  5587.34857732
  5588.32053456
  5588.66476566
  5674.17219043
  5624.84359312
  5553.28225470
  5557.17965364
  5565.24448311
  5574.43928683
  5581.51319802
  5586.22883028
  5588.84951386
  5589.95577675
  5590.35742098
  5711.09890866
  5656.25111151
  5572.85223961
  5567.67030090
  5572.06018928
  5579.62394205
  5585.50580120
  5589.70399386
  5592.22866511
  5592.48214629
  5590.51042730
  5732.77880287
  5673.08893013
  5591.89056492
  5577.21017253
  5577.60465056
  5582.37013084
  5587.70008731
  5591.41837275
  5594.11498773
  5593.86906797
  5585.82087028
  5630.74622345
  5591.52352548
  5569.03647637
  5573.62745571
  5579.56263161
  5582.08843040
  5585.64032316
  5587.31500912
  5588.54222798
  5587.90729427
  5585.22829866
  5651.50457239
  5597.91618407
  5563.44843781
  5571.01916027
  5575.41148710
  5579.92159343
  5583.72357249
  5586.46111166
  5587.87808365
  5588.02512914
  5587.12330151
  5672.02500105
  5608.70137835
  5555.23567009
  5562.20614386
  5568.04423404
  5575.18049812
  5581.06681705
  5585.00396562
  5587.22600853
  5588.56468219
  5588.48276007
  5690.15276432
  5626.21942234
  5552.03816605
  5559.00070095
  5565.90252709
  5575.23624444
  5581.51465225
  5586.08194172
  5588.52408260
  5589.98659003
  5589.90740263
  5716.41079712
  5650.45444012
  5566.53954315
  5566.58838832
  5570.47260004
  5579.42831534
  5584.67495787
  5589.24489701
  5591.58653426
  5592.08876640
  5589.62297451
  5724.30314636
  5661.56394958
  5581.61369514
  5571.17679763
  5573.96827137
  5580.99038160
  5586.64742351
  5590.72662759
  5593.36298108
  5593.19075310
  5587.37835956
  5269.81829834
  5244.77545166
  5247.21602631
  5282.42701721
  5314.69070816
  5342.34900665
  5350.74208975
  5210.93130016
  5447.37797546
  5254.08843994
  5228.31721878
  5235.07040024
  5265.35560226
  5303.08973503
  5333.35369873
  5346.89499927
  5339.92720938
  5404.50315475
  5209.73950195
  5181.11443806
  5189.99806690
  5236.14652634
  5284.66396332
  5319.96534729
  5340.48385811
  5349.19092178
  5403.45744324
  5209.00429916
  5142.08541203
  5160.09301472
  5231.16637421
  5286.92510605
  5319.33814907
  5339.56583786
  5349.64846992
  5579.77356339
  5372.15125656
  5224.77484131
  5204.81366730
  5254.39932251
  5299.42723846
  5327.10345554
  5341.38062525
  5334.64555645
  5766.64962769
  5507.41433716
  5315.74874878
  5246.51266479
  5270.47476196
  5302.84342957
  5331.10291672
  5341.54938221
  5199.45289803
  5481.49029160
  5247.42584991
  5238.56463623
  5244.62246704
  5280.27009964
  5314.96804237
  5340.18844700
  5350.73719001
  5227.84665823
  5439.35544586
  5237.62205124
  5222.56996346
  5232.63924408
  5262.96873093
  5301.17957973
  5331.88437843
  5346.10265863
  5339.62700725
  5397.31719398
  5197.56286049
  5171.70232534
  5186.23240805
  5235.42493439
  5282.30510902
  5317.98896551
  5338.29235363
  5347.82240582
  5392.67142296
  5195.10850525
  5137.53312635
  5162.61605597
  5233.26030350
  5286.22675228
  5316.91864967
  5336.26570845
  5346.07826328
  5579.87053108
  5369.31934166
  5223.40367889
  5207.73271942
  5256.46235657
  5299.34102726
  5325.30282974
  5338.72979712
  5334.26426840
  5771.81200409
  5515.72914124
  5308.57046509
  5242.04212189
  5271.58661270
  5303.44765091
  5329.16598129
  5340.04475737
  5220.60946560
  5452.07856560
  5207.55319691
  5231.65203571
  5241.35428238
  5273.52223587
  5313.28298473
  5335.58693695
  5350.06167126
  5260.45629501
  5426.32792759
  5202.76766443
  5209.47053003
  5227.13432503
  5257.53581142
  5297.22336054
  5328.16886568
  5344.43989420
  5340.06976223
  5384.83909035
  5168.49991608
  5153.54052067
  5182.50620365
  5236.60584736
  5278.82902050
  5313.84222794
  5334.03798890
  5341.88395739
  5375.70060539
  5167.96228600
  5133.26403904
  5174.66910267
  5239.76366615
  5285.66601944
  5312.15660620
  5329.85666919
  5338.88112497
  5582.44274330
  5359.43059731
  5218.25846100
  5214.58469772
  5261.65572357
  5298.82352543
  5321.26872945
  5333.23123908
  5324.92817211
  5782.58516693
  5521.95432281
  5289.78086090
  5231.92922974
  5275.44642258
  5302.80931664
  5325.15790796
  5336.00700045
  5236.17877960
  5464.28007698
  5183.73302555
  5227.66988468
  5237.47364044
  5263.53811646
  5306.98231888
  5330.99254799
  5348.60132694
  5217.35518456
  5421.33806133
  5170.91379976
  5195.88886881
  5219.77164841
  5252.62701797
  5293.57541847
  5323.99617100
  5342.65225458
  5326.87728024
  5371.68994522
  5140.87615776
  5146.80169201
  5189.65502644
  5242.27097321
  5280.18382454
  5312.51030970
  5331.72670490
  5342.00477755
  5373.30850220
  5155.74371338
  5143.20128727
  5194.50293827
  5249.56686592
  5287.59725571
  5310.94709158
  5326.47841543
  5336.43746841
  5583.58403587
  5339.90075493
  5205.91217804
  5221.54759789
  5265.98069811
  5297.60660625
  5317.91992903
  5328.85657024
  5314.69375944
  5785.53491211
  5491.97182465
  5254.91731262
  5231.32971573
  5275.65369129
  5300.21783209
  5321.96650028
  5331.50653720
  5204.12276125
  5459.91477203
  5167.07952499
  5207.07481003
  5223.42846823
  5254.75801229
  5298.30784655
  5325.64244890
  5345.74949364
  5226.28437241
  5412.99030781
  5152.29382610
  5181.55651760
  5212.56782222
  5249.80261970
  5291.23071647
  5321.21731830
  5340.93131687
  5325.03036980
  5372.74336910
  5129.37838078
  5150.28156590
  5201.36206555
  5247.83616072
  5284.89450222
  5315.50955772
  5332.01103610
  5339.18749750
  5396.42422295
  5161.78861809
  5155.27125192
  5209.28117967
  5256.44811827
  5290.29778844
  5313.82086301
  5327.13292533
  5335.99651873
  5584.17790604
  5308.27715302
  5186.62306976
  5225.17356353
  5265.47775416
  5296.64902592
  5316.06525759
  5327.25015389
  5296.52845729
  5754.92826080
  5414.22570419
  5207.22854233
  5232.80172262
  5268.88436612
  5298.33789301
  5318.71571693
  5328.14338920
  5175.66250492
  5432.21296692
  5156.76599121
  5189.76010132
  5212.58931255
  5251.37108135
  5293.97164822
  5322.44578838
  5343.68738564
  5294.00894944
  5404.62743187
  5147.13971901
  5173.45364952
  5209.65290976
  5248.84096670
  5290.48789263
  5320.36496782
  5340.12759499
  5337.11889847
  5381.65379524
  5128.61805916
  5151.75057650
  5205.95973635
  5249.63872731
  5287.13314164
  5317.67036819
  5332.54379106
  5331.67946482
  5415.74724960
  5166.80167007
  5157.68716669
  5213.75559092
  5257.93560421
  5291.20470583
  5315.56160498
  5328.05677915
  5334.37229395
  5586.10572815
  5289.12656403
  5175.90618896
  5225.76955518
  5263.78016862
  5296.47707415
  5315.32591209
  5327.17067645
  5279.64275957
  5726.98265076
  5364.37245941
  5182.79199982
  5229.23089427
  5264.65573138
  5297.80688286
  5316.58520335
  5326.74757238
  5173.67101338
     0.00000000
     0.00000000
     0.00000000
     0.00000000
     0.00000000
     0.00000000
     0.00000000
     0.00000000
     0.00000000
     0.00000000
     0.00000000
     0.00000000
     0.00000000
     0.00000000
     0.00000000
     0.00000000
     0.00000000
     0.00000000
     0.00000000
     0.00000000
     0.00000000
     0.00000000
     0.00000000
     0.00000000
     0.00000000
     0.00000000
     0.00000000
     0.00000000
     0.00000000
     0.00000000
     0.00000000
     0.00000000
     0.00000000
     0.00000000
     0.00000000
     0.00000000
     0.00000000
     0.00000000
     0.00000000
     0.00000000
     0.00000000
     0.00000000
     0.00000000
     0.00000000
     0.00000000
     0.00000000
     0.00000000
     0.00000000
     0.00000000
     0.00000000
     0.00000000
     0.00000000
     0.00000000
     0.00000000
     0.00000000
     0.00000000
     0.00000000
     0.00000000
     0.00000000
     0.00000000
     0.00000000
     0.00000000
     0.00000000
     0.00000000
     0.00000000
     0.00000000
     0.00000000
     0.00000000
     0.00000000
     0.00000000
     0.00000000
     0.00000000
     0.00000000
     0.00000000
     0.00000000
     0.00000000
     0.00000000
     0.00000000
     0.00000000
     0.00000000
     0.00000000
     0.00000000
     0.00000000
     0.00000000
     0.00000000
     0.00000000
     0.00000000
     0.00000000
     0.00000000
     0.00000000
     0.00000000
     0.00000000
     0.00000000
     0.00000000
     0.00000000
     0.00000000
     0.00000000
     0.00000000
     0.00000000
     0.00000000
     0.00000000
     0.00000000
     0.00000000
     0.00000000
     0.00000000
     0.00000000
     0.00000000
     0.00000000
     0.00000000
     0.00000000
     0.00000000
     0.00000000
     0.00000000
     0.00000000
     0.00000000
     0.00000000
     0.00000000
     0.00000000
     0.00000000
     0.00000000
     0.00000000
     0.00000000
     0.00000000
     0.00000000
     0.00000000
     0.00000000
     0.00000000
     0.00000000
     0.00000000
     0.00000000
     0.00000000
     0.00000000
     0.00000000
     0.00000000
     0.00000000
     0.00000000
     0.00000000
     0.00000000
     0.00000000
     0.00000000
     0.00000000
     0.00000000
     0.00000000
     0.00000000
     0.00000000
     0.00000000
     0.00000000
     0.00000000
     0.00000000
     0.00000000
     0.00000000
     0.00000000
     0.00000000
     0.00000000
     0.00000000
     0.00000000
     0.00000000
     0.00000000
     0.00000000
     0.00000000
     0.00000000
     0.00000000
     0.00000000
     0.00000000
     0.00000000
     0.00000000
     0.00000000
     0.00000000
     0.00000000
     0.00000000
     0.00000000
     0.00000000
     0.00000000
     0.00000000
     0.00000000
     0.00000000
     0.00000000
     0.00000000
     0.00000000
     0.00000000
     0.00000000
     0.00000000
     0.00000000
     0.00000000
     0.00000000
     0.00000000
     0.00000000
     0.00000000
     0.00000000
     0.00000000
     0.00000000
     0.00000000
     0.00000000
     0.00000000
     0.00000000
     0.00000000
     0.00000000
     0.00000000
     0.00000000
     0.00000000
     0.00000000
     0.00000000
     0.00000000
     0.00000000
     0.00000000
     0.00000000
     0.00000000
     0.00000000
     0.00000000
     0.00000000
     0.00000000
     0.00000000
     0.00000000
     0.00000000
     0.00000000
     0.00000000
     0.00000000
     0.00000000
     0.00000000
     0.00000000
     0.00000000
     0.00000000
     0.00000000
     0.00000000
     0.00000000
     0.00000000
     0.00000000
     0.00000000
     0.00000000
     0.00000000
     0.00000000
     0.00000000
     0.00000000
     0.00000000
     0.00000000
     0.00000000
     0.00000000
     0.00000000
     0.00000000
     0.00000000
     0.00000000
     0.00000000
     0.00000000
     0.00000000
     0.00000000
     0.00000000
     0.00000000
     0.00000000
     0.00000000
     0.00000000
     0.00000000
     0.00000000
     0.00000000
     0.00000000
     0.00000000
     0.00000000
     0.00000000
     0.00000000
     0.00000000
     0.00000000
     0.00000000
     0.00000000
     0.00000000
     0.00000000
     0.00000000
     0.00000000
     0.00000000
     0.00000000
     0.00000000
     0.00000000
     0.00000000
     0.00000000
     0.00000000
     0.00000000
     0.00000000
     0.00000000
VECTORS Displacements float 
    -0.22185499    -0.04123777     0.00000000
    -0.21551029    -0.19747236     0.00000000
    -0.18589658    -0.26087010     0.00000000
    -0.15261105    -0.29658885     0.00000000
    -0.10934942    -0.29455285     0.00000000
    -0.06203333    -0.26719908     0.00000000
    -0.01525041    -0.19160472     0.00000000
     0.01329797    -0.12670244     0.00000000
     0.00000000     0.00000000     0.00000000
    -0.23146586    -0.03344674     0.01277517
    -0.18846017    -0.17965066     0.00000000
    -0.18982156    -0.24026974     0.00000000
    -0.18372159    -0.27317750     0.00000000
    -0.17495009    -0.27387116     0.00000000
    -0.16787285    -0.24554230     0.00000000
    -0.16511489    -0.18419623     0.00000000
    -0.18340449    -0.11962040     0.00000000
    -0.18893136    -0.00756944     0.00000000
    -0.23424355    -0.02492647     0.01141482
    -0.19332602    -0.14909585     0.00000000
    -0.19669637    -0.20726423     0.00000000
    -0.20966125    -0.23711189     0.00000000
    -0.22519669    -0.23694151     0.00000000
    -0.24467543    -0.21002232     0.00000000
    -0.27217518    -0.14882649     0.00000000
    -0.29202537    -0.07952263     0.00000000
    -0.31076075     0.01441975     0.00000000
    -0.23658608    -0.01836602     0.00954829
    -0.19615544    -0.12032026     0.00000000
    -0.20512233    -0.17061118     0.00000000
    -0.22698226    -0.19576770     0.00000000
    -0.25237986    -0.19545266     0.00000000
    -0.27661099    -0.16964132     0.00000000
    -0.29673802    -0.10961075     0.00000000
    -0.31327738    -0.03636425     0.00000000
    -0.32136333     0.04232835     0.00000000
    -0.23731932    -0.01190861     0.00741579
    -0.19870158    -0.09201135     0.00000000
    -0.20984845    -0.13299012     0.00000000
    -0.23523293    -0.15358374     0.00000000
    -0.26062727    -0.15503468     0.00000000
    -0.27461956    -0.13627411     0.00000000
    -0.26274719    -0.08756152     0.00000000
    -0.25104710    -0.01907537     0.00000000
    -0.23522074     0.05035617     0.00000000
    -0.23650896    -0.00588130     0.00663952
    -0.19763159    -0.06386091     0.00000000
    -0.21028249    -0.09453614     0.00000000
    -0.23812758    -0.11046102     0.00000000
    -0.26469248    -0.11619113     0.00000000
    -0.27366093    -0.10935293     0.00000000
    -0.24388753    -0.08834273     0.00000000
    -0.14483707    -0.06471015     0.00000000
     0.00000000     0.00000000     0.00000000
    -0.23332139     0.00015768     0.00678792
    -0.19388324    -0.03480042     0.00000000
    -0.20859889    -0.05334543     0.00000000
    -0.24293773    -0.06322803     0.00000000
    -0.28336083    -0.07072237     0.00000000
    -0.31992742    -0.07572613     0.00000000
    -0.34482827    -0.06586498     0.00000000
    -0.31834508    -0.04133045     0.00000000
    -0.26285745     0.04982296     0.00000000
    -0.22843245     0.00635275     0.00816750
    -0.18525298    -0.00373162     0.00000000
    -0.19895733    -0.00768688     0.00000000
    -0.23355549    -0.00925627     0.00000000
    -0.27838688    -0.01470251     0.00000000
    -0.32804680    -0.02232239     0.00000000
    -0.37488815    -0.02233775     0.00000000
    -0.40352834     0.00115459     0.00000000
    -0.39995778     0.05845232     0.00000000
    -0.22168826     0.01255145     0.00928446
    -0.17507778     0.02996181     0.00000000
    -0.18231501     0.04272199     0.00000000
    -0.20700821     0.04964984     0.00000000
    -0.23855370     0.04751246     0.00000000
    -0.27392625     0.03819473     0.00000000
    -0.31052965     0.02790413     0.00000000
    -0.35600401     0.03581391     0.00000000
    -0.38883482     0.06149889     0.00000000
    -0.21345858     0.02003727     0.00973768
    -0.16297402     0.06927322     0.00000000
    -0.16643840     0.09569237     0.00000000
    -0.16889857     0.10848537     0.00000000
    -0.17063381     0.10786068     0.00000000
    -0.16995634     0.09242740     0.00000000
    -0.16111303     0.06601051     0.00000000
    -0.19092382     0.05181101     0.00000000
    -0.20172659     0.02418556     0.00000000
    -0.19903455     0.02717062     0.00000000
    -0.18701490     0.10115178     0.00000000
    -0.16077118     0.13903010     0.00000000
    -0.13039221     0.15904871     0.00000000
    -0.09372892     0.15799479     0.00000000
    -0.05479484     0.13611096     0.00000000
    -0.01301690     0.08723207     0.00000000
     0.00738750     0.05262992     0.00000000
     0.00000000     0.00000000     0.00000000
    -0.22146716    -0.04103267     0.01775464
    -0.21451587    -0.19178615     0.03676258
    -0.18633577    -0.25852235     0.04629161
    -0.15257590    -0.29250543     0.05205726
    -0.10891592    -0.29125245     0.05164621
    -0.06186459    -0.26441803     0.04579051
    -0.01530651    -0.19024085     0.03705907
     0.01478506    -0.12526890     0.02705659
     0.00000000     0.00000000     0.00000000
    -0.23052291    -0.03308494     0.01796004
    -0.18952061    -0.17416821     0.04026613
    -0.18838978    -0.23731647     0.05395303
    -0.18050347    -0.26870285     0.05784605
    -0.16916176    -0.26839161     0.06052475
    -0.15849003    -0.24121432     0.05947943
    -0.14959397    -0.18030310     0.05664298
    -0.16313392    -0.11751183     0.04820355
    -0.17109636    -0.00742759     0.01849782
    -0.23436553    -0.02572349     0.01910471
    -0.19357835    -0.14555136     0.04349363
    -0.19508265    -0.20450536     0.05920466
    -0.20546236    -0.23308234     0.06640193
    -0.21629293    -0.23265694     0.07033915
    -0.22854690    -0.20674517     0.07187162
    -0.24611152    -0.14645672     0.06824964
    -0.25981072    -0.08042247     0.05994015
    -0.28322995     0.01177259     0.03424377
    -0.23621749    -0.01877967     0.01796322
    -0.19664157    -0.11780834     0.04614271
    -0.20321856    -0.16793179     0.06380693
    -0.22189133    -0.19232571     0.07230957
    -0.24241768    -0.19209513     0.07691805
    -0.25990932    -0.16759143     0.07724769
    -0.27094474    -0.10938498     0.07335689
    -0.28043872    -0.04024510     0.06360594
    -0.29306607     0.03734238     0.03709225
    -0.23715206    -0.01232428     0.01697998
    -0.19862522    -0.08984005     0.04711695
    -0.20770023    -0.13020408     0.06589727
    -0.22995976    -0.15018482     0.07450839
    -0.25129500    -0.15184805     0.07835140
    -0.26091596    -0.13443398     0.07552622
    -0.24463706    -0.08794903     0.06948360
    -0.22726851    -0.02336952     0.05943163
    -0.21366307     0.04523898     0.02760209
    -0.23622693    -0.00596108     0.01609703
    -0.19768110    -0.06177656     0.04649805
    -0.20797433    -0.09148979     0.06532732
    -0.23285890    -0.10675635     0.07394650
    -0.25599012    -0.11247042     0.07686725
    -0.26236895    -0.10667218     0.07255522
    -0.23244485    -0.08703524     0.05753404
    -0.13817400    -0.06355335     0.02916969
     0.00000000     0.00000000     0.00000000
    -0.23299077     0.00024468     0.01595593
    -0.19357396    -0.03264154     0.04567108
    -0.20614760    -0.05012259     0.06395305
    -0.23722316    -0.05916018     0.07333335
    -0.27331532    -0.06647989     0.07806104
    -0.30503192    -0.07192637     0.07850183
    -0.32452351    -0.06437852     0.07167114
    -0.29880315    -0.04164059     0.05839468
    -0.24863573     0.04654905     0.01707707
    -0.22781243     0.00648435     0.01564900
    -0.18525652    -0.00171628     0.04302839
    -0.19656810    -0.00481933     0.05879998
    -0.22774554    -0.00558072     0.06800360
    -0.26750576    -0.01077507     0.07323083
    -0.31050401    -0.01880163     0.07455535
    -0.34925394    -0.02180360     0.07245228
    -0.37443542    -0.00128711     0.06850684
    -0.37567965     0.05376829     0.04039624
    -0.22148040     0.01303028     0.01547155
    -0.17520819     0.03135607     0.03732597
    -0.18056945     0.04460475     0.04882177
    -0.20215682     0.05205515     0.05666858
    -0.22907155     0.05017180     0.06049620
    -0.25829269     0.04037261     0.06212261
    -0.28748071     0.02705122     0.06082727
    -0.32847470     0.03239750     0.06101056
    -0.36410737     0.05716851     0.04438758
    -0.21280517     0.01965764     0.01347096
    -0.16464299     0.06949619     0.02911511
    -0.16596696     0.09585128     0.03763389
    -0.16615503     0.10918989     0.04179687
    -0.16510226     0.10878573     0.04402890
    -0.16136068     0.09317124     0.04261637
    -0.14887550     0.06482154     0.03981650
    -0.17547145     0.04905840     0.03646016
    -0.18735103     0.02230501     0.01759301
    -0.19925222     0.02680661     0.01184131
    -0.18753555     0.10069751     0.02116894
    -0.16112793     0.13817319     0.02775517
    -0.13034839     0.15845211     0.02997401
    -0.09362629     0.15778377     0.02893424
    -0.05472609     0.13610385     0.02643589
    -0.01259293     0.08721141     0.02051898
     0.00765471     0.05177981     0.01392924
     0.00000000     0.00000000     0.00000000
    -0.22154002    -0.04010285     0.03057510
    -0.21435817    -0.18351734     0.06958818
    -0.18747626    -0.25157222     0.08938606
    -0.15204970    -0.28196567     0.09888528
    -0.10803580    -0.28240322     0.09616281
    -0.06171523    -0.25678036     0.08798283
    -0.01505659    -0.18719930     0.07183974
     0.01653815    -0.12161437     0.05412995
     0.00000000     0.00000000     0.00000000
    -0.22895984    -0.03284881     0.03131524
    -0.19151839    -0.16590519     0.07943713
    -0.18799939    -0.22821848     0.10494580
    -0.17554907    -0.25606725     0.11310111
    -0.15739792    -0.25645065     0.11795933
    -0.13729350    -0.23115783     0.11428206
    -0.11459661    -0.17079617     0.10528386
    -0.11676196    -0.11098653     0.08621272
    -0.13025792    -0.00701190     0.02623612
    -0.23310505    -0.02640637     0.03066377
    -0.19410661    -0.13921062     0.08615242
    -0.19288931    -0.19540522     0.11595435
    -0.19620289    -0.22138627     0.12928497
    -0.19534252    -0.22158011     0.13483004
    -0.19082672    -0.19759552     0.13475311
    -0.18508007    -0.13897985     0.12457853
    -0.18434737    -0.07968501     0.10289979
    -0.21531164     0.00632923     0.04950739
    -0.23552654    -0.01991954     0.02989208
    -0.19667351    -0.11220644     0.09090103
    -0.19881231    -0.15916114     0.12477136
    -0.20899482    -0.18159031     0.14029616
    -0.21725293    -0.18200847     0.14759401
    -0.21830837    -0.16017911     0.14525094
    -0.20766497    -0.10627342     0.13421494
    -0.20096361    -0.04691432     0.10861131
    -0.22049453     0.02527423     0.05195197
    -0.23656164    -0.01305616     0.02883405
    -0.19860247    -0.08454398     0.09270041
    -0.20248895    -0.12158942     0.12875129
    -0.21589879    -0.13963728     0.14438120
    -0.22641080    -0.14187292     0.15086780
    -0.22465512    -0.12739613     0.14434079
    -0.19770571    -0.08596727     0.13020851
    -0.16859460    -0.03130363     0.10439106
    -0.15878692     0.03169880     0.03641064
    -0.23535883    -0.00632520     0.02806475
    -0.19644571    -0.05657410     0.09162877
    -0.20224685    -0.08299824     0.12796517
    -0.21857615    -0.09601658     0.14350432
    -0.23184824    -0.10155318     0.14867301
    -0.23058852    -0.09789485     0.14037117
    -0.19914678    -0.08085398     0.11319536
    -0.11817224    -0.05840136     0.05961657
     0.00000000     0.00000000     0.00000000
    -0.23175922     0.00021212     0.02719901
    -0.19208885    -0.02743747     0.09012795
    -0.20016350    -0.04184045     0.12530361
    -0.22174062    -0.04853511     0.14199844
    -0.24512702    -0.05526465     0.14993633
    -0.26240551    -0.06144456     0.14889506
    -0.26573712    -0.05901251     0.13466628
    -0.24017469    -0.04192485     0.10752360
    -0.20776307     0.03731941     0.02713936
    -0.22671284     0.00668927     0.02620119
    -0.18455015     0.00265809     0.08484143
    -0.19152721     0.00176291     0.11557884
    -0.21318588     0.00286488     0.13204230
    -0.23890055    -0.00182234     0.14009111
    -0.26346690    -0.01077978     0.13998657
    -0.27983870    -0.02062112     0.13338268
    -0.29405852    -0.00819208     0.12155616
    -0.30639678     0.03983583     0.06464722
    -0.22010540     0.01305046     0.02491914
    -0.17530731     0.03435131     0.07384298
    -0.17760878     0.04818701     0.09633625
    -0.19127128     0.05669144     0.11046474
    -0.20616747     0.05551927     0.11594332
    -0.21983858     0.04458191     0.11697937
    -0.23003177     0.02410543     0.11239838
    -0.25865062     0.02296564     0.10911717
    -0.29764493     0.04468999     0.07171538
    -0.21178083     0.01914728     0.02381195
    -0.16753608     0.07014910     0.05675072
    -0.16599630     0.09614407     0.07366210
    -0.16093196     0.11018763     0.08174047
    -0.15332310     0.11082767     0.08563551
    -0.14201552     0.09522035     0.08238952
    -0.12097038     0.06211107     0.07516280
    -0.14024660     0.04307788     0.06807394
    -0.15415325     0.01886340     0.02752969
    -0.20039925     0.02539517     0.02155593
    -0.18900716     0.09915285     0.04093612
    -0.16236578     0.13632917     0.05359464
    -0.13033089     0.15706091     0.05818402
    -0.09373965     0.15746300     0.05726203
    -0.05460977     0.13637799     0.05239482
    -0.01167055     0.08773361     0.04060441
     0.00825122     0.05000886     0.02735751
     0.00000000     0.00000000     0.00000000
    -0.22255178    -0.03823551     0.04132654
    -0.21594317    -0.17469838     0.10048736
    -0.18898821    -0.24060494     0.12837919
    -0.15162132    -0.27072357     0.13890727
    -0.10770954    -0.27416026     0.13838830
    -0.06167912    -0.24954740     0.12827711
    -0.01422458    -0.18280118     0.10469578
     0.01801785    -0.11623237     0.08119569
     0.00000000     0.00000000     0.00000000
    -0.22761663    -0.03276538     0.04285050
    -0.19524752    -0.15795728     0.11668087
    -0.19023589    -0.21547674     0.14996258
    -0.17051950    -0.24371742     0.16210625
    -0.14267516    -0.24634335     0.16584289
    -0.11076557    -0.22278602     0.15895360
    -0.07313014    -0.16014258     0.14177530
    -0.06280245    -0.10085195     0.11242580
    -0.07909204    -0.00640048     0.02071898
    -0.23144913    -0.02746983     0.04310011
    -0.19403036    -0.13228221     0.12738944
    -0.19033398    -0.18258230     0.16752701
    -0.18422264    -0.20803554     0.18388169
    -0.16928860    -0.20917320     0.18764526
    -0.14597749    -0.18731395     0.18214983
    -0.11630995    -0.12988346     0.16417278
    -0.09924328    -0.07618741     0.12720476
    -0.12910211    -0.00035749     0.03982262
    -0.23436860    -0.02138080     0.04247083
    -0.19665785    -0.10506422     0.13362174
    -0.19325102    -0.14621787     0.17983880
    -0.19219460    -0.16726817     0.19926890
    -0.18491934    -0.16782978     0.20638245
    -0.16695022    -0.14898799     0.19797900
    -0.13414201    -0.10006246     0.17714998
    -0.11090698    -0.05091033     0.13342097
    -0.13094741     0.00856573     0.03939052
    -0.23619171    -0.01427940     0.04182455
    -0.19869232    -0.07714856     0.13563909
    -0.19579603    -0.10787098     0.18518543
    -0.19722389    -0.12387963     0.20442782
    -0.19230159    -0.12599929     0.21179682
    -0.17575061    -0.11418474     0.20119498
    -0.13759693    -0.07837100     0.17791150
    -0.10042849    -0.03506898     0.13398951
    -0.09538478     0.01373428     0.02467269
    -0.23248191    -0.00695501     0.04055682
    -0.19621020    -0.04884026     0.13481148
    -0.19508323    -0.06846884     0.18449764
    -0.19899908    -0.07839321     0.20359352
    -0.19685804    -0.08317678     0.20969425
    -0.18187551    -0.08120711     0.19839713
    -0.14596707    -0.06701750     0.16466098
    -0.08425072    -0.04681760     0.09224482
     0.00000000     0.00000000     0.00000000
    -0.22776856     0.00003332     0.03932414
    -0.19221868    -0.01874388     0.13249493
    -0.19367934    -0.02740638     0.18037433
    -0.20081872    -0.03009561     0.20060777
    -0.20477830    -0.03635585     0.20944276
    -0.20043980    -0.04290403     0.20429016
    -0.18107733    -0.04570717     0.18226363
    -0.15484558    -0.03628947     0.14164358
    -0.14685803     0.02650778     0.02510606
    -0.22507860     0.00666215     0.03704493
    -0.18636254     0.01111756     0.12493327
    -0.18680010     0.01382066     0.16763809
    -0.19462329     0.01863332     0.18784387
    -0.19984715     0.01405183     0.19497448
    -0.19815403     0.00430652     0.18953781
    -0.18493713    -0.01200525     0.17544533
    -0.18441923    -0.01048230     0.15187522
    -0.20604046     0.02366307     0.06085584
    -0.21909409     0.01309176     0.03528369
    -0.17687494     0.03957397     0.11092816
    -0.17614629     0.05471915     0.14180343
    -0.17857415     0.06670538     0.15877145
    -0.17584788     0.06519434     0.16277717
    -0.16763726     0.05272681     0.16036789
    -0.15298963     0.02546573     0.15021597
    -0.16441409     0.01525844     0.13881535
    -0.19964408     0.02679841     0.06793507
    -0.21110419     0.01852102     0.03323950
    -0.17072376     0.07147875     0.08478606
    -0.16723496     0.09713548     0.10698454
    -0.15432700     0.11389116     0.11877245
    -0.13682549     0.11452082     0.12281112
    -0.11552449     0.09856644     0.11693554
    -0.08305567     0.06067181     0.10400402
    -0.09329826     0.03491327     0.09516649
    -0.10981181     0.01407455     0.02657639
    -0.20251128     0.02353920     0.03040568
    -0.19102779     0.09646064     0.06090960
    -0.16414239     0.13429963     0.07803234
    -0.13133210     0.15579211     0.08470836
    -0.09411393     0.15785964     0.08540802
    -0.05463000     0.13749053     0.07924073
    -0.01147964     0.08925023     0.06092885
     0.00934419     0.04914579     0.04124239
     0.00000000     0.00000000     0.00000000
    -0.22411479    -0.03607704     0.04962082
    -0.21983920    -0.16129159     0.12941487
    -0.19094794    -0.22726753     0.16274409
    -0.15324427    -0.25594195     0.17788416
    -0.11093047    -0.25768604     0.17980428
    -0.05953094    -0.23373042     0.16866240
    -0.01160806    -0.17075927     0.13737511
     0.02175278    -0.10651148     0.10482413
     0.00000000     0.00000000     0.00000000
    -0.22734493    -0.03290906     0.05318512
    -0.20237793    -0.14568133     0.15008169
    -0.19437083    -0.20044535     0.18708756
    -0.16426569    -0.22772925     0.20046430
    -0.12622928    -0.23023686     0.20276554
    -0.08629618    -0.20656916     0.19271254
    -0.03438522    -0.14864185     0.16740926
    -0.01481175    -0.09022470     0.13213484
    -0.02956705    -0.00314790     0.00637776
    -0.22988463    -0.02862259     0.05504233
    -0.19878025    -0.12144085     0.16478129
    -0.19339759    -0.16824540     0.21037973
    -0.17257540    -0.19009454     0.22723410
    -0.14096182    -0.19120204     0.22813614
    -0.10232387    -0.17117371     0.21465290
    -0.05309627    -0.12134388     0.18973105
    -0.02983231    -0.07057278     0.14418019
    -0.04826349    -0.00289722     0.01391402
    -0.23288552    -0.02303181     0.05647895
    -0.19884082    -0.09388054     0.17266975
    -0.19376811    -0.13132496     0.22403721
    -0.17619805    -0.14922117     0.24364354
    -0.14933346    -0.14956102     0.25028870
    -0.11371639    -0.13185070     0.23414865
    -0.06298989    -0.09285657     0.20315175
    -0.03655367    -0.05062913     0.15049225
    -0.04915915    -0.00335343     0.01213992
    -0.23443298    -0.01602138     0.05637488
    -0.19896637    -0.06487148     0.17558512
    -0.19354169    -0.09022721     0.23044028
    -0.17774023    -0.10279959     0.24816011
    -0.15344707    -0.10424312     0.25570108
    -0.11991844    -0.09357377     0.24207981
    -0.06962265    -0.06486393     0.21025186
    -0.03432849    -0.03109104     0.15544772
    -0.04257766    -0.00503127     0.00651229
    -0.23397523    -0.00832280     0.05432997
    -0.19738614    -0.03555710     0.17410298
    -0.19214788    -0.04777851     0.22988766
    -0.17772155    -0.05413207     0.24742238
    -0.15457548    -0.05704065     0.25366127
    -0.12193393    -0.05516709     0.23958822
    -0.07435176    -0.04402717     0.20703707
    -0.03812506    -0.03029324     0.12959941
     0.00000000     0.00000000     0.00000000
    -0.23093297    -0.00075042     0.05189908
    -0.19574842    -0.00569980     0.16976786
    -0.19158132    -0.00428955     0.22375745
    -0.17882173    -0.00419401     0.24197663
    -0.15832623    -0.00801544     0.25086343
    -0.12902012    -0.01378112     0.23973816
    -0.08266349    -0.01967097     0.20918825
    -0.05556350    -0.02575060     0.16043055
    -0.07923908     0.02359633     0.01480471
    -0.22605438     0.00643895     0.04905124
    -0.19063349     0.02402975     0.16007846
    -0.18817130     0.03604401     0.20913850
    -0.17536220     0.04288080     0.22895851
    -0.15484014     0.03894310     0.23342473
    -0.12599601     0.02825356     0.21950815
    -0.08140557     0.01087492     0.19502500
    -0.07172365     0.00000912     0.16453613
    -0.09964963     0.01047498     0.03308823
    -0.21895842     0.01290499     0.04563250
    -0.18762012     0.05052033     0.14544690
    -0.18319936     0.07154053     0.18052508
    -0.16589582     0.08376837     0.19838134
    -0.14228860     0.08344571     0.19850233
    -0.11028053     0.06874569     0.19007551
    -0.06642016     0.04101227     0.17213100
    -0.06507982     0.02433365     0.15072157
    -0.09587030     0.00784835     0.03611568
    -0.21258992     0.01771556     0.04216816
    -0.18133597     0.07140817     0.11617249
    -0.17443545     0.10028424     0.14076949
    -0.14896655     0.11949703     0.15404092
    -0.11957893     0.11851521     0.15899933
    -0.08685698     0.09923136     0.15116532
    -0.03836394     0.06293705     0.13014276
    -0.03459538     0.03959780     0.11682908
    -0.05808233     0.00441976     0.01584384
    -0.20556974     0.02129342     0.03775124
    -0.19326759     0.09300212     0.07732393
    -0.16710934     0.13074026     0.09873593
    -0.13386949     0.15297060     0.10993464
    -0.09547055     0.15272955     0.11242627
    -0.05464257     0.13195590     0.10423863
    -0.01182369     0.08775445     0.08037489
     0.01034988     0.04967930     0.05500578
     0.00000000     0.00000000     0.00000000
    -0.22648716    -0.03427325     0.05639487
    -0.22123557    -0.14652133     0.15350967
    -0.19500328    -0.20530253     0.19148569
    -0.15548020    -0.23115543     0.20974027
    -0.11003360    -0.23298758     0.21162748
    -0.05935201    -0.21068545     0.19855363
    -0.01016016    -0.15386484     0.16639701
     0.03224156    -0.09403020     0.12406801
     0.00000000     0.00000000     0.00000000
    -0.22696070    -0.03218377     0.06217999
    -0.22387317    -0.12770242     0.17401629
    -0.19579366    -0.18127859     0.21761739
    -0.15658086    -0.20796230     0.23200372
    -0.11076139    -0.20892971     0.23352363
    -0.05849596    -0.18768545     0.22072902
    -0.00721053    -0.13814576     0.18711775
     0.03723699    -0.07986138     0.13940683
     0.00000000     0.00000000     0.00000000
    -0.22805061    -0.02910516     0.06775212
    -0.22803306    -0.10418838     0.18796569
    -0.19657734    -0.14711478     0.23983731
    -0.15485012    -0.17367702     0.25638571
    -0.11113493    -0.18081174     0.25293569
    -0.05583503    -0.16245285     0.23477165
    -0.00412411    -0.11884658     0.20332121
     0.04114769    -0.06402448     0.15020357
     0.00000000     0.00000000     0.00000000
    -0.22934826    -0.02388983     0.07209071
    -0.23050710    -0.07782516     0.19570044
    -0.19771819    -0.10898508     0.25097169
    -0.15423022    -0.12698104     0.26899574
    -0.10540975    -0.13277420     0.27308772
    -0.05444404    -0.12501104     0.25312908
    -0.00226289    -0.08870483     0.21339028
     0.04325284    -0.04666297     0.15681523
     0.00000000     0.00000000     0.00000000
    -0.22907787    -0.01753683     0.07403391
    -0.23110152    -0.04866182     0.19935401
    -0.19807481    -0.06800047     0.25485533
    -0.15362614    -0.07843294     0.27097191
    -0.10350814    -0.08140567     0.27662519
    -0.05318353    -0.07545124     0.26028196
     0.00037035    -0.05727333     0.22261393
     0.04664858    -0.03015862     0.15783903
     0.00000000     0.00000000     0.00000000
    -0.22752166    -0.01011522     0.07346468
    -0.22993070    -0.01907044     0.19797172
    -0.19724597    -0.02452316     0.25311231
    -0.15279051    -0.02701188     0.26877940
    -0.10298367    -0.02666182     0.27331409
    -0.05188992    -0.02229726     0.25820844
     0.00149571    -0.01796277     0.22446836
     0.04725168    -0.01458162     0.14977910
     0.00000000     0.00000000     0.00000000
    -0.22612944    -0.00253614     0.07033752
    -0.22722842     0.01049170     0.19113634
    -0.19484208     0.01723766     0.24534116
    -0.15085954     0.02325013     0.26181947
    -0.10258543     0.02656947     0.26714771
    -0.05210376     0.02674986     0.25167890
     0.00131389     0.01963457     0.21389649
     0.04726884     0.00085887     0.15794225
     0.00000000     0.00000000     0.00000000
    -0.22300801     0.00482276     0.06463666
    -0.22296084     0.03758333     0.17947751
    -0.19105493     0.05658509     0.23262539
    -0.14915513     0.06832920     0.25027866
    -0.10300845     0.07572379     0.25113746
    -0.05475417     0.07238473     0.23153774
    -0.00236038     0.04721720     0.19738772
     0.04359664     0.01861937     0.15549227
     0.00000000     0.00000000     0.00000000
    -0.21992548     0.01103135     0.05731068
    -0.21642666     0.06129894     0.16282845
    -0.18584766     0.09029448     0.20542651
    -0.14975442     0.11050824     0.22025315
    -0.10227792     0.11228928     0.21822270
    -0.05758293     0.09830557     0.20599836
    -0.00259141     0.06643732     0.17726451
     0.03969116     0.03389542     0.14040297
     0.00000000     0.00000000     0.00000000
    -0.21575452     0.01560784     0.05024661
    -0.21098559     0.08443932     0.13829465
    -0.18179122     0.11611632     0.17081143
    -0.14581569     0.13381015     0.18667205
    -0.10137051     0.13475592     0.18956809
    -0.05494126     0.11760735     0.17964078
    -0.00437670     0.08131698     0.15149589
     0.03386145     0.05015264     0.11815806
     0.00000000     0.00000000     0.00000000
    -0.21103831     0.01872041     0.04424794
    -0.19910854     0.09190968     0.09843627
    -0.17389312     0.12681466     0.12558348
    -0.13849972     0.14571077     0.14198372
    -0.09802893     0.14664256     0.14509328
    -0.05491626     0.12754874     0.13479430
    -0.00949606     0.08703975     0.10784868
     0.01891177     0.05714575     0.08236609
     0.00000000     0.00000000     0.00000000
     0.00000000     0.00000000     0.00000000
     0.00000000     0.00000000     0.00000000
     0.00000000     0.00000000     0.00000000
     0.00000000     0.00000000     0.00000000
     0.00000000     0.00000000     0.00000000
     0.00000000     0.00000000     0.00000000
     0.00000000     0.00000000     0.00000000
     0.00000000     0.00000000     0.00000000
     0.00000000     0.00000000     0.00000000
     0.00000000     0.00000000     0.00000000
     0.00000000     0.00000000     0.00000000
    -0.11280120     0.01939306     0.00000000
    -0.17115242    -0.03490840     0.00000000
    -0.17533409    -0.00539564     0.00000000
    -0.16067320    -0.00568157     0.00000000
    -0.14060318    -0.00425182     0.00000000
    -0.11830452    -0.00105492     0.00000000
    -0.09548155     0.00341096     0.00000000
    -0.07268808     0.00849761     0.00000000
    -0.05012250     0.01342906     0.00000000
    -0.02784866     0.01786814     0.00000000
     0.00000000     0.00000000     0.00000000
    -0.34446620     0.01507548     0.00000000
    -0.35246682    -0.04455678     0.00000000
    -0.33961577    -0.04459506     0.00000000
    -0.29890395    -0.04685043     0.00000000
    -0.25137928    -0.04343487     0.00000000
    -0.20367718    -0.03519770     0.00000000
    -0.15722697    -0.02517847     0.00000000
    -0.11248733    -0.01451177     0.00000000
    -0.06992933    -0.00373516     0.00000000
    -0.03062400     0.00387517     0.00000000
     0.00000000     0.00000000     0.00000000
    -0.41174358     0.04980545     0.00000000
    -0.39075785    -0.01600387     0.00000000
    -0.35140485    -0.07454904     0.00000000
    -0.29925816    -0.08524845     0.00000000
    -0.24775949    -0.07887109     0.00000000
    -0.19793815    -0.06859507     0.00000000
    -0.15053363    -0.05681372     0.00000000
    -0.10540259    -0.04475906     0.00000000
    -0.06266047    -0.03304491     0.00000000
    -0.02459259    -0.01963645     0.00000000
     0.00000000     0.00000000     0.00000000
    -0.20669201     0.04017927     0.00000000
    -0.23848694     0.01711128     0.00000000
    -0.18006346    -0.06543405     0.00000000
    -0.14981406    -0.06544745     0.00000000
    -0.12365274    -0.06212673     0.00000000
    -0.09997908    -0.05614821     0.00000000
    -0.07760013    -0.04987560     0.00000000
    -0.05595992    -0.04358789     0.00000000
    -0.03495118    -0.03696545     0.00000000
    -0.01443801    -0.02982281     0.00000000
     0.00000000     0.00000000     0.00000000
     0.00000000     0.00000000     0.00000000
     0.00000000     0.00000000     0.00000000
     0.00000000     0.00000000     0.00000000
     0.00000000     0.00000000     0.00000000
     0.00000000     0.00000000     0.00000000
     0.00000000     0.00000000     0.00000000
     0.00000000     0.00000000     0.00000000
     0.00000000     0.00000000     0.00000000
     0.00000000     0.00000000     0.00000000
     0.00000000     0.00000000     0.00000000
     0.00000000     0.00000000     0.00000000
     0.00000000     0.00000000     0.00000000
     0.00000000     0.00000000     0.00000000
     0.00000000     0.00000000     0.00000000
     0.00000000     0.00000000     0.00000000
     0.00000000     0.00000000     0.00000000
     0.00000000     0.00000000     0.00000000
     0.00000000     0.00000000     0.00000000
     0.00000000     0.00000000     0.00000000
     0.00000000     0.00000000     0.00000000
     0.00000000     0.00000000     0.00000000
     0.00000000     0.00000000     0.00000000
    -0.10399239     0.01834666     0.01421557
    -0.16199604    -0.03307025     0.02007421
    -0.16419036    -0.00401750    -0.00077343
    -0.14965779    -0.00470971    -0.00678039
    -0.13090649    -0.00354942    -0.00870584
    -0.11034640    -0.00075147    -0.00906222
    -0.08939187     0.00325495    -0.00892559
    -0.06841469     0.00790749    -0.00863952
    -0.04756592     0.01247675    -0.00808629
    -0.02677071     0.01682745    -0.00661521
     0.00000000     0.00000000     0.00000000
    -0.32205121     0.01344167     0.03594541
    -0.33542788    -0.04266818     0.02065543
    -0.32193888    -0.04201859    -0.00493801
    -0.28217805    -0.04389388    -0.01608744
    -0.23694929    -0.04069832    -0.02000885
    -0.19216601    -0.03305504    -0.02036496
    -0.14880878    -0.02377100    -0.01952096
    -0.10702050    -0.01382397    -0.01812725
    -0.06706500    -0.00366613    -0.01560864
    -0.02969063     0.00363631    -0.01037817
     0.00000000     0.00000000     0.00000000
    -0.38529777     0.04657396     0.03693648
    -0.37213171    -0.01513019     0.01705784
    -0.33300630    -0.07122276    -0.00634899
    -0.28230659    -0.08094099    -0.01818244
    -0.23337770    -0.07469013    -0.02153242
    -0.18665373    -0.06497963    -0.02132410
    -0.14244170    -0.05394135    -0.02007212
    -0.10029781    -0.04265855    -0.01843544
    -0.06014449    -0.03167467    -0.01579100
    -0.02390761    -0.01895583    -0.01049182
     0.00000000     0.00000000     0.00000000
    -0.18932106     0.03648206     0.01580360
    -0.22433346     0.01621809     0.01294605
    -0.16701385    -0.06179711    -0.00741755
    -0.13856149    -0.06113177    -0.01024355
    -0.11449264    -0.05809095    -0.01010829
    -0.09290315    -0.05257796    -0.00930170
    -0.07250647    -0.04680641    -0.00862540
    -0.05266360    -0.04101800    -0.00813831
    -0.03328029    -0.03491067    -0.00756705
    -0.01404424    -0.02840336    -0.00622897
     0.00000000     0.00000000     0.00000000
     0.00000000     0.00000000     0.00000000
     0.00000000     0.00000000     0.00000000
     0.00000000     0.00000000     0.00000000
     0.00000000     0.00000000     0.00000000
     0.00000000     0.00000000     0.00000000
     0.00000000     0.00000000     0.00000000
     0.00000000     0.00000000     0.00000000
     0.00000000     0.00000000     0.00000000
     0.00000000     0.00000000     0.00000000
     0.00000000     0.00000000     0.00000000
     0.00000000     0.00000000     0.00000000
     0.00000000     0.00000000     0.00000000
     0.00000000     0.00000000     0.00000000
     0.00000000     0.00000000     0.00000000
     0.00000000     0.00000000     0.00000000
     0.00000000     0.00000000     0.00000000
     0.00000000     0.00000000     0.00000000
     0.00000000     0.00000000     0.00000000
     0.00000000     0.00000000     0.00000000
     0.00000000     0.00000000     0.00000000
     0.00000000     0.00000000     0.00000000
     0.00000000     0.00000000     0.00000000
    -0.08180106     0.01679650     0.02176810
    -0.13793037    -0.02710747     0.03368586
    -0.13447433    -0.00036821    -0.00280339
    -0.12092431    -0.00211564    -0.01183769
    -0.10604484    -0.00172979    -0.01438485
    -0.09023743    -0.00018947    -0.01469931
    -0.07409075     0.00268651    -0.01443922
    -0.05780014     0.00629005    -0.01403982
    -0.04123563     0.00985361    -0.01329323
    -0.02420180     0.01393758    -0.01118884
     0.00000000     0.00000000     0.00000000
    -0.25795161     0.01000893     0.05813268
    -0.28575430    -0.03612109     0.03716272
    -0.26971081    -0.03415080    -0.01043208
    -0.23323495    -0.03519377    -0.02843065
    -0.19511168    -0.03288075    -0.03379141
    -0.15904359    -0.02715030    -0.03373032
    -0.12459728    -0.01996392    -0.03218302
    -0.09127788    -0.01204770    -0.03004251
    -0.05872593    -0.00366840    -0.02626869
    -0.02699841     0.00269979    -0.01798011
     0.00000000     0.00000000     0.00000000
    -0.30887060     0.03669460     0.05954056
    -0.31736635    -0.01258238     0.03152862
    -0.27855561    -0.06074768    -0.01304874
    -0.23269156    -0.06787228    -0.03220197
    -0.19175210    -0.06216969    -0.03640840
    -0.15434376    -0.05419204    -0.03534274
    -0.11933199    -0.04533858    -0.03310964
    -0.08573262    -0.03633361    -0.03057328
    -0.05294786    -0.02743746    -0.02659768
    -0.02207173    -0.01673101    -0.01819750
     0.00000000     0.00000000     0.00000000
    -0.14504554     0.02740365     0.02199174
    -0.18742847     0.01313044     0.02191570
    -0.13333456    -0.05172559    -0.01350906
    -0.10989709    -0.04998880    -0.01718597
    -0.09149725    -0.04786573    -0.01641324
    -0.07549543    -0.04347656    -0.01492094
    -0.06004427    -0.03901318    -0.01386317
    -0.04471258    -0.03455358    -0.01317802
    -0.02936153    -0.02962438    -0.01242008
    -0.01333940    -0.02468681    -0.01053368
     0.00000000     0.00000000     0.00000000
     0.00000000     0.00000000     0.00000000
     0.00000000     0.00000000     0.00000000
     0.00000000     0.00000000     0.00000000
     0.00000000     0.00000000     0.00000000
     0.00000000     0.00000000     0.00000000
     0.00000000     0.00000000     0.00000000
     0.00000000     0.00000000     0.00000000
     0.00000000     0.00000000     0.00000000
     0.00000000     0.00000000     0.00000000
     0.00000000     0.00000000     0.00000000
     0.00000000     0.00000000     0.00000000
     0.00000000     0.00000000     0.00000000
     0.00000000     0.00000000     0.00000000
     0.00000000     0.00000000     0.00000000
     0.00000000     0.00000000     0.00000000
     0.00000000     0.00000000     0.00000000
     0.00000000     0.00000000     0.00000000
     0.00000000     0.00000000     0.00000000
     0.00000000     0.00000000     0.00000000
     0.00000000     0.00000000     0.00000000
     0.00000000     0.00000000     0.00000000
     0.00000000     0.00000000     0.00000000
    -0.04825903     0.01497603     0.01718718
    -0.09932284    -0.01778494     0.03543503
    -0.08812222     0.00487757    -0.00590375
    -0.07799576     0.00181602    -0.01297100
    -0.07000730     0.00015839    -0.01463772
    -0.06115862     0.00043136    -0.01482186
    -0.05173764     0.00190008    -0.01454139
    -0.04189417     0.00407279    -0.01419224
    -0.03177510     0.00653881    -0.01377619
    -0.02004114     0.00969891    -0.01236238
     0.00000000     0.00000000     0.00000000
    -0.15962842     0.00832062     0.05257565
    -0.20516362    -0.02466014     0.04312134
    -0.18437522    -0.02075573    -0.01604056
    -0.15512417    -0.02084121    -0.03188408
    -0.13025461    -0.02101193    -0.03521106
    -0.10830935    -0.01811526    -0.03442219
    -0.08745057    -0.01398075    -0.03272082
    -0.06680483    -0.00906416    -0.03082663
    -0.04571899    -0.00327756    -0.02787144
    -0.02247627     0.00140490    -0.02039294
     0.00000000     0.00000000     0.00000000
    -0.19046798     0.02444642     0.05234685
    -0.22769122    -0.00759684     0.03795731
    -0.18908012    -0.04257046    -0.01922216
    -0.15294260    -0.04661945    -0.03614792
    -0.12715504    -0.04231235    -0.03789512
    -0.10480724    -0.03743020    -0.03604935
    -0.08378229    -0.03206954    -0.03367038
    -0.06296940    -0.02653840    -0.03139700
    -0.04152585    -0.02106362    -0.02825646
    -0.01884944    -0.01318959    -0.02067504
     0.00000000     0.00000000     0.00000000
    -0.08250721     0.01658442     0.01256149
    -0.13165428     0.00934735     0.02343648
    -0.08285682    -0.03619344    -0.01677556
    -0.06792606    -0.03398917    -0.01786792
    -0.05914961    -0.03263487    -0.01625519
    -0.05073675    -0.03019888    -0.01481122
    -0.04196738    -0.02760633    -0.01383892
    -0.03274450    -0.02494304    -0.01326594
    -0.02322066    -0.02216014    -0.01285425
    -0.01197908    -0.01899090    -0.01165280
     0.00000000     0.00000000     0.00000000
     0.00000000     0.00000000     0.00000000
     0.00000000     0.00000000     0.00000000
     0.00000000     0.00000000     0.00000000
     0.00000000     0.00000000     0.00000000
     0.00000000     0.00000000     0.00000000
     0.00000000     0.00000000     0.00000000
     0.00000000     0.00000000     0.00000000
     0.00000000     0.00000000     0.00000000
     0.00000000     0.00000000     0.00000000
     0.00000000     0.00000000     0.00000000
     0.00000000     0.00000000     0.00000000
     0.00000000     0.00000000     0.00000000
     0.00000000     0.00000000     0.00000000
     0.00000000     0.00000000     0.00000000
     0.00000000     0.00000000     0.00000000
     0.00000000     0.00000000     0.00000000
     0.00000000     0.00000000     0.00000000
     0.00000000     0.00000000     0.00000000
     0.00000000     0.00000000     0.00000000
     0.00000000     0.00000000     0.00000000
     0.00000000     0.00000000     0.00000000
     0.00000000     0.00000000     0.00000000
    -0.01268110     0.01482488     0.00136122
    -0.04911372    -0.00675220     0.02151809
    -0.03119345     0.00908046    -0.00670917
    -0.03055730     0.00146904    -0.00810024
    -0.03039555     0.00076980    -0.00917798
    -0.02858229     0.00036883    -0.00919116
    -0.02583262     0.00085110    -0.00906732
    -0.02248675     0.00167350    -0.00896115
    -0.01882318     0.00225322    -0.00864085
    -0.01549668     0.00490792    -0.00909435
     0.00000000     0.00000000     0.00000000
    -0.04708439     0.01222519     0.01175708
    -0.09937736    -0.00804823     0.02895536
    -0.07299463    -0.00345255    -0.01662152
    -0.06168693    -0.00639596    -0.01998206
    -0.05523252    -0.00829637    -0.02153250
    -0.04960201    -0.00791698    -0.02074752
    -0.04331216    -0.00680097    -0.01991505
    -0.03626754    -0.00516987    -0.01914373
    -0.02835303    -0.00275669    -0.01778075
    -0.01771562    -0.00007689    -0.01584495
     0.00000000     0.00000000     0.00000000
    -0.05563113     0.01259240     0.00871604
    -0.10969218    -0.00079604     0.02609770
    -0.07184860    -0.01719314    -0.01928081
    -0.05854041    -0.01889029    -0.02250635
    -0.05293519    -0.01820893    -0.02295342
    -0.04756556    -0.01751119    -0.02163378
    -0.04143106    -0.01608543    -0.02045650
    -0.03439707    -0.01424523    -0.01950268
    -0.02621782    -0.01240135    -0.01804786
    -0.01554115    -0.00922944    -0.01609083
     0.00000000     0.00000000     0.00000000
    -0.01667373     0.00365131    -0.00879205
    -0.06262529     0.00485592     0.01376049
    -0.02298528    -0.01631054    -0.01348987
    -0.02498315    -0.01297528    -0.01030591
    -0.02481650    -0.01475821    -0.00982550
    -0.02353546    -0.01451999    -0.00895993
    -0.02104346    -0.01400861    -0.00852411
    -0.01788543    -0.01321073    -0.00832109
    -0.01458526    -0.01190872    -0.00802047
    -0.01056218    -0.01251118    -0.00856007
     0.00000000     0.00000000     0.00000000
     0.00000000     0.00000000     0.00000000
     0.00000000     0.00000000     0.00000000
     0.00000000     0.00000000     0.00000000
     0.00000000     0.00000000     0.00000000
     0.00000000     0.00000000     0.00000000
     0.00000000     0.00000000     0.00000000
     0.00000000     0.00000000     0.00000000
     0.00000000     0.00000000     0.00000000
     0.00000000     0.00000000     0.00000000
     0.00000000     0.00000000     0.00000000
     0.00000000     0.00000000     0.00000000
     0.00000000     0.00000000     0.00000000
     0.00000000     0.00000000     0.00000000
     0.00000000     0.00000000     0.00000000
     0.00000000     0.00000000     0.00000000
     0.00000000     0.00000000     0.00000000
     0.00000000     0.00000000     0.00000000
     0.00000000     0.00000000     0.00000000
     0.00000000     0.00000000     0.00000000
     0.00000000     0.00000000     0.00000000
     0.00000000     0.00000000     0.00000000
     0.00000000     0.00000000     0.00000000
     0.00000000     0.00000000     0.00000000
     0.00000000     0.00000000     0.00000000
     0.00000000     0.00000000     0.00000000
     0.00000000     0.00000000     0.00000000
     0.00000000     0.00000000     0.00000000
     0.00000000     0.00000000     0.00000000
     0.00000000     0.00000000     0.00000000
     0.00000000     0.00000000     0.00000000
     0.00000000     0.00000000     0.00000000
     0.00000000     0.00000000     0.00000000
     0.00000000     0.00000000     0.00000000
     0.00000000     0.00000000     0.00000000
     0.00000000     0.00000000     0.00000000
     0.00000000     0.00000000     0.00000000
     0.00000000     0.00000000     0.00000000
     0.00000000     0.00000000     0.00000000
     0.00000000     0.00000000     0.00000000
     0.00000000     0.00000000     0.00000000
     0.00000000     0.00000000     0.00000000
     0.00000000     0.00000000     0.00000000
     0.00000000     0.00000000     0.00000000
     0.00000000     0.00000000     0.00000000
     0.00000000     0.00000000     0.00000000
     0.00000000     0.00000000     0.00000000
     0.00000000     0.00000000     0.00000000
     0.00000000     0.00000000     0.00000000
     0.00000000     0.00000000     0.00000000
     0.00000000     0.00000000     0.00000000
     0.00000000     0.00000000     0.00000000
     0.00000000     0.00000000     0.00000000
     0.00000000     0.00000000     0.00000000
     0.00000000     0.00000000     0.00000000
     0.00000000     0.00000000     0.00000000
     0.00000000     0.00000000     0.00000000
     0.00000000     0.00000000     0.00000000
     0.00000000     0.00000000     0.00000000
     0.00000000     0.00000000     0.00000000
     0.00000000     0.00000000     0.00000000
     0.00000000     0.00000000     0.00000000
     0.00000000     0.00000000     0.00000000
     0.00000000     0.00000000     0.00000000
     0.00000000     0.00000000     0.00000000
     0.00000000     0.00000000     0.00000000
     0.00000000     0.00000000     0.00000000
     0.00000000     0.00000000     0.00000000
     0.00000000     0.00000000     0.00000000
     0.00000000     0.00000000     0.00000000
     0.00000000     0.00000000     0.00000000
     0.00000000     0.00000000     0.00000000
     0.00000000     0.00000000     0.00000000
     0.00000000     0.00000000     0.00000000
     0.00000000     0.00000000     0.00000000
     0.00000000     0.00000000     0.00000000
     0.00000000     0.00000000     0.00000000
     0.00000000     0.00000000     0.00000000
     0.00000000     0.00000000     0.00000000
     0.00000000     0.00000000     0.00000000
     0.00000000     0.00000000     0.00000000
     0.00000000     0.00000000     0.00000000
     0.00000000     0.00000000     0.00000000
     0.00000000     0.00000000     0.00000000
     0.00000000     0.00000000     0.00000000
     0.00000000     0.00000000     0.00000000
    -0.22816872     0.02787857     0.00000000
    -0.21856853     0.04143873     0.00000000
    -0.18031043     0.03092525     0.00000000
    -0.14035338     0.02236401     0.00000000
    -0.10591787     0.01394309     0.00000000
    -0.07631452     0.00654903     0.00000000
    -0.04984686     0.00002316     0.00000000
    -0.02573550    -0.00700522     0.00000000
     0.00000000     0.00000000     0.00000000
    -0.33456619     0.04998696     0.00000000
    -0.31488664     0.06960513     0.00000000
    -0.26172868     0.06292132     0.00000000
    -0.20526772     0.04947773     0.00000000
    -0.15389876     0.03572460     0.00000000
    -0.10797392     0.02317684     0.00000000
    -0.06626769     0.01160713     0.00000000
    -0.02840224     0.00174300     0.00000000
     0.00000000     0.00000000     0.00000000
    -0.32976365     0.04387783     0.00000000
    -0.30168583     0.08286604     0.00000000
    -0.24703900     0.07812864     0.00000000
    -0.19371089     0.06415457     0.00000000
    -0.14523167     0.05005739     0.00000000
    -0.10154718     0.03707376     0.00000000
    -0.06129244     0.02546656     0.00000000
    -0.02469629     0.01427985     0.00000000
     0.00000000     0.00000000     0.00000000
    -0.21815538     0.02108065     0.00000000
    -0.17711762     0.06546365     0.00000000
    -0.14418313     0.05659612     0.00000000
    -0.11377834     0.04864543     0.00000000
    -0.08713253     0.04001749     0.00000000
    -0.06280027     0.03242090     0.00000000
    -0.03991980     0.02522546     0.00000000
    -0.01767633     0.01938461     0.00000000
     0.00000000     0.00000000     0.00000000
     0.00000000     0.00000000     0.00000000
     0.00000000     0.00000000     0.00000000
     0.00000000     0.00000000     0.00000000
     0.00000000     0.00000000     0.00000000
     0.00000000     0.00000000     0.00000000
     0.00000000     0.00000000     0.00000000
     0.00000000     0.00000000     0.00000000
     0.00000000     0.00000000     0.00000000
     0.00000000     0.00000000     0.00000000
     0.00000000     0.00000000     0.00000000
     0.00000000     0.00000000     0.00000000
     0.00000000     0.00000000     0.00000000
     0.00000000     0.00000000     0.00000000
     0.00000000     0.00000000     0.00000000
     0.00000000     0.00000000     0.00000000
     0.00000000     0.00000000     0.00000000
     0.00000000     0.00000000     0.00000000
     0.00000000     0.00000000     0.00000000
    -0.20842171     0.02739809     0.02658362
    -0.19663643     0.03649729    -0.00827442
    -0.16269666     0.02813165    -0.01318499
    -0.12804813     0.02061491    -0.01097053
    -0.09775983     0.01309019    -0.00823684
    -0.07120641     0.00633436    -0.00649366
    -0.04702832     0.00027679    -0.00550324
    -0.02465116    -0.00639905    -0.00457969
     0.00000000     0.00000000     0.00000000
    -0.31027258     0.04924476     0.03536539
    -0.28934797     0.06385252    -0.00881375
    -0.24038428     0.05757621    -0.01641374
    -0.18954263     0.04564549    -0.01598369
    -0.14329017     0.03328577    -0.01314427
    -0.10150336     0.02185597    -0.01087701
    -0.06299492     0.01112034    -0.00909519
    -0.02737477     0.00180166    -0.00625365
     0.00000000     0.00000000     0.00000000
    -0.30776117     0.04329361     0.03115435
    -0.27889344     0.07701348    -0.00685626
    -0.22809179     0.07197886    -0.01584922
    -0.17964299     0.05935353    -0.01492390
    -0.13565368     0.04665680    -0.01240348
    -0.09569525     0.03485574    -0.01037769
    -0.05838960     0.02417537    -0.00879050
    -0.02388606     0.01367228    -0.00609212
     0.00000000     0.00000000     0.00000000
    -0.20287590     0.02099818     0.02032095
    -0.16205800     0.06052742    -0.00703754
    -0.13222921     0.05165431    -0.00960858
    -0.10502731     0.04468012    -0.00814765
    -0.08107167     0.03702519    -0.00644265
    -0.05894165     0.03020515    -0.00543018
    -0.03787667     0.02365534    -0.00486946
    -0.01711062     0.01833072    -0.00423249
     0.00000000     0.00000000     0.00000000
     0.00000000     0.00000000     0.00000000
     0.00000000     0.00000000     0.00000000
     0.00000000     0.00000000     0.00000000
     0.00000000     0.00000000     0.00000000
     0.00000000     0.00000000     0.00000000
     0.00000000     0.00000000     0.00000000
     0.00000000     0.00000000     0.00000000
     0.00000000     0.00000000     0.00000000
     0.00000000     0.00000000     0.00000000
     0.00000000     0.00000000     0.00000000
     0.00000000     0.00000000     0.00000000
     0.00000000     0.00000000     0.00000000
     0.00000000     0.00000000     0.00000000
     0.00000000     0.00000000     0.00000000
     0.00000000     0.00000000     0.00000000
     0.00000000     0.00000000     0.00000000
     0.00000000     0.00000000     0.00000000
     0.00000000     0.00000000     0.00000000
    -0.16124938     0.02575766     0.04095399
    -0.14329440     0.02444082    -0.01364649
    -0.12026454     0.02138397    -0.02058110
    -0.09859500     0.01652100    -0.01692566
    -0.07827116     0.01129241    -0.01280313
    -0.05893056     0.00593529    -0.01031055
    -0.04022516     0.00104354    -0.00893833
    -0.02210278    -0.00470402    -0.00769985
     0.00000000     0.00000000     0.00000000
    -0.24715651     0.04634180     0.05640418
    -0.22212091     0.04845038    -0.01542524
    -0.18386834     0.04347219    -0.02667273
    -0.14770453     0.03566194    -0.02534698
    -0.11494132     0.02701428    -0.02080284
    -0.08401789     0.01845576    -0.01748831
    -0.05400217     0.00990740    -0.01499484
    -0.02454529     0.00211237    -0.01070066
     0.00000000     0.00000000     0.00000000
    -0.24975629     0.04122420     0.05074185
    -0.21821526     0.06107042    -0.01251395
    -0.17739490     0.05566604    -0.02606676
    -0.14192891     0.04648293    -0.02390806
    -0.10998258     0.03744763    -0.01977636
    -0.07988549     0.02876115    -0.01677190
    -0.05045368     0.02054260    -0.01454468
    -0.02173230     0.01187953    -0.01045627
     0.00000000     0.00000000     0.00000000
    -0.16522661     0.02087963     0.03291060
    -0.12477340     0.04797272    -0.01219640
    -0.10281296     0.03963352    -0.01554006
    -0.08373892     0.03506061    -0.01290730
    -0.06651579     0.02966537    -0.01018612
    -0.04962265     0.02478448    -0.00871725
    -0.03297406     0.01974283    -0.00795497
    -0.01589911     0.01563270    -0.00714213
     0.00000000     0.00000000     0.00000000
     0.00000000     0.00000000     0.00000000
     0.00000000     0.00000000     0.00000000
     0.00000000     0.00000000     0.00000000
     0.00000000     0.00000000     0.00000000
     0.00000000     0.00000000     0.00000000
     0.00000000     0.00000000     0.00000000
     0.00000000     0.00000000     0.00000000
     0.00000000     0.00000000     0.00000000
     0.00000000     0.00000000     0.00000000
     0.00000000     0.00000000     0.00000000
     0.00000000     0.00000000     0.00000000
     0.00000000     0.00000000     0.00000000
     0.00000000     0.00000000     0.00000000
     0.00000000     0.00000000     0.00000000
     0.00000000     0.00000000     0.00000000
     0.00000000     0.00000000     0.00000000
     0.00000000     0.00000000     0.00000000
     0.00000000     0.00000000     0.00000000
    -0.10265438     0.02013620     0.03833677
    -0.07771122     0.00993545    -0.01466382
    -0.06845498     0.01270150    -0.01938541
    -0.06223834     0.01169718    -0.01570386
    -0.05293332     0.00863477    -0.01226258
    -0.04190424     0.00512714    -0.01016783
    -0.03043606     0.00167086    -0.00913563
    -0.01818361    -0.00247473    -0.00844006
     0.00000000     0.00000000     0.00000000
    -0.16341950     0.03716364     0.05572562
    -0.13189559     0.02727807    -0.01858963
    -0.10848410     0.02477391    -0.02640721
    -0.09252187     0.02287651    -0.02411347
    -0.07678928     0.01858123    -0.02000958
    -0.05958038     0.01361498    -0.01728123
    -0.04108346     0.00794731    -0.01550575
    -0.02021072     0.00240488    -0.01197120
     0.00000000     0.00000000     0.00000000
    -0.16963149     0.03424528     0.05188947
    -0.13411871     0.03828856    -0.01608508
    -0.10729957     0.03377850    -0.02637478
    -0.09081061     0.02927592    -0.02307545
    -0.07459954     0.02505627    -0.01923347
    -0.05732194     0.02028206    -0.01669939
    -0.03877755     0.01545079    -0.01511761
    -0.01829073     0.00925855    -0.01175188
     0.00000000     0.00000000     0.00000000
    -0.11378031     0.01836022     0.03362889
    -0.07400107     0.03056718    -0.01433655
    -0.06306945     0.02413674    -0.01543944
    -0.05563143     0.02225466    -0.01243987
    -0.04636128     0.01991936    -0.01001825
    -0.03604922     0.01722973    -0.00871915
    -0.02548888     0.01438422    -0.00818646
    -0.01379963     0.01174513    -0.00786450
     0.00000000     0.00000000     0.00000000
     0.00000000     0.00000000     0.00000000
     0.00000000     0.00000000     0.00000000
     0.00000000     0.00000000     0.00000000
     0.00000000     0.00000000     0.00000000
     0.00000000     0.00000000     0.00000000
     0.00000000     0.00000000     0.00000000
     0.00000000     0.00000000     0.00000000
     0.00000000     0.00000000     0.00000000
     0.00000000     0.00000000     0.00000000
     0.00000000     0.00000000     0.00000000
     0.00000000     0.00000000     0.00000000
     0.00000000     0.00000000     0.00000000
     0.00000000     0.00000000     0.00000000
     0.00000000     0.00000000     0.00000000
     0.00000000     0.00000000     0.00000000
     0.00000000     0.00000000     0.00000000
     0.00000000     0.00000000     0.00000000
     0.00000000     0.00000000     0.00000000
    -0.04737762     0.00662411     0.02244000
    -0.01770450    -0.00092229    -0.01062134
    -0.02490668     0.00704579    -0.01056818
    -0.02817697     0.00617012    -0.00896807
    -0.02635511     0.00501688    -0.00732159
    -0.02216017     0.00320486    -0.00636002
    -0.01722579     0.00187392    -0.00576146
    -0.01340770    -0.00032840    -0.00610081
     0.00000000     0.00000000     0.00000000
    -0.07447180     0.01781847     0.03220229
    -0.03724953     0.00561640    -0.01520746
    -0.03745798     0.00923157    -0.01414416
    -0.03926455     0.01052256    -0.01356896
    -0.03701400     0.00943678    -0.01159311
    -0.03140393     0.00760151    -0.01056124
    -0.02427205     0.00519313    -0.00974868
    -0.01523092     0.00253835    -0.00907104
     0.00000000     0.00000000     0.00000000
    -0.08063024     0.01894563     0.03171550
    -0.04094084     0.01241197    -0.01439747
    -0.03868075     0.01146524    -0.01452297
    -0.03967745     0.01242919    -0.01316430
    -0.03657099     0.01213102    -0.01128869
    -0.03063704     0.01060315    -0.01029047
    -0.02329161     0.00878947    -0.00955267
    -0.01425667     0.00623372    -0.00895551
     0.00000000     0.00000000     0.00000000
    -0.05523660     0.01214594     0.02095072
    -0.01856813     0.01072831    -0.01123683
    -0.02598063     0.00783904    -0.00872671
    -0.02624687     0.00992975    -0.00745589
    -0.02363366     0.00968261    -0.00612062
    -0.01934212     0.00889551    -0.00552763
    -0.01487762     0.00745116    -0.00517346
    -0.01096425     0.00736241    -0.00570238
     0.00000000     0.00000000     0.00000000
     0.00000000     0.00000000     0.00000000
     0.00000000     0.00000000     0.00000000
     0.00000000     0.00000000     0.00000000
     0.00000000     0.00000000     0.00000000
     0.00000000     0.00000000     0.00000000
     0.00000000     0.00000000     0.00000000
     0.00000000     0.00000000     0.00000000
     0.00000000     0.00000000     0.00000000
     0.00000000     0.00000000     0.00000000
     0.00000000     0.00000000     0.00000000
     0.00000000     0.00000000     0.00000000
     0.00000000     0.00000000     0.00000000
     0.00000000     0.00000000     0.00000000
     0.00000000     0.00000000     0.00000000
     0.00000000     0.00000000     0.00000000
     0.00000000     0.00000000     0.00000000
     0.00000000     0.00000000     0.00000000
     0.00000000     0.00000000     0.00000000
     0.00000000     0.00000000     0.00000000
     0.00000000     0.00000000     0.00000000
     0.00000000     0.00000000     0.00000000
     0.00000000     0.00000000     0.00000000
     0.00000000     0.00000000     0.00000000
     0.00000000     0.00000000     0.00000000
     0.00000000     0.00000000     0.00000000
     0.00000000     0.00000000     0.00000000
     0.00000000     0.00000000     0.00000000
     0.00000000     0.00000000     0.00000000
     0.00000000     0.00000000     0.00000000
     0.00000000     0.00000000     0.00000000
     0.00000000     0.00000000     0.00000000
     0.00000000     0.00000000     0.00000000
     0.00000000     0.00000000     0.00000000
     0.00000000     0.00000000     0.00000000
     0.00000000     0.00000000     0.00000000
     0.00000000     0.00000000     0.00000000
     0.00000000     0.00000000     0.00000000
     0.00000000     0.00000000     0.00000000
     0.00000000     0.00000000     0.00000000
     0.00000000     0.00000000     0.00000000
     0.00000000     0.00000000     0.00000000
     0.00000000     0.00000000     0.00000000
     0.00000000     0.00000000     0.00000000
     0.00000000     0.00000000     0.00000000
     0.00000000     0.00000000     0.00000000
     0.00000000     0.00000000     0.00000000
     0.00000000     0.00000000     0.00000000
     0.00000000     0.00000000     0.00000000
     0.00000000     0.00000000     0.00000000
     0.00000000     0.00000000     0.00000000
     0.00000000     0.00000000     0.00000000
     0.00000000     0.00000000     0.00000000
     0.00000000     0.00000000     0.00000000
     0.00000000     0.00000000     0.00000000
     0.00000000     0.00000000     0.00000000
     0.00000000     0.00000000     0.00000000
     0.00000000     0.00000000     0.00000000
     0.00000000     0.00000000     0.00000000
     0.00000000     0.00000000     0.00000000
     0.00000000     0.00000000     0.00000000
     0.00000000     0.00000000     0.00000000
     0.00000000     0.00000000     0.00000000
     0.00000000     0.00000000     0.00000000
    -0.18700577    -0.01658924     0.00000000
    -0.17153027    -0.04511990     0.00000000
    -0.16424519    -0.12754595     0.00000000
    -0.15119349    -0.17747462     0.00000000
    -0.12915578    -0.18669572     0.00000000
    -0.09816677    -0.18456002     0.00000000
    -0.06201869    -0.15994075     0.00000000
    -0.03330885    -0.11174278     0.00000000
    -0.01618876    -0.05459647     0.00000000
     0.00000000     0.00000000     0.00000000
    -0.18815406    -0.01688921     0.01051285
    -0.17339289    -0.04768270     0.02139371
    -0.16702149    -0.12784714     0.03580702
    -0.15178365    -0.17946149     0.04165041
    -0.12958184    -0.19089651     0.04406013
    -0.09793378    -0.18857081     0.04077596
    -0.06205852    -0.16312120     0.03542152
    -0.03298095    -0.11273058     0.02864181
    -0.01597964    -0.05443274     0.02359285
     0.00000000     0.00000000     0.01777358
    -0.19082767    -0.01749949     0.02233758
    -0.17674433    -0.05004331     0.04249613
    -0.17184520    -0.12717527     0.06598967
    -0.15409952    -0.18159938     0.07681669
    -0.13022784    -0.19808934     0.07846275
    -0.09767034    -0.19544032     0.07446151
    -0.06204729    -0.16919142     0.06639724
    -0.03229627    -0.11455271     0.05405334
    -0.01453269    -0.05363798     0.04443720
     0.00000000     0.00000000     0.03493493
    -0.19418613    -0.01781239     0.03113095
    -0.18029491    -0.04997544     0.05892754
    -0.17676816    -0.12759888     0.08957504
    -0.15748680    -0.18058945     0.10320159
    -0.13071529    -0.19852845     0.10312051
    -0.09716609    -0.19500862     0.10048433
    -0.06208777    -0.16953427     0.09129251
    -0.03167138    -0.11727410     0.07673577
    -0.01271718    -0.05418039     0.06139108
     0.00000000     0.00000000     0.04966645
    -0.19703904    -0.01770406     0.03768598
    -0.18402706    -0.04932486     0.07175035
    -0.18161500    -0.12628139     0.10771052
    -0.16040803    -0.17596248     0.12227884
    -0.13114938    -0.19700622     0.12529859
    -0.09673431    -0.19782944     0.12113043
    -0.06182664    -0.17303631     0.10971690
    -0.03163037    -0.12201731     0.09317144
    -0.01214978    -0.05682875     0.07421936
     0.00000000     0.00000000     0.06109131
    -0.19908690    -0.01763653     0.04280727
    -0.18872396    -0.04751177     0.08263401
    -0.18813642    -0.11970742     0.12189144
    -0.16528357    -0.16992912     0.13789490
    -0.13622692    -0.19019863     0.14125888
    -0.09948737    -0.18981721     0.13547404
    -0.06057177    -0.16697890     0.12179741
    -0.02425436    -0.11958895     0.10385541
    -0.01391383    -0.06074998     0.08434547
     0.00000000     0.00000000     0.06980690
    -0.19978862    -0.01623954     0.04704113
    -0.19601512    -0.04517804     0.08982944
    -0.19287386    -0.11164622     0.13126989
    -0.17023944    -0.15660671     0.15202776
    -0.14234806    -0.17387383     0.15767895
    -0.10172093    -0.17392585     0.15199660
    -0.05905136    -0.15240325     0.13724784
    -0.01743193    -0.11035124     0.11613118
    -0.00600786    -0.06128685     0.09616947
     0.00000000     0.00000000     0.08042905
    -0.19952925    -0.01455541     0.04978486
    -0.20063886    -0.04136420     0.09410854
    -0.19819157    -0.09772465     0.13496830
    -0.17260869    -0.13664403     0.15682466
    -0.14154653    -0.15638248     0.16535969
    -0.10033913    -0.15551392     0.16594136
    -0.06034156    -0.13641725     0.15260292
    -0.01391360    -0.09841529     0.12685329
    -0.00222379    -0.05811488     0.10792988
     0.00000000     0.00000000     0.08758150
    -0.20017328    -0.01235446     0.05110400
    -0.20255385    -0.03461411     0.09613646
    -0.20372567    -0.07678460     0.13699587
    -0.17698170    -0.10442304     0.15494535
    -0.13936817    -0.12254485     0.15808231
    -0.09821344    -0.12825470     0.15587615
    -0.05508690    -0.11667591     0.15012432
    -0.01814084    -0.08349816     0.13014773
    -0.00117883    -0.05139751     0.11475647
     0.00000000     0.00000000     0.08961166
    -0.20061269    -0.00991158     0.05077677
    -0.20386236    -0.02499970     0.09575385
    -0.20659148    -0.05070280     0.13639801
    -0.17942254    -0.06625357     0.15186425
    -0.14079740    -0.07547207     0.15459427
    -0.09700622    -0.07893706     0.14705554
    -0.05310021    -0.07373667     0.13895858
    -0.01383180    -0.05468214     0.12365098
     0.00063999    -0.03971749     0.11794105
     0.00000000     0.00000000     0.08598963
    -0.20076310    -0.00886146     0.04931772
    -0.20342541    -0.01405686     0.09375820
    -0.20618424    -0.02149047     0.13359550
    -0.17916411    -0.02568409     0.14827776
    -0.14017436    -0.02744386     0.15065547
    -0.09697980    -0.02654254     0.14448354
    -0.05171068    -0.02223621     0.13598311
    -0.01241461    -0.01996294     0.11921688
     0.00373769    -0.02305361     0.12098127
     0.00000000     0.00000000     0.07698207
    -0.19814565    -0.00676492     0.04770108
    -0.20038927    -0.00371527     0.09013605
    -0.20259620     0.00718712     0.12917201
    -0.17589734     0.01402267     0.14480007
    -0.13788395     0.01993614     0.14740699
    -0.09557552     0.02482999     0.14184347
    -0.05190383     0.02747445     0.13517206
    -0.01527077     0.01459936     0.12208216
     0.00357054    -0.00436304     0.11911229
     0.00000000     0.00000000     0.09667483
    -0.19541362    -0.00488938     0.04520290
    -0.19579266     0.00686318     0.08465194
    -0.19570974     0.03089748     0.12150967
    -0.16927993     0.05012626     0.13888064
    -0.13430841     0.06333055     0.14326814
    -0.09701365     0.06778192     0.14554658
    -0.05499405     0.05595904     0.14053738
    -0.01459434     0.03845253     0.11968882
     0.00116209     0.01289382     0.11581599
     0.00000000     0.00000000     0.10370809
    -0.19342373    -0.00104995     0.04117076
    -0.18978670     0.01389071     0.07679256
    -0.18572036     0.04988771     0.10929569
    -0.16372180     0.07425814     0.13003916
    -0.13160039     0.08691917     0.13719687
    -0.09947077     0.08678916     0.13684053
    -0.05398343     0.07264300     0.12389266
    -0.01392730     0.04669597     0.10386400
    -0.00119146     0.02425453     0.10433321
     0.00000000     0.00000000     0.09815776
    -0.19130849     0.00168209     0.03701807
    -0.18108286     0.02078317     0.06501705
    -0.17468324     0.05828522     0.08770385
    -0.15653938     0.08627216     0.10088793
    -0.12866632     0.09932138     0.10436274
    -0.09356461     0.09954516     0.10062241
    -0.05357563     0.08310146     0.09069465
    -0.01928652     0.05236194     0.07508322
    -0.01275378     0.02865905     0.07534337
     0.00000000     0.00000000     0.07457122
    -0.18992824     0.00548426     0.03252533
    -0.17614847     0.02622464     0.05504475
    -0.16967037     0.06473382     0.07608765
    -0.14662360     0.09368336     0.08780461
    -0.12119265     0.10885231     0.08990653
    -0.08854677     0.10766068     0.08601931
    -0.05291521     0.09007608     0.07672116
    -0.02844634     0.05425722     0.06405870
    -0.01628180     0.02655023     0.05625642
     0.00000000     0.00000000     0.05203651
    -0.18759032     0.00647905     0.02763547
    -0.17411046     0.02878841     0.04677727
    -0.16590464     0.06734226     0.06538757
    -0.14342723     0.09496496     0.07581432
    -0.11598449     0.10776274     0.08030756
    -0.08599974     0.10785644     0.07871521
    -0.05497777     0.08877276     0.07042340
    -0.02854529     0.05027542     0.05562934
    -0.01265688     0.01654711     0.04815225
     0.00000000     0.00000000     0.04414995
    -0.18349437     0.00630769     0.02268696
    -0.17026445     0.02827606     0.03695888
    -0.16105595     0.06396296     0.05181554
    -0.14011755     0.09049493     0.05943910
    -0.11465631     0.10100869     0.06180820
    -0.08549955     0.09714627     0.06147103
    -0.05482499     0.07717461     0.05539908
    -0.02710785     0.03815650     0.04305006
    -0.01309548     0.01062565     0.03841663
     0.00000000     0.00000000     0.03527130
    -0.18056192     0.00651500     0.01615190
    -0.16779930     0.02733539     0.02537449
    -0.15715648     0.06067798     0.03736522
    -0.13726385     0.08703433     0.04248043
    -0.11345608     0.09699395     0.04208091
    -0.08542406     0.09286743     0.04086447
    -0.05490472     0.07164190     0.03656640
    -0.02754244     0.03220642     0.02938249
    -0.01427512     0.01029057     0.02699152
     0.00000000     0.00000000     0.02456064
    -0.17822257     0.00661177     0.00783710
    -0.16657898     0.02568052     0.01226013
    -0.15448255     0.05793220     0.01890760
    -0.13524817     0.08398829     0.02242287
    -0.11243463     0.09313149     0.02145304
    -0.08534307     0.08939685     0.02044922
    -0.05512948     0.06810121     0.01820862
    -0.02871759     0.02996743     0.01503062
    -0.01683914     0.01092844     0.01401863
     0.00000000     0.00000000     0.01256332
    -0.17723808     0.00631980     0.00000000
    -0.16597545     0.02509300     0.00000000
    -0.15355743     0.05697048     0.00000000
    -0.13442211     0.08231058     0.00000000
    -0.11214468     0.09140404     0.00000000
    -0.08523273     0.08802539     0.00000000
    -0.05522992     0.06684268     0.00000000
    -0.02935126     0.02933826     0.00000000
    -0.01754104     0.01123492     0.00000000
     0.00000000     0.00000000     0.00000000
    -0.19906811    -0.00656442     0.00000000
    -0.19910307    -0.00849126     0.00000000
    -0.19802878    -0.00846463     0.00000000
    -0.19693511    -0.00812409     0.00000000
    -0.19573727    -0.00694076     0.00000000
    -0.19478321    -0.00551515     0.00000000
    -0.19432679    -0.00401026     0.00000000
    -0.19419750    -0.00263220     0.00000000
    -0.19417767    -0.00189763     0.00000000
    -0.19429951    -0.00147369     0.00000000
    -0.19367357    -0.00244415     0.00000000
    -0.19942779    -0.00639680     0.00648992
    -0.19904294    -0.00802045     0.00800744
    -0.19818587    -0.00851878     0.00862505
    -0.19699360    -0.00799267     0.00841183
    -0.19582743    -0.00693227     0.00842744
    -0.19493051    -0.00548598     0.00832131
    -0.19450519    -0.00406061     0.00840674
    -0.19436425    -0.00279083     0.00828264
    -0.19440974    -0.00191213     0.00836167
    -0.19435190    -0.00182704     0.00780043
    -0.19391969    -0.00264779     0.00626729
    -0.19987398    -0.00617360     0.01020409
    -0.19923492    -0.00751142     0.01149031
    -0.19835183    -0.00811490     0.01250731
    -0.19717036    -0.00771049     0.01332143
    -0.19595285    -0.00665091     0.01374203
    -0.19542281    -0.00544391     0.01399761
    -0.19514977    -0.00427005     0.01391034
    -0.19484985    -0.00321864     0.01344847
    -0.19482020    -0.00248535     0.01247367
    -0.19483846    -0.00239444     0.01140622
    -0.19445155    -0.00295064     0.01003853
    -0.19999514    -0.00641139     0.01341317
    -0.19960255    -0.00728199     0.01495950
    -0.19866093    -0.00759133     0.01595584
    -0.19728924    -0.00717164     0.01674411
    -0.19593874    -0.00622561     0.01748944
    -0.19652275    -0.00525681     0.01788856
    -0.19690899    -0.00455231     0.01786201
    -0.19554028    -0.00394285     0.01692233
    -0.19532698    -0.00328767     0.01579877
    -0.19547729    -0.00306148     0.01456554
    -0.19511205    -0.00319832     0.01291940
    -0.20020632    -0.00695028     0.01644483
    -0.19966631    -0.00719578     0.01758059
    -0.19872676    -0.00710088     0.01836978
    -0.19729134    -0.00652046     0.01902460
    -0.19597771    -0.00590199     0.01928464
    -0.19556830    -0.00527763     0.01902388
    -0.19514123    -0.00496552     0.01850795
    -0.19516352    -0.00457375     0.01821384
    -0.19572645    -0.00393603     0.01779952
    -0.19577579    -0.00360555     0.01684823
    -0.19566597    -0.00339897     0.01554816
    -0.19978334    -0.00720026     0.01832411
    -0.19945845    -0.00708219     0.01949699
    -0.19845372    -0.00626727     0.02008121
    -0.19702775    -0.00575565     0.02035383
    -0.19626106    -0.00545414     0.02047624
    -0.19583820    -0.00552123     0.02020713
    -0.19533893    -0.00561936     0.01954434
    -0.19526752    -0.00540839     0.01892706
    -0.19535698    -0.00487487     0.01864665
    -0.19552558    -0.00415239     0.01828423
    -0.19559135    -0.00366371     0.01720067
