# vtk DataFile Version 3.0
Example VTK
ASCII
DATASET UNSTRUCTURED_GRID
POINTS  1589 float
 -0.120889578922E+02 -0.416401672408E+01  0.143999659298E-27
 -0.100864251991E+02 -0.566230415978E+01  0.468527662872E-27
 -0.807438245322E+01 -0.658814267569E+01  0.553422745623E-27
 -0.606094581897E+01 -0.717723241351E+01  0.604284327936E-27
 -0.404445414382E+01 -0.750111148511E+01  0.629722822805E-27
 -0.202659347828E+01 -0.759357562890E+01  0.628954780925E-27
 -0.775753654591E-02 -0.746102015731E+01  0.506383344586E-27
  0.128287416019E+01 -0.705679785900E+01  0.347945540957E-27
  0.255688000000E+01 -0.652469000000E+01  0.236256104858E-27
 -0.120931140748E+02 -0.333118709521E+01  0.586367155763E-02
 -0.100761398989E+02 -0.453786020336E+01  0.000000000000E+00
 -0.807539867152E+01 -0.528195125753E+01  0.000000000000E+00
 -0.607250036706E+01 -0.575414287204E+01  0.000000000000E+00
 -0.406920421379E+01 -0.601365822569E+01  0.000000000000E+00
 -0.206601707409E+01 -0.608574661681E+01  0.000000000000E+00
 -0.633476792683E-01 -0.598015439640E+01  0.000000000000E+00
  0.128731717020E+01 -0.576512587043E+01  0.000000000000E+00
  0.264212746809E+01 -0.544771992512E+01  0.000000000000E+00
 -0.120923446998E+02 -0.249826012679E+01  0.557428380949E-02
 -0.100773711749E+02 -0.340857911590E+01  0.000000000000E+00
 -0.807820545143E+01 -0.397072998890E+01  0.000000000000E+00
 -0.608250675260E+01 -0.432668352387E+01  0.000000000000E+00
 -0.408800836028E+01 -0.452089483970E+01  0.000000000000E+00
 -0.209453782865E+01 -0.457313970709E+01  0.000000000000E+00
 -0.103224097371E+00 -0.448856095094E+01  0.000000000000E+00
  0.132442366806E+01 -0.446046071170E+01  0.000000000000E+00
  0.275180494848E+01 -0.435988303378E+01  0.000000000000E+00
 -0.120947838997E+02 -0.166626415765E+01  0.435400666025E-02
 -0.100787893255E+02 -0.227915484324E+01  0.000000000000E+00
 -0.808146628650E+01 -0.265795858995E+01  0.000000000000E+00
 -0.608915163886E+01 -0.289704472129E+01  0.000000000000E+00
 -0.409835155524E+01 -0.302635423695E+01  0.000000000000E+00
 -0.210666489454E+01 -0.305844003571E+01  0.000000000000E+00
 -0.112738108939E+00 -0.299523533351E+01  0.000000000000E+00
  0.139377624659E+01 -0.315456132225E+01  0.000000000000E+00
  0.290285761395E+01 -0.326988021541E+01  0.000000000000E+00
 -0.120953928272E+02 -0.834371839115E+00  0.346428917674E-02
 -0.100804350198E+02 -0.115028166492E+01  0.000000000000E+00
 -0.808348523119E+01 -0.134476567647E+01  0.000000000000E+00
 -0.609232588349E+01 -0.146703463447E+01  0.000000000000E+00
 -0.410153222937E+01 -0.153221626295E+01  0.000000000000E+00
 -0.210614032768E+01 -0.154620164200E+01  0.000000000000E+00
 -0.100395520497E+00 -0.150822080049E+01  0.000000000000E+00
  0.149432323022E+01 -0.185836694493E+01  0.000000000000E+00
  0.309007015765E+01 -0.218741704192E+01  0.000000000000E+00
 -0.120951569855E+02 -0.263342954989E-02  0.311232699765E-02
 -0.100801544565E+02 -0.217171375097E-01  0.000000000000E+00
 -0.808375279247E+01 -0.313643270903E-01  0.000000000000E+00
 -0.609344782097E+01 -0.366846232805E-01  0.000000000000E+00
 -0.410306492403E+01 -0.386967466721E-01  0.000000000000E+00
 -0.210584136109E+01 -0.363692109455E-01  0.000000000000E+00
 -0.934328035776E-01 -0.297555316597E-01  0.000000000000E+00
  0.161162484669E+01 -0.585841360518E+00  0.000000000000E+00
  0.333333000000E+01 -0.112691000000E+01  0.673366970746E-27
 -0.120939094995E+02  0.829109070639E+00  0.323209322361E-02
 -0.100786238136E+02  0.110711024741E+01  0.000000000000E+00
 -0.808302594029E+01  0.128305597710E+01  0.000000000000E+00
 -0.609520964893E+01  0.139523662908E+01  0.000000000000E+00
 -0.410999932677E+01  0.145732098953E+01  0.000000000000E+00
 -0.212305845602E+01  0.147597405515E+01  0.000000000000E+00
 -0.131073733433E+00  0.145731092638E+01  0.000000000000E+00
  0.140868977992E+01  0.937925177162E+00  0.000000000000E+00
  0.295894673387E+01  0.422117412317E+00  0.000000000000E+00
 -0.120918267436E+02  0.166085686549E+01  0.377778862788E-02
 -0.100748057185E+02  0.223679625458E+01  0.000000000000E+00
 -0.807916597523E+01  0.259922330617E+01  0.000000000000E+00
 -0.609158232341E+01  0.282973017541E+01  0.000000000000E+00
 -0.410803262146E+01  0.295731978682E+01  0.000000000000E+00
 -0.212597862119E+01  0.299572764872E+01  0.000000000000E+00
 -0.142212015753E+00  0.295215076048E+01  0.000000000000E+00
  0.123880751990E+01  0.246874693652E+01  0.000000000000E+00
  0.263155882950E+01  0.195572817441E+01  0.000000000000E+00
 -0.120879358669E+02  0.249274180500E+01  0.452078555165E-02
 -0.100704961029E+02  0.336763014535E+01  0.000000000000E+00
 -0.807270286053E+01  0.391698566635E+01  0.000000000000E+00
 -0.608149123840E+01  0.426592095076E+01  0.000000000000E+00
 -0.409303155390E+01  0.445947616291E+01  0.000000000000E+00
 -0.210571263279E+01  0.451795100382E+01  0.000000000000E+00
 -0.118145800482E+00  0.444934922652E+01  0.000000000000E+00
  0.111848412423E+01  0.399658857338E+01  0.000000000000E+00
  0.235953470923E+01  0.348718849719E+01  0.000000000000E+00
 -0.120863010479E+02  0.332495051860E+01  0.446549866495E-02
 -0.100663719408E+02  0.449964411689E+01  0.000000000000E+00
 -0.806667263181E+01  0.523525185427E+01  0.000000000000E+00
 -0.606707601656E+01  0.570158961544E+01  0.000000000000E+00
 -0.406738414911E+01  0.596045496008E+01  0.000000000000E+00
 -0.206651862928E+01  0.603737504926E+01  0.000000000000E+00
 -0.618923982511E-01  0.594160427368E+01  0.000000000000E+00
  0.104224255244E+01  0.551722825790E+01  0.000000000000E+00
  0.215340496654E+01  0.500342835090E+01  0.000000000000E+00
 -0.120802417318E+02  0.415744190913E+01  0.127604120882E-27
 -0.100753981675E+02  0.562890642704E+01  0.441316996743E-27
 -0.806501183178E+01  0.654924065385E+01  0.533771593984E-27
 -0.605269507271E+01  0.713357233869E+01  0.583145509307E-27
 -0.403784800958E+01  0.745698576560E+01  0.605063840764E-27
 -0.202208184515E+01  0.755238942993E+01  0.601443792447E-27
 -0.509143764298E-02  0.742691595726E+01  0.447154780225E-27
  0.979567886119E+00  0.703149905134E+01  0.300549628145E-27
  0.195297000000E+01  0.652469000000E+01  0.228448538295E-27
 -0.120888568581E+02 -0.411283088525E+01  0.655467336890E+00
 -0.100859920966E+02 -0.559122831645E+01  0.888190554815E+00
 -0.807466047444E+01 -0.650776069945E+01  0.103284925228E+01
 -0.606099792975E+01 -0.708943999937E+01  0.112474520891E+01
 -0.404433354046E+01 -0.740930913574E+01  0.117513658241E+01
 -0.202640298041E+01 -0.750064212250E+01  0.118969917860E+01
 -0.759159828017E-02 -0.736961511246E+01  0.117022582113E+01
  0.128785879727E+01 -0.697885269577E+01  0.105327272820E+01
  0.256440000000E+01 -0.647239000000E+01  0.677093000000E+00
 -0.120925692546E+02 -0.330843931868E+01  0.727547146288E+00
 -0.100767200688E+02 -0.450530753484E+01  0.986094282515E+00
 -0.807505222677E+01 -0.524601016308E+01  0.114876970815E+01
 -0.607153561668E+01 -0.571506968558E+01  0.125072520105E+01
 -0.406715967998E+01 -0.597237151106E+01  0.130789706022E+01
 -0.206252876232E+01 -0.604411081385E+01  0.132562875651E+01
 -0.576125975746E-01 -0.593868096916E+01  0.130585025710E+01
  0.129685369134E+01 -0.573115236676E+01  0.118000628435E+01
  0.265093621300E+01 -0.543222904943E+01  0.786021871654E+00
 -0.120935294776E+02 -0.249267860572E+01  0.783632063510E+00
 -0.100780244808E+02 -0.339879925833E+01  0.106225377060E+01
 -0.807766703369E+01 -0.396067374520E+01  0.123745421951E+01
 -0.608097031535E+01 -0.431570474519E+01  0.134837035131E+01
 -0.408480781663E+01 -0.450934823681E+01  0.141039921656E+01
 -0.208871913105E+01 -0.456162907589E+01  0.143048152661E+01
 -0.936959575952E-01 -0.447711994964E+01  0.140889660452E+01
  0.133676694664E+01 -0.445289758935E+01  0.127576373389E+01
  0.276193042910E+01 -0.436159042647E+01  0.861406388593E+00
 -0.120947202722E+02 -0.166775952084E+01  0.820777284750E+00
 -0.100793824350E+02 -0.227988360176E+01  0.111331093943E+01
 -0.808085269972E+01 -0.265920812973E+01  0.129762832190E+01
 -0.608729043032E+01 -0.289844124178E+01  0.141420181293E+01
 -0.409472353932E+01 -0.302788968342E+01  0.147941159917E+01
 -0.210057461684E+01 -0.306036228761E+01  0.149983855511E+01
 -0.103258149898E+00 -0.299752715692E+01  0.147734749601E+01
  0.140576111151E+01 -0.315875111783E+01  0.133732374818E+01
  0.291289215476E+01 -0.327520595693E+01  0.895762604843E+00
 -0.120953208953E+02 -0.836759342955E+00  0.838331647943E+00
 -0.100804739076E+02 -0.115251642396E+01  0.113794580477E+01
 -0.808267729105E+01 -0.134745507275E+01  0.132642113241E+01
 -0.609036119243E+01 -0.146993149395E+01  0.144561109969E+01
 -0.409811384609E+01 -0.153537086507E+01  0.151207688116E+01
 -0.210114025284E+01 -0.154980957482E+01  0.153173803466E+01
 -0.937492220860E-01 -0.151244598180E+01  0.150795304010E+01
  0.150290783572E+01 -0.186362268409E+01  0.136256371236E+01
  0.309802278151E+01 -0.218987349685E+01  0.887247980835E+00
 -0.120950406918E+02 -0.265512459526E-02  0.835808260821E+00
 -0.100801788138E+02 -0.209563870714E-01  0.113478128212E+01
 -0.808284849418E+01 -0.303881313149E-01  0.132273087725E+01
 -0.609147175290E+01 -0.355455849801E-01  0.144155557917E+01
 -0.409984809945E+01 -0.375597447188E-01  0.150755417512E+01
 -0.210170628919E+01 -0.355621121345E-01  0.152670506079E+01
 -0.892443070378E-01 -0.293515762009E-01  0.149954025384E+01
  0.161406216106E+01 -0.585432058025E+00  0.134334875861E+01
  0.333333000000E+01 -0.112691000000E+01  0.833333000000E+00
 -0.120937551379E+02  0.831370816183E+00  0.837957345033E+00
 -0.100785154137E+02  0.111094886048E+01  0.113756501627E+01
 -0.808211417628E+01  0.128768502434E+01  0.132574869154E+01
 -0.609307751372E+01  0.140039664874E+01  0.144512276139E+01
 -0.410627013899E+01  0.146271623140E+01  0.151194263376E+01
 -0.211753328307E+01  0.148128460234E+01  0.153291869728E+01
 -0.123518837834E+00  0.146177418809E+01  0.150894886334E+01
  0.141561347116E+01  0.941695295154E+00  0.138616702294E+01
  0.296757478447E+01  0.402542265858E+00  0.976157196838E+00
 -0.120915792637E+02  0.166223146769E+01  0.819876412304E+00
 -0.100751760812E+02  0.223927615315E+01  0.111236965692E+01
 -0.807838309291E+01  0.260224213105E+01  0.129586477867E+01
 -0.608944202752E+01  0.283318116250E+01  0.141257347246E+01
 -0.410396641782E+01  0.296095690102E+01  0.147812488179E+01
 -0.211940757382E+01  0.299926013217E+01  0.149905131897E+01
 -0.132607741328E+00  0.295454539107E+01  0.147737585499E+01
  0.124917569773E+01  0.247358765070E+01  0.137593461187E+01
  0.264309018289E+01  0.194041811177E+01  0.104925491240E+01
 -0.120889949296E+02  0.248690210637E+01  0.782226496151E+00
 -0.100711001480E+02  0.335984728505E+01  0.106034999797E+01
 -0.807218596246E+01  0.390829170824E+01  0.123408075366E+01
 -0.607971336759E+01  0.425657145738E+01  0.134504254432E+01
 -0.408947237138E+01  0.444975768891E+01  0.140716615435E+01
 -0.209983001625E+01  0.450789853510E+01  0.142729294379E+01
 -0.109488736180E+00  0.443829605225E+01  0.140666384489E+01
  0.112906383111E+01  0.399260439551E+01  0.131448084248E+01
  0.236983741504E+01  0.347989909898E+01  0.103930584297E+01
 -0.120857542280E+02  0.330232514152E+01  0.725881515137E+00
 -0.100670832510E+02  0.446940556414E+01  0.982624298891E+00
 -0.806654263281E+01  0.520000968718E+01  0.114342599030E+01
 -0.606608454135E+01  0.566344953327E+01  0.124531877054E+01
 -0.406530967340E+01  0.592062003532E+01  0.130250522787E+01
 -0.206328183482E+01  0.599690523740E+01  0.131999292582E+01
 -0.572805023719E-01  0.590096604370E+01  0.130024351912E+01
  0.105074733739E+01  0.548674299610E+01  0.120490135349E+01
  0.216152880263E+01  0.498775986725E+01  0.944024253847E+00
 -0.120803641494E+02  0.410615063805E+01  0.653242286601E+00
 -0.100755791700E+02  0.555988814667E+01  0.882559181940E+00
 -0.806517301274E+01  0.646902951032E+01  0.102700631746E+01
 -0.605266142266E+01  0.704632127763E+01  0.111799704135E+01
 -0.403781889740E+01  0.736588995367E+01  0.116838789393E+01
 -0.202206970277E+01  0.746006163551E+01  0.118373403913E+01
 -0.496509481543E-02  0.733586064872E+01  0.116484408474E+01
  0.987128979036E+00  0.694932828566E+01  0.105855654612E+01
  0.196387000000E+01  0.646426000000E+01  0.786055000000E+00
 -0.120889902796E+02 -0.396042476344E+01  0.129281408876E+01
 -0.100858762671E+02 -0.538316064086E+01  0.175339367322E+01
 -0.807527738733E+01 -0.626776988599E+01  0.203999202794E+01
 -0.606095187381E+01 -0.682810246671E+01  0.222128986521E+01
 -0.404395814946E+01 -0.713628233095E+01  0.232040304737E+01
 -0.202605821856E+01 -0.722430695695E+01  0.234989009421E+01
 -0.717767360832E-02 -0.709769528209E+01  0.231142246866E+01
  0.130258102156E+01 -0.674692976675E+01  0.208015083525E+01
  0.258678000000E+01 -0.631679000000E+01  0.133751000000E+01
 -0.120919093785E+02 -0.320518505998E+01  0.144053346687E+01
 -0.100777662718E+02 -0.436277350763E+01  0.195437106563E+01
 -0.807503202234E+01 -0.508158084523E+01  0.227615933386E+01
 -0.606980597160E+01 -0.553605913344E+01  0.247818490259E+01
 -0.406288554232E+01 -0.578542757213E+01  0.259145078460E+01
 -0.205471901550E+01 -0.585511569960E+01  0.262607117580E+01
 -0.446902476354E-01 -0.575140358033E+01  0.258587114345E+01
  0.132336909179E+01 -0.557297974526E+01  0.233565127006E+01
  0.268019378566E+01 -0.533392140785E+01  0.155469556450E+01
 -0.120936057254E+02 -0.242638789927E+01  0.155468397441E+01
 -0.100788216815E+02 -0.330636939800E+01  0.211081845642E+01
 -0.807695750603E+01 -0.385365305981E+01  0.245872200680E+01
 -0.607748119549E+01 -0.419923264579E+01  0.267868397499E+01
 -0.407703460124E+01 -0.438790613973E+01  0.280123521421E+01
 -0.207486193251E+01 -0.443897219628E+01  0.284000411642E+01
 -0.712327058578E-01 -0.435599839811E+01  0.279618386565E+01
  0.137072130010E+01 -0.435277238781E+01  0.252987821919E+01
  0.279599753563E+01 -0.430233987898E+01  0.170570914289E+01
 -0.120946072749E+02 -0.162911272914E+01  0.163244703270E+01
 -0.100798052263E+02 -0.222493411335E+01  0.221746876000E+01
 -0.807929615073E+01 -0.259520893554E+01  0.258399297977E+01
 -0.608249859235E+01 -0.282876204190E+01  0.281567547674E+01
 -0.408544433665E+01 -0.295539616864E+01  0.294488692327E+01
 -0.208524585561E+01 -0.298766667729E+01  0.298449036132E+01
 -0.798310742409E-01 -0.292690835136E+01  0.293860697014E+01
  0.143885908966E+01 -0.310271643041E+01  0.265750527161E+01
  0.294540712460E+01 -0.324186329323E+01  0.177654923208E+01
 -0.120950453013E+02 -0.819099940473E+00  0.167125484579E+01
 -0.100804265727E+02 -0.112636889245E+01  0.227098133407E+01
 -0.808066517857E+01 -0.131657757916E+01  0.264665752158E+01
 -0.608508192269E+01 -0.143612886631E+01  0.288394855667E+01
 -0.408889610317E+01 -0.150036025347E+01  0.301620088939E+01
 -0.208778057506E+01 -0.151527029191E+01  0.305514291218E+01
 -0.763993163249E-01 -0.147993898365E+01  0.300690901686E+01
  0.152638275540E+01 -0.183963421250E+01  0.271461290834E+01
  0.312141723484E+01 -0.217482453221E+01  0.176413741595E+01
 -0.120946123404E+02 -0.280225071208E-02  0.166965029961E+01
 -0.100796530731E+02 -0.191168119085E-01  0.226903430970E+01
 -0.808061465346E+01 -0.275781686341E-01  0.264439264569E+01
 -0.608606075903E+01 -0.320935534944E-01  0.288142678442E+01
 -0.409085902326E+01 -0.340464130458E-01  0.301319437762E+01
 -0.208996843395E+01 -0.327310012784E-01  0.305166684718E+01
 -0.769541335534E-01 -0.272672490234E-01  0.299835278458E+01
  0.162146135543E+01 -0.583585445329E+00  0.268718813159E+01
  0.333333000000E+01 -0.112691000000E+01  0.166667000000E+01
 -0.120931355221E+02  0.813476382159E+00  0.167058827112E+01
 -0.100779737902E+02  0.108858014313E+01  0.227029718296E+01
 -0.807980962578E+01  0.126238862924E+01  0.264543608187E+01
 -0.608723467191E+01  0.137335641059E+01  0.288300140928E+01
 -0.409574607680E+01  0.143446592314E+01  0.301581414534E+01
 -0.210166800626E+01  0.145235192851E+01  0.305699664865E+01
 -0.101595470391E+00  0.143155307069E+01  0.300893028659E+01
  0.144012197644E+01  0.912977876671E+00  0.276366325577E+01
  0.299048299838E+01  0.356853751927E+00  0.194581768831E+01
 -0.120911407070E+02  0.162326500683E+01  0.163104273828E+01
 -0.100749556240E+02  0.218813781798E+01  0.221562656289E+01
 -0.807654772391E+01  0.254337293439E+01  0.258079292118E+01
 -0.608398261355E+01  0.276947357122E+01  0.281261634577E+01
 -0.409322672775E+01  0.289439302154E+01  0.294232202027E+01
 -0.210177184410E+01  0.293136776942E+01  0.298301833282E+01
 -0.106602878782E+00  0.288509640815E+01  0.293904475134E+01
  0.128467370175E+01  0.241186400778E+01  0.273567418703E+01
  0.268010257937E+01  0.187388331276E+01  0.208473204599E+01
 -0.120885971607E+02  0.242038780672E+01  0.155251727992E+01
 -0.100715252276E+02  0.327118427242E+01  0.210704269250E+01
 -0.807125697348E+01  0.380546375486E+01  0.245244588655E+01
 -0.607564579497E+01  0.414484115785E+01  0.267245216262E+01
 -0.408083875967E+01  0.433311998039E+01  0.279516444257E+01
 -0.208535732099E+01  0.438911390731E+01  0.283439687486E+01
 -0.879065409359E-01  0.431841201174E+01  0.279273034548E+01
  0.116438475817E+01  0.388913321343E+01  0.260845256758E+01
  0.240873002223E+01  0.339792305183E+01  0.206062123984E+01
 -0.120853588676E+02  0.319895419612E+01  0.143769668007E+01
 -0.100684066320E+02  0.433051969153E+01  0.194730236123E+01
 -0.806672369505E+01  0.503851672598E+01  0.226612680541E+01
 -0.606421194022E+01  0.548783922813E+01  0.246802881949E+01
 -0.406086471771E+01  0.573739832244E+01  0.258118905284E+01
 -0.205595868425E+01  0.581105660383E+01  0.261573944379E+01
 -0.467822614704E-01  0.571576893514E+01  0.257596043555E+01
  0.107850225065E+01  0.532557397037E+01  0.238704563335E+01
  0.219395680989E+01  0.487602463565E+01  0.186971216809E+01
 -0.120809338248E+02  0.395362434712E+01  0.128950151063E+01
 -0.100761338619E+02  0.535450256678E+01  0.174342225472E+01
 -0.806567397313E+01  0.623057528526E+01  0.202814530402E+01
 -0.605261175746E+01  0.678684988223E+01  0.220814225992E+01
 -0.403789544914E+01  0.709497748573E+01  0.230807236144E+01
 -0.202202414551E+01  0.718550280811E+01  0.233841725069E+01
 -0.469622281405E-02  0.706515695568E+01  0.230103307656E+01
  0.100943850548E+01  0.670504407454E+01  0.209087692203E+01
  0.199630000000E+01  0.628446000000E+01  0.155276000000E+01
 -0.120894260748E+02 -0.371052377111E+01  0.189807420400E+01
 -0.100865705372E+02 -0.504380701957E+01  0.257482588754E+01
 -0.807594520139E+01 -0.587394070919E+01  0.299603891587E+01
 -0.606083288067E+01 -0.639980699739E+01  0.326155856339E+01
 -0.404374860826E+01 -0.668968196544E+01  0.340849848930E+01
 -0.202571825913E+01 -0.677197220223E+01  0.345232973055E+01
 -0.661578708405E-02 -0.665208879871E+01  0.339580114786E+01
  0.132611771144E+01 -0.636696620696E+01  0.305565306485E+01
  0.262348000000E+01 -0.606170000000E+01  0.196500000000E+01
 -0.120914678931E+02 -0.302419563966E+01  0.212782418464E+01
 -0.100792137151E+02 -0.411552124876E+01  0.288800364032E+01
 -0.807596382864E+01 -0.479379486581E+01  0.336160877563E+01
 -0.606779413104E+01 -0.522362613747E+01  0.366014410258E+01
 -0.405705965507E+01 -0.545967183041E+01  0.382643990207E+01
 -0.204466846954E+01 -0.552530373408E+01  0.387694733089E+01
 -0.292792283299E-01 -0.542500988769E+01  0.381626095444E+01
  0.135986945743E+01 -0.529571278843E+01  0.344631072286E+01
  0.272477605912E+01 -0.515599915201E+01  0.229207018668E+01
 -0.120930374908E+02 -0.230200791907E+01  0.230745700224E+01
 -0.100789214865E+02 -0.313535529941E+01  0.313350907886E+01
 -0.807607186150E+01 -0.365375872236E+01  0.364816164944E+01
 -0.607298032522E+01 -0.398221159306E+01  0.397333459297E+01
 -0.406720245513E+01 -0.416144191042E+01  0.415376361148E+01
 -0.205799088972E+01 -0.420992163546E+01  0.420944481637E+01
 -0.455151920681E-01 -0.413020343548E+01  0.414343769020E+01
  0.141388574603E+01 -0.416333143607E+01  0.374662809587E+01
  0.284555249652E+01 -0.418392875384E+01  0.252092269300E+01
 -0.120942569840E+02 -0.155169495251E+01  0.243209087333E+01
 -0.100799013606E+02 -0.211726606074E+01  0.330393368720E+01
 -0.807722484822E+01 -0.246866954098E+01  0.384834092202E+01
 -0.607625240734E+01 -0.269118513222E+01  0.419214808073E+01
 -0.407340304855E+01 -0.281184564486E+01  0.438328024032E+01
 -0.206602767952E+01 -0.284304100813E+01  0.444046653295E+01
 -0.522871127812E-01 -0.278584828179E+01  0.437068914268E+01
  0.147967870644E+01 -0.298686109355E+01  0.394989783116E+01
  0.299005193394E+01 -0.317051260607E+01  0.263390768105E+01
 -0.120943926922E+02 -0.782203821926E+00  0.249843613232E+01
 -0.100806073909E+02 -0.107339631048E+01  0.339468170277E+01
 -0.807824303848E+01 -0.125333986514E+01  0.395454374828E+01
 -0.607804126161E+01 -0.136717155192E+01  0.430782076896E+01
 -0.407613937091E+01 -0.142843848073E+01  0.450476855013E+01
 -0.206949361106E+01 -0.144321441232E+01  0.456268818097E+01
 -0.538659689505E-01 -0.141074583183E+01  0.448975604186E+01
  0.155538796865E+01 -0.178473522573E+01  0.405076871199E+01
  0.315093053357E+01 -0.214159648665E+01  0.262674292381E+01
 -0.120930963878E+02 -0.305829594785E-02  0.250391446676E+01
 -0.100797410016E+02 -0.163808050501E-01  0.340263196207E+01
 -0.807802186273E+01 -0.226665128192E-01  0.396365554043E+01
 -0.607869313869E+01 -0.261634937703E-01  0.431769702453E+01
 -0.407768044055E+01 -0.278616302933E-01  0.451484260253E+01
 -0.207177181869E+01 -0.270698589909E-01  0.457310701183E+01
 -0.570765721906E-01 -0.224395832169E-01  0.449555514321E+01
  0.163423579801E+01 -0.579459102502E+00  0.403181512440E+01
  0.333333000000E+01 -0.112691000000E+01  0.250000000000E+01
 -0.120917895566E+02  0.776075939613E+00  0.249731636844E+01
 -0.100781499990E+02  0.104117326847E+01  0.339371095703E+01
 -0.807733789639E+01  0.120877038120E+01  0.395278534855E+01
 -0.607932986225E+01  0.131590103198E+01  0.430633125337E+01
 -0.408064143769E+01  0.137426069196E+01  0.450378717841E+01
 -0.207849392948E+01  0.139115997327E+01  0.456402406842E+01
 -0.698785355547E-01  0.136952063351E+01  0.449189811885E+01
  0.147757993448E+01  0.855153774712E+00  0.412527582939E+01
  0.302510098675E+01  0.287604829963E+00  0.290331064102E+01
 -0.120896285468E+02  0.154553255547E+01  0.243001803763E+01
 -0.100755817216E+02  0.208602217498E+01  0.330135463494E+01
 -0.807478328931E+01  0.242545124762E+01  0.384390954129E+01
 -0.607693136311E+01  0.264206538999E+01  0.418781275867E+01
 -0.407848906125E+01  0.276095077708E+01  0.437927219342E+01
 -0.207718290221E+01  0.279564283934E+01  0.443800405096E+01
 -0.709722809573E-01  0.274899087150E+01  0.437114835667E+01
  0.133684709263E+01  0.228933315927E+01  0.406639907371E+01
  0.273703799412E+01  0.176055001290E+01  0.309446942120E+01
 -0.120880602615E+02  0.229561217150E+01  0.230434179499E+01
 -0.100723187036E+02  0.310484793726E+01  0.312828507913E+01
 -0.807068574386E+01  0.361238047307E+01  0.363996102144E+01
 -0.607074722573E+01  0.393568930858E+01  0.396511088822E+01
 -0.406930117225E+01  0.411410712993E+01  0.414582421686E+01
 -0.206569967189E+01  0.416639684146E+01  0.420266815144E+01
 -0.589685149269E-01  0.409617120038E+01  0.413978964484E+01
  0.121742110346E+01  0.369260877088E+01  0.386467657176E+01
  0.247188953031E+01  0.324493458558E+01  0.304741206946E+01
 -0.120850765519E+02  0.301782150094E+01  0.212399542736E+01
 -0.100697398554E+02  0.408703474711E+01  0.287813812824E+01
 -0.806732968227E+01  0.475551977210E+01  0.334800497223E+01
 -0.606179755259E+01  0.518086056816E+01  0.364625272587E+01
 -0.405461813228E+01  0.541627680719E+01  0.381281855735E+01
 -0.204585922758E+01  0.548528296298E+01  0.386357673811E+01
 -0.324135184221E-01  0.539239581758E+01  0.380414373381E+01
  0.112210781920E+01  0.503865867121E+01  0.352622980069E+01
  0.224718477730E+01  0.467182230606E+01  0.276075683045E+01
 -0.120817741708E+02  0.370387909069E+01  0.189393887988E+01
 -0.100768406356E+02  0.501778371763E+01  0.256164865310E+01
 -0.806628973552E+01  0.583993711744E+01  0.297933920732E+01
 -0.605299682148E+01  0.636187930089E+01  0.324393203665E+01
 -0.403803711063E+01  0.665116897917E+01  0.339157787436E+01
 -0.202207060883E+01  0.673572419714E+01  0.343641229968E+01
 -0.460074743273E-02  0.662153702606E+01  0.338092051867E+01
  0.104613917997E+01  0.630520493093E+01  0.307178429843E+01
  0.204947000000E+01  0.598972000000E+01  0.228122000000E+01
 -0.120900392280E+02 -0.336949900818E+01  0.245631003003E+01
 -0.100882309739E+02 -0.458051030249E+01  0.333226487121E+01
 -0.807678806829E+01 -0.533661516882E+01  0.387739854214E+01
 -0.606157670402E+01 -0.581528243632E+01  0.422161775108E+01
 -0.404400726815E+01 -0.607775076680E+01  0.441295621692E+01
 -0.202531606871E+01 -0.615138291016E+01  0.447013910197E+01
 -0.577734872119E-02 -0.604165257622E+01  0.439656649542E+01
  0.135869690442E+01 -0.584767886742E+01  0.395525346989E+01
  0.267357000000E+01 -0.571343000000E+01  0.254410000000E+01
 -0.120913527402E+02 -0.277047282676E+01  0.277774045110E+01
 -0.100820466298E+02 -0.376897462500E+01  0.377025281899E+01
 -0.807764882793E+01 -0.439109244804E+01  0.438578938696E+01
 -0.606552697813E+01 -0.478566736466E+01  0.477454569096E+01
 -0.405099935212E+01 -0.500149888007E+01  0.499114041152E+01
 -0.203510403225E+01 -0.506049353192E+01  0.505685648641E+01
 -0.144110129884E-01 -0.496819957884E+01  0.497656365350E+01
  0.140108360903E+01 -0.490823323355E+01  0.449489560494E+01
  0.277945166349E+01 -0.490260230739E+01  0.298747922173E+01
 -0.120924054428E+02 -0.212301931786E+01  0.303236900744E+01
 -0.100807299831E+02 -0.288973780742E+01  0.411741718626E+01
 -0.807730975753E+01 -0.336784329289E+01  0.479073547778E+01
 -0.606867904063E+01 -0.367027309934E+01  0.521623801004E+01
 -0.405640456252E+01 -0.383552038483E+01  0.545194676133E+01
 -0.204146508937E+01 -0.387990700148E+01  0.552311000492E+01
 -0.215687616592E-01 -0.380743356525E+01  0.543581540496E+01
  0.145624430705E+01 -0.389067772992E+01  0.491612583544E+01
  0.290113123153E+01 -0.400813348871E+01  0.330110058719E+01
 -0.120935857856E+02 -0.143803347656E+01  0.321393382031E+01
 -0.100808606874E+02 -0.195925531463E+01  0.436410689522E+01
 -0.807752826690E+01 -0.228449465780E+01  0.507971175845E+01
 -0.607037723429E+01 -0.249024471121E+01  0.553162262880E+01
 -0.405992778371E+01 -0.260173899371E+01  0.578298992573E+01
 -0.204572352399E+01 -0.263062477546E+01  0.585669132959E+01
 -0.252896657038E-01 -0.257942463409E+01  0.576358659122E+01
  0.151808261970E+01 -0.281448176155E+01  0.520969949235E+01
  0.303715863586E+01 -0.306021223949E+01  0.346647930534E+01
 -0.120946346790E+02 -0.727280539160E+00  0.331702489916E+01
 -0.100813523894E+02 -0.994154725017E+00  0.450446233596E+01
 -0.807753175229E+01 -0.116043945133E+01  0.524372122277E+01
 -0.607085371606E+01 -0.126541168786E+01  0.570971826772E+01
 -0.406136365094E+01 -0.132208810968E+01  0.597053709746E+01
 -0.204821375385E+01 -0.133579343331E+01  0.604753877121E+01
 -0.280011089710E-01 -0.130722394145E+01  0.595048837487E+01
  0.158564310365E+01 -0.169964760586E+01  0.536889254489E+01
  0.317922874105E+01 -0.209011694227E+01  0.347727437826E+01
 -0.120943523250E+02 -0.346948976797E-02  0.333876954631E+01
 -0.100809026629E+02 -0.118852768219E-01  0.453450051876E+01
 -0.807708797066E+01 -0.156421815958E-01  0.527865254357E+01
 -0.607072657554E+01 -0.179134959610E-01  0.574780501125E+01
 -0.406168527785E+01 -0.189488466868E-01  0.601001146694E+01
 -0.204885602762E+01 -0.181057691246E-01  0.608853999359E+01
 -0.297944803242E-01 -0.145020453017E-01  0.598921283423E+01
  0.165189605531E+01 -0.573675708691E+00  0.537817054412E+01
  0.333333000000E+01 -0.112691000000E+01  0.333333000000E+01
 -0.120930374290E+02  0.720310503375E+00  0.331537425942E+01
 -0.100798176769E+02  0.970712787704E+00  0.450259974346E+01
 -0.807669488734E+01  0.112945347972E+01  0.524122598042E+01
 -0.607112133420E+01  0.123003334985E+01  0.570740799019E+01
 -0.406300737102E+01  0.128495679115E+01  0.596844805699E+01
 -0.205138662600E+01  0.130046665457E+01  0.604684624223E+01
 -0.327364387692E-01  0.127965174261E+01  0.595060753331E+01
  0.152312844284E+01  0.769840905465E+00  0.546606040534E+01
  0.306611585947E+01  0.199813935016E+00  0.384653758322E+01
 -0.120908607905E+02  0.143108094268E+01  0.321076755483E+01
 -0.100777847155E+02  0.193611908797E+01  0.435997055694E+01
 -0.807529144562E+01  0.225386297979E+01  0.507384386533E+01
 -0.606969377672E+01  0.245540705422E+01  0.552574421398E+01
 -0.406140542677E+01  0.256563831991E+01  0.577679147809E+01
 -0.204979260953E+01  0.259727331824E+01  0.585190445309E+01
 -0.320088418032E-01  0.255311758561E+01  0.576191371808E+01
  0.139564428018E+01  0.211314141494E+01  0.536041077668E+01
  0.280408583793E+01  0.160526669514E+01  0.407282052491E+01
 -0.120886063115E+02  0.211623731907E+01  0.302834194570E+01
 -0.100761390761E+02  0.286665028791E+01  0.411083514808E+01
 -0.807320308911E+01  0.333711885278E+01  0.478093470391E+01
 -0.606590078315E+01  0.363570440427E+01  0.520661472281E+01
 -0.405647088843E+01  0.380047840695E+01  0.544225825455E+01
 -0.204381995585E+01  0.384730033812E+01  0.551527925980E+01
 -0.263136736312E-01  0.378182642308E+01  0.543098919889E+01
  0.128035937589E+01  0.341453724013E+01  0.506915059914E+01
  0.254874042228E+01  0.302699884834E+01  0.399016602516E+01
 -0.120857206418E+02  0.276387505301E+01  0.277319652542E+01
 -0.100738602208E+02  0.374497645619E+01  0.375971813413E+01
 -0.807006237052E+01  0.435943267238E+01  0.437127049281E+01
 -0.605970170096E+01  0.475024448272E+01  0.475984095894E+01
 -0.404807131075E+01  0.496528818382E+01  0.497722884328E+01
 -0.203477527639E+01  0.502677620501E+01  0.504341689383E+01
 -0.153617071117E-01  0.494121504651E+01  0.496464813358E+01
  0.118083345254E+01  0.463976187698E+01  0.460284837123E+01
  0.231870819217E+01  0.437963167424E+01  0.360332430684E+01
 -0.120829179098E+02  0.336295113003E+01  0.245151856884E+01
 -0.100778477086E+02  0.455813769718E+01  0.331585037908E+01
 -0.806732169132E+01  0.530609753652E+01  0.385650950945E+01
 -0.605398360842E+01  0.578116398686E+01  0.420011737462E+01
 -0.403855918136E+01  0.604290288309E+01  0.439177833987E+01
 -0.202214790478E+01  0.611880383414E+01  0.444986494160E+01
 -0.469937279794E-02  0.601485962376E+01  0.437764265989E+01
  0.109622842609E+01  0.575972722017E+01  0.397674774949E+01
  0.212207000000E+01  0.558730000000E+01  0.295352000000E+01
 -0.120909761183E+02 -0.294604536618E+01  0.295404027090E+01
 -0.100892111546E+02 -0.400547575453E+01  0.400736257696E+01
 -0.807823344260E+01 -0.466689992784E+01  0.466200122118E+01
 -0.606247424004E+01 -0.508533005508E+01  0.507656488673E+01
 -0.404442097564E+01 -0.531491632781E+01  0.530651746796E+01
 -0.202479147007E+01 -0.537878598853E+01  0.537565340869E+01
 -0.481307541170E-02 -0.528227228985E+01  0.528821437072E+01
  0.140128850527E+01 -0.520224804479E+01  0.475712906071E+01
  0.273585000000E+01 -0.528053000000E+01  0.306056000000E+01
 -0.120911468930E+02 -0.245028281475E+01  0.337920865735E+01
 -0.100900185932E+02 -0.333197375806E+01  0.458418003767E+01
 -0.807882333581E+01 -0.388338858812E+01  0.533215870718E+01
 -0.606308241820E+01 -0.423288919008E+01  0.580461207381E+01
 -0.404517347760E+01 -0.442335149908E+01  0.606773680737E+01
 -0.202427510455E+01 -0.447572507642E+01  0.614729396674E+01
 -0.318299404415E-02 -0.439426304394E+01  0.604879652542E+01
  0.144979374507E+01 -0.442115259260E+01  0.546208188563E+01
  0.283639000000E+01 -0.458160000000E+01  0.363581000000E+01
 -0.120915332831E+02 -0.189417523548E+01  0.372169464130E+01
 -0.100914659996E+02 -0.257559877284E+01  0.504759016153E+01
 -0.807912543698E+01 -0.300252660365E+01  0.587201304698E+01
 -0.606276958199E+01 -0.327448361240E+01  0.639234308178E+01
 -0.404514007747E+01 -0.342346111280E+01  0.668036435853E+01
 -0.202309367724E+01 -0.346310202815E+01  0.676745505377E+01
 -0.330980971039E-02 -0.339775556780E+01  0.666045012784E+01
  0.150409339847E+01 -0.354341033130E+01  0.602342612894E+01
  0.295176000000E+01 -0.377956000000E+01  0.404840000000E+01
 -0.120920332718E+02 -0.129104016520E+01  0.397266240899E+01
 -0.100923284014E+02 -0.175571918667E+01  0.538631452135E+01
 -0.807981706787E+01 -0.204693666963E+01  0.626662647735E+01
 -0.606231112161E+01 -0.223153272723E+01  0.682292935654E+01
 -0.404306643155E+01 -0.233462268273E+01  0.713177774876E+01
 -0.202221238500E+01 -0.236296407273E+01  0.722303598131E+01
 -0.130152442461E-02 -0.231658933159E+01  0.710837556719E+01
  0.156167658455E+01 -0.259173604481E+01  0.642686409306E+01
  0.307680000000E+01 -0.291030000000E+01  0.427989000000E+01
 -0.120921325142E+02 -0.655658476622E+00  0.412560169576E+01
 -0.100926871125E+02 -0.892246397359E+00  0.559253044679E+01
 -0.808006534625E+01 -0.104007952330E+01  0.650597565644E+01
 -0.606193468526E+01 -0.113426214482E+01  0.708295532261E+01
 -0.404201240844E+01 -0.118611861516E+01  0.740557458392E+01
 -0.202151925860E+01 -0.120048055043E+01  0.750206795906E+01
  0.128303863836E-03 -0.117687470597E+01  0.738220262614E+01
  0.162261426685E+01 -0.159116879260E+01  0.666109476460E+01
  0.320592000000E+01 -0.201270000000E+01  0.431991000000E+01
 -0.120917392605E+02 -0.404229907839E-02  0.417647979434E+01
 -0.100924001796E+02 -0.642558751257E-02  0.566092078124E+01
 -0.807963473508E+01 -0.796880135945E-02  0.658527713121E+01
 -0.606166441277E+01 -0.853675219991E-02  0.716890297498E+01
 -0.404136860704E+01 -0.835898610474E-02  0.749560999876E+01
 -0.202099951314E+01 -0.736232251241E-02  0.759471457596E+01
  0.502639753833E-03 -0.594940044286E-02  0.747382189970E+01
  0.168421822489E+01 -0.568648748221E+00  0.671845268419E+01
  0.333333000000E+01 -0.112691000000E+01  0.416667000000E+01
 -0.120908568507E+02  0.647660635155E+00  0.412400195933E+01
 -0.100913163321E+02  0.879157478253E+00  0.558979168216E+01
 -0.807866910897E+01  0.102404652869E+01  0.650257628388E+01
 -0.606082702663E+01  0.111691118276E+01  0.707958271822E+01
 -0.404146336962E+01  0.116875551917E+01  0.740187258016E+01
 -0.202097539758E+01  0.118551794305E+01  0.749894852651E+01
  0.394852619894E-03  0.116415029265E+01  0.737973516391E+01
  0.157235715338E+01  0.664189583535E+00  0.677969282399E+01
  0.311477000000E+01  0.846185000000E-01  0.477384000000E+01
 -0.120896691687E+02  0.128320959376E+01  0.396967289736E+01
 -0.100894601718E+02  0.174234299340E+01  0.538069413888E+01
 -0.807706872018E+01  0.202983549844E+01  0.625946937254E+01
 -0.606017461762E+01  0.221321699382E+01  0.681524851902E+01
 -0.404163046762E+01  0.231637859745E+01  0.712341340095E+01
 -0.202214944885E+01  0.234578550729E+01  0.721604365327E+01
 -0.103835143420E-02  0.230325919055E+01  0.710314695909E+01
  0.146012269395E+01  0.188754809767E+01  0.660746003848E+01
  0.287533000000E+01  0.141185000000E+01  0.502046000000E+01
 -0.120881634511E+02  0.188670383521E+01  0.371748137553E+01
 -0.100869706390E+02  0.256165925810E+01  0.503879260817E+01
 -0.807481039075E+01  0.298426965648E+01  0.586039953118E+01
 -0.606032505154E+01  0.325410627173E+01  0.638004433995E+01
 -0.404132056574E+01  0.340191388879E+01  0.666865917418E+01
 -0.202332000182E+01  0.344319659447E+01  0.675747545305E+01
 -0.108057498975E-02  0.338261623042E+01  0.665184690256E+01
  0.135281164268E+01  0.305821291088E+01  0.620695917636E+01
  0.263311000000E+01  0.275453000000E+01  0.488788000000E+01
 -0.120869855243E+02  0.244327567373E+01  0.337427908599E+01
 -0.100847448052E+02  0.331798116196E+01  0.457239206290E+01
 -0.807264716097E+01  0.386333170953E+01  0.531710185436E+01
 -0.605909268024E+01  0.420940966212E+01  0.578963875691E+01
 -0.404091101072E+01  0.440014371818E+01  0.605296181291E+01
 -0.202232064658E+01  0.445422473909E+01  0.613367411801E+01
 -0.174121832442E-02  0.437740373399E+01  0.603685053001E+01
  0.125288098744E+01  0.413713908804E+01  0.559390387691E+01
  0.240640000000E+01  0.401125000000E+01  0.438612000000E+01
 -0.120850855075E+02  0.293933418807E+01  0.294904981890E+01
 -0.100803128691E+02  0.398785073567E+01  0.399053731289E+01
 -0.806965204558E+01  0.464274483333E+01  0.464133323390E+01
 -0.605580602868E+01  0.505774863862E+01  0.505509523612E+01
 -0.403961071414E+01  0.528723963700E+01  0.528559488355E+01
 -0.202230482508E+01  0.535293278709E+01  0.535540726789E+01
 -0.380874723612E-02  0.526162964289E+01  0.526981053627E+01
  0.116136993482E+01  0.508460146111E+01  0.478879338001E+01
  0.221231000000E+01  0.508710000000E+01  0.355309000000E+01
  0.500000000000E+01 -0.169037000000E+01  0.489859000000E-15
  0.527591000000E+01 -0.788220000000E+00  0.391887000000E-15
  0.575887000000E+01 -0.658810000000E+00  0.391887000000E-15
  0.624183000000E+01 -0.529401000000E+00  0.391887000000E-15
  0.672480000000E+01 -0.399991000000E+00  0.391887000000E-15
  0.720776000000E+01 -0.270582000000E+00  0.391887000000E-15
  0.769072000000E+01 -0.141172000000E+00  0.391887000000E-15
  0.817369000000E+01 -0.117629000000E-01  0.391887000000E-15
  0.865665000000E+01  0.117647000000E+00  0.391887000000E-15
  0.913961000000E+01  0.247056000000E+00  0.391887000000E-15
  0.962257000000E+01  0.376466000000E+00  0.391887000000E-15
  0.454372084155E+01 -0.137627287878E+00  0.391887000000E-15
  0.488064358810E+01  0.435126285045E+00  0.313510000000E-15
  0.536204095003E+01  0.575564105554E+00  0.313510000000E-15
  0.585049050823E+01  0.704863266035E+00  0.313510000000E-15
  0.634095204974E+01  0.834805904504E+00  0.313510000000E-15
  0.683224697339E+01  0.965408986601E+00  0.313510000000E-15
  0.732373811315E+01  0.109648497133E+01  0.313510000000E-15
  0.781522840499E+01  0.122779623328E+01  0.313510000000E-15
  0.830662363765E+01  0.135904957868E+01  0.313510000000E-15
  0.879790989760E+01  0.149011893658E+01  0.313510000000E-15
  0.929129000000E+01  0.161285000000E+01  0.313510000000E-15
  0.404301081307E+01  0.140626296316E+01  0.293915000000E-15
  0.448158115304E+01  0.166792374031E+01  0.235132000000E-15
  0.496934935312E+01  0.179730853960E+01  0.235132000000E-15
  0.546753747491E+01  0.192586811458E+01  0.235132000000E-15
  0.596826101871E+01  0.205655010957E+01  0.235132000000E-15
  0.646905036573E+01  0.218903671279E+01  0.235132000000E-15
  0.696938188634E+01  0.232219047230E+01  0.235132000000E-15
  0.746906426622E+01  0.245558682389E+01  0.235132000000E-15
  0.796793142617E+01  0.258902452947E+01  0.235132000000E-15
  0.846558303781E+01  0.272127877256E+01  0.235132000000E-15
  0.896000000000E+01  0.284924000000E+01  0.235132000000E-15
  0.360371629512E+01  0.296473496033E+01  0.195943000000E-15
  0.413595659403E+01  0.291499518968E+01  0.156755000000E-15
  0.463364836211E+01  0.302249439573E+01  0.156755000000E-15
  0.513610725114E+01  0.314789494293E+01  0.156755000000E-15
  0.563831914091E+01  0.327968486845E+01  0.156755000000E-15
  0.613990250687E+01  0.341293362907E+01  0.156755000000E-15
  0.664059188826E+01  0.354674611529E+01  0.156755000000E-15
  0.714042132593E+01  0.368066126190E+01  0.156755000000E-15
  0.763935782969E+01  0.381444938152E+01  0.156755000000E-15
  0.813655724235E+01  0.394887089612E+01  0.156755000000E-15
  0.862871000000E+01  0.408562000000E+01  0.156755000000E-15
  0.326618677897E+01  0.450666282842E+01  0.979717000000E-16
  0.386154459818E+01  0.416374498239E+01  0.783774000000E-16
  0.436638619776E+01  0.426227137134E+01  0.783774000000E-16
  0.486066450804E+01  0.439167737039E+01  0.783774000000E-16
  0.535340928594E+01  0.452232767105E+01  0.783774000000E-16
  0.584523153290E+01  0.465397226796E+01  0.783774000000E-16
  0.633655873663E+01  0.478572685045E+01  0.783774000000E-16
  0.682760928050E+01  0.491748720016E+01  0.783774000000E-16
  0.731842351219E+01  0.504937272091E+01  0.783774000000E-16
  0.780906232192E+01  0.518145261146E+01  0.783774000000E-16
  0.829742000000E+01  0.532201000000E+01  0.783774000001E-16
  0.292945000000E+01  0.603704000000E+01  0.233404950312E-27
  0.361947000000E+01  0.539371000000E+01  0.131147861548E-27
  0.410243000000E+01  0.552311000000E+01  0.386720450266E-28
  0.458539000000E+01  0.565252000000E+01  0.578012227291E-28
  0.506835000000E+01  0.578193000000E+01  0.596679673401E-28
  0.555132000000E+01  0.591134000000E+01  0.597316013134E-28
  0.603428000000E+01  0.604075000000E+01  0.590679715161E-28
  0.651724000000E+01  0.617016000000E+01  0.582393217867E-28
  0.700021000000E+01  0.629957000000E+01  0.572172728641E-28
  0.748317000000E+01  0.642898000000E+01  0.517873483928E-28
  0.796613000000E+01  0.655839000000E+01  0.184362904461E-28
  0.498725000000E+01 -0.164280000000E+01  0.625738000000E+00
  0.526571000000E+01 -0.750165000000E+00  0.500590000000E+00
  0.574867000000E+01 -0.620756000000E+00  0.500590000000E+00
  0.623164000000E+01 -0.491346000000E+00  0.500590000000E+00
  0.671460000000E+01 -0.361937000000E+00  0.500590000000E+00
  0.719756000000E+01 -0.232527000000E+00  0.500590000000E+00
  0.768053000000E+01 -0.103118000000E+00  0.500590000000E+00
  0.816349000000E+01  0.262920000000E-01  0.500590000000E+00
  0.864645000000E+01  0.155702000000E+00  0.500590000000E+00
  0.912941000000E+01  0.285111000000E+00  0.500590000000E+00
  0.961238000000E+01  0.414521000000E+00  0.500590000000E+00
  0.454552541374E+01 -0.132448317571E+00  0.778157323536E+00
  0.488287732560E+01  0.440268508767E+00  0.625783329307E+00
  0.536501646356E+01  0.580534309889E+00  0.617995378734E+00
  0.585340778177E+01  0.709682035375E+00  0.615751391991E+00
  0.634337637543E+01  0.839524198467E+00  0.615032079447E+00
  0.683403149887E+01  0.969978290813E+00  0.614898814622E+00
  0.732482429130E+01  0.110088659358E+01  0.614949771317E+00
  0.781562571549E+01  0.123203561674E+01  0.615056597134E+00
  0.830638924353E+01  0.136315359221E+01  0.615263322010E+00
  0.879712282179E+01  0.149418992370E+01  0.615813186719E+00
  0.929009000000E+01  0.161731000000E+01  0.618286000000E+00
  0.405195320071E+01  0.140355917174E+01  0.863607185896E+00
  0.448840187856E+01  0.166695668584E+01  0.687868954405E+00
  0.497640697232E+01  0.179660007737E+01  0.678312258407E+00
  0.547422896041E+01  0.192530227734E+01  0.674148838951E+00
  0.597410415804E+01  0.205590249354E+01  0.672684073897E+00
  0.647380256141E+01  0.218816732465E+01  0.672551041928E+00
  0.697296811264E+01  0.232104640437E+01  0.672866302046E+00
  0.747155745444E+01  0.245417382721E+01  0.673387003994E+00
  0.796945195097E+01  0.258738028738E+01  0.674328214997E+00
  0.846638188435E+01  0.271951947767E+01  0.676283093320E+00
  0.896044000000E+01  0.284757000000E+01  0.680162000000E+00
  0.361305628561E+01  0.296561049966E+01  0.863954975650E+00
  0.414248339878E+01  0.291698939543E+01  0.686519712641E+00
  0.464007713926E+01  0.302540617469E+01  0.677783377640E+00
  0.514199370088E+01  0.315117440545E+01  0.673364121468E+00
  0.564324457129E+01  0.328291721823E+01  0.672113511554E+00
  0.614368010555E+01  0.341595476926E+01  0.672191829937E+00
  0.664316623722E+01  0.354948959448E+01  0.672659846634E+00
  0.714187921274E+01  0.368311629748E+01  0.673271523069E+00
  0.763985815486E+01  0.381663149870E+01  0.674259866459E+00
  0.813636323885E+01  0.395079527805E+01  0.676240505882E+00
  0.862826000000E+01  0.408729000000E+01  0.680162000000E+00
  0.327419337226E+01  0.449969415932E+01  0.778714169621E+00
  0.386804446749E+01  0.415894943208E+01  0.623103571066E+00
  0.437245747407E+01  0.425917202884E+01  0.615504323710E+00
  0.486606206209E+01  0.438883079880E+01  0.614453445856E+00
  0.535803383053E+01  0.451937634206E+01  0.614506197249E+00
  0.584906671004E+01  0.465084681220E+01  0.614808462010E+00
  0.633965281578E+01  0.478241409050E+01  0.615061508330E+00
  0.683004146800E+01  0.491398780289E+01  0.615243647081E+00
  0.732024810134E+01  0.504568077900E+01  0.615457211504E+00
  0.781039951598E+01  0.517752319159E+01  0.615957453455E+00
  0.829861000000E+01  0.531755000000E+01  0.618286000000E+00
  0.294219000000E+01  0.598947000000E+01  0.625738000000E+00
  0.362966000000E+01  0.535565000000E+01  0.500590000000E+00
  0.411263000000E+01  0.548506000000E+01  0.500590000000E+00
  0.459559000000E+01  0.561447000000E+01  0.500590000000E+00
  0.507855000000E+01  0.574388000000E+01  0.500590000000E+00
  0.556151000000E+01  0.587329000000E+01  0.500590000000E+00
  0.604448000000E+01  0.600270000000E+01  0.500590000000E+00
  0.652744000000E+01  0.613211000000E+01  0.500590000000E+00
  0.701040000000E+01  0.626152000000E+01  0.500590000000E+00
  0.749337000000E+01  0.639093000000E+01  0.500590000000E+00
  0.797633000000E+01  0.652034000000E+01  0.500590000000E+00
  0.494933000000E+01 -0.150127000000E+01  0.123607000000E+01
  0.523537000000E+01 -0.636938000000E+00  0.988854000000E+00
  0.571833000000E+01 -0.507528000000E+00  0.988854000000E+00
  0.620130000000E+01 -0.378118000000E+00  0.988854000000E+00
  0.668426000000E+01 -0.248709000000E+00  0.988854000000E+00
  0.716722000000E+01 -0.119299000000E+00  0.988854000000E+00
  0.765019000000E+01  0.101101000000E-01  0.988854000000E+00
  0.813315000000E+01  0.139520000000E+00  0.988854000000E+00
  0.861611000000E+01  0.268929000000E+00  0.988854000000E+00
  0.909907000000E+01  0.398339000000E+00  0.988854000000E+00
  0.958204000000E+01  0.527748000000E+00  0.988854000000E+00
  0.453722927676E+01 -0.710815587026E-01  0.153841852957E+01
  0.487859512566E+01  0.492056039639E+00  0.123683366869E+01
  0.536284434461E+01  0.631456128120E+00  0.122320017786E+01
  0.585086763423E+01  0.760210624962E+00  0.121982517755E+01
  0.633938905106E+01  0.889763794765E+00  0.121887349699E+01
  0.682826780329E+01  0.101974912516E+01  0.121875582648E+01
  0.731726360135E+01  0.115023399699E+01  0.121885283663E+01
  0.780631330357E+01  0.128099096217E+01  0.121900195341E+01
  0.829547545021E+01  0.141173303214E+01  0.121928091068E+01
  0.878480306136E+01  0.154266968045E+01  0.122006749766E+01
  0.927681000000E+01  0.166687000000E+01  0.122425000000E+01
  0.407144572218E+01  0.141897992149E+01  0.170667579163E+01
  0.450339389090E+01  0.168275646327E+01  0.136186881499E+01
  0.499234908538E+01  0.181289691455E+01  0.134409514974E+01
  0.548894165227E+01  0.194191169090E+01  0.133737368006E+01
  0.598616061380E+01  0.207218321633E+01  0.133537121074E+01
  0.648260174950E+01  0.220373362917E+01  0.133539398637E+01
  0.697843697280E+01  0.233582897537E+01  0.133597193719E+01
  0.747385117105E+01  0.246819751049E+01  0.133677161502E+01
  0.796898864753E+01  0.260073930277E+01  0.133818187839E+01
  0.846380809220E+01  0.273252937124E+01  0.134127972770E+01
  0.895686000000E+01  0.286093000000E+01  0.134800000000E+01
  0.364614348532E+01  0.294520797824E+01  0.170716625085E+01
  0.416654741737E+01  0.290456736483E+01  0.135975919727E+01
  0.466401504493E+01  0.301595925211E+01  0.134311567907E+01
  0.516412010742E+01  0.314269825483E+01  0.133596177197E+01
  0.566238337563E+01  0.327423649664E+01  0.133439141212E+01
  0.615933654811E+01  0.340662655095E+01  0.133479025955E+01
  0.665538380749E+01  0.353934488867E+01  0.133562492133E+01
  0.715090312292E+01  0.367212029422E+01  0.133657278532E+01
  0.764612796490E+01  0.380485521876E+01  0.133805861592E+01
  0.814062940867E+01  0.393826685288E+01  0.134119830055E+01
  0.863184000000E+01  0.407393000000E+01  0.134800000000E+01
  0.330739204115E+01  0.443433282999E+01  0.153844646516E+01
  0.389513657349E+01  0.410823446559E+01  0.123241126491E+01
  0.439833204120E+01  0.421337905579E+01  0.121918750961E+01
  0.489005826467E+01  0.434343670062E+01  0.121782086065E+01
  0.537990974295E+01  0.447363866735E+01  0.121811277383E+01
  0.586885361211E+01  0.460468889555E+01  0.121867165729E+01
  0.635759103726E+01  0.473576715550E+01  0.121906738082E+01
  0.684629343840E+01  0.486684417897E+01  0.121932357100E+01
  0.733499284739E+01  0.499809679148E+01  0.121960692798E+01
  0.782394294468E+01  0.512935244324E+01  0.122031218565E+01
  0.831189000000E+01  0.526799000000E+01  0.122425000000E+01
  0.298012000000E+01  0.584793000000E+01  0.123607000000E+01
  0.366000000000E+01  0.524242000000E+01  0.988854000000E+00
  0.414296000000E+01  0.537183000000E+01  0.988854000000E+00
  0.462593000000E+01  0.550124000000E+01  0.988854000000E+00
  0.510889000000E+01  0.563065000000E+01  0.988854000000E+00
  0.559185000000E+01  0.576006000000E+01  0.988854000000E+00
  0.607482000000E+01  0.588947000000E+01  0.988854000000E+00
  0.655778000000E+01  0.601888000000E+01  0.988854000000E+00
  0.704074000000E+01  0.614829000000E+01  0.988854000000E+00
  0.752371000000E+01  0.627770000000E+01  0.988854000000E+00
  0.800667000000E+01  0.640711000000E+01  0.988854000000E+00
  0.488716000000E+01 -0.126925000000E+01  0.181596000000E+01
  0.518564000000E+01 -0.451325000000E+00  0.145277000000E+01
  0.566860000000E+01 -0.321916000000E+00  0.145277000000E+01
  0.615156000000E+01 -0.192506000000E+00  0.145277000000E+01
  0.663453000000E+01 -0.630967000000E-01  0.145277000000E+01
  0.711749000000E+01  0.663128000000E-01  0.145277000000E+01
  0.760045000000E+01  0.195722000000E+00  0.145277000000E+01
  0.808341000000E+01  0.325132000000E+00  0.145277000000E+01
  0.856638000000E+01  0.454541000000E+00  0.145277000000E+01
  0.904934000000E+01  0.583951000000E+00  0.145277000000E+01
  0.953230000000E+01  0.713360000000E+00  0.145277000000E+01
  0.451862590914E+01  0.444695611193E-01  0.226371853868E+01
  0.486810889179E+01  0.588527824504E+00  0.181910098288E+01
  0.535525007017E+01  0.726404936248E+00  0.180365260881E+01
  0.584199365183E+01  0.854669947436E+00  0.180101191320E+01
  0.632794935108E+01  0.983459090723E+00  0.180038912151E+01
  0.681421719161E+01  0.111297096530E+01  0.180032002287E+01
  0.730069909834E+01  0.124292993454E+01  0.180042460846E+01
  0.778734895057E+01  0.137315210214E+01  0.180055492496E+01
  0.827409181757E+01  0.150348392424E+01  0.180071031669E+01
  0.876143833345E+01  0.163407523480E+01  0.180123876082E+01
  0.925190000000E+01  0.175986000000E+01  0.180586000000E+01
  0.409889944471E+01  0.145314284211E+01  0.250895221047E+01
  0.452606261224E+01  0.171488415542E+01  0.200758841531E+01
  0.501678552843E+01  0.184574933649E+01  0.198549073709E+01
  0.551067570569E+01  0.197512372017E+01  0.197957383213E+01
  0.600294084190E+01  0.210445804359E+01  0.197833072761E+01
  0.649410371239E+01  0.223494987298E+01  0.197862531594E+01
  0.698486073526E+01  0.236590485382E+01  0.197926076422E+01
  0.747553818387E+01  0.249715238953E+01  0.197996836222E+01
  0.796639013802E+01  0.262872521730E+01  0.198107264268E+01
  0.845803832173E+01  0.275988528621E+01  0.198386773102E+01
  0.894940000000E+01  0.288877000000E+01  0.199149000000E+01
  0.369974684713E+01  0.290581683194E+01  0.250885202823E+01
  0.420753567619E+01  0.287858668128E+01  0.200565879456E+01
  0.470492090213E+01  0.299490991253E+01  0.198430170357E+01
  0.520138810424E+01  0.312280044402E+01  0.197797787268E+01
  0.569398749034E+01  0.325381749913E+01  0.197732612627E+01
  0.618531145784E+01  0.338505104448E+01  0.197801618606E+01
  0.667613100102E+01  0.351646413190E+01  0.197890523967E+01
  0.716687122607E+01  0.364794127844E+01  0.197975475775E+01
  0.765785711992E+01  0.377939749421E+01  0.198092844330E+01
  0.814929379210E+01  0.391175052091E+01  0.198376211822E+01
  0.863930000000E+01  0.404608000000E+01  0.199149000000E+01
  0.336195813940E+01  0.431404904912E+01  0.226193951696E+01
  0.394091099010E+01  0.401382778946E+01  0.181459666844E+01
  0.444212546812E+01  0.412619703321E+01  0.179957886845E+01
  0.493066904593E+01  0.425642739085E+01  0.179917678382E+01
  0.541691207039E+01  0.438634192184E+01  0.179978206992E+01
  0.590302881583E+01  0.451666198662E+01  0.180032262550E+01
  0.638926844381E+01  0.464704098125E+01  0.180068631938E+01
  0.687567728015E+01  0.477744657607E+01  0.180090055838E+01
  0.736219838637E+01  0.490789692111E+01  0.180105448330E+01
  0.784937145214E+01  0.503849159107E+01  0.180150371887E+01
  0.833681000000E+01  0.517500000000E+01  0.180586000000E+01
  0.304229000000E+01  0.561592000000E+01  0.181596000000E+01
  0.370974000000E+01  0.505681000000E+01  0.145277000000E+01
  0.419270000000E+01  0.518622000000E+01  0.145277000000E+01
  0.467566000000E+01  0.531563000000E+01  0.145277000000E+01
  0.515863000000E+01  0.544504000000E+01  0.145277000000E+01
  0.564159000000E+01  0.557445000000E+01  0.145277000000E+01
  0.612455000000E+01  0.570386000000E+01  0.145277000000E+01
  0.660751000000E+01  0.583327000000E+01  0.145277000000E+01
  0.709048000000E+01  0.596268000000E+01  0.145277000000E+01
  0.757344000000E+01  0.609209000000E+01  0.145277000000E+01
  0.805640000000E+01  0.622150000000E+01  0.145277000000E+01
  0.480228000000E+01 -0.952469000000E+00  0.235114000000E+01
  0.511773000000E+01 -0.197899000000E+00  0.188091000000E+01
  0.560069000000E+01 -0.684892000000E-01  0.188091000000E+01
  0.608366000000E+01  0.609204000000E-01  0.188091000000E+01
  0.656662000000E+01  0.190330000000E+00  0.188091000000E+01
  0.704958000000E+01  0.319739000000E+00  0.188091000000E+01
  0.753255000000E+01  0.449149000000E+00  0.188091000000E+01
  0.801551000000E+01  0.578558000000E+00  0.188091000000E+01
  0.849847000000E+01  0.707968000000E+00  0.188091000000E+01
  0.898143000000E+01  0.837378000000E+00  0.188091000000E+01
  0.946440000000E+01  0.966787000000E+00  0.188091000000E+01
  0.448713228306E+01  0.211480275243E+00  0.294014874693E+01
  0.485104734405E+01  0.726328518073E+00  0.235974532695E+01
  0.534070516624E+01  0.861654676584E+00  0.234919195853E+01
  0.582391347613E+01  0.988219020747E+00  0.234867281938E+01
  0.630693497314E+01  0.111736760066E+01  0.234826973926E+01
  0.679057372189E+01  0.124662766149E+01  0.234826459079E+01
  0.727456226365E+01  0.137621790847E+01  0.234831069203E+01
  0.775878346910E+01  0.150593531997E+01  0.234835025272E+01
  0.824311329030E+01  0.163556202486E+01  0.234846990128E+01
  0.872731704768E+01  0.176596440053E+01  0.234830034406E+01
  0.921608000000E+01  0.189354000000E+01  0.235170000000E+01
  0.412708179844E+01  0.150636423752E+01  0.325338995703E+01
  0.455449593586E+01  0.176248942450E+01  0.261001208588E+01
  0.504731913349E+01  0.189361182434E+01  0.259298734389E+01
  0.553450554370E+01  0.202192003056E+01  0.259173189839E+01
  0.601987962044E+01  0.215061914464E+01  0.259115248539E+01
  0.650494573958E+01  0.228017078062E+01  0.259144562096E+01
  0.699026800036E+01  0.240999789345E+01  0.259175653742E+01
  0.747586207521E+01  0.254001758919E+01  0.259204463764E+01
  0.796178106395E+01  0.267032962763E+01  0.259255395819E+01
  0.844872769640E+01  0.280074126471E+01  0.259327739100E+01
  0.893831000000E+01  0.293018000000E+01  0.259920000000E+01
  0.376397183549E+01  0.284964239362E+01  0.325226311419E+01
  0.426272002511E+01  0.283971172415E+01  0.260895093708E+01
  0.475982495716E+01  0.296297835241E+01  0.259199167333E+01
  0.524777099955E+01  0.309175100027E+01  0.259078742339E+01
  0.573282794387E+01  0.322141455567E+01  0.259062060564E+01
  0.621779663000E+01  0.335108504882E+01  0.259111388229E+01
  0.670305087655E+01  0.348102789477E+01  0.259155382521E+01
  0.718865102983E+01  0.361112574449E+01  0.259191023846E+01
  0.767466903340E+01  0.374122496713E+01  0.259245395120E+01
  0.816162037812E+01  0.387182056630E+01  0.259318538444E+01
  0.865040000000E+01  0.400468000000E+01  0.259920000000E+01
  0.343130541566E+01  0.414211983899E+01  0.293634306036E+01
  0.400253563364E+01  0.387845445536E+01  0.235683487751E+01
  0.450032699493E+01  0.399994591521E+01  0.234665192203E+01
  0.498254244946E+01  0.413059989841E+01  0.234784567895E+01
  0.546556700836E+01  0.425934303015E+01  0.234802613844E+01
  0.594901775479E+01  0.438884212337E+01  0.234835007153E+01
  0.643291070843E+01  0.451844347444E+01  0.234851309575E+01
  0.691705226155E+01  0.464815190557E+01  0.234858902802E+01
  0.740124668119E+01  0.477804874639E+01  0.234870143390E+01
  0.788572118963E+01  0.490723359902E+01  0.234849979797E+01
  0.837263000000E+01  0.504132000000E+01  0.235170000000E+01
  0.312717000000E+01  0.529913000000E+01  0.235114000000E+01
  0.377764000000E+01  0.480338000000E+01  0.188091000000E+01
  0.426060000000E+01  0.493279000000E+01  0.188091000000E+01
  0.474357000000E+01  0.506220000000E+01  0.188091000000E+01
  0.522653000000E+01  0.519161000000E+01  0.188091000000E+01
  0.570949000000E+01  0.532102000000E+01  0.188091000000E+01
  0.619246000000E+01  0.545043000000E+01  0.188091000000E+01
  0.667542000000E+01  0.557984000000E+01  0.188091000000E+01
  0.715838000000E+01  0.570925000000E+01  0.188091000000E+01
  0.764135000000E+01  0.583866000000E+01  0.188091000000E+01
  0.812431000000E+01  0.596807000000E+01  0.188091000000E+01
  0.469677000000E+01 -0.558718000000E+00  0.282843000000E+01
  0.503333000000E+01  0.117102000000E+00  0.226274000000E+01
  0.551629000000E+01  0.246512000000E+00  0.226274000000E+01
  0.599925000000E+01  0.375921000000E+00  0.226274000000E+01
  0.648222000000E+01  0.505331000000E+00  0.226274000000E+01
  0.696518000000E+01  0.634740000000E+00  0.226274000000E+01
  0.744814000000E+01  0.764150000000E+00  0.226274000000E+01
  0.793110000000E+01  0.893559000000E+00  0.226274000000E+01
  0.841407000000E+01  0.102297000000E+01  0.226274000000E+01
  0.889703000000E+01  0.115238000000E+01  0.226274000000E+01
  0.937999000000E+01  0.128179000000E+01  0.226274000000E+01
  0.443473000000E+01  0.419249000000E+00  0.356403000000E+01
  0.482369000000E+01  0.899475000000E+00  0.285122000000E+01
  0.530665000000E+01  0.102888000000E+01  0.285122000000E+01
  0.578962000000E+01  0.115829000000E+01  0.285122000000E+01
  0.627258000000E+01  0.128770000000E+01  0.285122000000E+01
  0.675554000000E+01  0.141711000000E+01  0.285122000000E+01
  0.723851000000E+01  0.154652000000E+01  0.285122000000E+01
  0.772147000000E+01  0.167593000000E+01  0.285122000000E+01
  0.820443000000E+01  0.180534000000E+01  0.285122000000E+01
  0.868739000000E+01  0.193475000000E+01  0.285122000000E+01
  0.917036000000E+01  0.206416000000E+01  0.285122000000E+01
  0.412668000000E+01  0.156892000000E+01  0.395075000000E+01
  0.457725000000E+01  0.181921000000E+01  0.316060000000E+01
  0.506021000000E+01  0.194862000000E+01  0.316060000000E+01
  0.554317000000E+01  0.207803000000E+01  0.316060000000E+01
  0.602614000000E+01  0.220744000000E+01  0.316060000000E+01
  0.650910000000E+01  0.233685000000E+01  0.316060000000E+01
  0.699206000000E+01  0.246626000000E+01  0.316060000000E+01
  0.747503000000E+01  0.259567000000E+01  0.316060000000E+01
  0.795799000000E+01  0.272508000000E+01  0.316060000000E+01
  0.844095000000E+01  0.285449000000E+01  0.316060000000E+01
  0.892392000000E+01  0.298390000000E+01  0.316060000000E+01
  0.380277000000E+01  0.277775000000E+01  0.395075000000E+01
  0.431812000000E+01  0.278628000000E+01  0.316060000000E+01
  0.480109000000E+01  0.291569000000E+01  0.316060000000E+01
  0.528405000000E+01  0.304509000000E+01  0.316060000000E+01
  0.576701000000E+01  0.317450000000E+01  0.316060000000E+01
  0.624998000000E+01  0.330391000000E+01  0.316060000000E+01
  0.673294000000E+01  0.343332000000E+01  0.316060000000E+01
  0.721590000000E+01  0.356273000000E+01  0.316060000000E+01
  0.769886000000E+01  0.369214000000E+01  0.316060000000E+01
  0.818183000000E+01  0.382155000000E+01  0.316060000000E+01
  0.866479000000E+01  0.395096000000E+01  0.316060000000E+01
  0.349472000000E+01  0.392742000000E+01  0.356403000000E+01
  0.407168000000E+01  0.370601000000E+01  0.285122000000E+01
  0.455465000000E+01  0.383542000000E+01  0.285122000000E+01
  0.503761000000E+01  0.396483000000E+01  0.285122000000E+01
  0.552057000000E+01  0.409424000000E+01  0.285122000000E+01
  0.600353000000E+01  0.422365000000E+01  0.285122000000E+01
  0.648650000000E+01  0.435306000000E+01  0.285122000000E+01
  0.696946000000E+01  0.448247000000E+01  0.285122000000E+01
  0.745242000000E+01  0.461188000000E+01  0.285122000000E+01
  0.793539000000E+01  0.474129000000E+01  0.285122000000E+01
  0.841835000000E+01  0.487070000000E+01  0.285122000000E+01
  0.323267000000E+01  0.490538000000E+01  0.282843000000E+01
  0.386205000000E+01  0.448838000000E+01  0.226274000000E+01
  0.434501000000E+01  0.461779000000E+01  0.226274000000E+01
  0.482797000000E+01  0.474720000000E+01  0.226274000000E+01
  0.531093000000E+01  0.487661000000E+01  0.226274000000E+01
  0.579390000000E+01  0.500602000000E+01  0.226274000000E+01
  0.627686000000E+01  0.513543000000E+01  0.226274000000E+01
  0.675982000000E+01  0.526484000000E+01  0.226274000000E+01
  0.724279000000E+01  0.539425000000E+01  0.226274000000E+01
  0.772575000000E+01  0.552366000000E+01  0.226274000000E+01
  0.820871000000E+01  0.565307000000E+01  0.226274000000E+01
  0.560370000000E+01 -0.185213000000E+01  0.275546000000E-15
  0.620741000000E+01 -0.201389000000E+01  0.275546000000E-15
  0.681111000000E+01 -0.217566000000E+01  0.275546000000E-15
  0.741481000000E+01 -0.233742000000E+01  0.275546000000E-15
  0.801852000000E+01 -0.249918000000E+01  0.275546000000E-15
  0.862222000000E+01 -0.266094000000E+01  0.275546000000E-15
  0.922593000000E+01 -0.282270000000E+01  0.275546000000E-15
  0.982963000000E+01 -0.298447000000E+01  0.275546000000E-15
  0.468197805094E+01 -0.254929049226E+01  0.220436000000E-15
  0.528930017597E+01 -0.270600531147E+01  0.220436000000E-15
  0.590726505519E+01 -0.287170129890E+01  0.220436000000E-15
  0.652585841167E+01 -0.303665451924E+01  0.220436000000E-15
  0.714240235463E+01 -0.320155409799E+01  0.220436000000E-15
  0.775713549834E+01 -0.336607000179E+01  0.220436000000E-15
  0.837070025599E+01 -0.353026222924E+01  0.220436000000E-15
  0.898339710383E+01 -0.369465182112E+01  0.220436000000E-15
  0.959669000000E+01 -0.385380000000E+01  0.220436000000E-15
  0.440937878459E+01 -0.341029181268E+01  0.165327000000E-15
  0.502043424217E+01 -0.356480925576E+01  0.165327000000E-15
  0.564395860082E+01 -0.372909013595E+01  0.165327000000E-15
  0.626871934562E+01 -0.389587204515E+01  0.165327000000E-15
  0.689156968747E+01 -0.406276207002E+01  0.165327000000E-15
  0.751238968181E+01 -0.422921054321E+01  0.165327000000E-15
  0.813164682775E+01 -0.439528359959E+01  0.165327000000E-15
  0.874946219894E+01 -0.456072063527E+01  0.165327000000E-15
  0.936375000000E+01 -0.472313000000E+01  0.165327000000E-15
  0.417833850858E+01 -0.428188266923E+01  0.110218000000E-15
  0.479246370258E+01 -0.442920310403E+01  0.110218000000E-15
  0.541652470990E+01 -0.459275421714E+01  0.110218000000E-15
  0.604009498448E+01 -0.475974115284E+01  0.110218000000E-15
  0.666186305582E+01 -0.492675896868E+01  0.110218000000E-15
  0.728185624393E+01 -0.509335971359E+01  0.110218000000E-15
  0.790056181779E+01 -0.525944680435E+01  0.110218000000E-15
  0.851790387993E+01 -0.542537690884E+01  0.110218000000E-15
  0.913082000000E+01 -0.559247000000E+01  0.110218000000E-15
  0.398707664770E+01 -0.515978115431E+01  0.551091000000E-16
  0.460598801306E+01 -0.530506662103E+01  0.551091000000E-16
  0.522193284478E+01 -0.547013060629E+01  0.551091000000E-16
  0.583695385284E+01 -0.563485638143E+01  0.551091000000E-16
  0.645059217163E+01 -0.579983265785E+01  0.551091000000E-16
  0.706336095995E+01 -0.596442452946E+01  0.551091000000E-16
  0.767558953446E+01 -0.612886674342E+01  0.551091000000E-16
  0.828759095290E+01 -0.629281398558E+01  0.551091000000E-16
  0.889788000000E+01 -0.646180000000E+01  0.551091000000E-16
  0.383531000000E+01 -0.603704000000E+01  0.160807890840E-27
  0.443902000000E+01 -0.619880000000E+01  0.389618778014E-28
  0.504272000000E+01 -0.636056000000E+01  0.463379602563E-28
  0.564643000000E+01 -0.652232000000E+01  0.445707140888E-28
  0.625013000000E+01 -0.668408000000E+01  0.424815044660E-28
  0.685383000000E+01 -0.684585000000E+01  0.405031778188E-28
  0.745754000000E+01 -0.700761000000E+01  0.390615699883E-28
  0.806124000000E+01 -0.716937000000E+01  0.358352120124E-28
  0.866494000000E+01 -0.733113000000E+01  0.129306081799E-28
  0.499283000000E+01 -0.171713000000E+01  0.351978000000E+00
  0.559653000000E+01 -0.187889000000E+01  0.351978000000E+00
  0.620024000000E+01 -0.204065000000E+01  0.351978000000E+00
  0.680394000000E+01 -0.220241000000E+01  0.351978000000E+00
  0.740764000000E+01 -0.236418000000E+01  0.351978000000E+00
  0.801135000000E+01 -0.252594000000E+01  0.351978000000E+00
  0.861505000000E+01 -0.268770000000E+01  0.351978000000E+00
  0.921876000000E+01 -0.284946000000E+01  0.351978000000E+00
  0.982246000000E+01 -0.301122000000E+01  0.351978000000E+00
  0.468850084406E+01 -0.255261039115E+01  0.444631839413E+00
  0.529663463975E+01 -0.271097858576E+01  0.431647380464E+00
  0.591298898559E+01 -0.287587277146E+01  0.429818818418E+00
  0.652960411411E+01 -0.304043651632E+01  0.430644001661E+00
  0.714460266196E+01 -0.320500204469E+01  0.431662634853E+00
  0.775819922270E+01 -0.336929000593E+01  0.432312075142E+00
  0.837092072300E+01 -0.353330768883E+01  0.432681035241E+00
  0.898296125355E+01 -0.369755587097E+01  0.433025123314E+00
  0.959585000000E+01 -0.385693000000E+01  0.434732000000E+00
  0.441874765177E+01 -0.340939133206E+01  0.491430383905E+00
  0.503026540402E+01 -0.356577800300E+01  0.474947240293E+00
  0.565223492830E+01 -0.372991403899E+01  0.472118390336E+00
  0.627489047245E+01 -0.389613106723E+01  0.472280073746E+00
  0.689583369273E+01 -0.406250129907E+01  0.473339132526E+00
  0.751512136122E+01 -0.422852291880E+01  0.474184454884E+00
  0.813317664627E+01 -0.439428503888E+01  0.474848658801E+00
  0.875016515517E+01 -0.455952876039E+01  0.475907863619E+00
  0.936407000000E+01 -0.472196000000E+01  0.478239000000E+00
  0.418620795345E+01 -0.428327181799E+01  0.489863264470E+00
  0.480064218535E+01 -0.443256572616E+01  0.475686256892E+00
  0.542326276757E+01 -0.459622718362E+01  0.472335182636E+00
  0.604501669546E+01 -0.476270076735E+01  0.472677883947E+00
  0.666512243744E+01 -0.492919649798E+01  0.473616240030E+00
  0.728371726631E+01 -0.509535642684E+01  0.474370836123E+00
  0.790133376824E+01 -0.526110806322E+01  0.474962270217E+00
  0.851789587560E+01 -0.542678336171E+01  0.475968073254E+00
  0.913050000000E+01 -0.559364000000E+01  0.478239000000E+00
  0.399359264374E+01 -0.515667025164E+01  0.442327079356E+00
  0.461241809710E+01 -0.530376480062E+01  0.432122385469E+00
  0.522722317483E+01 -0.546883089943E+01  0.431155938576E+00
  0.584105381332E+01 -0.563320400465E+01  0.431696805341E+00
  0.645369081000E+01 -0.579781779669E+01  0.432331073687E+00
  0.706563911637E+01 -0.596212038672E+01  0.432708047723E+00
  0.767719108864E+01 -0.612632197637E+01  0.432916933252E+00
  0.828864181640E+01 -0.629006681868E+01  0.433154319632E+00
  0.889872000000E+01 -0.645867000000E+01  0.434732000000E+00
  0.384248000000E+01 -0.601028000000E+01  0.351978000000E+00
  0.444619000000E+01 -0.617204000000E+01  0.351978000000E+00
  0.504989000000E+01 -0.633380000000E+01  0.351978000000E+00
  0.565359000000E+01 -0.649556000000E+01  0.351978000000E+00
  0.625730000000E+01 -0.665733000000E+01  0.351978000000E+00
  0.686100000000E+01 -0.681909000000E+01  0.351978000000E+00
  0.746471000000E+01 -0.698085000000E+01  0.351978000000E+00
  0.806841000000E+01 -0.714261000000E+01  0.351978000000E+00
  0.867211000000E+01 -0.730437000000E+01  0.351978000000E+00
  0.497150000000E+01 -0.179674000000E+01  0.695288000000E+00
  0.557520000000E+01 -0.195850000000E+01  0.695288000000E+00
  0.617891000000E+01 -0.212026000000E+01  0.695288000000E+00
  0.678261000000E+01 -0.228203000000E+01  0.695288000000E+00
  0.738631000000E+01 -0.244379000000E+01  0.695288000000E+00
  0.799002000000E+01 -0.260555000000E+01  0.695288000000E+00
  0.859372000000E+01 -0.276731000000E+01  0.695288000000E+00
  0.919742000000E+01 -0.292907000000E+01  0.695288000000E+00
  0.980113000000E+01 -0.309084000000E+01  0.695288000000E+00
  0.469675591871E+01 -0.258805736167E+01  0.876050543145E+00
  0.530717009642E+01 -0.275032345202E+01  0.855711131714E+00
  0.591946003099E+01 -0.291323763694E+01  0.853128173319E+00
  0.653124972516E+01 -0.307681244724E+01  0.854490560137E+00
  0.714252535843E+01 -0.324052201513E+01  0.856026973491E+00
  0.775343418838E+01 -0.340427868603E+01  0.856955607160E+00
  0.836411623050E+01 -0.356786184368E+01  0.857466800682E+00
  0.897457106416E+01 -0.373177404406E+01  0.857928196693E+00
  0.958652000000E+01 -0.389178000000E+01  0.860798000000E+00
  0.443976328447E+01 -0.341988582027E+01  0.968851991969E+00
  0.505281652255E+01 -0.358092529170E+01  0.942052001365E+00
  0.567078077297E+01 -0.374456339964E+01  0.937865753423E+00
  0.628796484386E+01 -0.390925302345E+01  0.938362013193E+00
  0.690389008335E+01 -0.407423906067E+01  0.940057006313E+00
  0.751911871405E+01 -0.423919026314E+01  0.941292857777E+00
  0.813400853672E+01 -0.440413708052E+01  0.942222399066E+00
  0.874869980186E+01 -0.456880289231E+01  0.943823115768E+00
  0.936155000000E+01 -0.473135000000E+01  0.947812000000E+00
  0.421033303155E+01 -0.427467205868E+01  0.966748361993E+00
  0.482576488467E+01 -0.442911117780E+01  0.943151605829E+00
  0.544467174372E+01 -0.459290758430E+01  0.938100898393E+00
  0.606159124637E+01 -0.475809796927E+01  0.938902169610E+00
  0.667721020046E+01 -0.492322893864E+01  0.940440983065E+00
  0.729213007926E+01 -0.508823802462E+01  0.941560268761E+00
  0.790680185576E+01 -0.525306208372E+01  0.942390267409E+00
  0.852121869918E+01 -0.541805156486E+01  0.943914228422E+00
  0.913302000000E+01 -0.558424000000E+01  0.947812000000E+00
  0.401692166675E+01 -0.512188198943E+01  0.873100414453E+00
  0.463563678177E+01 -0.527358662074E+01  0.856271152486E+00
  0.524752059725E+01 -0.543847037020E+01  0.855012200674E+00
  0.585832729880E+01 -0.560193878078E+01  0.855988847888E+00
  0.646844623596E+01 -0.576571101549E+01  0.857001779752E+00
  0.707845288782E+01 -0.592929087144E+01  0.857548798160E+00
  0.768835864603E+01 -0.609293035463E+01  0.857832805449E+00
  0.829842344861E+01 -0.625623250640E+01  0.858135737573E+00
  0.890806000000E+01 -0.642382000000E+01  0.860798000000E+00
  0.386382000000E+01 -0.593067000000E+01  0.695288000000E+00
  0.446752000000E+01 -0.609243000000E+01  0.695288000000E+00
  0.507122000000E+01 -0.625419000000E+01  0.695288000000E+00
  0.567493000000E+01 -0.641595000000E+01  0.695288000000E+00
  0.627863000000E+01 -0.657771000000E+01  0.695288000000E+00
  0.688233000000E+01 -0.673948000000E+01  0.695288000000E+00
  0.748604000000E+01 -0.690124000000E+01  0.695288000000E+00
  0.808974000000E+01 -0.706300000000E+01  0.695288000000E+00
  0.869345000000E+01 -0.722476000000E+01  0.695288000000E+00
  0.493653000000E+01 -0.192725000000E+01  0.102148000000E+01
  0.554023000000E+01 -0.208901000000E+01  0.102148000000E+01
  0.614394000000E+01 -0.225077000000E+01  0.102148000000E+01
  0.674764000000E+01 -0.241254000000E+01  0.102148000000E+01
  0.735134000000E+01 -0.257430000000E+01  0.102148000000E+01
  0.795505000000E+01 -0.273606000000E+01  0.102148000000E+01
  0.855875000000E+01 -0.289782000000E+01  0.102148000000E+01
  0.916245000000E+01 -0.305958000000E+01  0.102148000000E+01
  0.976616000000E+01 -0.322134000000E+01  0.102148000000E+01
  0.470107868904E+01 -0.265552872074E+01  0.128402692741E+01
  0.531408642283E+01 -0.282111533224E+01  0.126427206549E+01
  0.592124853000E+01 -0.298185439783E+01  0.126251402508E+01
  0.652727903049E+01 -0.314399017939E+01  0.126388738282E+01
  0.713444858992E+01 -0.330690241965E+01  0.126517014802E+01
  0.774226002240E+01 -0.346996974086E+01  0.126595068487E+01
  0.835024482703E+01 -0.363301792380E+01  0.126633520561E+01
  0.895851187193E+01 -0.379632303042E+01  0.126659426800E+01
  0.956900000000E+01 -0.395716000000E+01  0.126974000000E+01
  0.446574429268E+01 -0.344290737683E+01  0.142105810614E+01
  0.508119791317E+01 -0.360840520764E+01  0.139331823436E+01
  0.569363164231E+01 -0.377111617332E+01  0.139041216498E+01
  0.630329485684E+01 -0.393358936616E+01  0.139126931969E+01
  0.691286163891E+01 -0.409695257377E+01  0.139280038717E+01
  0.752298805240E+01 -0.426056458810E+01  0.139381783467E+01
  0.813358413727E+01 -0.442444762315E+01  0.139447980600E+01
  0.874506557481E+01 -0.458827378461E+01  0.139579740863E+01
  0.935631000000E+01 -0.475093000000E+01  0.140026000000E+01
  0.424542788534E+01 -0.425772484252E+01  0.141963617195E+01
  0.486233682030E+01 -0.441802712102E+01  0.139426666853E+01
  0.547603631098E+01 -0.458148579919E+01  0.139043153656E+01
  0.608589488108E+01 -0.474494214599E+01  0.139165936348E+01
  0.669563960086E+01 -0.490827777084E+01  0.139309076363E+01
  0.730579109555E+01 -0.507181862709E+01  0.139403506787E+01
  0.791640443123E+01 -0.523538004960E+01  0.139462459771E+01
  0.852774165110E+01 -0.539944852105E+01  0.139587922547E+01
  0.913827000000E+01 -0.556467000000E+01  0.140026000000E+01
  0.405357858343E+01 -0.505746839423E+01  0.128231456799E+01
  0.467207471668E+01 -0.521469027133E+01  0.126441234535E+01
  0.527985516907E+01 -0.537885689349E+01  0.126398928983E+01
  0.588632505296E+01 -0.554132247049E+01  0.126510438285E+01
  0.649347951330E+01 -0.570396395442E+01  0.126600613911E+01
  0.710103279401E+01 -0.586672700870E+01  0.126649006141E+01
  0.770866896340E+01 -0.602954783428E+01  0.126668852490E+01
  0.831672609448E+01 -0.619229164169E+01  0.126680847813E+01
  0.892558000000E+01 -0.635843000000E+01  0.126974000000E+01
  0.389879000000E+01 -0.580016000000E+01  0.102148000000E+01
  0.450249000000E+01 -0.596192000000E+01  0.102148000000E+01
  0.510619000000E+01 -0.612368000000E+01  0.102148000000E+01
  0.570990000000E+01 -0.628544000000E+01  0.102148000000E+01
  0.631360000000E+01 -0.644720000000E+01  0.102148000000E+01
  0.691730000000E+01 -0.660897000000E+01  0.102148000000E+01
  0.752101000000E+01 -0.677073000000E+01  0.102148000000E+01
  0.812471000000E+01 -0.693249000000E+01  0.102148000000E+01
  0.872841000000E+01 -0.709425000000E+01  0.102148000000E+01
  0.488878000000E+01 -0.210544000000E+01  0.132252000000E+01
  0.549249000000E+01 -0.226720000000E+01  0.132252000000E+01
  0.609619000000E+01 -0.242896000000E+01  0.132252000000E+01
  0.669989000000E+01 -0.259073000000E+01  0.132252000000E+01
  0.730360000000E+01 -0.275249000000E+01  0.132252000000E+01
  0.790730000000E+01 -0.291425000000E+01  0.132252000000E+01
  0.851100000000E+01 -0.307601000000E+01  0.132252000000E+01
  0.911471000000E+01 -0.323777000000E+01  0.132252000000E+01
  0.971841000000E+01 -0.339954000000E+01  0.132252000000E+01
  0.469650310320E+01 -0.275455606181E+01  0.166191433570E+01
  0.531128037308E+01 -0.291916553891E+01  0.164957618562E+01
  0.591230607220E+01 -0.307795077496E+01  0.164959984475E+01
  0.651478664128E+01 -0.324005057768E+01  0.165019727064E+01
  0.711917593167E+01 -0.340224043500E+01  0.165081132809E+01
  0.772443967541E+01 -0.356467598989E+01  0.165116968837E+01
  0.832997900214E+01 -0.372693199032E+01  0.165139271887E+01
  0.893511214350E+01 -0.388951283693E+01  0.165126612401E+01
  0.954381000000E+01 -0.405116000000E+01  0.165354000000E+01
  0.449111208214E+01 -0.347926502363E+01  0.183959314933E+01
  0.510869830716E+01 -0.364560583159E+01  0.182187989789E+01
  0.571231716570E+01 -0.380602435189E+01  0.182228597994E+01
  0.631535192654E+01 -0.396730596315E+01  0.182250045824E+01
  0.691989076443E+01 -0.412948177569E+01  0.182323799573E+01
  0.752568241503E+01 -0.429192630612E+01  0.182362283624E+01
  0.813205139896E+01 -0.445458425470E+01  0.182392585445E+01
  0.873912203920E+01 -0.461733395495E+01  0.182417849057E+01
  0.934851000000E+01 -0.478004000000E+01  0.182756000000E+01
  0.428638728455E+01 -0.423436529287E+01  0.183942073578E+01
  0.490488462709E+01 -0.439857498303E+01  0.182218991901E+01
  0.550943201643E+01 -0.456070080171E+01  0.182214807940E+01
  0.611275953473E+01 -0.472210438120E+01  0.182265276563E+01
  0.671761729937E+01 -0.488398688300E+01  0.182335202966E+01
  0.732353928616E+01 -0.504631698278E+01  0.182372400567E+01
  0.792997750545E+01 -0.520875330573E+01  0.182399903133E+01
  0.853704554692E+01 -0.537146610217E+01  0.182422164349E+01
  0.914607000000E+01 -0.553555000000E+01  0.182756000000E+01
  0.410055299110E+01 -0.496581592645E+01  0.166137745767E+01
  0.471793606725E+01 -0.512810051993E+01  0.164935922283E+01
  0.531886224749E+01 -0.529094794518E+01  0.165028885101E+01
  0.592245958904E+01 -0.545192800286E+01  0.165076145186E+01
  0.652714173804E+01 -0.561378054906E+01  0.165125878019E+01
  0.713244063331E+01 -0.577584391832E+01  0.165147966839E+01
  0.773781445015E+01 -0.593814234457E+01  0.165161163050E+01
  0.834297301180E+01 -0.609993542238E+01  0.165141442373E+01
  0.895076000000E+01 -0.626444000000E+01  0.165354000000E+01
  0.394653000000E+01 -0.562197000000E+01  0.132252000000E+01
  0.455024000000E+01 -0.578373000000E+01  0.132252000000E+01
  0.515394000000E+01 -0.594549000000E+01  0.132252000000E+01
  0.575764000000E+01 -0.610725000000E+01  0.132252000000E+01
  0.636135000000E+01 -0.626901000000E+01  0.132252000000E+01
  0.696505000000E+01 -0.643078000000E+01  0.132252000000E+01
  0.756875000000E+01 -0.659254000000E+01  0.132252000000E+01
  0.817246000000E+01 -0.675430000000E+01  0.132252000000E+01
  0.877616000000E+01 -0.691606000000E+01  0.132252000000E+01
  0.482944000000E+01 -0.232692000000E+01  0.159099000000E+01
  0.543314000000E+01 -0.248869000000E+01  0.159099000000E+01
  0.603684000000E+01 -0.265045000000E+01  0.159099000000E+01
  0.664055000000E+01 -0.281221000000E+01  0.159099000000E+01
  0.724425000000E+01 -0.297397000000E+01  0.159099000000E+01
  0.784795000000E+01 -0.313573000000E+01  0.159099000000E+01
  0.845166000000E+01 -0.329750000000E+01  0.159099000000E+01
  0.905536000000E+01 -0.345926000000E+01  0.159099000000E+01
  0.965906000000E+01 -0.362102000000E+01  0.159099000000E+01
  0.468204000000E+01 -0.287703000000E+01  0.200476000000E+01
  0.528574000000E+01 -0.303879000000E+01  0.200476000000E+01
  0.588944000000E+01 -0.320055000000E+01  0.200476000000E+01
  0.649315000000E+01 -0.336232000000E+01  0.200476000000E+01
  0.709685000000E+01 -0.352408000000E+01  0.200476000000E+01
  0.770055000000E+01 -0.368584000000E+01  0.200476000000E+01
  0.830426000000E+01 -0.384760000000E+01  0.200476000000E+01
  0.890796000000E+01 -0.400936000000E+01  0.200476000000E+01
  0.951166000000E+01 -0.417113000000E+01  0.200476000000E+01
  0.450876000000E+01 -0.352372000000E+01  0.222230000000E+01
  0.511246000000E+01 -0.368548000000E+01  0.222230000000E+01
  0.571616000000E+01 -0.384724000000E+01  0.222230000000E+01
  0.631987000000E+01 -0.400900000000E+01  0.222230000000E+01
  0.692357000000E+01 -0.417077000000E+01  0.222230000000E+01
  0.752727000000E+01 -0.433253000000E+01  0.222230000000E+01
  0.813098000000E+01 -0.449429000000E+01  0.222230000000E+01
  0.873468000000E+01 -0.465605000000E+01  0.222230000000E+01
  0.933838000000E+01 -0.481781000000E+01  0.222230000000E+01
  0.432656000000E+01 -0.420369000000E+01  0.222230000000E+01
  0.493026000000E+01 -0.436545000000E+01  0.222230000000E+01
  0.553397000000E+01 -0.452721000000E+01  0.222230000000E+01
  0.613767000000E+01 -0.468897000000E+01  0.222230000000E+01
  0.674137000000E+01 -0.485074000000E+01  0.222230000000E+01
  0.734508000000E+01 -0.501250000000E+01  0.222230000000E+01
  0.794878000000E+01 -0.517426000000E+01  0.222230000000E+01
  0.855248000000E+01 -0.533602000000E+01  0.222230000000E+01
  0.915619000000E+01 -0.549778000000E+01  0.222230000000E+01
  0.415328000000E+01 -0.485038000000E+01  0.200476000000E+01
  0.475698000000E+01 -0.501214000000E+01  0.200476000000E+01
  0.536069000000E+01 -0.517390000000E+01  0.200476000000E+01
  0.596439000000E+01 -0.533566000000E+01  0.200476000000E+01
  0.656809000000E+01 -0.549742000000E+01  0.200476000000E+01
  0.717180000000E+01 -0.565919000000E+01  0.200476000000E+01
  0.777550000000E+01 -0.582095000000E+01  0.200476000000E+01
  0.837920000000E+01 -0.598271000000E+01  0.200476000000E+01
  0.898291000000E+01 -0.614447000000E+01  0.200476000000E+01
  0.400588000000E+01 -0.540048000000E+01  0.159099000000E+01
  0.460958000000E+01 -0.556224000000E+01  0.159099000000E+01
  0.521329000000E+01 -0.572401000000E+01  0.159099000000E+01
  0.581699000000E+01 -0.588577000000E+01  0.159099000000E+01
  0.642069000000E+01 -0.604753000000E+01  0.159099000000E+01
  0.702440000000E+01 -0.620929000000E+01  0.159099000000E+01
  0.762810000000E+01 -0.637105000000E+01  0.159099000000E+01
  0.823180000000E+01 -0.653282000000E+01  0.159099000000E+01
  0.883551000000E+01 -0.669458000000E+01  0.159099000000E+01
 -0.135934713470E+02 -0.400768589865E+01  0.000000000000E+00
 -0.120696105521E+02 -0.616647862089E+01  0.000000000000E+00
 -0.100674604774E+02 -0.763600265374E+01  0.000000000000E+00
 -0.806065890521E+01 -0.855695068469E+01  0.000000000000E+00
 -0.605131377493E+01 -0.913938466541E+01  0.000000000000E+00
 -0.403975409676E+01 -0.946219368497E+01  0.000000000000E+00
 -0.202646729034E+01 -0.955576040271E+01  0.000000000000E+00
 -0.148506459829E-01 -0.942979507603E+01  0.000000000000E+00
  0.131440152374E+01 -0.902875388070E+01  0.000000000000E+00
  0.264934000000E+01 -0.852255000000E+01  0.000000000000E+00
 -0.135939249783E+02 -0.395848901442E+01  0.629729973938E+00
 -0.120703098273E+02 -0.609173297445E+01  0.968954639018E+00
 -0.100683043188E+02 -0.754280322044E+01  0.120016248230E+01
 -0.806090329641E+01 -0.845265891679E+01  0.134313028600E+01
 -0.605155907909E+01 -0.902820017170E+01  0.143361192273E+01
 -0.403973752251E+01 -0.934717209517E+01  0.148311401887E+01
 -0.202636770312E+01 -0.943926947699E+01  0.149797676775E+01
 -0.146645677305E-01 -0.931433804394E+01  0.147940304757E+01
  0.132061724047E+01 -0.892899090647E+01  0.134858458443E+01
  0.265940000000E+01 -0.845929000000E+01  0.891107553475E+00
 -0.135953703122E+02 -0.381211934688E+01  0.124461513489E+01
 -0.120713018232E+02 -0.586720235993E+01  0.191461122823E+01
 -0.100698807563E+02 -0.726482271386E+01  0.236881851062E+01
 -0.806189624393E+01 -0.814236549152E+01  0.265236095625E+01
 -0.605207117302E+01 -0.869728206038E+01  0.283055762967E+01
 -0.403969138668E+01 -0.900416255538E+01  0.292927492497E+01
 -0.202616740500E+01 -0.909224930555E+01  0.295887131090E+01
 -0.140440881060E-01 -0.897097104840E+01  0.292216878412E+01
  0.133886080349E+01 -0.863254821762E+01  0.266368410883E+01
  0.268944000000E+01 -0.827083000000E+01  0.176335340653E+01
 -0.135965410761E+02 -0.357194339025E+01  0.182788246284E+01
 -0.120725712767E+02 -0.549768334332E+01  0.281156243815E+01
 -0.100716246443E+02 -0.680934934965E+01  0.347780985641E+01
 -0.806341490717E+01 -0.763265692203E+01  0.389426562858E+01
 -0.605249627759E+01 -0.815315871973E+01  0.415661725255E+01
 -0.403955876020E+01 -0.844011388779E+01  0.430299868612E+01
 -0.202580631868E+01 -0.852234149182E+01  0.434689765934E+01
 -0.134991880793E-01 -0.840812927946E+01  0.429277866233E+01
  0.136873849154E+01 -0.814746088345E+01  0.391219404380E+01
  0.273896000000E+01 -0.796106000000E+01  0.259816102471E+01
 -0.135972864868E+02 -0.324381709357E+01  0.236561916809E+01
 -0.120741190028E+02 -0.499306962876E+01  0.363902797979E+01
 -0.100733670443E+02 -0.618616206836E+01  0.449997366414E+01
 -0.806474100776E+01 -0.693522139195E+01  0.503853560123E+01
 -0.605274778192E+01 -0.740920215800E+01  0.537951469575E+01
 -0.403941380404E+01 -0.767129999189E+01  0.556915283348E+01
 -0.202536697944E+01 -0.774584063222E+01  0.562613660297E+01
 -0.132703874252E-01 -0.763995921581E+01  0.555606866122E+01
  0.140873286682E+01 -0.748665896096E+01  0.506382043903E+01
  0.280715000000E+01 -0.753640000000E+01  0.337759692389E+01
 -0.135981049176E+02 -0.283601943181E+01  0.284518502560E+01
 -0.120758902254E+02 -0.436541064177E+01  0.437710215784E+01
 -0.100757259106E+02 -0.541001989096E+01  0.541073418412E+01
 -0.806687563467E+01 -0.606780501774E+01  0.605764086419E+01
 -0.605480281810E+01 -0.648334970318E+01  0.646720851756E+01
 -0.404042686688E+01 -0.671185409256E+01  0.669473986769E+01
 -0.202490506772E+01 -0.677608499061E+01  0.676340651707E+01
 -0.103386408183E-01 -0.668258863446E+01  0.668043857812E+01
  0.145780804546E+01 -0.666694420501E+01  0.609180638029E+01
  0.289295000000E+01 -0.700555000000E+01  0.408514104552E+01
 -0.135983983409E+02 -0.235808144462E+01  0.325474896750E+01
 -0.120785954637E+02 -0.363049324017E+01  0.500686306216E+01
 -0.100775813258E+02 -0.450104169977E+01  0.618776951671E+01
 -0.806878701945E+01 -0.504943308787E+01  0.692717678635E+01
 -0.605739957495E+01 -0.539526164758E+01  0.739579274144E+01
 -0.404141159275E+01 -0.558507163314E+01  0.765609337092E+01
 -0.202437397610E+01 -0.563754962942E+01  0.773480514290E+01
 -0.725861972443E-02 -0.555872875771E+01  0.764059949824E+01
  0.152101170857E+01 -0.567376456707E+01  0.699976948436E+01
  0.303424000000E+01 -0.614055000000E+01  0.490146170809E+01
 -0.135983356805E+02 -0.182230754054E+01  0.358411287828E+01
 -0.120803419423E+02 -0.280607465254E+01  0.551306271086E+01
 -0.100795366537E+02 -0.348050286202E+01  0.681132161258E+01
 -0.806944142415E+01 -0.390571333828E+01  0.762429693601E+01
 -0.605736321991E+01 -0.417503111418E+01  0.814149212733E+01
 -0.404143100402E+01 -0.432127215195E+01  0.842977889254E+01
 -0.202476157400E+01 -0.436035216197E+01  0.851716134349E+01
 -0.504294674863E-02 -0.429794422328E+01  0.841343814797E+01
  0.159097794239E+01 -0.455581245582E+01  0.773011328131E+01
  0.320142000000E+01 -0.513372000000E+01  0.553009688405E+01
 -0.135986985683E+02 -0.124150934354E+01  0.382518635476E+01
 -0.120811037183E+02 -0.191235818404E+01  0.588364263059E+01
 -0.100814888580E+02 -0.237233631747E+01  0.726791717296E+01
 -0.807117314125E+01 -0.266283809704E+01  0.813225016820E+01
 -0.605621804114E+01 -0.284803080731E+01  0.868207550964E+01
 -0.404004822269E+01 -0.294994309320E+01  0.899072143643E+01
 -0.202365704299E+01 -0.297546306693E+01  0.908800527987E+01
 -0.610507837230E-02 -0.293108444766E+01  0.897886205194E+01
  0.166639471979E+01 -0.334053942819E+01  0.826408361120E+01
  0.339046000000E+01 -0.402099000000E+01  0.594558736906E+01
 -0.135984544316E+02 -0.630435172167E+00  0.397200999460E+01
 -0.120815099477E+02 -0.970811977425E+00  0.610927256673E+01
 -0.100826233160E+02 -0.120483600306E+01  0.754562284906E+01
 -0.807221569652E+01 -0.135232601209E+01  0.844186320232E+01
 -0.605666461121E+01 -0.144643587601E+01  0.901228373058E+01
 -0.403926776162E+01 -0.149827830507E+01  0.933010654895E+01
 -0.202129100732E+01 -0.151356548666E+01  0.943133124303E+01
 -0.582494531456E-02 -0.148765816490E+01  0.932079885052E+01
  0.174596522729E+01 -0.205804489219E+01  0.858856810063E+01
  0.359729000000E+01 -0.284101000000E+01  0.612877208698E+01
 -0.135981446286E+02 -0.355864270751E-02  0.402101579033E+01
 -0.120811625036E+02 -0.527295681422E-02  0.618435560032E+01
 -0.100825831675E+02 -0.703090004495E-02  0.763799596971E+01
 -0.807200519790E+01 -0.818604255420E-02  0.854490360938E+01
 -0.605661743939E+01 -0.850679168343E-02  0.912271246465E+01
 -0.403881862032E+01 -0.831450597177E-02  0.944437786406E+01
 -0.202084086562E+01 -0.724883205966E-02  0.954562119482E+01
 -0.510650335520E-02 -0.686196093395E-02  0.943502236353E+01
  0.182851430918E+01 -0.738993560202E+00  0.869656528913E+01
  0.381812000000E+01 -0.163350000000E+01  0.606763804342E+01
 -0.135971813283E+02  0.623253694842E+00  0.397085663477E+01
 -0.120803281314E+02  0.960452164160E+00  0.610707378161E+01
 -0.100809597686E+02  0.119042066765E+01  0.754270703970E+01
 -0.807069714945E+01  0.133584906589E+01  0.843894004731E+01
 -0.605541866839E+01  0.142883983597E+01  0.900923899208E+01
 -0.403851615673E+01  0.148165373132E+01  0.932793837933E+01
 -0.202087006373E+01  0.149753767474E+01  0.942931260909E+01
 -0.606005585632E-02  0.147488044075E+01  0.931985667238E+01
  0.168213405876E+01  0.858269374030E+00  0.875334695256E+01
  0.346924000000E+01  0.119503000000E+00  0.677739483971E+01
 -0.135968627804E+02  0.123462306242E+01  0.382282657038E+01
 -0.120784288693E+02  0.190199742690E+01  0.587904522056E+01
 -0.100782981802E+02  0.235736386197E+01  0.726195108657E+01
 -0.806802404327E+01  0.264546277528E+01  0.812643636804E+01
 -0.605401776318E+01  0.282913789481E+01  0.867663227756E+01
 -0.403913748708E+01  0.293022045625E+01  0.898621264890E+01
 -0.202218801221E+01  0.295774195500E+01  0.908316392618E+01
 -0.580860572150E-02  0.291736810043E+01  0.897490984768E+01
  0.153678805229E+01  0.243578732868E+01  0.851453644858E+01
  0.311159000000E+01  0.194949000000E+01  0.697003560997E+01
 -0.135960914523E+02  0.181564698595E+01  0.358066803134E+01
 -0.120762989947E+02  0.279564573227E+01  0.550625130086E+01
 -0.100745289312E+02  0.346480440580E+01  0.680219365624E+01
 -0.806597138698E+01  0.388566649687E+01  0.761503692547E+01
 -0.605297390210E+01  0.415293181623E+01  0.813151134144E+01
 -0.404016788610E+01  0.429959682073E+01  0.841982535390E+01
 -0.202174320569E+01  0.434097203611E+01  0.850786356775E+01
 -0.557242215108E-02  0.428254287214E+01  0.840603392707E+01
  0.139815641181E+01  0.394014037655E+01  0.798748524260E+01
  0.276762000000E+01  0.373421000000E+01  0.666162926217E+01
 -0.135952745509E+02  0.235182582362E+01  0.325079609744E+01
 -0.120733256243E+02  0.362073355073E+01  0.499732504419E+01
 -0.100701996652E+02  0.448371628045E+01  0.617356150025E+01
 -0.806321734036E+01  0.502748985838E+01  0.691193508510E+01
 -0.605161147446E+01  0.537144365045E+01  0.737976183995E+01
 -0.403785282484E+01  0.556160056232E+01  0.764048746519E+01
 -0.202164268838E+01  0.561609660468E+01  0.772098154875E+01
 -0.769509850362E-02  0.554148942975E+01  0.762895095540E+01
  0.126728646240E+01  0.532040773297E+01  0.718823036834E+01
  0.245735000000E+01  0.536055000000E+01  0.588854746090E+01
 -0.135948704971E+02  0.283075133384E+01  0.284125375551E+01
 -0.120714113876E+02  0.435646644863E+01  0.436674237159E+01
 -0.100682766837E+02  0.539228816099E+01  0.539583164695E+01
 -0.805921300950E+01  0.604414503215E+01  0.604155291215E+01
 -0.604884808486E+01  0.645732998556E+01  0.645068359190E+01
 -0.403574978178E+01  0.668547558991E+01  0.667863284907E+01
 -0.202139270788E+01  0.675213003882E+01  0.674861582673E+01
 -0.113703206791E-01  0.666275683583E+01  0.666772114236E+01
  0.115494436645E+01  0.653086523003E+01  0.615074568682E+01
  0.219858000000E+01  0.672672000000E+01  0.471737248612E+01
 -0.135940288903E+02  0.323886823578E+01  0.236179273184E+01
 -0.120703408824E+02  0.498394681441E+01  0.363018376580E+01
 -0.100668822976E+02  0.616671124683E+01  0.448637332965E+01
 -0.805785321229E+01  0.691004583827E+01  0.502297543447E+01
 -0.604682238295E+01  0.738105856937E+01  0.536388484142E+01
 -0.403470090857E+01  0.764282509384E+01  0.555396831826E+01
 -0.202217998129E+01  0.771947953207E+01  0.561185509462E+01
 -0.113472882015E-01  0.761831362496E+01  0.554325211267E+01
  0.107694675579E+01  0.739483373508E+01  0.510959765168E+01
  0.208004000000E+01  0.735507000000E+01  0.390420361767E+01
 -0.135928173556E+02  0.356682839432E+01  0.182463519310E+01
 -0.120685100368E+02  0.548772114775E+01  0.280415258655E+01
 -0.100649699192E+02  0.678774643438E+01  0.346571329053E+01
 -0.805664764642E+01  0.760448952845E+01  0.387986901450E+01
 -0.604627600460E+01  0.812185923071E+01  0.414274986440E+01
 -0.403452324043E+01  0.840868488275E+01  0.428978826364E+01
 -0.202205097550E+01  0.849349340589E+01  0.433471654503E+01
 -0.108306460230E-01  0.838369943323E+01  0.428164996438E+01
  0.101292791106E+01  0.808984041444E+01  0.394473028618E+01
  0.198540000000E+01  0.785780000000E+01  0.300585435931E+01
 -0.135916321046E+02  0.380704765511E+01  0.124240155198E+01
 -0.120672616769E+02  0.585663316364E+01  0.190873961426E+01
 -0.100634858868E+02  0.724227455368E+01  0.235968627212E+01
 -0.805555196672E+01  0.811295270404E+01  0.264165794381E+01
 -0.604581225001E+01  0.866485719022E+01  0.281974084747E+01
 -0.403450174604E+01  0.897101289080E+01  0.291948320517E+01
 -0.202204292937E+01  0.906157806962E+01  0.295002697607E+01
 -0.110598504641E-01  0.894536260556E+01  0.291443295630E+01
  0.965607179877E+00  0.859958781745E+01  0.268438596164E+01
  0.191647000000E+01  0.822453000000E+01  0.204136718199E+01
 -0.135903043939E+02  0.395368308826E+01  0.628783289534E+00
 -0.120671055410E+02  0.608128289361E+01  0.965948617876E+00
 -0.100623152378E+02  0.751920380483E+01  0.119464329833E+01
 -0.805476862449E+01  0.842283248418E+01  0.133763475239E+01
 -0.604545671571E+01  0.899553635117E+01  0.142740673351E+01
 -0.403444053783E+01  0.931375634100E+01  0.147783354011E+01
 -0.202213851507E+01  0.940808686492E+01  0.149326902846E+01
 -0.114230260160E-01  0.928851719479E+01  0.147539840787E+01
  0.936183321267E+00  0.891058197882E+01  0.135874792823E+01
  0.187456000000E+01  0.844766000000E+01  0.103205148080E+01
 -0.135898715458E+02  0.400289290532E+01  0.000000000000E+00
 -0.120669183872E+02  0.615661997488E+01  0.000000000000E+00
 -0.100619375691E+02  0.761221314253E+01  0.000000000000E+00
 -0.805444608894E+01  0.852676739338E+01  0.000000000000E+00
 -0.604535149802E+01  0.910652916518E+01  0.000000000000E+00
 -0.403439479453E+01  0.942887938023E+01  0.000000000000E+00
 -0.202217829938E+01  0.952451266755E+01  0.000000000000E+00
 -0.116213461199E-01  0.940389814152E+01  0.000000000000E+00
  0.926450781163E+00  0.901511156908E+01  0.000000000000E+00
  0.186051000000E+01  0.852255000000E+01  0.000000000000E+00
 -0.139710486597E+02 -0.200281579609E+01  0.000000000000E+00
 -0.140108745259E+02 -0.160351104004E+01  0.000000000000E+00
 -0.140418060829E+02 -0.120385293320E+01  0.000000000000E+00
 -0.140622262739E+02 -0.803595875120E+00  0.000000000000E+00
 -0.140744169320E+02 -0.403104377050E+00  0.000000000000E+00
 -0.140782321249E+02 -0.246579916022E-02  0.000000000000E+00
 -0.140738955180E+02  0.398186860166E+00  0.000000000000E+00
 -0.140611633085E+02  0.798771312156E+00  0.000000000000E+00
 -0.140402487045E+02  0.119915896001E+01  0.000000000000E+00
 -0.140091917328E+02  0.159914388060E+01  0.000000000000E+00
 -0.139691234608E+02  0.199878505525E+01  0.000000000000E+00
 -0.139711501451E+02 -0.197813950426E+01  0.315706170190E+00
 -0.140084709886E+02 -0.159255537370E+01  0.351027432325E+00
 -0.140377231886E+02 -0.120088756698E+01  0.378053043661E+00
 -0.140579727955E+02 -0.804174853824E+00  0.395999057857E+00
 -0.140701347298E+02 -0.404168100159E+00  0.404620724052E+00
 -0.140740905594E+02 -0.245421580908E-02  0.403520728406E+00
 -0.140696661241E+02  0.399238464296E+00  0.404643191903E+00
 -0.140570107683E+02  0.799336616519E+00  0.395977538360E+00
 -0.140361657630E+02  0.119620286589E+01  0.377935749699E+00
 -0.140068585334E+02  0.158820288640E+01  0.350907899350E+00
 -0.139691838849E+02  0.197410701867E+01  0.315559215456E+00
 -0.139711398481E+02 -0.190481432833E+01  0.622273452623E+00
 -0.140030155137E+02 -0.154264438674E+01  0.693829790754E+00
 -0.140281972933E+02 -0.116862430300E+01  0.749327378870E+00
 -0.140464825620E+02 -0.785210479620E+00  0.787239475460E+00
 -0.140574910368E+02 -0.395410493300E+00  0.806264414739E+00
 -0.140615075209E+02 -0.244686287369E-02  0.805739729620E+00
 -0.140572526852E+02  0.390511253050E+00  0.806354603715E+00
 -0.140457710737E+02  0.780311354704E+00  0.787337841756E+00
 -0.140269941574E+02  0.116386134929E+01  0.749363485857E+00
 -0.140014728857E+02  0.153821812796E+01  0.693769876767E+00
 -0.139692329654E+02  0.190075091660E+01  0.622144969495E+00
 -0.139711400119E+02 -0.178484202353E+01  0.913434590945E+00
 -0.139948072952E+02 -0.145535260776E+01  0.102439547431E+01
 -0.140138568901E+02 -0.110826751796E+01  0.111122499139E+01
 -0.140277133590E+02 -0.747411434257E+00  0.117167514658E+01
 -0.140367752286E+02 -0.377213618472E+00  0.120406914988E+01
 -0.140405871998E+02 -0.240928262882E-02  0.120707673429E+01
 -0.140368674072E+02  0.372361137183E+00  0.120412033672E+01
 -0.140276556851E+02  0.742509580010E+00  0.117183432089E+01
 -0.140128209766E+02  0.110332312463E+01  0.111125242336E+01
 -0.139934111418E+02  0.145068148290E+01  0.102426251333E+01
 -0.139694500076E+02  0.178054780975E+01  0.913198132396E+00
 -0.139712335031E+02 -0.162111845582E+01  0.118212265664E+01
 -0.139840223045E+02 -0.133301778574E+01  0.133670598812E+01
 -0.139944453786E+02 -0.102160081947E+01  0.145925654035E+01
 -0.140022065392E+02 -0.692076764136E+00  0.154662401019E+01
 -0.140071491121E+02 -0.350318356424E+00  0.159633520194E+01
 -0.140092268247E+02 -0.243098821018E-02  0.160706517844E+01
 -0.140068375166E+02  0.345393234817E+00  0.159609329215E+01
 -0.140014531356E+02  0.687076322829E+00  0.154622899536E+01
 -0.139932846072E+02  0.101656486167E+01  0.145895332462E+01
 -0.139827213151E+02  0.132812543819E+01  0.133641608285E+01
 -0.139697128840E+02  0.161645994710E+01  0.118177414262E+01
 -0.139710616688E+02 -0.141743700747E+01  0.142139966149E+01
 -0.139709239928E+02 -0.117878751984E+01  0.162557031766E+01
 -0.139705170417E+02 -0.910898605063E+00  0.178962781818E+01
 -0.139699697057E+02 -0.620740966295E+00  0.190967693808E+01
 -0.139695767670E+02 -0.315482487760E+00  0.198279976832E+01
 -0.139692670831E+02 -0.254207470790E-02  0.200720620394E+01
 -0.139692388534E+02  0.310411029787E+00  0.198239783970E+01
 -0.139692391126E+02  0.615646691932E+00  0.190905472007E+01
 -0.139694653842E+02  0.905864848748E+00  0.178901053544E+01
 -0.139695482617E+02  0.117370312056E+01  0.162505952162E+01
 -0.139696418873E+02  0.141252511328E+01  0.142095310122E+01
CELLS       1130     10170
8      0      9     10      1     99    108    109    100
8     99    108    109    100    198    207    208    199
8    198    207    208    199    297    306    307    298
8    297    306    307    298    396    405    406    397
8    396    405    406    397    495    504    505    496
8      9     18     19     10    108    117    118    109
8    108    117    118    109    207    216    217    208
8    207    216    217    208    306    315    316    307
8    306    315    316    307    405    414    415    406
8    405    414    415    406    504    513    514    505
8     18     27     28     19    117    126    127    118
8    117    126    127    118    216    225    226    217
8    216    225    226    217    315    324    325    316
8    315    324    325    316    414    423    424    415
8    414    423    424    415    513    522    523    514
8     27     36     37     28    126    135    136    127
8    126    135    136    127    225    234    235    226
8    225    234    235    226    324    333    334    325
8    324    333    334    325    423    432    433    424
8    423    432    433    424    522    531    532    523
8     36     45     46     37    135    144    145    136
8    135    144    145    136    234    243    244    235
8    234    243    244    235    333    342    343    334
8    333    342    343    334    432    441    442    433
8    432    441    442    433    531    540    541    532
8     45     54     55     46    144    153    154    145
8    144    153    154    145    243    252    253    244
8    243    252    253    244    342    351    352    343
8    342    351    352    343    441    450    451    442
8    441    450    451    442    540    549    550    541
8     54     63     64     55    153    162    163    154
8    153    162    163    154    252    261    262    253
8    252    261    262    253    351    360    361    352
8    351    360    361    352    450    459    460    451
8    450    459    460    451    549    558    559    550
8     63     72     73     64    162    171    172    163
8    162    171    172    163    261    270    271    262
8    261    270    271    262    360    369    370    361
8    360    369    370    361    459    468    469    460
8    459    468    469    460    558    567    568    559
8     72     81     82     73    171    180    181    172
8    171    180    181    172    270    279    280    271
8    270    279    280    271    369    378    379    370
8    369    378    379    370    468    477    478    469
8    468    477    478    469    567    576    577    568
8     81     90     91     82    180    189    190    181
8    180    189    190    181    279    288    289    280
8    279    288    289    280    378    387    388    379
8    378    387    388    379    477    486    487    478
8    477    486    487    478    576    585    586    577
8      1     10     11      2    100    109    110    101
8    100    109    110    101    199    208    209    200
8    199    208    209    200    298    307    308    299
8    298    307    308    299    397    406    407    398
8    397    406    407    398    496    505    506    497
8     10     19     20     11    109    118    119    110
8    109    118    119    110    208    217    218    209
8    208    217    218    209    307    316    317    308
8    307    316    317    308    406    415    416    407
8    406    415    416    407    505    514    515    506
8     19     28     29     20    118    127    128    119
8    118    127    128    119    217    226    227    218
8    217    226    227    218    316    325    326    317
8    316    325    326    317    415    424    425    416
8    415    424    425    416    514    523    524    515
8     28     37     38     29    127    136    137    128
8    127    136    137    128    226    235    236    227
8    226    235    236    227    325    334    335    326
8    325    334    335    326    424    433    434    425
8    424    433    434    425    523    532    533    524
8     37     46     47     38    136    145    146    137
8    136    145    146    137    235    244    245    236
8    235    244    245    236    334    343    344    335
8    334    343    344    335    433    442    443    434
8    433    442    443    434    532    541    542    533
8     46     55     56     47    145    154    155    146
8    145    154    155    146    244    253    254    245
8    244    253    254    245    343    352    353    344
8    343    352    353    344    442    451    452    443
8    442    451    452    443    541    550    551    542
8     55     64     65     56    154    163    164    155
8    154    163    164    155    253    262    263    254
8    253    262    263    254    352    361    362    353
8    352    361    362    353    451    460    461    452
8    451    460    461    452    550    559    560    551
8     64     73     74     65    163    172    173    164
8    163    172    173    164    262    271    272    263
8    262    271    272    263    361    370    371    362
8    361    370    371    362    460    469    470    461
8    460    469    470    461    559    568    569    560
8     73     82     83     74    172    181    182    173
8    172    181    182    173    271    280    281    272
8    271    280    281    272    370    379    380    371
8    370    379    380    371    469    478    479    470
8    469    478    479    470    568    577    578    569
8     82     91     92     83    181    190    191    182
8    181    190    191    182    280    289    290    281
8    280    289    290    281    379    388    389    380
8    379    388    389    380    478    487    488    479
8    478    487    488    479    577    586    587    578
8      2     11     12      3    101    110    111    102
8    101    110    111    102    200    209    210    201
8    200    209    210    201    299    308    309    300
8    299    308    309    300    398    407    408    399
8    398    407    408    399    497    506    507    498
8     11     20     21     12    110    119    120    111
8    110    119    120    111    209    218    219    210
8    209    218    219    210    308    317    318    309
8    308    317    318    309    407    416    417    408
8    407    416    417    408    506    515    516    507
8     20     29     30     21    119    128    129    120
8    119    128    129    120    218    227    228    219
8    218    227    228    219    317    326    327    318
8    317    326    327    318    416    425    426    417
8    416    425    426    417    515    524    525    516
8     29     38     39     30    128    137    138    129
8    128    137    138    129    227    236    237    228
8    227    236    237    228    326    335    336    327
8    326    335    336    327    425    434    435    426
8    425    434    435    426    524    533    534    525
8     38     47     48     39    137    146    147    138
8    137    146    147    138    236    245    246    237
8    236    245    246    237    335    344    345    336
8    335    344    345    336    434    443    444    435
8    434    443    444    435    533    542    543    534
8     47     56     57     48    146    155    156    147
8    146    155    156    147    245    254    255    246
8    245    254    255    246    344    353    354    345
8    344    353    354    345    443    452    453    444
8    443    452    453    444    542    551    552    543
8     56     65     66     57    155    164    165    156
8    155    164    165    156    254    263    264    255
8    254    263    264    255    353    362    363    354
8    353    362    363    354    452    461    462    453
8    452    461    462    453    551    560    561    552
8     65     74     75     66    164    173    174    165
8    164    173    174    165    263    272    273    264
8    263    272    273    264    362    371    372    363
8    362    371    372    363    461    470    471    462
8    461    470    471    462    560    569    570    561
8     74     83     84     75    173    182    183    174
8    173    182    183    174    272    281    282    273
8    272    281    282    273    371    380    381    372
8    371    380    381    372    470    479    480    471
8    470    479    480    471    569    578    579    570
8     83     92     93     84    182    191    192    183
8    182    191    192    183    281    290    291    282
8    281    290    291    282    380    389    390    381
8    380    389    390    381    479    488    489    480
8    479    488    489    480    578    587    588    579
8      3     12     13      4    102    111    112    103
8    102    111    112    103    201    210    211    202
8    201    210    211    202    300    309    310    301
8    300    309    310    301    399    408    409    400
8    399    408    409    400    498    507    508    499
8     12     21     22     13    111    120    121    112
8    111    120    121    112    210    219    220    211
8    210    219    220    211    309    318    319    310
8    309    318    319    310    408    417    418    409
8    408    417    418    409    507    516    517    508
8     21     30     31     22    120    129    130    121
8    120    129    130    121    219    228    229    220
8    219    228    229    220    318    327    328    319
8    318    327    328    319    417    426    427    418
8    417    426    427    418    516    525    526    517
8     30     39     40     31    129    138    139    130
8    129    138    139    130    228    237    238    229
8    228    237    238    229    327    336    337    328
8    327    336    337    328    426    435    436    427
8    426    435    436    427    525    534    535    526
8     39     48     49     40    138    147    148    139
8    138    147    148    139    237    246    247    238
8    237    246    247    238    336    345    346    337
8    336    345    346    337    435    444    445    436
8    435    444    445    436    534    543    544    535
8     48     57     58     49    147    156    157    148
8    147    156    157    148    246    255    256    247
8    246    255    256    247    345    354    355    346
8    345    354    355    346    444    453    454    445
8    444    453    454    445    543    552    553    544
8     57     66     67     58    156    165    166    157
8    156    165    166    157    255    264    265    256
8    255    264    265    256    354    363    364    355
8    354    363    364    355    453    462    463    454
8    453    462    463    454    552    561    562    553
8     66     75     76     67    165    174    175    166
8    165    174    175    166    264    273    274    265
8    264    273    274    265    363    372    373    364
8    363    372    373    364    462    471    472    463
8    462    471    472    463    561    570    571    562
8     75     84     85     76    174    183    184    175
8    174    183    184    175    273    282    283    274
8    273    282    283    274    372    381    382    373
8    372    381    382    373    471    480    481    472
8    471    480    481    472    570    579    580    571
8     84     93     94     85    183    192    193    184
8    183    192    193    184    282    291    292    283
8    282    291    292    283    381    390    391    382
8    381    390    391    382    480    489    490    481
8    480    489    490    481    579    588    589    580
8      4     13     14      5    103    112    113    104
8    103    112    113    104    202    211    212    203
8    202    211    212    203    301    310    311    302
8    301    310    311    302    400    409    410    401
8    400    409    410    401    499    508    509    500
8     13     22     23     14    112    121    122    113
8    112    121    122    113    211    220    221    212
8    211    220    221    212    310    319    320    311
8    310    319    320    311    409    418    419    410
8    409    418    419    410    508    517    518    509
8     22     31     32     23    121    130    131    122
8    121    130    131    122    220    229    230    221
8    220    229    230    221    319    328    329    320
8    319    328    329    320    418    427    428    419
8    418    427    428    419    517    526    527    518
8     31     40     41     32    130    139    140    131
8    130    139    140    131    229    238    239    230
8    229    238    239    230    328    337    338    329
8    328    337    338    329    427    436    437    428
8    427    436    437    428    526    535    536    527
8     40     49     50     41    139    148    149    140
8    139    148    149    140    238    247    248    239
8    238    247    248    239    337    346    347    338
8    337    346    347    338    436    445    446    437
8    436    445    446    437    535    544    545    536
8     49     58     59     50    148    157    158    149
8    148    157    158    149    247    256    257    248
8    247    256    257    248    346    355    356    347
8    346    355    356    347    445    454    455    446
8    445    454    455    446    544    553    554    545
8     58     67     68     59    157    166    167    158
8    157    166    167    158    256    265    266    257
8    256    265    266    257    355    364    365    356
8    355    364    365    356    454    463    464    455
8    454    463    464    455    553    562    563    554
8     67     76     77     68    166    175    176    167
8    166    175    176    167    265    274    275    266
8    265    274    275    266    364    373    374    365
8    364    373    374    365    463    472    473    464
8    463    472    473    464    562    571    572    563
8     76     85     86     77    175    184    185    176
8    175    184    185    176    274    283    284    275
8    274    283    284    275    373    382    383    374
8    373    382    383    374    472    481    482    473
8    472    481    482    473    571    580    581    572
8     85     94     95     86    184    193    194    185
8    184    193    194    185    283    292    293    284
8    283    292    293    284    382    391    392    383
8    382    391    392    383    481    490    491    482
8    481    490    491    482    580    589    590    581
8      5     14     15      6    104    113    114    105
8    104    113    114    105    203    212    213    204
8    203    212    213    204    302    311    312    303
8    302    311    312    303    401    410    411    402
8    401    410    411    402    500    509    510    501
8     14     23     24     15    113    122    123    114
8    113    122    123    114    212    221    222    213
8    212    221    222    213    311    320    321    312
8    311    320    321    312    410    419    420    411
8    410    419    420    411    509    518    519    510
8     23     32     33     24    122    131    132    123
8    122    131    132    123    221    230    231    222
8    221    230    231    222    320    329    330    321
8    320    329    330    321    419    428    429    420
8    419    428    429    420    518    527    528    519
8     32     41     42     33    131    140    141    132
8    131    140    141    132    230    239    240    231
8    230    239    240    231    329    338    339    330
8    329    338    339    330    428    437    438    429
8    428    437    438    429    527    536    537    528
8     41     50     51     42    140    149    150    141
8    140    149    150    141    239    248    249    240
8    239    248    249    240    338    347    348    339
8    338    347    348    339    437    446    447    438
8    437    446    447    438    536    545    546    537
8     50     59     60     51    149    158    159    150
8    149    158    159    150    248    257    258    249
8    248    257    258    249    347    356    357    348
8    347    356    357    348    446    455    456    447
8    446    455    456    447    545    554    555    546
8     59     68     69     60    158    167    168    159
8    158    167    168    159    257    266    267    258
8    257    266    267    258    356    365    366    357
8    356    365    366    357    455    464    465    456
8    455    464    465    456    554    563    564    555
8     68     77     78     69    167    176    177    168
8    167    176    177    168    266    275    276    267
8    266    275    276    267    365    374    375    366
8    365    374    375    366    464    473    474    465
8    464    473    474    465    563    572    573    564
8     77     86     87     78    176    185    186    177
8    176    185    186    177    275    284    285    276
8    275    284    285    276    374    383    384    375
8    374    383    384    375    473    482    483    474
8    473    482    483    474    572    581    582    573
8     86     95     96     87    185    194    195    186
8    185    194    195    186    284    293    294    285
8    284    293    294    285    383    392    393    384
8    383    392    393    384    482    491    492    483
8    482    491    492    483    581    590    591    582
8      6     15     16      7    105    114    115    106
8    105    114    115    106    204    213    214    205
8    204    213    214    205    303    312    313    304
8    303    312    313    304    402    411    412    403
8    402    411    412    403    501    510    511    502
8     15     24     25     16    114    123    124    115
8    114    123    124    115    213    222    223    214
8    213    222    223    214    312    321    322    313
8    312    321    322    313    411    420    421    412
8    411    420    421    412    510    519    520    511
8     24     33     34     25    123    132    133    124
8    123    132    133    124    222    231    232    223
8    222    231    232    223    321    330    331    322
8    321    330    331    322    420    429    430    421
8    420    429    430    421    519    528    529    520
8     33     42     43     34    132    141    142    133
8    132    141    142    133    231    240    241    232
8    231    240    241    232    330    339    340    331
8    330    339    340    331    429    438    439    430
8    429    438    439    430    528    537    538    529
8     42     51     52     43    141    150    151    142
8    141    150    151    142    240    249    250    241
8    240    249    250    241    339    348    349    340
8    339    348    349    340    438    447    448    439
8    438    447    448    439    537    546    547    538
8     51     60     61     52    150    159    160    151
8    150    159    160    151    249    258    259    250
8    249    258    259    250    348    357    358    349
8    348    357    358    349    447    456    457    448
8    447    456    457    448    546    555    556    547
8     60     69     70     61    159    168    169    160
8    159    168    169    160    258    267    268    259
8    258    267    268    259    357    366    367    358
8    357    366    367    358    456    465    466    457
8    456    465    466    457    555    564    565    556
8     69     78     79     70    168    177    178    169
8    168    177    178    169    267    276    277    268
8    267    276    277    268    366    375    376    367
8    366    375    376    367    465    474    475    466
8    465    474    475    466    564    573    574    565
8     78     87     88     79    177    186    187    178
8    177    186    187    178    276    285    286    277
8    276    285    286    277    375    384    385    376
8    375    384    385    376    474    483    484    475
8    474    483    484    475    573    582    583    574
8     87     96     97     88    186    195    196    187
8    186    195    196    187    285    294    295    286
8    285    294    295    286    384    393    394    385
8    384    393    394    385    483    492    493    484
8    483    492    493    484    582    591    592    583
8      7     16     17      8    106    115    116    107
8    106    115    116    107    205    214    215    206
8    205    214    215    206    304    313    314    305
8    304    313    314    305    403    412    413    404
8    403    412    413    404    502    511    512    503
8     16     25     26     17    115    124    125    116
8    115    124    125    116    214    223    224    215
8    214    223    224    215    313    322    323    314
8    313    322    323    314    412    421    422    413
8    412    421    422    413    511    520    521    512
8     25     34     35     26    124    133    134    125
8    124    133    134    125    223    232    233    224
8    223    232    233    224    322    331    332    323
8    322    331    332    323    421    430    431    422
8    421    430    431    422    520    529    530    521
8     34     43     44     35    133    142    143    134
8    133    142    143    134    232    241    242    233
8    232    241    242    233    331    340    341    332
8    331    340    341    332    430    439    440    431
8    430    439    440    431    529    538    539    530
8     43     52     53     44    142    151    152    143
8    142    151    152    143    241    250    251    242
8    241    250    251    242    340    349    350    341
8    340    349    350    341    439    448    449    440
8    439    448    449    440    538    547    548    539
8     52     61     62     53    151    160    161    152
8    151    160    161    152    250    259    260    251
8    250    259    260    251    349    358    359    350
8    349    358    359    350    448    457    458    449
8    448    457    458    449    547    556    557    548
8     61     70     71     62    160    169    170    161
8    160    169    170    161    259    268    269    260
8    259    268    269    260    358    367    368    359
8    358    367    368    359    457    466    467    458
8    457    466    467    458    556    565    566    557
8     70     79     80     71    169    178    179    170
8    169    178    179    170    268    277    278    269
8    268    277    278    269    367    376    377    368
8    367    376    377    368    466    475    476    467
8    466    475    476    467    565    574    575    566
8     79     88     89     80    178    187    188    179
8    178    187    188    179    277    286    287    278
8    277    286    287    278    376    385    386    377
8    376    385    386    377    475    484    485    476
8    475    484    485    476    574    583    584    575
8     88     97     98     89    187    196    197    188
8    187    196    197    188    286    295    296    287
8    286    295    296    287    385    394    395    386
8    385    394    395    386    484    493    494    485
8    484    493    494    485    583    592    593    584
8     53     62    605    594    152    161    671    660
8    152    161    671    660    251    260    737    726
8    251    260    737    726    350    359    803    792
8    350    359    803    792    449    458    869    858
8    449    458    869    858    548    557    935    924
8     62     71    616    605    161    170    682    671
8    161    170    682    671    260    269    748    737
8    260    269    748    737    359    368    814    803
8    359    368    814    803    458    467    880    869
8    458    467    880    869    557    566    946    935
8     71     80    627    616    170    179    693    682
8    170    179    693    682    269    278    759    748
8    269    278    759    748    368    377    825    814
8    368    377    825    814    467    476    891    880
8    467    476    891    880    566    575    957    946
8     80     89    638    627    179    188    704    693
8    179    188    704    693    278    287    770    759
8    278    287    770    759    377    386    836    825
8    377    386    836    825    476    485    902    891
8    476    485    902    891    575    584    968    957
8     89     98    649    638    188    197    715    704
8    188    197    715    704    287    296    781    770
8    287    296    781    770    386    395    847    836
8    386    395    847    836    485    494    913    902
8    485    494    913    902    584    593    979    968
8      8     17   1025   1034    107    116   1079   1088
8    107    116   1079   1088    206    215   1133   1142
8    206    215   1133   1142    305    314   1187   1196
8    305    314   1187   1196    404    413   1241   1250
8    404    413   1241   1250    503    512   1295   1304
8     17     26   1016   1025    116    125   1070   1079
8    116    125   1070   1079    215    224   1124   1133
8    215    224   1124   1133    314    323   1178   1187
8    314    323   1178   1187    413    422   1232   1241
8    413    422   1232   1241    512    521   1286   1295
8     26     35   1007   1016    125    134   1061   1070
8    125    134   1061   1070    224    233   1115   1124
8    224    233   1115   1124    323    332   1169   1178
8    323    332   1169   1178    422    431   1223   1232
8    422    431   1223   1232    521    530   1277   1286
8     35     44    998   1007    134    143   1052   1061
8    134    143   1052   1061    233    242   1106   1115
8    233    242   1106   1115    332    341   1160   1169
8    332    341   1160   1169    431    440   1214   1223
8    431    440   1214   1223    530    539   1268   1277
8     44     53    594    998    143    152   1043   1052
8    143    152   1043   1052    242    251   1097   1106
8    242    251   1097   1106    341    350   1151   1160
8    341    350   1151   1160    440    449   1205   1214
8    440    449   1205   1214    539    548   1259   1268
8    594    605    606    595    660    671    672    661
8    660    671    672    661    726    737    738    727
8    726    737    738    727    792    803    804    793
8    792    803    804    793    858    869    870    859
8    858    869    870    859    924    935    936    925
8    605    616    617    606    671    682    683    672
8    671    682    683    672    737    748    749    738
8    737    748    749    738    803    814    815    804
8    803    814    815    804    869    880    881    870
8    869    880    881    870    935    946    947    936
8    616    627    628    617    682    693    694    683
8    682    693    694    683    748    759    760    749
8    748    759    760    749    814    825    826    815
8    814    825    826    815    880    891    892    881
8    880    891    892    881    946    957    958    947
8    627    638    639    628    693    704    705    694
8    693    704    705    694    759    770    771    760
8    759    770    771    760    825    836    837    826
8    825    836    837    826    891    902    903    892
8    891    902    903    892    957    968    969    958
8    638    649    650    639    704    715    716    705
8    704    715    716    705    770    781    782    771
8    770    781    782    771    836    847    848    837
8    836    847    848    837    902    913    914    903
8    902    913    914    903    968    979    980    969
8    595    606    607    596    661    672    673    662
8    661    672    673    662    727    738    739    728
8    727    738    739    728    793    804    805    794
8    793    804    805    794    859    870    871    860
8    859    870    871    860    925    936    937    926
8    606    617    618    607    672    683    684    673
8    672    683    684    673    738    749    750    739
8    738    749    750    739    804    815    816    805
8    804    815    816    805    870    881    882    871
8    870    881    882    871    936    947    948    937
8    617    628    629    618    683    694    695    684
8    683    694    695    684    749    760    761    750
8    749    760    761    750    815    826    827    816
8    815    826    827    816    881    892    893    882
8    881    892    893    882    947    958    959    948
8    628    639    640    629    694    705    706    695
8    694    705    706    695    760    771    772    761
8    760    771    772    761    826    837    838    827
8    826    837    838    827    892    903    904    893
8    892    903    904    893    958    969    970    959
8    639    650    651    640    705    716    717    706
8    705    716    717    706    771    782    783    772
8    771    782    783    772    837    848    849    838
8    837    848    849    838    903    914    915    904
8    903    914    915    904    969    980    981    970
8    596    607    608    597    662    673    674    663
8    662    673    674    663    728    739    740    729
8    728    739    740    729    794    805    806    795
8    794    805    806    795    860    871    872    861
8    860    871    872    861    926    937    938    927
8    607    618    619    608    673    684    685    674
8    673    684    685    674    739    750    751    740
8    739    750    751    740    805    816    817    806
8    805    816    817    806    871    882    883    872
8    871    882    883    872    937    948    949    938
8    618    629    630    619    684    695    696    685
8    684    695    696    685    750    761    762    751
8    750    761    762    751    816    827    828    817
8    816    827    828    817    882    893    894    883
8    882    893    894    883    948    959    960    949
8    629    640    641    630    695    706    707    696
8    695    706    707    696    761    772    773    762
8    761    772    773    762    827    838    839    828
8    827    838    839    828    893    904    905    894
8    893    904    905    894    959    970    971    960
8    640    651    652    641    706    717    718    707
8    706    717    718    707    772    783    784    773
8    772    783    784    773    838    849    850    839
8    838    849    850    839    904    915    916    905
8    904    915    916    905    970    981    982    971
8    597    608    609    598    663    674    675    664
8    663    674    675    664    729    740    741    730
8    729    740    741    730    795    806    807    796
8    795    806    807    796    861    872    873    862
8    861    872    873    862    927    938    939    928
8    608    619    620    609    674    685    686    675
8    674    685    686    675    740    751    752    741
8    740    751    752    741    806    817    818    807
8    806    817    818    807    872    883    884    873
8    872    883    884    873    938    949    950    939
8    619    630    631    620    685    696    697    686
8    685    696    697    686    751    762    763    752
8    751    762    763    752    817    828    829    818
8    817    828    829    818    883    894    895    884
8    883    894    895    884    949    960    961    950
8    630    641    642    631    696    707    708    697
8    696    707    708    697    762    773    774    763
8    762    773    774    763    828    839    840    829
8    828    839    840    829    894    905    906    895
8    894    905    906    895    960    971    972    961
8    641    652    653    642    707    718    719    708
8    707    718    719    708    773    784    785    774
8    773    784    785    774    839    850    851    840
8    839    850    851    840    905    916    917    906
8    905    916    917    906    971    982    983    972
8    598    609    610    599    664    675    676    665
8    664    675    676    665    730    741    742    731
8    730    741    742    731    796    807    808    797
8    796    807    808    797    862    873    874    863
8    862    873    874    863    928    939    940    929
8    609    620    621    610    675    686    687    676
8    675    686    687    676    741    752    753    742
8    741    752    753    742    807    818    819    808
8    807    818    819    808    873    884    885    874
8    873    884    885    874    939    950    951    940
8    620    631    632    621    686    697    698    687
8    686    697    698    687    752    763    764    753
8    752    763    764    753    818    829    830    819
8    818    829    830    819    884    895    896    885
8    884    895    896    885    950    961    962    951
8    631    642    643    632    697    708    709    698
8    697    708    709    698    763    774    775    764
8    763    774    775    764    829    840    841    830
8    829    840    841    830    895    906    907    896
8    895    906    907    896    961    972    973    962
8    642    653    654    643    708    719    720    709
8    708    719    720    709    774    785    786    775
8    774    785    786    775    840    851    852    841
8    840    851    852    841    906    917    918    907
8    906    917    918    907    972    983    984    973
8    599    610    611    600    665    676    677    666
8    665    676    677    666    731    742    743    732
8    731    742    743    732    797    808    809    798
8    797    808    809    798    863    874    875    864
8    863    874    875    864    929    940    941    930
8    610    621    622    611    676    687    688    677
8    676    687    688    677    742    753    754    743
8    742    753    754    743    808    819    820    809
8    808    819    820    809    874    885    886    875
8    874    885    886    875    940    951    952    941
8    621    632    633    622    687    698    699    688
8    687    698    699    688    753    764    765    754
8    753    764    765    754    819    830    831    820
8    819    830    831    820    885    896    897    886
8    885    896    897    886    951    962    963    952
8    632    643    644    633    698    709    710    699
8    698    709    710    699    764    775    776    765
8    764    775    776    765    830    841    842    831
8    830    841    842    831    896    907    908    897
8    896    907    908    897    962    973    974    963
8    643    654    655    644    709    720    721    710
8    709    720    721    710    775    786    787    776
8    775    786    787    776    841    852    853    842
8    841    852    853    842    907    918    919    908
8    907    918    919    908    973    984    985    974
8    600    611    612    601    666    677    678    667
8    666    677    678    667    732    743    744    733
8    732    743    744    733    798    809    810    799
8    798    809    810    799    864    875    876    865
8    864    875    876    865    930    941    942    931
8    611    622    623    612    677    688    689    678
8    677    688    689    678    743    754    755    744
8    743    754    755    744    809    820    821    810
8    809    820    821    810    875    886    887    876
8    875    886    887    876    941    952    953    942
8    622    633    634    623    688    699    700    689
8    688    699    700    689    754    765    766    755
8    754    765    766    755    820    831    832    821
8    820    831    832    821    886    897    898    887
8    886    897    898    887    952    963    964    953
8    633    644    645    634    699    710    711    700
8    699    710    711    700    765    776    777    766
8    765    776    777    766    831    842    843    832
8    831    842    843    832    897    908    909    898
8    897    908    909    898    963    974    975    964
8    644    655    656    645    710    721    722    711
8    710    721    722    711    776    787    788    777
8    776    787    788    777    842    853    854    843
8    842    853    854    843    908    919    920    909
8    908    919    920    909    974    985    986    975
8    601    612    613    602    667    678    679    668
8    667    678    679    668    733    744    745    734
8    733    744    745    734    799    810    811    800
8    799    810    811    800    865    876    877    866
8    865    876    877    866    931    942    943    932
8    612    623    624    613    678    689    690    679
8    678    689    690    679    744    755    756    745
8    744    755    756    745    810    821    822    811
8    810    821    822    811    876    887    888    877
8    876    887    888    877    942    953    954    943
8    623    634    635    624    689    700    701    690
8    689    700    701    690    755    766    767    756
8    755    766    767    756    821    832    833    822
8    821    832    833    822    887    898    899    888
8    887    898    899    888    953    964    965    954
8    634    645    646    635    700    711    712    701
8    700    711    712    701    766    777    778    767
8    766    777    778    767    832    843    844    833
8    832    843    844    833    898    909    910    899
8    898    909    910    899    964    975    976    965
8    645    656    657    646    711    722    723    712
8    711    722    723    712    777    788    789    778
8    777    788    789    778    843    854    855    844
8    843    854    855    844    909    920    921    910
8    909    920    921    910    975    986    987    976
8    602    613    614    603    668    679    680    669
8    668    679    680    669    734    745    746    735
8    734    745    746    735    800    811    812    801
8    800    811    812    801    866    877    878    867
8    866    877    878    867    932    943    944    933
8    613    624    625    614    679    690    691    680
8    679    690    691    680    745    756    757    746
8    745    756    757    746    811    822    823    812
8    811    822    823    812    877    888    889    878
8    877    888    889    878    943    954    955    944
8    624    635    636    625    690    701    702    691
8    690    701    702    691    756    767    768    757
8    756    767    768    757    822    833    834    823
8    822    833    834    823    888    899    900    889
8    888    899    900    889    954    965    966    955
8    635    646    647    636    701    712    713    702
8    701    712    713    702    767    778    779    768
8    767    778    779    768    833    844    845    834
8    833    844    845    834    899    910    911    900
8    899    910    911    900    965    976    977    966
8    646    657    658    647    712    723    724    713
8    712    723    724    713    778    789    790    779
8    778    789    790    779    844    855    856    845
8    844    855    856    845    910    921    922    911
8    910    921    922    911    976    987    988    977
8    603    614    615    604    669    680    681    670
8    669    680    681    670    735    746    747    736
8    735    746    747    736    801    812    813    802
8    801    812    813    802    867    878    879    868
8    867    878    879    868    933    944    945    934
8    614    625    626    615    680    691    692    681
8    680    691    692    681    746    757    758    747
8    746    757    758    747    812    823    824    813
8    812    823    824    813    878    889    890    879
8    878    889    890    879    944    955    956    945
8    625    636    637    626    691    702    703    692
8    691    702    703    692    757    768    769    758
8    757    768    769    758    823    834    835    824
8    823    834    835    824    889    900    901    890
8    889    900    901    890    955    966    967    956
8    636    647    648    637    702    713    714    703
8    702    713    714    703    768    779    780    769
8    768    779    780    769    834    845    846    835
8    834    845    846    835    900    911    912    901
8    900    911    912    901    966    977    978    967
8    647    658    659    648    713    724    725    714
8    713    724    725    714    779    790    791    780
8    779    790    791    780    845    856    857    846
8    845    856    857    846    911    922    923    912
8    911    922    923    912    977    988    989    978
8    998    594    990    999   1052   1043   1044   1053
8   1052   1043   1044   1053   1106   1097   1098   1107
8   1106   1097   1098   1107   1160   1151   1152   1161
8   1160   1151   1152   1161   1214   1205   1206   1215
8   1214   1205   1206   1215   1268   1259   1260   1269
8   1007    998    999   1008   1061   1052   1053   1062
8   1061   1052   1053   1062   1115   1106   1107   1116
8   1115   1106   1107   1116   1169   1160   1161   1170
8   1169   1160   1161   1170   1223   1214   1215   1224
8   1223   1214   1215   1224   1277   1268   1269   1278
8   1016   1007   1008   1017   1070   1061   1062   1071
8   1070   1061   1062   1071   1124   1115   1116   1125
8   1124   1115   1116   1125   1178   1169   1170   1179
8   1178   1169   1170   1179   1232   1223   1224   1233
8   1232   1223   1224   1233   1286   1277   1278   1287
8   1025   1016   1017   1026   1079   1070   1071   1080
8   1079   1070   1071   1080   1133   1124   1125   1134
8   1133   1124   1125   1134   1187   1178   1179   1188
8   1187   1178   1179   1188   1241   1232   1233   1242
8   1241   1232   1233   1242   1295   1286   1287   1296
8   1034   1025   1026   1035   1088   1079   1080   1089
8   1088   1079   1080   1089   1142   1133   1134   1143
8   1142   1133   1134   1143   1196   1187   1188   1197
8   1196   1187   1188   1197   1250   1241   1242   1251
8   1250   1241   1242   1251   1304   1295   1296   1305
8    999    990    991   1000   1053   1044   1045   1054
8   1053   1044   1045   1054   1107   1098   1099   1108
8   1107   1098   1099   1108   1161   1152   1153   1162
8   1161   1152   1153   1162   1215   1206   1207   1216
8   1215   1206   1207   1216   1269   1260   1261   1270
8   1008    999   1000   1009   1062   1053   1054   1063
8   1062   1053   1054   1063   1116   1107   1108   1117
8   1116   1107   1108   1117   1170   1161   1162   1171
8   1170   1161   1162   1171   1224   1215   1216   1225
8   1224   1215   1216   1225   1278   1269   1270   1279
8   1017   1008   1009   1018   1071   1062   1063   1072
8   1071   1062   1063   1072   1125   1116   1117   1126
8   1125   1116   1117   1126   1179   1170   1171   1180
8   1179   1170   1171   1180   1233   1224   1225   1234
8   1233   1224   1225   1234   1287   1278   1279   1288
8   1026   1017   1018   1027   1080   1071   1072   1081
8   1080   1071   1072   1081   1134   1125   1126   1135
8   1134   1125   1126   1135   1188   1179   1180   1189
8   1188   1179   1180   1189   1242   1233   1234   1243
8   1242   1233   1234   1243   1296   1287   1288   1297
8   1035   1026   1027   1036   1089   1080   1081   1090
8   1089   1080   1081   1090   1143   1134   1135   1144
8   1143   1134   1135   1144   1197   1188   1189   1198
8   1197   1188   1189   1198   1251   1242   1243   1252
8   1251   1242   1243   1252   1305   1296   1297   1306
8   1000    991    992   1001   1054   1045   1046   1055
8   1054   1045   1046   1055   1108   1099   1100   1109
8   1108   1099   1100   1109   1162   1153   1154   1163
8   1162   1153   1154   1163   1216   1207   1208   1217
8   1216   1207   1208   1217   1270   1261   1262   1271
8   1009   1000   1001   1010   1063   1054   1055   1064
8   1063   1054   1055   1064   1117   1108   1109   1118
8   1117   1108   1109   1118   1171   1162   1163   1172
8   1171   1162   1163   1172   1225   1216   1217   1226
8   1225   1216   1217   1226   1279   1270   1271   1280
8   1018   1009   1010   1019   1072   1063   1064   1073
8   1072   1063   1064   1073   1126   1117   1118   1127
8   1126   1117   1118   1127   1180   1171   1172   1181
8   1180   1171   1172   1181   1234   1225   1226   1235
8   1234   1225   1226   1235   1288   1279   1280   1289
8   1027   1018   1019   1028   1081   1072   1073   1082
8   1081   1072   1073   1082   1135   1126   1127   1136
8   1135   1126   1127   1136   1189   1180   1181   1190
8   1189   1180   1181   1190   1243   1234   1235   1244
8   1243   1234   1235   1244   1297   1288   1289   1298
8   1036   1027   1028   1037   1090   1081   1082   1091
8   1090   1081   1082   1091   1144   1135   1136   1145
8   1144   1135   1136   1145   1198   1189   1190   1199
8   1198   1189   1190   1199   1252   1243   1244   1253
8   1252   1243   1244   1253   1306   1297   1298   1307
8   1001    992    993   1002   1055   1046   1047   1056
8   1055   1046   1047   1056   1109   1100   1101   1110
8   1109   1100   1101   1110   1163   1154   1155   1164
8   1163   1154   1155   1164   1217   1208   1209   1218
8   1217   1208   1209   1218   1271   1262   1263   1272
8   1010   1001   1002   1011   1064   1055   1056   1065
8   1064   1055   1056   1065   1118   1109   1110   1119
8   1118   1109   1110   1119   1172   1163   1164   1173
8   1172   1163   1164   1173   1226   1217   1218   1227
8   1226   1217   1218   1227   1280   1271   1272   1281
8   1019   1010   1011   1020   1073   1064   1065   1074
8   1073   1064   1065   1074   1127   1118   1119   1128
8   1127   1118   1119   1128   1181   1172   1173   1182
8   1181   1172   1173   1182   1235   1226   1227   1236
8   1235   1226   1227   1236   1289   1280   1281   1290
8   1028   1019   1020   1029   1082   1073   1074   1083
8   1082   1073   1074   1083   1136   1127   1128   1137
8   1136   1127   1128   1137   1190   1181   1182   1191
8   1190   1181   1182   1191   1244   1235   1236   1245
8   1244   1235   1236   1245   1298   1289   1290   1299
8   1037   1028   1029   1038   1091   1082   1083   1092
8   1091   1082   1083   1092   1145   1136   1137   1146
8   1145   1136   1137   1146   1199   1190   1191   1200
8   1199   1190   1191   1200   1253   1244   1245   1254
8   1253   1244   1245   1254   1307   1298   1299   1308
8   1002    993    994   1003   1056   1047   1048   1057
8   1056   1047   1048   1057   1110   1101   1102   1111
8   1110   1101   1102   1111   1164   1155   1156   1165
8   1164   1155   1156   1165   1218   1209   1210   1219
8   1218   1209   1210   1219   1272   1263   1264   1273
8   1011   1002   1003   1012   1065   1056   1057   1066
8   1065   1056   1057   1066   1119   1110   1111   1120
8   1119   1110   1111   1120   1173   1164   1165   1174
8   1173   1164   1165   1174   1227   1218   1219   1228
8   1227   1218   1219   1228   1281   1272   1273   1282
8   1020   1011   1012   1021   1074   1065   1066   1075
8   1074   1065   1066   1075   1128   1119   1120   1129
8   1128   1119   1120   1129   1182   1173   1174   1183
8   1182   1173   1174   1183   1236   1227   1228   1237
8   1236   1227   1228   1237   1290   1281   1282   1291
8   1029   1020   1021   1030   1083   1074   1075   1084
8   1083   1074   1075   1084   1137   1128   1129   1138
8   1137   1128   1129   1138   1191   1182   1183   1192
8   1191   1182   1183   1192   1245   1236   1237   1246
8   1245   1236   1237   1246   1299   1290   1291   1300
8   1038   1029   1030   1039   1092   1083   1084   1093
8   1092   1083   1084   1093   1146   1137   1138   1147
8   1146   1137   1138   1147   1200   1191   1192   1201
8   1200   1191   1192   1201   1254   1245   1246   1255
8   1254   1245   1246   1255   1308   1299   1300   1309
8   1003    994    995   1004   1057   1048   1049   1058
8   1057   1048   1049   1058   1111   1102   1103   1112
8   1111   1102   1103   1112   1165   1156   1157   1166
8   1165   1156   1157   1166   1219   1210   1211   1220
8   1219   1210   1211   1220   1273   1264   1265   1274
8   1012   1003   1004   1013   1066   1057   1058   1067
8   1066   1057   1058   1067   1120   1111   1112   1121
8   1120   1111   1112   1121   1174   1165   1166   1175
8   1174   1165   1166   1175   1228   1219   1220   1229
8   1228   1219   1220   1229   1282   1273   1274   1283
8   1021   1012   1013   1022   1075   1066   1067   1076
8   1075   1066   1067   1076   1129   1120   1121   1130
8   1129   1120   1121   1130   1183   1174   1175   1184
8   1183   1174   1175   1184   1237   1228   1229   1238
8   1237   1228   1229   1238   1291   1282   1283   1292
8   1030   1021   1022   1031   1084   1075   1076   1085
8   1084   1075   1076   1085   1138   1129   1130   1139
8   1138   1129   1130   1139   1192   1183   1184   1193
8   1192   1183   1184   1193   1246   1237   1238   1247
8   1246   1237   1238   1247   1300   1291   1292   1301
8   1039   1030   1031   1040   1093   1084   1085   1094
8   1093   1084   1085   1094   1147   1138   1139   1148
8   1147   1138   1139   1148   1201   1192   1193   1202
8   1201   1192   1193   1202   1255   1246   1247   1256
8   1255   1246   1247   1256   1309   1300   1301   1310
8   1004    995    996   1005   1058   1049   1050   1059
8   1058   1049   1050   1059   1112   1103   1104   1113
8   1112   1103   1104   1113   1166   1157   1158   1167
8   1166   1157   1158   1167   1220   1211   1212   1221
8   1220   1211   1212   1221   1274   1265   1266   1275
8   1013   1004   1005   1014   1067   1058   1059   1068
8   1067   1058   1059   1068   1121   1112   1113   1122
8   1121   1112   1113   1122   1175   1166   1167   1176
8   1175   1166   1167   1176   1229   1220   1221   1230
8   1229   1220   1221   1230   1283   1274   1275   1284
8   1022   1013   1014   1023   1076   1067   1068   1077
8   1076   1067   1068   1077   1130   1121   1122   1131
8   1130   1121   1122   1131   1184   1175   1176   1185
8   1184   1175   1176   1185   1238   1229   1230   1239
8   1238   1229   1230   1239   1292   1283   1284   1293
8   1031   1022   1023   1032   1085   1076   1077   1086
8   1085   1076   1077   1086   1139   1130   1131   1140
8   1139   1130   1131   1140   1193   1184   1185   1194
8   1193   1184   1185   1194   1247   1238   1239   1248
8   1247   1238   1239   1248   1301   1292   1293   1302
8   1040   1031   1032   1041   1094   1085   1086   1095
8   1094   1085   1086   1095   1148   1139   1140   1149
8   1148   1139   1140   1149   1202   1193   1194   1203
8   1202   1193   1194   1203   1256   1247   1248   1257
8   1256   1247   1248   1257   1310   1301   1302   1311
8   1005    996    997   1006   1059   1050   1051   1060
8   1059   1050   1051   1060   1113   1104   1105   1114
8   1113   1104   1105   1114   1167   1158   1159   1168
8   1167   1158   1159   1168   1221   1212   1213   1222
8   1221   1212   1213   1222   1275   1266   1267   1276
8   1014   1005   1006   1015   1068   1059   1060   1069
8   1068   1059   1060   1069   1122   1113   1114   1123
8   1122   1113   1114   1123   1176   1167   1168   1177
8   1176   1167   1168   1177   1230   1221   1222   1231
8   1230   1221   1222   1231   1284   1275   1276   1285
8   1023   1014   1015   1024   1077   1068   1069   1078
8   1077   1068   1069   1078   1131   1122   1123   1132
8   1131   1122   1123   1132   1185   1176   1177   1186
8   1185   1176   1177   1186   1239   1230   1231   1240
8   1239   1230   1231   1240   1293   1284   1285   1294
8   1032   1023   1024   1033   1086   1077   1078   1087
8   1086   1077   1078   1087   1140   1131   1132   1141
8   1140   1131   1132   1141   1194   1185   1186   1195
8   1194   1185   1186   1195   1248   1239   1240   1249
8   1248   1239   1240   1249   1302   1293   1294   1303
8   1041   1032   1033   1042   1095   1086   1087   1096
8   1095   1086   1087   1096   1149   1140   1141   1150
8   1149   1140   1141   1150   1203   1194   1195   1204
8   1203   1194   1195   1204   1257   1248   1249   1258
8   1257   1248   1249   1258   1311   1302   1303   1312
8      0   1314   1324     99      1   1315   1325    100
8     99   1324   1334    198    100   1325   1335    199
8    198   1334   1344    297    199   1335   1345    298
8    297   1344   1354    396    298   1345   1355    397
8    396   1354   1364    495    397   1355   1365    496
8    495   1364   1374    504    496   1365   1375    505
8    504   1374   1384    513    505   1375   1385    514
8    513   1384   1394    522    514   1385   1395    523
8    522   1394   1404    531    523   1395   1405    532
8    531   1404   1414    540    532   1405   1415    541
8    540   1414   1424    549    541   1415   1425    550
8    549   1424   1434    558    550   1425   1435    559
8    558   1434   1444    567    559   1435   1445    568
8    567   1444   1454    576    568   1445   1455    577
8    576   1454   1464    585    577   1455   1465    586
8     90    189   1504   1514     91    190   1505   1515
8    189    288   1494   1504    190    289   1495   1505
8    288    387   1484   1494    289    388   1485   1495
8    387    486   1474   1484    388    487   1475   1485
8    486    585   1464   1474    487    586   1465   1475
8      1   1315   1325    100      2   1316   1326    101
8    100   1325   1335    199    101   1326   1336    200
8    199   1335   1345    298    200   1336   1346    299
8    298   1345   1355    397    299   1346   1356    398
8    397   1355   1365    496    398   1356   1366    497
8    496   1365   1375    505    497   1366   1376    506
8    505   1375   1385    514    506   1376   1386    515
8    514   1385   1395    523    515   1386   1396    524
8    523   1395   1405    532    524   1396   1406    533
8    532   1405   1415    541    533   1406   1416    542
8    541   1415   1425    550    542   1416   1426    551
8    550   1425   1435    559    551   1426   1436    560
8    559   1435   1445    568    560   1436   1446    569
8    568   1445   1455    577    569   1446   1456    578
8    577   1455   1465    586    578   1456   1466    587
8     91    190   1505   1515     92    191   1506   1516
8    190    289   1495   1505    191    290   1496   1506
8    289    388   1485   1495    290    389   1486   1496
8    388    487   1475   1485    389    488   1476   1486
8    487    586   1465   1475    488    587   1466   1476
8      2   1316   1326    101      3   1317   1327    102
8    101   1326   1336    200    102   1327   1337    201
8    200   1336   1346    299    201   1337   1347    300
8    299   1346   1356    398    300   1347   1357    399
8    398   1356   1366    497    399   1357   1367    498
8    497   1366   1376    506    498   1367   1377    507
8    506   1376   1386    515    507   1377   1387    516
8    515   1386   1396    524    516   1387   1397    525
8    524   1396   1406    533    525   1397   1407    534
8    533   1406   1416    542    534   1407   1417    543
8    542   1416   1426    551    543   1417   1427    552
8    551   1426   1436    560    552   1427   1437    561
8    560   1436   1446    569    561   1437   1447    570
8    569   1446   1456    578    570   1447   1457    579
8    578   1456   1466    587    579   1457   1467    588
8     92    191   1506   1516     93    192   1507   1517
8    191    290   1496   1506    192    291   1497   1507
8    290    389   1486   1496    291    390   1487   1497
8    389    488   1476   1486    390    489   1477   1487
8    488    587   1466   1476    489    588   1467   1477
8      3   1317   1327    102      4   1318   1328    103
8    102   1327   1337    201    103   1328   1338    202
8    201   1337   1347    300    202   1338   1348    301
8    300   1347   1357    399    301   1348   1358    400
8    399   1357   1367    498    400   1358   1368    499
8    498   1367   1377    507    499   1368   1378    508
8    507   1377   1387    516    508   1378   1388    517
8    516   1387   1397    525    517   1388   1398    526
8    525   1397   1407    534    526   1398   1408    535
8    534   1407   1417    543    535   1408   1418    544
8    543   1417   1427    552    544   1418   1428    553
8    552   1427   1437    561    553   1428   1438    562
8    561   1437   1447    570    562   1438   1448    571
8    570   1447   1457    579    571   1448   1458    580
8    579   1457   1467    588    580   1458   1468    589
8     93    192   1507   1517     94    193   1508   1518
8    192    291   1497   1507    193    292   1498   1508
8    291    390   1487   1497    292    391   1488   1498
8    390    489   1477   1487    391    490   1478   1488
8    489    588   1467   1477    490    589   1468   1478
8      4   1318   1328    103      5   1319   1329    104
8    103   1328   1338    202    104   1329   1339    203
8    202   1338   1348    301    203   1339   1349    302
8    301   1348   1358    400    302   1349   1359    401
8    400   1358   1368    499    401   1359   1369    500
8    499   1368   1378    508    500   1369   1379    509
8    508   1378   1388    517    509   1379   1389    518
8    517   1388   1398    526    518   1389   1399    527
8    526   1398   1408    535    527   1399   1409    536
8    535   1408   1418    544    536   1409   1419    545
8    544   1418   1428    553    545   1419   1429    554
8    553   1428   1438    562    554   1429   1439    563
8    562   1438   1448    571    563   1439   1449    572
8    571   1448   1458    580    572   1449   1459    581
8    580   1458   1468    589    581   1459   1469    590
8     94    193   1508   1518     95    194   1509   1519
8    193    292   1498   1508    194    293   1499   1509
8    292    391   1488   1498    293    392   1489   1499
8    391    490   1478   1488    392    491   1479   1489
8    490    589   1468   1478    491    590   1469   1479
8      5   1319   1329    104      6   1320   1330    105
8    104   1329   1339    203    105   1330   1340    204
8    203   1339   1349    302    204   1340   1350    303
8    302   1349   1359    401    303   1350   1360    402
8    401   1359   1369    500    402   1360   1370    501
8    500   1369   1379    509    501   1370   1380    510
8    509   1379   1389    518    510   1380   1390    519
8    518   1389   1399    527    519   1390   1400    528
8    527   1399   1409    536    528   1400   1410    537
8    536   1409   1419    545    537   1410   1420    546
8    545   1419   1429    554    546   1420   1430    555
8    554   1429   1439    563    555   1430   1440    564
8    563   1439   1449    572    564   1440   1450    573
8    572   1449   1459    581    573   1450   1460    582
8    581   1459   1469    590    582   1460   1470    591
8     95    194   1509   1519     96    195   1510   1520
8    194    293   1499   1509    195    294   1500   1510
8    293    392   1489   1499    294    393   1490   1500
8    392    491   1479   1489    393    492   1480   1490
8    491    590   1469   1479    492    591   1470   1480
8      6   1320   1330    105      7   1321   1331    106
8    105   1330   1340    204    106   1331   1341    205
8    204   1340   1350    303    205   1341   1351    304
8    303   1350   1360    402    304   1351   1361    403
8    402   1360   1370    501    403   1361   1371    502
8    501   1370   1380    510    502   1371   1381    511
8    510   1380   1390    519    511   1381   1391    520
8    519   1390   1400    528    520   1391   1401    529
8    528   1400   1410    537    529   1401   1411    538
8    537   1410   1420    546    538   1411   1421    547
8    546   1420   1430    555    547   1421   1431    556
8    555   1430   1440    564    556   1431   1441    565
8    564   1440   1450    573    565   1441   1451    574
8    573   1450   1460    582    574   1451   1461    583
8    582   1460   1470    591    583   1461   1471    592
8     96    195   1510   1520     97    196   1511   1521
8    195    294   1500   1510    196    295   1501   1511
8    294    393   1490   1500    295    394   1491   1501
8    393    492   1480   1490    394    493   1481   1491
8    492    591   1470   1480    493    592   1471   1481
8      7   1321   1331    106      8   1322   1332    107
8    106   1331   1341    205    107   1332   1342    206
8    205   1341   1351    304    206   1342   1352    305
8    304   1351   1361    403    305   1352   1362    404
8    403   1361   1371    502    404   1362   1372    503
8    502   1371   1381    511    503   1372   1382    512
8    511   1381   1391    520    512   1382   1392    521
8    520   1391   1401    529    521   1392   1402    530
8    529   1401   1411    538    530   1402   1412    539
8    538   1411   1421    547    539   1412   1422    548
8    547   1421   1431    556    548   1422   1432    557
8    556   1431   1441    565    557   1432   1442    566
8    565   1441   1451    574    566   1442   1452    575
8    574   1451   1461    583    575   1452   1462    584
8    583   1461   1471    592    584   1462   1472    593
8     97    196   1511   1521     98    197   1512   1522
8    196    295   1501   1511    197    296   1502   1512
8    295    394   1491   1501    296    395   1492   1502
8    394    493   1481   1491    395    494   1482   1492
8    493    592   1471   1481    494    593   1472   1482
8   1523   1524      9      0   1534   1535    108     99
8   1534   1535    108     99   1545   1546    207    198
8   1545   1546    207    198   1556   1557    306    297
8   1556   1557    306    297   1567   1568    405    396
8   1567   1568    405    396   1578   1579    504    495
8   1524   1525     18      9   1535   1536    117    108
8   1535   1536    117    108   1546   1547    216    207
8   1546   1547    216    207   1557   1558    315    306
8   1557   1558    315    306   1568   1569    414    405
8   1568   1569    414    405   1579   1580    513    504
8   1525   1526     27     18   1536   1537    126    117
8   1536   1537    126    117   1547   1548    225    216
8   1547   1548    225    216   1558   1559    324    315
8   1558   1559    324    315   1569   1570    423    414
8   1569   1570    423    414   1580   1581    522    513
8   1526   1527     36     27   1537   1538    135    126
8   1537   1538    135    126   1548   1549    234    225
8   1548   1549    234    225   1559   1560    333    324
8   1559   1560    333    324   1570   1571    432    423
8   1570   1571    432    423   1581   1582    531    522
8   1527   1528     45     36   1538   1539    144    135
8   1538   1539    144    135   1549   1550    243    234
8   1549   1550    243    234   1560   1561    342    333
8   1560   1561    342    333   1571   1572    441    432
8   1571   1572    441    432   1582   1583    540    531
8   1528   1529     54     45   1539   1540    153    144
8   1539   1540    153    144   1550   1551    252    243
8   1550   1551    252    243   1561   1562    351    342
8   1561   1562    351    342   1572   1573    450    441
8   1572   1573    450    441   1583   1584    549    540
8   1529   1530     63     54   1540   1541    162    153
8   1540   1541    162    153   1551   1552    261    252
8   1551   1552    261    252   1562   1563    360    351
8   1562   1563    360    351   1573   1574    459    450
8   1573   1574    459    450   1584   1585    558    549
8   1530   1531     72     63   1541   1542    171    162
8   1541   1542    171    162   1552   1553    270    261
8   1552   1553    270    261   1563   1564    369    360
8   1563   1564    369    360   1574   1575    468    459
8   1574   1575    468    459   1585   1586    567    558
8   1531   1532     81     72   1542   1543    180    171
8   1542   1543    180    171   1553   1554    279    270
8   1553   1554    279    270   1564   1565    378    369
8   1564   1565    378    369   1575   1576    477    468
8   1575   1576    477    468   1586   1587    576    567
8   1532   1533     90     81   1543   1544    189    180
8   1543   1544    189    180   1554   1555    288    279
8   1554   1555    288    279   1565   1566    387    378
8   1565   1566    387    378   1576   1577    486    477
8   1576   1577    486    477   1587   1588    585    576
8   1523   1313   1323   1534      0   1314   1324     99
8   1534   1323   1333   1545     99   1324   1334    198
8   1545   1333   1343   1556    198   1334   1344    297
8   1556   1343   1353   1567    297   1344   1354    396
8   1567   1353   1363   1578    396   1354   1364    495
8   1578   1363   1373   1579    495   1364   1374    504
8   1579   1373   1383   1580    504   1374   1384    513
8   1580   1383   1393   1581    513   1384   1394    522
8   1581   1393   1403   1582    522   1394   1404    531
8   1582   1403   1413   1583    531   1404   1414    540
8   1583   1413   1423   1584    540   1414   1424    549
8   1584   1423   1433   1585    549   1424   1434    558
8   1585   1433   1443   1586    558   1434   1444    567
8   1586   1443   1453   1587    567   1444   1454    576
8   1587   1453   1463   1588    576   1454   1464    585
8   1533   1544   1503   1513     90    189   1504   1514
8   1544   1555   1493   1503    189    288   1494   1504
8   1555   1566   1483   1493    288    387   1484   1494
8   1566   1577   1473   1483    387    486   1474   1484
8   1577   1588   1463   1473    486    585   1464   1474
CELL_TYPES  1130
12
12
12
12
12
12
12
12
12
12
12
12
12
12
12
12
12
12
12
12
12
12
12
12
12
12
12
12
12
12
12
12
12
12
12
12
12
12
12
12
12
12
12
12
12
12
12
12
12
12
12
12
12
12
12
12
12
12
12
12
12
12
12
12
12
12
12
12
12
12
12
12
12
12
12
12
12
12
12
12
12
12
12
12
12
12
12
12
12
12
12
12
12
12
12
12
12
12
12
12
12
12
12
12
12
12
12
12
12
12
12
12
12
12
12
12
12
12
12
12
12
12
12
12
12
12
12
12
12
12
12
12
12
12
12
12
12
12
12
12
12
12
12
12
12
12
12
12
12
12
12
12
12
12
12
12
12
12
12
12
12
12
12
12
12
12
12
12
12
12
12
12
12
12
12
12
12
12
12
12
12
12
12
12
12
12
12
12
12
12
12
12
12
12
12
12
12
12
12
12
12
12
12
12
12
12
12
12
12
12
12
12
12
12
12
12
12
12
12
12
12
12
12
12
12
12
12
12
12
12
12
12
12
12
12
12
12
12
12
12
12
12
12
12
12
12
12
12
12
12
12
12
12
12
12
12
12
12
12
12
12
12
12
12
12
12
12
12
12
12
12
12
12
12
12
12
12
12
12
12
12
12
12
12
12
12
12
12
12
12
12
12
12
12
12
12
12
12
12
12
12
12
12
12
12
12
12
12
12
12
12
12
12
12
12
12
12
12
12
12
12
12
12
12
12
12
12
12
12
12
12
12
12
12
12
12
12
12
12
12
12
12
12
12
12
12
12
12
12
12
12
12
12
12
12
12
12
12
12
12
12
12
12
12
12
12
12
12
12
12
12
12
12
12
12
12
12
12
12
12
12
12
12
12
12
12
12
12
12
12
12
12
12
12
12
12
12
12
12
12
12
12
12
12
12
12
12
12
12
12
12
12
12
12
12
12
12
12
12
12
12
12
12
12
12
12
12
12
12
12
12
12
12
12
12
12
12
12
12
12
12
12
12
12
12
12
12
12
12
12
12
12
12
12
12
12
12
12
12
12
12
12
12
12
12
12
12
12
12
12
12
12
12
12
12
12
12
12
12
12
12
12
12
12
12
12
12
12
12
12
12
12
12
12
12
12
12
12
12
12
12
12
12
12
12
12
12
12
12
12
12
12
12
12
12
12
12
12
12
12
12
12
12
12
12
12
12
12
12
12
12
12
12
12
12
12
12
12
12
12
12
12
12
12
12
12
12
12
12
12
12
12
12
12
12
12
12
12
12
12
12
12
12
12
12
12
12
12
12
12
12
12
12
12
12
12
12
12
12
12
12
12
12
12
12
12
12
12
12
12
12
12
12
12
12
12
12
12
12
12
12
12
12
12
12
12
12
12
12
12
12
12
12
12
12
12
12
12
12
12
12
12
12
12
12
12
12
12
12
12
12
12
12
12
12
12
12
12
12
12
12
12
12
12
12
12
12
12
12
12
12
12
12
12
12
12
12
12
12
12
12
12
12
12
12
12
12
12
12
12
12
12
12
12
12
12
12
12
12
12
12
12
12
12
12
12
12
12
12
12
12
12
12
12
12
12
12
12
12
12
12
12
12
12
12
12
12
12
12
12
12
12
12
12
12
12
12
12
12
12
12
12
12
12
12
12
12
12
12
12
12
12
12
12
12
12
12
12
12
12
12
12
12
12
12
12
12
12
12
12
12
12
12
12
12
12
12
12
12
12
12
12
12
12
12
12
12
12
12
12
12
12
12
12
12
12
12
12
12
12
12
12
12
12
12
12
12
12
12
12
12
12
12
12
12
12
12
12
12
12
12
12
12
12
12
12
12
12
12
12
12
12
12
12
12
12
12
12
12
12
12
12
12
12
12
12
12
12
12
12
12
12
12
12
12
12
12
12
12
12
12
12
12
12
12
12
12
12
12
12
12
12
12
12
12
12
12
12
12
12
12
12
12
12
12
12
12
12
12
12
12
12
12
12
12
12
12
12
12
12
12
12
12
12
12
12
12
12
12
12
12
12
12
12
12
12
12
12
12
12
12
12
12
12
12
12
12
12
12
12
12
12
12
12
12
12
12
12
12
12
12
12
12
12
12
12
12
12
12
12
12
12
12
12
12
12
12
12
12
12
12
12
12
12
12
12
12
12
12
12
12
12
12
12
12
12
12
12
12
12
12
12
12
12
12
12
12
12
12
12
12
12
12
12
12
12
12
12
12
12
12
12
12
12
12
12
12
12
12
12
12
12
12
12
12
12
12
12
12
12
12
12
12
12
12
12
12
12
12
12
12
12
12
12
12
12
12
12
12
12
12
12
12
12
12
12
12
12
12
12
12
12
12
12
12
12
12
12
12
12
12
12
12
12
12
12
12
12
12
12
12
12
12
12
12
12
12
12
12
12
12
12
12
12
12
12
12
12
12
12
12
12
12
12
12
12
12
12
12
12
12
12
12
12
12
12
12
12
12
12
12
12
12
12
12
12
12
12
12
12
12
12
12
12
12
12
12
12
12
12
12
12
12
12
12
12
12
12
12
12
12
12
12
12
12
12
12
12
12
12
POINT_DATA      1589
VECTORS Velocities float 
     0.00000000     0.00000000     0.00000000
     0.00000000     0.00000000     0.00000000
     0.00000000     0.00000000     0.00000000
     0.00000000     0.00000000     0.00000000
     0.00000000     0.00000000     0.00000000
     0.00000000     0.00000000     0.00000000
     0.00000000     0.00000000     0.00000000
     0.00000000     0.00000000     0.00000000
     0.00000000     0.00000000     0.00000000
     0.00000000     0.00000000     0.00000000
    24.06465807   -11.32535533     0.00000000
    42.33337021   -20.40507724     0.00000000
    26.14147979    10.37315388     0.00000000
    33.46172753   -17.82879071     0.00000000
   -11.57914234    20.17458771     0.00000000
  -125.15599178    12.93022883     0.00000000
  -193.21489884    28.28573985     0.00000000
  -298.43827080    17.02311634     0.00000000
     0.00000000     0.00000000     0.00000000
    16.11314573   -28.46830773     0.00000000
   -14.30063283    10.49309571     0.00000000
    12.46882922   -10.94562039     0.00000000
    10.99499032     3.21707748     0.00000000
   -11.50050631     9.47943677     0.00000000
  -107.27035447   104.37771709     0.00000000
  -106.53959502   109.02092714     0.00000000
   136.35422422   108.65439227     0.00000000
     0.00000000     0.00000000     0.00000000
   -41.26001362   -21.80839591     0.00000000
   -15.84472041    -0.38727366     0.00000000
   -11.21048602     1.99241526     0.00000000
    -3.52996311   -19.45088938     0.00000000
   -26.14214556    41.14445911     0.00000000
   -64.89772943    93.85185743     0.00000000
    15.69884859   131.86829613     0.00000000
    70.47040223    58.84621489     0.00000000
     0.00000000     0.00000000     0.00000000
   -25.70655133   -25.91479046     0.00000000
   -50.98097011     3.42912583     0.00000000
    -1.65467799   -15.76238547     0.00000000
   -26.49696456    10.01781572     0.00000000
    -1.40294571   -12.55857858     0.00000000
    30.29408954   107.99316281     0.00000000
    34.20972119    78.13739449     0.00000000
   202.50897487    49.84062171     0.00000000
     0.00000000     0.00000000     0.00000000
   -80.86462220    -8.12391981     0.00000000
   -47.30300572   -18.02136020     0.00000000
   -41.72393170   -14.99939316     0.00000000
     3.14312430   -10.97790609     0.00000000
   -31.92956568    11.42513421     0.00000000
     2.10324840   -13.02358920     0.00000000
    51.13343872   112.93320500     0.00000000
     0.00000000     0.00000000     0.00000000
     0.00000000     0.00000000     0.00000000
   -15.30070105     9.25753467     0.00000000
   -51.75187105   -41.14457310     0.00000000
     2.68948982    -7.79630073     0.00000000
   -51.28035200   -37.20217174     0.00000000
    40.41270252     6.48980581     0.00000000
   -21.99742263   -29.28043551     0.00000000
    37.58479573   -25.83710572     0.00000000
   104.19575983    69.28406851     0.00000000
     0.00000000     0.00000000     0.00000000
   -24.29112789     2.82981791     0.00000000
   -29.04252928   -18.91281091     0.00000000
   -42.37867582   -37.19539225     0.00000000
   -30.19267201   -14.62159837     0.00000000
   -52.61498253   -53.06583957     0.00000000
    38.60360356    21.65363146     0.00000000
    56.94315672  -137.09175945     0.00000000
    25.51230683   146.42936995     0.00000000
     0.00000000     0.00000000     0.00000000
    -3.75636496     9.53926534     0.00000000
   -20.23672840   -20.75080994     0.00000000
   -20.36309364   -18.08491326     0.00000000
   -81.82603543   -39.69813216     0.00000000
   -66.51813703   -11.83434693     0.00000000
   -78.06352029   -49.60775331     0.00000000
   -30.37582684     0.69194787     0.00000000
    26.98706802    58.21763896     0.00000000
     0.00000000     0.00000000     0.00000000
    32.71746956    19.64431962     0.00000000
    31.11579475    -1.38905659     0.00000000
   -15.88089003   -11.71370831     0.00000000
   -59.19896068    -8.82340901     0.00000000
  -123.47436350   -25.24537085     0.00000000
  -164.79357370    16.04408624     0.00000000
  -204.07179152    56.58868097     0.00000000
  -186.92953532   140.87113651     0.00000000
     0.00000000     0.00000000     0.00000000
     0.00000000     0.00000000     0.00000000
     0.00000000     0.00000000     0.00000000
     0.00000000     0.00000000     0.00000000
     0.00000000     0.00000000     0.00000000
     0.00000000     0.00000000     0.00000000
     0.00000000     0.00000000     0.00000000
     0.00000000     0.00000000     0.00000000
     0.00000000     0.00000000     0.00000000
     0.00000000     0.00000000     0.00000000
     0.00000000     0.00000000     0.00000000
     0.00000000     0.00000000     0.00000000
     0.00000000     0.00000000     0.00000000
     0.00000000     0.00000000     0.00000000
     0.00000000     0.00000000     0.00000000
     0.00000000     0.00000000     0.00000000
     0.00000000     0.00000000     0.00000000
     0.00000000     0.00000000     0.00000000
     0.00000000     0.00000000     0.00000000
    -6.79349931    -6.32717405    -4.21772079
    15.36197817   -15.87269766     0.82732084
    11.44927495    10.50111146     1.44441427
    13.05114626   -15.93363963    -7.09545087
    23.23677627    14.22986525    26.41554372
   -26.68994950    15.09322990    16.80773239
  -121.09330134    27.06719118   -41.36839235
  -306.80187177    10.60329313   -49.52415626
     0.00000000     0.00000000     0.00000000
    14.53610105   -29.79709486    11.76986086
    -0.17221657     6.39496360    -2.25643631
     4.31898685   -13.77410200     2.04988362
    14.22611216    10.69444016    -5.74432756
    13.68164834   -22.07630549    25.03581678
     0.95064194    81.36105462    11.04418232
   -77.16377657    98.82858655   -59.55431181
   122.92717398    18.93945279  -101.91053530
     0.00000000     0.00000000     0.00000000
   -16.12662079   -18.29746225    15.71185626
    16.63480146    -8.05922852    -6.84232153
   -11.53888831     5.21129625    -0.04997281
    14.35918111   -19.34419090    -0.75836899
    -6.85035798     8.36814958    20.48097818
    10.67241526    41.17838170    21.06549776
    53.23090326   152.44383464   -66.23786257
    -9.32537444   -74.06409639   -60.94647072
     0.00000000     0.00000000     0.00000000
    18.88606837   -26.57596306    21.88568526
   -27.70778290     0.25182164   -12.66857681
    14.70175052   -14.14581221     4.27267847
   -18.85422788     5.26858110    -0.83273153
     3.46379150   -26.60545939    12.84880229
    41.41448244    17.65797906     7.06696692
    67.43150891    62.82730987    21.09028968
   159.20361912    -1.88326992   -69.29212512
     0.00000000     0.00000000     0.00000000
   -46.03139239    -4.82325897    18.16040505
   -19.01082907   -14.64987501   -12.93689780
   -33.66774918   -17.29718149     8.30300023
    19.77606780    -9.18944764    -1.69254896
   -36.65895441     4.01470358     3.59822210
   -17.74521837   -42.82989026    11.37505395
    36.86479924    89.23144976     2.69526816
     0.00000000     0.00000000     0.00000000
     0.00000000     0.00000000     0.00000000
    14.71118827    16.33938061    19.25887479
   -12.71363790   -34.06469132    -6.67675858
    -0.54560484    -9.59417225     4.24016615
   -20.35227220   -32.28772104     6.37793832
    21.56106535    12.49915703     6.43075381
    -4.81490562   -16.23987906    -9.09540909
     4.80770295    -1.09263799    58.35528175
    83.52581225    69.78397128   -59.37716432
     0.00000000     0.00000000     0.00000000
    -6.03033093     4.87901527    10.48060915
    -3.10596641   -13.23708518    -3.31347939
   -43.86492229   -37.46717171     8.30619676
    -6.63418734    -9.82474107     8.86173848
   -55.74795214   -42.91900781    -0.35154396
    40.27642202    11.11960224   -32.55326481
    46.77934180  -116.06483174   -10.74503875
    -3.77418588   160.85121564   -35.45322263
     0.00000000     0.00000000     0.00000000
   -11.12839497     8.93458502     6.43619904
   -15.54955436   -18.51830051     0.42323103
   -26.71342133   -16.06032405    10.33308657
   -62.10934872   -37.77206810    12.53968246
   -68.39444787   -10.96128966     0.58608240
   -72.30223554   -46.78168065   -30.06232355
   -32.23705049     5.80381815   -27.00629646
    17.94478026    89.76609643   -71.32949877
     0.00000000     0.00000000     0.00000000
    -2.17529190    10.85405762    -6.27480706
    -5.76870374    -8.60951510     3.57924209
   -26.48047653   -12.26946174     8.63085216
   -51.22774433    -9.10193073    16.55063360
  -103.68540762   -25.73662826    12.05925561
  -135.95929390    14.07985048    -5.26913993
  -176.03460384    51.58288513   -10.45073453
  -176.87212594   143.84144459    -6.14271968
     0.00000000     0.00000000     0.00000000
     0.00000000     0.00000000     0.00000000
     0.00000000     0.00000000     0.00000000
     0.00000000     0.00000000     0.00000000
     0.00000000     0.00000000     0.00000000
     0.00000000     0.00000000     0.00000000
     0.00000000     0.00000000     0.00000000
     0.00000000     0.00000000     0.00000000
     0.00000000     0.00000000     0.00000000
     0.00000000     0.00000000     0.00000000
     0.00000000     0.00000000     0.00000000
     0.00000000     0.00000000     0.00000000
     0.00000000     0.00000000     0.00000000
     0.00000000     0.00000000     0.00000000
     0.00000000     0.00000000     0.00000000
     0.00000000     0.00000000     0.00000000
     0.00000000     0.00000000     0.00000000
     0.00000000     0.00000000     0.00000000
     0.00000000     0.00000000     0.00000000
     6.52117935    -2.14925198     8.15269873
    13.96228691   -14.43440126     1.16274907
    20.58987345     6.50938014    -2.28002457
     8.85399944    -9.52839463     2.47001721
    35.37482721    -1.09635692     6.10357750
    72.86189098    14.92764282    18.27761970
    -6.56829341    13.28670212   -14.93504706
  -323.34632484     3.81996662   -60.58628856
     0.00000000     0.00000000     0.00000000
    24.37766832   -22.33285531    13.84771875
    -3.16799114     2.13070225    -2.35091640
    19.45748485   -10.97935430    -0.59729686
    10.54802379     4.64912283    -0.80321559
    22.84018255   -18.50833442    11.00110097
    80.17175701    -8.83080889    19.07308585
   -25.95601687   108.28132203   -32.31801466
    61.80186434    18.63183737  -122.95261064
     0.00000000     0.00000000     0.00000000
    -9.30376611   -14.82894786    17.24076795
    13.02912259   -10.41614852    -0.76771653
     1.38247792     6.07656399    -2.59974439
     6.75342293   -24.60779676     3.82255709
    27.88260730    15.70463119    13.05386477
    22.64665763   -85.19675384    27.44820738
    76.68655376   162.94448904   -56.29609754
   -38.63370906  -112.46013157   -90.32593880
     0.00000000     0.00000000     0.00000000
    13.37223654   -19.23928389    17.87167838
   -16.83540874    -1.33186610    -4.40912188
    10.51270831   -12.61410007    -2.22723261
    -5.04728222     1.88062701     4.48674675
     3.01986572   -28.51917247    17.65776760
    33.85838860   -33.51262664   -13.32755297
    88.37220998    44.66614658    40.44905803
   135.54720374   -21.55559146   -89.63392947
     0.00000000     0.00000000     0.00000000
   -35.66259035    -4.00125782    18.44859426
   -11.94691283   -11.93419393    -5.59097974
   -21.09747206   -15.02693520     3.67874404
    19.65957195    -9.28550895     4.39342609
   -20.28780723    -0.52141722     3.48626750
   -31.63039757   -34.30457561   -28.28089744
    18.96348376    39.34111217     0.29956923
     0.00000000     0.00000000     0.00000000
     0.00000000     0.00000000     0.00000000
    16.69716180    12.45177894    16.64316538
   -18.82276748   -26.95142977    -0.56815762
    18.38778965   -10.35812350     5.17571966
   -19.53033829   -23.52411542     4.18384508
    39.31905974    12.89300170    15.46474390
    -3.18205665     0.07489208   -17.44445675
    28.42171111   -42.28606865    69.72598441
    65.46266361    58.25533265  -115.58362394
     0.00000000     0.00000000     0.00000000
    -1.05186477     5.20046605    13.68059277
    -1.58902797    -7.74320336     3.26377506
   -23.67054412   -33.04141302    10.91592728
     9.46056478    -5.99998687     8.59521628
    -8.61455702   -21.82143406    17.32563309
    14.74675273    13.03528974   -37.50592627
    72.80903987   -99.48318232   -19.60049612
    27.85920967   135.89588545   -81.01436293
     0.00000000     0.00000000     0.00000000
    -1.26352154     6.56855731     9.15087046
   -16.49146564   -15.73416509     0.35911735
    -2.27470377   -10.81458349    14.07575753
   -36.65612788   -34.22446468    15.42025017
   -18.28507573    -1.63415884    18.55116726
   -70.72084778   -47.63488213   -38.38524238
   -54.59639557   -11.22329033   -67.76613720
    14.35428487    98.38517886  -105.97119057
     0.00000000     0.00000000     0.00000000
     7.10928298     6.80170874     7.49227328
     0.36422953    -6.12124243     1.20711463
   -14.68955377   -12.54733875    12.47139998
   -20.53658523    -7.20105880    21.16543111
   -61.20494499   -29.27407618    24.10016849
  -120.79829853     9.56223358    -3.70535210
  -182.09664208    46.81658127    -5.20121725
  -192.89992277   129.84932847     0.23283158
     0.00000000     0.00000000     0.00000000
     0.00000000     0.00000000     0.00000000
     0.00000000     0.00000000     0.00000000
     0.00000000     0.00000000     0.00000000
     0.00000000     0.00000000     0.00000000
     0.00000000     0.00000000     0.00000000
     0.00000000     0.00000000     0.00000000
     0.00000000     0.00000000     0.00000000
     0.00000000     0.00000000     0.00000000
     0.00000000     0.00000000     0.00000000
     0.00000000     0.00000000     0.00000000
     0.00000000     0.00000000     0.00000000
     0.00000000     0.00000000     0.00000000
     0.00000000     0.00000000     0.00000000
     0.00000000     0.00000000     0.00000000
     0.00000000     0.00000000     0.00000000
     0.00000000     0.00000000     0.00000000
     0.00000000     0.00000000     0.00000000
     0.00000000     0.00000000     0.00000000
     1.45007134    -1.68539719     5.89560152
    31.74577797   -15.46126534     6.28267696
    15.00633051     3.72979855    -3.63074779
    22.30275113    -7.44162874     3.29861514
    31.35872319    -1.67080423     5.73394711
    56.64739981     1.28741485   -16.43276386
   111.48552260     4.34172294    27.98770520
  -253.06841096    24.23126795   -58.79539816
     0.00000000     0.00000000     0.00000000
    18.17338795   -20.21209945    13.34580896
    20.69661902    -0.14697931     2.28001868
     8.31677653    -8.13225830    -1.25453913
    36.76859725    -3.18362293     1.65797555
    -4.29810186    -1.59075211     6.54780766
    98.62932795   -34.54669506    -5.03820940
    11.69294172    32.01002887    40.58909075
    28.89631020   106.13578607  -116.30801591
     0.00000000     0.00000000     0.00000000
   -15.14306517    -7.98803494    12.82058203
    22.92824167   -11.06117970     2.15478847
     1.05431981    10.80579789    -2.74265016
    17.29599783   -32.94621456     3.69896176
    23.21452672    35.72400849     7.74595993
    37.39305695   -87.09517389     5.17612464
    18.42722825   176.16580132   -23.54870135
    -6.69949183   -47.57352668  -107.23231228
     0.00000000     0.00000000     0.00000000
    17.67375181   -14.92837432    18.20917727
   -15.97473495    -1.57039370    -4.11979592
    22.88990259   -13.07856925     4.89301866
    -6.13098180     5.23172923    -7.13620301
    30.15350553   -29.81169682    33.63616549
    19.63330765    -8.68747242   -46.53781980
   118.72208450    30.21012367    46.48841247
   158.69303841   -10.35113216   -38.31533928
     0.00000000     0.00000000     0.00000000
   -21.32946949    -3.10421794    16.36816562
    16.57274857    -5.32851348    -2.55802769
   -13.86720872   -13.20689994     0.93483783
    34.25388293    -2.61149514     5.23515480
    -8.05362377   -15.26673974     2.52188896
   -34.85298997    -6.31490129   -45.61783678
   -16.87953718    45.14246937   -51.65590947
     0.00000000     0.00000000     0.00000000
     0.00000000     0.00000000     0.00000000
     3.24004029     7.99459593    14.65765536
   -10.50590176   -16.73817098     2.37237934
    16.51060673    -2.88955236     3.99902021
     5.65775614   -24.73337457     4.15579939
    17.34300078    16.38368379    15.61132591
    32.72042211    -8.53527788   -33.90901775
    27.51521638     7.67890161    98.20913216
    50.78164144    50.55467788  -146.58964235
     0.00000000     0.00000000     0.00000000
    -3.74631745     2.93675164    10.27006565
    17.26919958    -2.54296782     5.92824514
   -12.93441606   -24.44336818     9.10585202
    30.06121282    -7.52993833     3.76750779
     9.47593608    -8.11318824    23.27840916
    30.98876815    25.87827488   -29.41104683
    36.72288371  -107.39184834    -6.53424234
    31.76687065   131.09573001  -121.29472352
     0.00000000     0.00000000     0.00000000
    -2.88807368     7.19829005    10.29585430
     7.72485785   -10.03819528     4.61831597
    11.79924686    -3.26311703    12.14442580
     0.87178265   -30.55375849    11.06323613
    20.46070537    14.62782464    25.24054789
    53.86551440   -26.44625180   -20.38289821
   -50.10371549   -42.63437094   -32.63128597
   -44.60980038    96.33663410  -110.85214267
     0.00000000     0.00000000     0.00000000
    12.52865168    10.12549108    10.54505459
    16.78384717    -2.90818411     2.92318443
    -2.84356569    -7.15497651    13.64465427
     9.00292224    -7.03945843    10.76052280
    13.09893433   -13.62020251    30.52953504
    -1.61845432   -12.76756156   -13.34689418
   -94.64857789    13.78406429     9.86254450
  -220.54368082   108.09205206     9.62352066
     0.00000000     0.00000000     0.00000000
     0.00000000     0.00000000     0.00000000
     0.00000000     0.00000000     0.00000000
     0.00000000     0.00000000     0.00000000
     0.00000000     0.00000000     0.00000000
     0.00000000     0.00000000     0.00000000
     0.00000000     0.00000000     0.00000000
     0.00000000     0.00000000     0.00000000
     0.00000000     0.00000000     0.00000000
     0.00000000     0.00000000     0.00000000
     0.00000000     0.00000000     0.00000000
     0.00000000     0.00000000     0.00000000
     0.00000000     0.00000000     0.00000000
     0.00000000     0.00000000     0.00000000
     0.00000000     0.00000000     0.00000000
     0.00000000     0.00000000     0.00000000
     0.00000000     0.00000000     0.00000000
     0.00000000     0.00000000     0.00000000
     0.00000000     0.00000000     0.00000000
    18.46575256    -8.38174686    11.97776188
    24.22655671    -6.75739137     0.36264460
    27.85933507    -5.68237315     8.48029636
     4.92654124     2.98672454    -7.32332777
    44.65549585    -8.59179381    11.56372860
     8.33823376    11.99779232   -17.71462788
   113.25744590    -0.89482187     3.79033428
  -128.26056943    28.95729964    -1.41812064
     0.00000000     0.00000000     0.00000000
    26.69135072   -18.98228793    14.95002163
    17.74581179     2.92190019    -2.78228654
    16.46385586    -9.46385644    12.54567500
    24.49317988     1.98453386   -15.00076309
    18.17599755    -5.51269797    25.48573047
    57.59429382    -2.81692120   -38.12450382
    81.49989064    26.96524847    54.37361504
    -6.57775987   134.34311413   -71.51253855
     0.00000000     0.00000000     0.00000000
    -0.30484320    -4.67604909     9.70998250
    20.09296883    -7.95492739    -0.81053101
    13.09046798     5.06364637     7.15001658
    10.41615365   -19.52141739    -8.84896738
    45.57211512    13.26892114    15.60389139
    17.66390356   -34.74605632   -27.66300596
    24.12685672    47.73070178   -15.95907186
    -4.58030021    44.36354234   -92.26867351
     0.00000000     0.00000000     0.00000000
    14.31774554    -0.75171164    13.28974515
    -0.91487534    -2.15562491     0.73982049
    24.97614802   -10.63830692     4.41461132
     2.06326559     7.69538446    -2.36388036
    30.01081935   -33.63203194    12.64766651
    69.62980863     6.53708460   -18.16129481
    17.89894369    54.67462918    45.46076207
   252.25296301    13.96627879  -129.02742094
     0.00000000     0.00000000     0.00000000
    21.89395124    -5.75964670    21.57863669
    46.86070650     0.12245596     2.99672721
    13.03888059   -12.50524193     8.62928881
    38.79550244     4.51464997    -3.34436171
    17.39163173   -21.73377906    10.41673120
   -52.13929927    -7.25347383   -33.14283407
   -51.10071545    98.09192424   -49.00510508
     0.00000000     0.00000000     0.00000000
     0.00000000     0.00000000     0.00000000
     4.01714918    -2.50258286    13.39769570
    -3.80687398    -9.45367351    -2.51765050
    20.26322190     1.57059909    12.36370266
     5.15620205   -20.32158219    -9.72041298
    30.85922317    15.19841908    26.39794269
    -4.76728100   -15.75222986   -43.87595706
    65.43620646   -40.82756893   112.30117218
    21.27900736    17.98918947  -157.67461808
     0.00000000     0.00000000     0.00000000
    13.15181197     5.87182375    11.59473361
    12.90018825    -2.04582364    -1.21957890
    12.89895609   -10.63140906    15.38646456
    13.90749417    -5.73507702    -9.66279455
    37.79043524    -5.98308780    26.03798605
     6.89187855    21.64639471   -40.26380708
    21.37438513   -53.09346626    27.47189206
     7.54971403    80.85936068  -121.13106826
     0.00000000     0.00000000     0.00000000
    10.50754324     6.37781318    11.98007425
    16.60058742    -3.37918912     0.97346123
    22.04755632    -3.92739204    17.01432565
    11.52008559   -11.48861904    -6.28004140
    31.54981229    -4.16169205    26.87314903
    62.12569235    16.13040112   -27.47769946
    46.80499544   -63.07770993    20.64408555
   -60.63979006    31.34011821   -76.25702604
     0.00000000     0.00000000     0.00000000
    24.15147540    13.17898315    13.44934775
    18.38348338    -3.21950968     2.50176783
    17.40336881     0.89642806    13.94643901
    11.15448088    -9.31213137    -0.07935353
    34.85119938    -4.29541799    20.75249743
    46.97209241    10.10010717   -30.59323519
    54.55950563   -20.10218776   -13.60988954
  -151.63852869    59.33888603    22.55310755
     0.00000000     0.00000000     0.00000000
     0.00000000     0.00000000     0.00000000
     0.00000000     0.00000000     0.00000000
     0.00000000     0.00000000     0.00000000
     0.00000000     0.00000000     0.00000000
     0.00000000     0.00000000     0.00000000
     0.00000000     0.00000000     0.00000000
     0.00000000     0.00000000     0.00000000
     0.00000000     0.00000000     0.00000000
     0.00000000     0.00000000     0.00000000
     0.00000000     0.00000000     0.00000000
     0.00000000     0.00000000     0.00000000
     0.00000000     0.00000000     0.00000000
     0.00000000     0.00000000     0.00000000
     0.00000000     0.00000000     0.00000000
     0.00000000     0.00000000     0.00000000
     0.00000000     0.00000000     0.00000000
     0.00000000     0.00000000     0.00000000
     0.00000000     0.00000000     0.00000000
     0.00000000     0.00000000     0.00000000
     0.00000000     0.00000000     0.00000000
     0.00000000     0.00000000     0.00000000
     0.00000000     0.00000000     0.00000000
     0.00000000     0.00000000     0.00000000
     0.00000000     0.00000000     0.00000000
     0.00000000     0.00000000     0.00000000
     0.00000000     0.00000000     0.00000000
     0.00000000     0.00000000     0.00000000
     0.00000000     0.00000000     0.00000000
     0.00000000     0.00000000     0.00000000
     0.00000000     0.00000000     0.00000000
     0.00000000     0.00000000     0.00000000
     0.00000000     0.00000000     0.00000000
     0.00000000     0.00000000     0.00000000
     0.00000000     0.00000000     0.00000000
     0.00000000     0.00000000     0.00000000
     0.00000000     0.00000000     0.00000000
     0.00000000     0.00000000     0.00000000
     0.00000000     0.00000000     0.00000000
     0.00000000     0.00000000     0.00000000
     0.00000000     0.00000000     0.00000000
     0.00000000     0.00000000     0.00000000
     0.00000000     0.00000000     0.00000000
     0.00000000     0.00000000     0.00000000
     0.00000000     0.00000000     0.00000000
     0.00000000     0.00000000     0.00000000
     0.00000000     0.00000000     0.00000000
     0.00000000     0.00000000     0.00000000
     0.00000000     0.00000000     0.00000000
     0.00000000     0.00000000     0.00000000
     0.00000000     0.00000000     0.00000000
     0.00000000     0.00000000     0.00000000
     0.00000000     0.00000000     0.00000000
     0.00000000     0.00000000     0.00000000
     0.00000000     0.00000000     0.00000000
     0.00000000     0.00000000     0.00000000
     0.00000000     0.00000000     0.00000000
     0.00000000     0.00000000     0.00000000
     0.00000000     0.00000000     0.00000000
     0.00000000     0.00000000     0.00000000
     0.00000000     0.00000000     0.00000000
     0.00000000     0.00000000     0.00000000
     0.00000000     0.00000000     0.00000000
     0.00000000     0.00000000     0.00000000
     0.00000000     0.00000000     0.00000000
     0.00000000     0.00000000     0.00000000
     0.00000000     0.00000000     0.00000000
     0.00000000     0.00000000     0.00000000
     0.00000000     0.00000000     0.00000000
     0.00000000     0.00000000     0.00000000
     0.00000000     0.00000000     0.00000000
     0.00000000     0.00000000     0.00000000
     0.00000000     0.00000000     0.00000000
     0.00000000     0.00000000     0.00000000
     0.00000000     0.00000000     0.00000000
     0.00000000     0.00000000     0.00000000
     0.00000000     0.00000000     0.00000000
     0.00000000     0.00000000     0.00000000
     0.00000000     0.00000000     0.00000000
     0.00000000     0.00000000     0.00000000
     0.00000000     0.00000000     0.00000000
     0.00000000     0.00000000     0.00000000
     0.00000000     0.00000000     0.00000000
     0.00000000     0.00000000     0.00000000
     0.00000000     0.00000000     0.00000000
     0.00000000     0.00000000     0.00000000
     0.00000000     0.00000000     0.00000000
     0.00000000     0.00000000     0.00000000
     0.00000000     0.00000000     0.00000000
     0.00000000     0.00000000     0.00000000
     0.00000000     0.00000000     0.00000000
     0.00000000     0.00000000     0.00000000
     0.00000000     0.00000000     0.00000000
     0.00000000     0.00000000     0.00000000
     0.00000000     0.00000000     0.00000000
     0.00000000     0.00000000     0.00000000
     0.00000000     0.00000000     0.00000000
     0.00000000     0.00000000     0.00000000
     0.00000000     0.00000000     0.00000000
     0.00000000     0.00000000     0.00000000
     0.00000000     0.00000000     0.00000000
     0.00000000     0.00000000     0.00000000
     0.00000000     0.00000000     0.00000000
     0.00000000     0.00000000     0.00000000
     0.00000000     0.00000000     0.00000000
     0.00000000     0.00000000     0.00000000
     0.00000000     0.00000000     0.00000000
     0.00000000     0.00000000     0.00000000
     0.00000000     0.00000000     0.00000000
     0.00000000     0.00000000     0.00000000
     0.00000000     0.00000000     0.00000000
     0.00000000     0.00000000     0.00000000
     0.00000000     0.00000000     0.00000000
     0.00000000     0.00000000     0.00000000
     0.00000000     0.00000000     0.00000000
     0.00000000     0.00000000     0.00000000
     0.00000000     0.00000000     0.00000000
     0.00000000     0.00000000     0.00000000
     0.00000000     0.00000000     0.00000000
    -5.51198391    11.67280758     0.00000000
   -12.34572424   -35.49532087     0.00000000
   -30.49422909     6.65618441     0.00000000
   -31.67916631    -8.18213189     0.00000000
   -31.41752377   -15.53246752     0.00000000
   -26.33531111   -13.26113123     0.00000000
   -23.49855595   -10.67068253     0.00000000
   -19.43431477   -10.34792316     0.00000000
   -15.36394304    -8.59843475     0.00000000
   -13.05438525    -6.49107932     0.00000000
   -12.36386000    -3.31288000     0.00000000
   -16.68630432   141.09274061     0.00000000
   -42.77830197    -2.45566034     0.00000000
   -58.58268442   -25.58365482     0.00000000
   -42.71977708   -19.67384358     0.00000000
   -34.66470281   -20.03757759     0.00000000
   -35.18841502   -27.21034452     0.00000000
   -24.45716482   -29.00840935     0.00000000
   -19.89123898   -24.59043325     0.00000000
   -16.22880440   -18.71692964     0.00000000
   -17.18956952   -12.32222691     0.00000000
   -18.54578000    -4.96932000     0.00000000
    66.76418999   218.20518684     0.00000000
    55.08444373   170.41765056     0.00000000
    -2.94906982    62.03171474     0.00000000
   -49.21192810    -3.77923000     0.00000000
   -36.04287998   -30.99080378     0.00000000
   -11.23187396   -47.66478548     0.00000000
     1.25819167   -41.65217313     0.00000000
    -2.02689944   -31.18199743     0.00000000
    -8.05260694   -19.95315807     0.00000000
   -15.44858429   -12.66116823     0.00000000
   -18.54578000    -4.96932000     0.00000000
   -78.07633652   134.93445024     0.00000000
     9.74042286   129.87073014     0.00000000
    66.80681130   102.22749297     0.00000000
   103.01894314    54.01570436     0.00000000
    94.41201625     6.96582553     0.00000000
    70.65963758   -10.51200364     0.00000000
    40.23419649   -13.91568639     0.00000000
    19.84566654    -9.86739482     0.00000000
     1.59986778    -7.39011070     0.00000000
    -7.38618508    -5.21572729     0.00000000
   -12.36386000    -3.31288000     0.00000000
     0.00000000     0.00000000     0.00000000
     0.00000000     0.00000000     0.00000000
     0.00000000     0.00000000     0.00000000
     0.00000000     0.00000000     0.00000000
     0.00000000     0.00000000     0.00000000
     0.00000000     0.00000000     0.00000000
     0.00000000     0.00000000     0.00000000
     0.00000000     0.00000000     0.00000000
     0.00000000     0.00000000     0.00000000
     0.00000000     0.00000000     0.00000000
     0.00000000     0.00000000     0.00000000
     0.00000000     0.00000000     0.00000000
     0.00000000     0.00000000     0.00000000
     0.00000000     0.00000000     0.00000000
     0.00000000     0.00000000     0.00000000
     0.00000000     0.00000000     0.00000000
     0.00000000     0.00000000     0.00000000
     0.00000000     0.00000000     0.00000000
     0.00000000     0.00000000     0.00000000
     0.00000000     0.00000000     0.00000000
     0.00000000     0.00000000     0.00000000
     0.00000000     0.00000000     0.00000000
     5.82172794     9.34678613    48.81680103
   -20.51971947   -36.19287476    14.75366236
   -28.57987284    10.55753289     1.08854001
   -34.39996388   -11.09318151     3.68307721
   -29.73110520   -14.74331481     0.78951491
   -27.30810061   -12.07839435     0.42693946
   -23.03095014   -11.04040138    -0.45860860
   -18.94000775    -9.87139426    -0.58616907
   -15.16573978    -8.68449115    -0.58787046
   -11.97052247    -6.07823363    -0.32435180
   -11.67604000    -3.12858000     0.00000000
   -33.81887511   118.98681414    39.49503314
   -58.64810876   -29.26942872     0.63991068
   -59.63981280   -16.55675430     3.58446843
   -38.46502366   -21.43104889    -3.83359005
   -39.77599221   -20.44618407     0.10732832
   -31.15392689   -28.20963150    -1.15264193
   -25.75944462   -28.02933981     1.33535642
   -17.89488555   -24.04421917     1.49779443
   -16.40512277   -17.97828205     1.69637584
   -15.76485058   -11.93899075     0.92963142
   -17.66882000    -4.73434000     0.00000000
    17.46365894   217.37124329     6.00044672
    18.70228736   141.37418979     8.67882654
   -22.13628388    35.38266815     7.46887029
   -40.78382860    -7.18370126    -8.20449593
   -27.61296096   -38.87776511   -11.13686809
    -5.01116772   -45.84609253    -4.22626091
     0.57338071   -41.15620225     2.67054317
    -1.84815688   -28.71156757     5.42163452
    -9.44077078   -19.52778786     5.05393400
   -13.85413752   -11.82151922     2.72255781
   -17.66882000    -4.73434000     0.00000000
   -85.47034177   139.07008246    19.50996671
    -4.82929675   106.39950666    19.40497350
    68.48759422    83.50766867    21.54010208
    95.26621340    33.27866734    19.98630622
    92.27483783    -0.22371954    13.63165658
    63.36291650   -14.24612564     8.56204914
    38.38426595   -13.02146947     5.59019576
    14.91485928   -10.41088234     6.70479607
     1.70673235    -7.05861587     6.49503147
    -8.83557849    -5.79331348     4.34664241
   -11.67604000    -3.12858000     0.00000000
     0.00000000     0.00000000     0.00000000
     0.00000000     0.00000000     0.00000000
     0.00000000     0.00000000     0.00000000
     0.00000000     0.00000000     0.00000000
     0.00000000     0.00000000     0.00000000
     0.00000000     0.00000000     0.00000000
     0.00000000     0.00000000     0.00000000
     0.00000000     0.00000000     0.00000000
     0.00000000     0.00000000     0.00000000
     0.00000000     0.00000000     0.00000000
     0.00000000     0.00000000     0.00000000
     0.00000000     0.00000000     0.00000000
     0.00000000     0.00000000     0.00000000
     0.00000000     0.00000000     0.00000000
     0.00000000     0.00000000     0.00000000
     0.00000000     0.00000000     0.00000000
     0.00000000     0.00000000     0.00000000
     0.00000000     0.00000000     0.00000000
     0.00000000     0.00000000     0.00000000
     0.00000000     0.00000000     0.00000000
     0.00000000     0.00000000     0.00000000
     0.00000000     0.00000000     0.00000000
   -21.35410879    -8.05573735   116.14895098
   -21.42464417   -41.90502322    16.20158722
   -35.33169689    19.12114358     4.47070176
   -32.65956588   -17.11278808     5.18821620
   -32.08468444   -10.73838120     2.01391104
   -26.74273158   -12.22401868    -0.15426627
   -22.75032413   -10.67177264    -0.81041318
   -18.02837523   -10.36626445    -1.41707785
   -13.43218197    -8.10627398    -1.23008034
   -10.77831590    -5.85806346    -0.74273500
    -9.93552000    -2.66222000     0.00000000
   -51.47077451   113.96035138    75.69081958
   -58.16263039   -44.78002534   -18.04187374
   -61.68826355   -13.20345730     8.14934484
   -43.32977796   -23.01800837    -6.21978803
   -36.56689862   -23.83949878    -2.02722279
   -31.92900279   -28.13038761    -0.16858973
   -21.69291742   -26.45526550     1.00144598
   -17.47650349   -21.56394640     2.93031349
   -13.92164352   -16.44554402     2.05037943
   -14.05675774   -10.76623267     1.52133922
   -15.14664000    -4.05854000     0.00000000
     2.99404934   218.40790744    26.00675042
     0.61160705   105.04408672    10.33255905
   -24.45482407     3.89011517    -2.10634653
   -29.40609713   -34.25951163   -13.23218809
    -8.84434069   -45.13049710   -11.81899096
    -1.38441588   -46.02451773    -0.01723114
    -0.79064369   -34.72951830     6.58161055
    -5.93503784   -25.39885960     9.37077353
    -9.06615847   -16.91868268     7.38515736
   -13.20347584   -11.08895509     4.21272795
   -15.14664000    -4.05854000     0.00000000
   -95.84412793   137.59147861    50.56832747
    -6.41669770    92.57579627    26.49923428
    61.48839332    39.76045465    30.69640443
    91.38086844     1.20669195    25.70346418
    74.41804401   -16.72984444    20.71998891
    50.05417987   -15.96990778    12.12500503
    23.25704469   -13.51766336    11.15806828
     7.88083312    -9.84227577    10.80755988
    -3.18787932    -8.36122840    10.12304289
    -6.81882494    -5.77675436     6.51532673
    -9.93552000    -2.66222000     0.00000000
     0.00000000     0.00000000     0.00000000
     0.00000000     0.00000000     0.00000000
     0.00000000     0.00000000     0.00000000
     0.00000000     0.00000000     0.00000000
     0.00000000     0.00000000     0.00000000
     0.00000000     0.00000000     0.00000000
     0.00000000     0.00000000     0.00000000
     0.00000000     0.00000000     0.00000000
     0.00000000     0.00000000     0.00000000
     0.00000000     0.00000000     0.00000000
     0.00000000     0.00000000     0.00000000
     0.00000000     0.00000000     0.00000000
     0.00000000     0.00000000     0.00000000
     0.00000000     0.00000000     0.00000000
     0.00000000     0.00000000     0.00000000
     0.00000000     0.00000000     0.00000000
     0.00000000     0.00000000     0.00000000
     0.00000000     0.00000000     0.00000000
     0.00000000     0.00000000     0.00000000
     0.00000000     0.00000000     0.00000000
     0.00000000     0.00000000     0.00000000
     0.00000000     0.00000000     0.00000000
    -6.96997544     3.36514821   167.22032978
   -31.62612722   -34.81647591     9.64341254
   -34.10743112    23.00862417     5.21982816
   -36.40107071   -17.90792401     7.52976583
   -30.44201719    -7.85860802     0.18188931
   -26.29012376   -11.06899637    -0.03824874
   -20.98856033   -10.93183222    -1.89125130
   -15.62571519    -9.17004176    -2.03264687
   -11.37844850    -7.60691755    -1.82779532
    -7.81033578    -4.89186317    -1.21257484
    -7.27036000    -1.94808000     0.00000000
   -51.49390145    81.78999224   114.02132969
   -62.68365963   -83.55675310   -35.56331293
   -69.64150330     1.93855412    19.55447325
   -38.23193933   -32.70548191   -14.11382904
   -40.09595013   -23.00293355     2.00349143
   -26.53268205   -27.35067845    -3.20689086
   -20.99244066   -22.34375689     2.34174169
   -14.55956057   -18.73899923     1.14471414
   -11.75757700   -13.96159627     1.85959580
   -10.19519619    -9.32253978     0.92277278
   -11.15928000    -2.99012000     0.00000000
   -34.38462511   206.70970190    73.31751138
   -12.87617008    49.29837248     3.02991873
   -26.98667226   -43.79869937    -4.35254956
   -16.07470782   -46.57481944   -12.36147667
    -7.76167682   -47.76930285    -0.64817674
    -6.23843551   -35.68396098     4.84705932
    -8.58005210   -27.73927869     8.97599956
    -8.47438711   -19.70330055     8.10318399
    -9.46328077   -15.01179503     6.73101462
    -9.28590033    -9.38475844     3.72797178
   -11.15928000    -2.99012000     0.00000000
   -96.45523095   117.34164654    51.67120470
    10.88444068    55.06836072    36.65817357
    80.41342279    -2.70141488    21.66375766
    73.61137561   -22.67323466    28.35764451
    47.70865536   -19.74158216    17.32502975
    20.56074793   -15.99665731    14.27721826
     6.33627022   -12.22025560    10.89035662
    -2.45544880   -10.85035227    11.27039596
    -3.98926452    -8.49276961     8.71372145
    -6.54488071    -6.30257111     6.22218476
    -7.27036000    -1.94808000     0.00000000
     0.00000000     0.00000000     0.00000000
     0.00000000     0.00000000     0.00000000
     0.00000000     0.00000000     0.00000000
     0.00000000     0.00000000     0.00000000
     0.00000000     0.00000000     0.00000000
     0.00000000     0.00000000     0.00000000
     0.00000000     0.00000000     0.00000000
     0.00000000     0.00000000     0.00000000
     0.00000000     0.00000000     0.00000000
     0.00000000     0.00000000     0.00000000
     0.00000000     0.00000000     0.00000000
     0.00000000     0.00000000     0.00000000
     0.00000000     0.00000000     0.00000000
     0.00000000     0.00000000     0.00000000
     0.00000000     0.00000000     0.00000000
     0.00000000     0.00000000     0.00000000
     0.00000000     0.00000000     0.00000000
     0.00000000     0.00000000     0.00000000
     0.00000000     0.00000000     0.00000000
     0.00000000     0.00000000     0.00000000
     0.00000000     0.00000000     0.00000000
     0.00000000     0.00000000     0.00000000
   -75.26199244    62.42263478   241.23223312
   -20.17177864   -24.60684159    -7.28301757
   -31.34905476    15.18531252    10.67448222
   -31.28262280   -13.16022483     1.55435182
   -23.96577759    -4.24297711     0.53849921
   -20.61255010    -9.62688682    -1.29255419
   -15.21680817    -7.31964643    -2.14240448
   -10.98535996    -7.06562748    -2.05612041
    -7.08639333    -4.92467964    -1.88825778
    -4.61827443    -3.60339597    -1.32782463
    -3.87604000    -1.03858000     0.00000000
   -69.77792671   139.69761187   140.34865124
   -60.16562741   -71.90914263   -15.55041208
   -65.03823056     7.86329939     4.61485273
   -36.99253297   -26.78077045    -2.84790520
   -33.64878297   -19.57017679    -4.29017801
   -22.99205904   -19.13355511    -0.02078954
   -16.69322561   -16.19218201    -1.43860433
   -11.58461578   -12.69487887     0.54962497
    -7.89356723   -10.14815312    -0.43084281
    -5.66375575    -6.81434872     0.05824231
    -5.98948000    -1.60488000     0.00000000
   -80.88798656   216.68559492    94.32744374
   -29.02294842   -16.78344086     9.25810770
   -35.46952926   -53.12584099    -9.33382772
   -20.84962109   -43.15055314     0.69074191
   -16.06369285   -31.47748261     1.60474289
   -14.69272859   -24.55852697     5.43562218
   -11.43667620   -17.80105141     3.73185884
    -9.23790306   -14.54542772     4.22414356
    -6.41521442   -10.81322233     2.72946350
    -5.52733213    -7.66722661     1.90651970
    -5.98948000    -1.60488000     0.00000000
  -127.78851954   115.85802451    40.57452056
    34.26605243    14.20151531    11.88511672
    65.32329292   -25.50320885    28.36689192
    29.19555392   -20.16690608    15.05630056
     8.07835157   -14.82064634    13.45387516
    -0.33773845   -11.70417000     6.83018326
    -4.78346405    -9.91441101     8.14127223
    -4.29631551    -8.28417156     5.26846879
    -4.45366113    -6.82781174     5.36609819
    -3.09604439    -4.85410400     3.42595387
    -3.87604000    -1.03858000     0.00000000
     0.00000000     0.00000000     0.00000000
     0.00000000     0.00000000     0.00000000
     0.00000000     0.00000000     0.00000000
     0.00000000     0.00000000     0.00000000
     0.00000000     0.00000000     0.00000000
     0.00000000     0.00000000     0.00000000
     0.00000000     0.00000000     0.00000000
     0.00000000     0.00000000     0.00000000
     0.00000000     0.00000000     0.00000000
     0.00000000     0.00000000     0.00000000
     0.00000000     0.00000000     0.00000000
     0.00000000     0.00000000     0.00000000
     0.00000000     0.00000000     0.00000000
     0.00000000     0.00000000     0.00000000
     0.00000000     0.00000000     0.00000000
     0.00000000     0.00000000     0.00000000
     0.00000000     0.00000000     0.00000000
     0.00000000     0.00000000     0.00000000
     0.00000000     0.00000000     0.00000000
     0.00000000     0.00000000     0.00000000
     0.00000000     0.00000000     0.00000000
     0.00000000     0.00000000     0.00000000
     0.00000000     0.00000000     0.00000000
     0.00000000     0.00000000     0.00000000
     0.00000000     0.00000000     0.00000000
     0.00000000     0.00000000     0.00000000
     0.00000000     0.00000000     0.00000000
     0.00000000     0.00000000     0.00000000
     0.00000000     0.00000000     0.00000000
     0.00000000     0.00000000     0.00000000
     0.00000000     0.00000000     0.00000000
     0.00000000     0.00000000     0.00000000
     0.00000000     0.00000000     0.00000000
     0.00000000     0.00000000     0.00000000
     0.00000000     0.00000000     0.00000000
     0.00000000     0.00000000     0.00000000
     0.00000000     0.00000000     0.00000000
     0.00000000     0.00000000     0.00000000
     0.00000000     0.00000000     0.00000000
     0.00000000     0.00000000     0.00000000
     0.00000000     0.00000000     0.00000000
     0.00000000     0.00000000     0.00000000
     0.00000000     0.00000000     0.00000000
     0.00000000     0.00000000     0.00000000
     0.00000000     0.00000000     0.00000000
     0.00000000     0.00000000     0.00000000
     0.00000000     0.00000000     0.00000000
     0.00000000     0.00000000     0.00000000
     0.00000000     0.00000000     0.00000000
     0.00000000     0.00000000     0.00000000
     0.00000000     0.00000000     0.00000000
     0.00000000     0.00000000     0.00000000
     0.00000000     0.00000000     0.00000000
     0.00000000     0.00000000     0.00000000
     0.00000000     0.00000000     0.00000000
     0.00000000     0.00000000     0.00000000
     0.00000000     0.00000000     0.00000000
     0.00000000     0.00000000     0.00000000
     0.00000000     0.00000000     0.00000000
     0.00000000     0.00000000     0.00000000
     0.00000000     0.00000000     0.00000000
     0.00000000     0.00000000     0.00000000
     0.00000000     0.00000000     0.00000000
     0.00000000     0.00000000     0.00000000
     0.00000000     0.00000000     0.00000000
     0.00000000     0.00000000     0.00000000
     0.00000000     0.00000000     0.00000000
     0.00000000     0.00000000     0.00000000
     0.00000000     0.00000000     0.00000000
     0.00000000     0.00000000     0.00000000
     0.00000000     0.00000000     0.00000000
     0.00000000     0.00000000     0.00000000
     0.00000000     0.00000000     0.00000000
     0.00000000     0.00000000     0.00000000
     0.00000000     0.00000000     0.00000000
     0.00000000     0.00000000     0.00000000
     0.00000000     0.00000000     0.00000000
     0.00000000     0.00000000     0.00000000
     0.00000000     0.00000000     0.00000000
     0.00000000     0.00000000     0.00000000
     0.00000000     0.00000000     0.00000000
     0.00000000     0.00000000     0.00000000
     0.00000000     0.00000000     0.00000000
     0.00000000     0.00000000     0.00000000
     0.00000000     0.00000000     0.00000000
   -31.36832884  -225.03619570     0.00000000
  -130.33178282   121.15220391     0.00000000
  -191.82785283    16.74415854     0.00000000
  -136.04086674   120.42250981     0.00000000
  -122.74614433    53.22271091     0.00000000
   -64.24858529   105.66921767     0.00000000
   -16.77385454    49.90136674     0.00000000
    -1.40753796    36.74486594     0.00000000
     0.00000000     0.00000000     0.00000000
   -32.68624930  -352.24792077     0.00000000
   -50.76882276   -29.08207310     0.00000000
  -149.85768228    18.03623623     0.00000000
   -60.23622937   105.70027361     0.00000000
     3.26762501   111.83948162     0.00000000
    85.56508468   112.99866427     0.00000000
    49.12496503    89.35269603     0.00000000
    48.05063264    55.25723926     0.00000000
     0.00000000     0.00000000     0.00000000
    76.85585195  -479.82472929     0.00000000
   -77.86190081  -215.12832396     0.00000000
   -68.41146750    31.96856660     0.00000000
    27.58840387    92.89678440     0.00000000
   116.54121875   113.08870026     0.00000000
   113.33399672    77.38208934     0.00000000
   109.31661738    58.66609208     0.00000000
    42.72503679    36.55123140     0.00000000
     0.00000000     0.00000000     0.00000000
   -41.70626919  -308.14012163     0.00000000
   299.37417151  -208.03642836     0.00000000
   373.29732277   -89.44048684     0.00000000
   338.59200552   -12.83396328     0.00000000
   216.72975767    -2.20088533     0.00000000
   170.07433862     3.62256500     0.00000000
    70.79280603    12.76005221     0.00000000
    49.25338037    -1.69567166     0.00000000
     0.00000000     0.00000000     0.00000000
     0.00000000     0.00000000     0.00000000
     0.00000000     0.00000000     0.00000000
     0.00000000     0.00000000     0.00000000
     0.00000000     0.00000000     0.00000000
     0.00000000     0.00000000     0.00000000
     0.00000000     0.00000000     0.00000000
     0.00000000     0.00000000     0.00000000
     0.00000000     0.00000000     0.00000000
     0.00000000     0.00000000     0.00000000
     0.00000000     0.00000000     0.00000000
     0.00000000     0.00000000     0.00000000
     0.00000000     0.00000000     0.00000000
     0.00000000     0.00000000     0.00000000
     0.00000000     0.00000000     0.00000000
     0.00000000     0.00000000     0.00000000
     0.00000000     0.00000000     0.00000000
     0.00000000     0.00000000     0.00000000
     0.00000000     0.00000000     0.00000000
   -62.08838327  -197.30345951    29.95566094
  -147.51078033   142.92392852    83.55018020
  -190.68785964    -9.45099519   -19.86770140
  -142.98048814   129.78067680    31.94040436
  -132.31476729    31.15975847    10.01126831
   -69.64987245   102.66656008    19.11100620
   -26.62636426    44.02225880    17.62556608
    -0.63243042    27.35640774    16.23604277
     0.00000000     0.00000000     0.00000000
   -83.45341108  -337.23382706    40.79510923
   -81.93552486    20.15703978    -5.25594009
  -146.36047260   -25.08281964   -27.95972725
   -59.94315855   146.50938726   -59.83873043
    14.56671893    90.38602951   -21.75577234
    59.72583777   124.64527447    -6.76581030
    54.56439744    78.33598876     7.78267571
    17.44830145    54.86232001    27.51728756
     0.00000000     0.00000000     0.00000000
    34.65775600  -483.76769152    44.16950650
   -96.34410330  -189.33378440    71.54665184
   -24.20486897    44.57755256   -19.78053120
    95.52840646    86.07107398   -43.66998024
   142.51333939   118.37735904   -32.72743407
   122.93097877    68.78125180   -12.26801171
    94.89738989    63.80801070     3.37721864
    40.72110025    31.55440899    28.20231214
     0.00000000     0.00000000     0.00000000
   -41.21270366  -330.82406237     8.23364100
   294.34445588  -172.88125615     1.73187299
   391.53808679   -74.66598835     9.75977143
   305.41713865    -1.49076219     3.94816746
   230.25425339   -12.94798777     2.88367815
   131.29816479    18.06337132     2.80676707
    96.18093997     3.40118510     8.20235807
     6.26372793    10.68339882    22.44365679
     0.00000000     0.00000000     0.00000000
     0.00000000     0.00000000     0.00000000
     0.00000000     0.00000000     0.00000000
     0.00000000     0.00000000     0.00000000
     0.00000000     0.00000000     0.00000000
     0.00000000     0.00000000     0.00000000
     0.00000000     0.00000000     0.00000000
     0.00000000     0.00000000     0.00000000
     0.00000000     0.00000000     0.00000000
     0.00000000     0.00000000     0.00000000
     0.00000000     0.00000000     0.00000000
     0.00000000     0.00000000     0.00000000
     0.00000000     0.00000000     0.00000000
     0.00000000     0.00000000     0.00000000
     0.00000000     0.00000000     0.00000000
     0.00000000     0.00000000     0.00000000
     0.00000000     0.00000000     0.00000000
     0.00000000     0.00000000     0.00000000
     0.00000000     0.00000000     0.00000000
  -196.73314463  -158.76248401    67.13489693
  -143.78031417   171.72605274   102.52244177
  -202.12852893   -78.48634221    -6.55793867
  -153.82418990   147.79903007    32.53161347
  -148.50894395   -21.46099120    29.27723494
   -86.60685013   109.96492102    17.84228102
   -33.38475822     6.15313568    38.63670051
   -19.35553265    24.37905451    20.45620123
     0.00000000     0.00000000     0.00000000
  -177.02874622  -297.72271381    86.95538670
  -128.42100611   136.01526548   -70.38829433
  -193.80993330   -66.70983434   -25.81215786
   -56.53519538   184.35535798   -97.14495357
   -53.09765080    62.40972764    -3.58266654
    31.09418312   115.45669056   -11.22149143
   -17.76628881    64.11985946    23.37172218
    21.34769581    33.02636011    38.73869884
     0.00000000     0.00000000     0.00000000
   -27.31978829  -512.66401950    99.76627973
   -95.23279157   -73.97531256    81.51766455
    57.58007708    66.86062550   -67.62034830
   156.54127132    86.36659965   -63.87357851
   140.64261653   111.78134447   -43.13852099
    81.72117940    68.27702468    -7.35672505
    57.35310220    62.14367087    13.89291128
     6.09637666    29.77638935    37.69408487
     0.00000000     0.00000000     0.00000000
   -65.33616821  -340.41905366    13.87223283
   341.13960898  -148.55219596    -5.53839205
   377.27489075   -29.41156764     6.74765262
   306.64543245   -11.58432057     8.47122488
   186.67370538     0.74708345     2.90589618
   138.47011605    15.07889201     7.26958574
    25.69869603    16.68457897    20.46212000
    27.78842739     8.33089462    31.21685104
     0.00000000     0.00000000     0.00000000
     0.00000000     0.00000000     0.00000000
     0.00000000     0.00000000     0.00000000
     0.00000000     0.00000000     0.00000000
     0.00000000     0.00000000     0.00000000
     0.00000000     0.00000000     0.00000000
     0.00000000     0.00000000     0.00000000
     0.00000000     0.00000000     0.00000000
     0.00000000     0.00000000     0.00000000
     0.00000000     0.00000000     0.00000000
     0.00000000     0.00000000     0.00000000
     0.00000000     0.00000000     0.00000000
     0.00000000     0.00000000     0.00000000
     0.00000000     0.00000000     0.00000000
     0.00000000     0.00000000     0.00000000
     0.00000000     0.00000000     0.00000000
     0.00000000     0.00000000     0.00000000
     0.00000000     0.00000000     0.00000000
     0.00000000     0.00000000     0.00000000
  -289.74980956  -142.00786768    66.55554596
  -150.92959697   198.34332466    69.02195440
  -187.31966950  -132.58178422    13.01211232
  -166.58072213   149.05712022    22.71678276
  -155.85585219   -49.27789395    27.16097626
   -89.16492203    94.19455943    16.28186816
   -59.08056886   -31.14119196    41.59077559
   -16.16820594    16.68243268    16.42060126
     0.00000000     0.00000000     0.00000000
  -177.38968386  -321.38571163   139.18667119
  -165.17698835   221.34827810  -133.02581721
  -230.40016163   -69.03337383    10.74467503
  -105.45237099   192.91626794   -93.78163236
  -122.40705688     1.70190082    27.17666316
   -49.71858581   110.13338889   -20.60430011
   -51.38813177     4.63175509    37.30624071
   -11.74273826    23.98346825    26.85356235
     0.00000000     0.00000000     0.00000000
   -77.02712296  -507.43105900   126.36325737
   -29.15503087   -42.64295738     2.71375712
   114.47084873   100.31144236  -100.66471606
    77.26533401    69.97054511   -27.00854457
    20.61797918   111.77570912   -31.74108306
   -17.73783175    50.11272574    12.13392528
   -20.03219807    54.21221282     9.53721743
    -8.96073085    12.96471253    26.68201870
     0.00000000     0.00000000     0.00000000
   -95.13185822  -344.20031281    21.42470766
   362.89727876   -96.49946755   -47.61722833
   383.39445960   -57.03641671    18.63499212
   246.34986609     6.37524050    -0.43653697
   167.63101429    -1.20861747    13.01421317
    33.56099429    32.18751217    16.73547341
    14.13133633    15.67406568    22.46167189
   -20.59870031    19.68938228    24.36506767
     0.00000000     0.00000000     0.00000000
     0.00000000     0.00000000     0.00000000
     0.00000000     0.00000000     0.00000000
     0.00000000     0.00000000     0.00000000
     0.00000000     0.00000000     0.00000000
     0.00000000     0.00000000     0.00000000
     0.00000000     0.00000000     0.00000000
     0.00000000     0.00000000     0.00000000
     0.00000000     0.00000000     0.00000000
     0.00000000     0.00000000     0.00000000
     0.00000000     0.00000000     0.00000000
     0.00000000     0.00000000     0.00000000
     0.00000000     0.00000000     0.00000000
     0.00000000     0.00000000     0.00000000
     0.00000000     0.00000000     0.00000000
     0.00000000     0.00000000     0.00000000
     0.00000000     0.00000000     0.00000000
     0.00000000     0.00000000     0.00000000
     0.00000000     0.00000000     0.00000000
  -271.28210568  -154.41615155   107.40997193
  -134.99047966   182.52850623   -29.49781188
  -143.22156745  -118.41139709    55.88116670
  -156.29035468   129.18201457   -18.05746266
  -118.06354404   -41.07889494    26.60987506
   -98.51647130    62.23984730     1.80981254
   -37.48873024   -33.42557628    25.76362226
   -32.08041606    10.25197473     7.18620633
     0.00000000     0.00000000     0.00000000
   -74.80351431  -330.44765607   110.61769364
  -118.30160773   126.81428836   -71.47454924
  -244.85485605     6.23281164    12.91837196
   -84.77596571   102.48343466   -45.38792842
  -155.89601689    17.01990247    20.97734661
   -53.65374324    51.92658986   -19.16951527
   -90.48322860    -9.36597092    25.09741984
     8.57100380    -2.18411913     7.04781099
     0.00000000     0.00000000     0.00000000
   -69.07256558  -444.32490728    57.98267058
    81.26361514   -43.26480041   -54.77523861
    34.90591067   100.06469677   -22.65215891
   -94.83990488    78.67987080   -11.62633068
   -51.39757219    74.86419388     3.29376438
   -85.57358624    38.44265550     3.92884417
   -31.26556888    19.48083995     2.28843493
   -28.44483554     6.31245590     6.48068909
     0.00000000     0.00000000     0.00000000
   -64.58960313  -247.12330370   -32.32244726
   410.14217571   -67.61554028   -46.18332589
   232.47758099   -53.69111356    43.61736875
   156.88170542    17.21108496   -10.87311736
    -4.42978439    13.63841065    30.64538469
    -3.27905427    26.61605195     0.28783023
   -41.91275991    20.30812108    19.36199289
     2.50775328     7.49710069     6.61670752
     0.00000000     0.00000000     0.00000000
     0.00000000     0.00000000     0.00000000
     0.00000000     0.00000000     0.00000000
     0.00000000     0.00000000     0.00000000
     0.00000000     0.00000000     0.00000000
     0.00000000     0.00000000     0.00000000
     0.00000000     0.00000000     0.00000000
     0.00000000     0.00000000     0.00000000
     0.00000000     0.00000000     0.00000000
     0.00000000     0.00000000     0.00000000
     0.00000000     0.00000000     0.00000000
     0.00000000     0.00000000     0.00000000
     0.00000000     0.00000000     0.00000000
     0.00000000     0.00000000     0.00000000
     0.00000000     0.00000000     0.00000000
     0.00000000     0.00000000     0.00000000
     0.00000000     0.00000000     0.00000000
     0.00000000     0.00000000     0.00000000
     0.00000000     0.00000000     0.00000000
     0.00000000     0.00000000     0.00000000
     0.00000000     0.00000000     0.00000000
     0.00000000     0.00000000     0.00000000
     0.00000000     0.00000000     0.00000000
     0.00000000     0.00000000     0.00000000
     0.00000000     0.00000000     0.00000000
     0.00000000     0.00000000     0.00000000
     0.00000000     0.00000000     0.00000000
     0.00000000     0.00000000     0.00000000
     0.00000000     0.00000000     0.00000000
     0.00000000     0.00000000     0.00000000
     0.00000000     0.00000000     0.00000000
     0.00000000     0.00000000     0.00000000
     0.00000000     0.00000000     0.00000000
     0.00000000     0.00000000     0.00000000
     0.00000000     0.00000000     0.00000000
     0.00000000     0.00000000     0.00000000
     0.00000000     0.00000000     0.00000000
     0.00000000     0.00000000     0.00000000
     0.00000000     0.00000000     0.00000000
     0.00000000     0.00000000     0.00000000
     0.00000000     0.00000000     0.00000000
     0.00000000     0.00000000     0.00000000
     0.00000000     0.00000000     0.00000000
     0.00000000     0.00000000     0.00000000
     0.00000000     0.00000000     0.00000000
     0.00000000     0.00000000     0.00000000
     0.00000000     0.00000000     0.00000000
     0.00000000     0.00000000     0.00000000
     0.00000000     0.00000000     0.00000000
     0.00000000     0.00000000     0.00000000
     0.00000000     0.00000000     0.00000000
     0.00000000     0.00000000     0.00000000
     0.00000000     0.00000000     0.00000000
     0.00000000     0.00000000     0.00000000
     0.00000000     0.00000000     0.00000000
     0.00000000     0.00000000     0.00000000
     0.00000000     0.00000000     0.00000000
     0.00000000     0.00000000     0.00000000
     0.00000000     0.00000000     0.00000000
     0.00000000     0.00000000     0.00000000
     0.00000000     0.00000000     0.00000000
     0.00000000     0.00000000     0.00000000
     0.00000000     0.00000000     0.00000000
     0.00000000     0.00000000     0.00000000
     0.00000000     0.00000000     0.00000000
     0.00000000     0.00000000     0.00000000
     0.00000000     0.00000000     0.00000000
     0.00000000     0.00000000     0.00000000
     0.00000000     0.00000000     0.00000000
     0.00000000     0.00000000     0.00000000
     0.00000000     0.00000000     0.00000000
     0.00000000     0.00000000     0.00000000
     0.00000000     0.00000000     0.00000000
     0.00000000     0.00000000     0.00000000
     0.00000000     0.00000000     0.00000000
     0.00000000     0.00000000     0.00000000
     0.00000000     0.00000000     0.00000000
     0.00000000     0.00000000     0.00000000
     0.00000000     0.00000000     0.00000000
     0.00000000     0.00000000     0.00000000
     0.00000000     0.00000000     0.00000000
     0.00000000     0.00000000     0.00000000
     0.00000000     0.00000000     0.00000000
     0.00000000     0.00000000     0.00000000
     0.00000000     0.00000000     0.00000000
     0.00000000     0.00000000     0.00000000
     0.00000000     0.00000000     0.00000000
     0.00000000     0.00000000     0.00000000
     0.00000000     0.00000000     0.00000000
     0.00000000     0.00000000     0.00000000
     0.00000000     0.00000000     0.00000000
     0.00000000     0.00000000     0.00000000
     0.00000000     0.00000000     0.00000000
     0.00000000     0.00000000     0.00000000
     0.00000000     0.00000000     0.00000000
     0.00000000     0.00000000     0.00000000
     0.00000000     0.00000000     0.00000000
     0.00000000     0.00000000     0.00000000
     0.00000000     0.00000000     0.00000000
     0.00000000     0.00000000     0.00000000
     0.00000000     0.00000000     0.00000000
     0.00000000     0.00000000     0.00000000
     0.00000000     0.00000000     0.00000000
     0.00000000     0.00000000     0.00000000
     0.00000000     0.00000000     0.00000000
     0.00000000     0.00000000     0.00000000
     0.00000000     0.00000000     0.00000000
     0.00000000     0.00000000     0.00000000
     0.00000000     0.00000000     0.00000000
     0.00000000     0.00000000     0.00000000
     0.00000000     0.00000000     0.00000000
     0.00000000     0.00000000     0.00000000
     0.00000000     0.00000000     0.00000000
     0.00000000     0.00000000     0.00000000
     0.00000000     0.00000000     0.00000000
     0.00000000     0.00000000     0.00000000
     0.00000000     0.00000000     0.00000000
     0.00000000     0.00000000     0.00000000
     0.00000000     0.00000000     0.00000000
     0.00000000     0.00000000     0.00000000
     0.00000000     0.00000000     0.00000000
     0.00000000     0.00000000     0.00000000
     0.00000000     0.00000000     0.00000000
     0.00000000     0.00000000     0.00000000
     0.00000000     0.00000000     0.00000000
     0.00000000     0.00000000     0.00000000
     0.00000000     0.00000000     0.00000000
     0.00000000     0.00000000     0.00000000
     0.00000000     0.00000000     0.00000000
     0.00000000     0.00000000     0.00000000
     0.00000000     0.00000000     0.00000000
     0.00000000     0.00000000     0.00000000
     0.00000000     0.00000000     0.00000000
     0.00000000     0.00000000     0.00000000
     0.00000000     0.00000000     0.00000000
     0.00000000     0.00000000     0.00000000
     0.00000000     0.00000000     0.00000000
     0.00000000     0.00000000     0.00000000
     0.00000000     0.00000000     0.00000000
     0.00000000     0.00000000     0.00000000
     0.00000000     0.00000000     0.00000000
     0.00000000     0.00000000     0.00000000
     0.00000000     0.00000000     0.00000000
     0.00000000     0.00000000     0.00000000
     0.00000000     0.00000000     0.00000000
     0.00000000     0.00000000     0.00000000
     0.00000000     0.00000000     0.00000000
     0.00000000     0.00000000     0.00000000
     0.00000000     0.00000000     0.00000000
     0.00000000     0.00000000     0.00000000
     0.00000000     0.00000000     0.00000000
     0.00000000     0.00000000     0.00000000
     0.00000000     0.00000000     0.00000000
     0.00000000     0.00000000     0.00000000
     0.00000000     0.00000000     0.00000000
     0.00000000     0.00000000     0.00000000
     0.00000000     0.00000000     0.00000000
     0.00000000     0.00000000     0.00000000
     0.00000000     0.00000000     0.00000000
     0.00000000     0.00000000     0.00000000
     0.00000000     0.00000000     0.00000000
     0.00000000     0.00000000     0.00000000
     0.00000000     0.00000000     0.00000000
     0.00000000     0.00000000     0.00000000
     0.00000000     0.00000000     0.00000000
     0.00000000     0.00000000     0.00000000
     0.00000000     0.00000000     0.00000000
     0.00000000     0.00000000     0.00000000
     0.00000000     0.00000000     0.00000000
     0.00000000     0.00000000     0.00000000
     0.00000000     0.00000000     0.00000000
     0.00000000     0.00000000     0.00000000
     0.00000000     0.00000000     0.00000000
     0.00000000     0.00000000     0.00000000
     0.00000000     0.00000000     0.00000000
     0.00000000     0.00000000     0.00000000
     0.00000000     0.00000000     0.00000000
     0.00000000     0.00000000     0.00000000
     0.00000000     0.00000000     0.00000000
     0.00000000     0.00000000     0.00000000
     0.00000000     0.00000000     0.00000000
     0.00000000     0.00000000     0.00000000
     0.00000000     0.00000000     0.00000000
     0.00000000     0.00000000     0.00000000
     0.00000000     0.00000000     0.00000000
     0.00000000     0.00000000     0.00000000
     0.00000000     0.00000000     0.00000000
     0.00000000     0.00000000     0.00000000
     0.00000000     0.00000000     0.00000000
     0.00000000     0.00000000     0.00000000
     0.00000000     0.00000000     0.00000000
     0.00000000     0.00000000     0.00000000
     0.00000000     0.00000000     0.00000000
     0.00000000     0.00000000     0.00000000
     0.00000000     0.00000000     0.00000000
     0.00000000     0.00000000     0.00000000
     0.00000000     0.00000000     0.00000000
     0.00000000     0.00000000     0.00000000
     0.00000000     0.00000000     0.00000000
     0.00000000     0.00000000     0.00000000
     0.00000000     0.00000000     0.00000000
     0.00000000     0.00000000     0.00000000
     0.00000000     0.00000000     0.00000000
     0.00000000     0.00000000     0.00000000
     0.00000000     0.00000000     0.00000000
     0.00000000     0.00000000     0.00000000
     0.00000000     0.00000000     0.00000000
     0.00000000     0.00000000     0.00000000
     0.00000000     0.00000000     0.00000000
     0.00000000     0.00000000     0.00000000
     0.00000000     0.00000000     0.00000000
     0.00000000     0.00000000     0.00000000
     0.00000000     0.00000000     0.00000000
     0.00000000     0.00000000     0.00000000
     0.00000000     0.00000000     0.00000000
     0.00000000     0.00000000     0.00000000
     0.00000000     0.00000000     0.00000000
     0.00000000     0.00000000     0.00000000
     0.00000000     0.00000000     0.00000000
     0.00000000     0.00000000     0.00000000
     0.00000000     0.00000000     0.00000000
     0.00000000     0.00000000     0.00000000
     0.00000000     0.00000000     0.00000000
     0.00000000     0.00000000     0.00000000
     0.00000000     0.00000000     0.00000000
     0.00000000     0.00000000     0.00000000
     0.00000000     0.00000000     0.00000000
     0.00000000     0.00000000     0.00000000
     0.00000000     0.00000000     0.00000000
     0.00000000     0.00000000     0.00000000
     0.00000000     0.00000000     0.00000000
     0.00000000     0.00000000     0.00000000
     0.00000000     0.00000000     0.00000000
     0.00000000     0.00000000     0.00000000
     0.00000000     0.00000000     0.00000000
     0.00000000     0.00000000     0.00000000
     0.00000000     0.00000000     0.00000000
     0.00000000     0.00000000     0.00000000
     0.00000000     0.00000000     0.00000000
     0.00000000     0.00000000     0.00000000
     0.00000000     0.00000000     0.00000000
     0.00000000     0.00000000     0.00000000
     0.00000000     0.00000000     0.00000000
     0.00000000     0.00000000     0.00000000
     0.00000000     0.00000000     0.00000000
     0.00000000     0.00000000     0.00000000
     0.00000000     0.00000000     0.00000000
     0.00000000     0.00000000     0.00000000
     0.00000000     0.00000000     0.00000000
     0.00000000     0.00000000     0.00000000
     0.00000000     0.00000000     0.00000000
     0.00000000     0.00000000     0.00000000
     0.00000000     0.00000000     0.00000000
     0.00000000     0.00000000     0.00000000
     0.00000000     0.00000000     0.00000000
     0.00000000     0.00000000     0.00000000
     0.00000000     0.00000000     0.00000000
     0.00000000     0.00000000     0.00000000
     0.00000000     0.00000000     0.00000000
     0.00000000     0.00000000     0.00000000
     0.00000000     0.00000000     0.00000000
     0.00000000     0.00000000     0.00000000
     0.00000000     0.00000000     0.00000000
     0.00000000     0.00000000     0.00000000
     0.00000000     0.00000000     0.00000000
     0.00000000     0.00000000     0.00000000
     0.00000000     0.00000000     0.00000000
     0.00000000     0.00000000     0.00000000
     0.00000000     0.00000000     0.00000000
     0.00000000     0.00000000     0.00000000
     0.00000000     0.00000000     0.00000000
     0.00000000     0.00000000     0.00000000
     0.00000000     0.00000000     0.00000000
     0.00000000     0.00000000     0.00000000
     0.00000000     0.00000000     0.00000000
     0.00000000     0.00000000     0.00000000
     0.00000000     0.00000000     0.00000000
     0.00000000     0.00000000     0.00000000
     0.00000000     0.00000000     0.00000000
     0.00000000     0.00000000     0.00000000
     0.00000000     0.00000000     0.00000000
     0.00000000     0.00000000     0.00000000
     0.00000000     0.00000000     0.00000000
     0.00000000     0.00000000     0.00000000
     0.00000000     0.00000000     0.00000000
     0.00000000     0.00000000     0.00000000
     0.00000000     0.00000000     0.00000000
     0.00000000     0.00000000     0.00000000
     0.00000000     0.00000000     0.00000000
     0.00000000     0.00000000     0.00000000
     0.00000000     0.00000000     0.00000000
     0.00000000     0.00000000     0.00000000
     0.00000000     0.00000000     0.00000000
     0.00000000     0.00000000     0.00000000
     0.00000000     0.00000000     0.00000000
     0.00000000     0.00000000     0.00000000
     0.00000000     0.00000000     0.00000000
     0.00000000     0.00000000     0.00000000
     0.00000000     0.00000000     0.00000000
     0.00000000     0.00000000     0.00000000
     0.00000000     0.00000000     0.00000000
     0.00000000     0.00000000     0.00000000
     0.00000000     0.00000000     0.00000000
     0.00000000     0.00000000     0.00000000
     0.00000000     0.00000000     0.00000000
     0.00000000     0.00000000     0.00000000
     0.00000000     0.00000000     0.00000000
     0.00000000     0.00000000     0.00000000
     0.00000000     0.00000000     0.00000000
     0.00000000     0.00000000     0.00000000
     0.00000000     0.00000000     0.00000000
     0.00000000     0.00000000     0.00000000
     0.00000000     0.00000000     0.00000000
     0.00000000     0.00000000     0.00000000
     0.00000000     0.00000000     0.00000000
     0.00000000     0.00000000     0.00000000
     0.00000000     0.00000000     0.00000000
     0.00000000     0.00000000     0.00000000
     0.00000000     0.00000000     0.00000000
     0.00000000     0.00000000     0.00000000
     0.00000000     0.00000000     0.00000000
     0.00000000     0.00000000     0.00000000
     0.00000000     0.00000000     0.00000000
     0.00000000     0.00000000     0.00000000
     0.00000000     0.00000000     0.00000000
     0.00000000     0.00000000     0.00000000
     0.00000000     0.00000000     0.00000000
     0.00000000     0.00000000     0.00000000
     0.00000000     0.00000000     0.00000000
     0.00000000     0.00000000     0.00000000
     0.00000000     0.00000000     0.00000000
     0.00000000     0.00000000     0.00000000
     0.00000000     0.00000000     0.00000000
     0.00000000     0.00000000     0.00000000
     0.00000000     0.00000000     0.00000000
     0.00000000     0.00000000     0.00000000
     0.00000000     0.00000000     0.00000000
     0.00000000     0.00000000     0.00000000
     0.00000000     0.00000000     0.00000000
     0.00000000     0.00000000     0.00000000
SCALARS Temperatures float
LOOKUP_TABLE default
     0.00000000
     0.00000000
     0.00000000
     0.00000000
     0.00000000
     0.00000000
     0.00000000
     0.00000000
     0.00000000
     0.00000000
     0.00000000
     0.00000000
     0.00000000
     0.00000000
     0.00000000
     0.00000000
     0.00000000
     0.00000000
     0.00000000
     0.00000000
     0.00000000
     0.00000000
     0.00000000
     0.00000000
     0.00000000
     0.00000000
     0.00000000
     0.00000000
     0.00000000
     0.00000000
     0.00000000
     0.00000000
     0.00000000
     0.00000000
     0.00000000
     0.00000000
     0.00000000
     0.00000000
     0.00000000
     0.00000000
     0.00000000
     0.00000000
     0.00000000
     0.00000000
     0.00000000
     0.00000000
     0.00000000
     0.00000000
     0.00000000
     0.00000000
     0.00000000
     0.00000000
     0.00000000
     0.00000000
     0.00000000
     0.00000000
     0.00000000
     0.00000000
     0.00000000
     0.00000000
     0.00000000
     0.00000000
     0.00000000
     0.00000000
     0.00000000
     0.00000000
     0.00000000
     0.00000000
     0.00000000
     0.00000000
     0.00000000
     0.00000000
     0.00000000
     0.00000000
     0.00000000
     0.00000000
     0.00000000
     0.00000000
     0.00000000
     0.00000000
     0.00000000
     0.00000000
     0.00000000
     0.00000000
     0.00000000
     0.00000000
     0.00000000
     0.00000000
     0.00000000
     0.00000000
     0.00000000
     0.00000000
     0.00000000
     0.00000000
     0.00000000
     0.00000000
     0.00000000
     0.00000000
     0.00000000
     0.00000000
     0.00000000
     0.00000000
     0.00000000
     0.00000000
     0.00000000
     0.00000000
     0.00000000
     0.00000000
     0.00000000
     0.00000000
     0.00000000
     0.00000000
     0.00000000
     0.00000000
     0.00000000
     0.00000000
     0.00000000
     0.00000000
     0.00000000
     0.00000000
     0.00000000
     0.00000000
     0.00000000
     0.00000000
     0.00000000
     0.00000000
     0.00000000
     0.00000000
     0.00000000
     0.00000000
     0.00000000
     0.00000000
     0.00000000
     0.00000000
     0.00000000
     0.00000000
     0.00000000
     0.00000000
     0.00000000
     0.00000000
     0.00000000
     0.00000000
     0.00000000
     0.00000000
     0.00000000
     0.00000000
     0.00000000
     0.00000000
     0.00000000
     0.00000000
     0.00000000
     0.00000000
     0.00000000
     0.00000000
     0.00000000
     0.00000000
     0.00000000
     0.00000000
     0.00000000
     0.00000000
     0.00000000
     0.00000000
     0.00000000
     0.00000000
     0.00000000
     0.00000000
     0.00000000
     0.00000000
     0.00000000
     0.00000000
     0.00000000
     0.00000000
     0.00000000
     0.00000000
     0.00000000
     0.00000000
     0.00000000
     0.00000000
     0.00000000
     0.00000000
     0.00000000
     0.00000000
     0.00000000
     0.00000000
     0.00000000
     0.00000000
     0.00000000
     0.00000000
     0.00000000
     0.00000000
     0.00000000
     0.00000000
     0.00000000
     0.00000000
     0.00000000
     0.00000000
     0.00000000
     0.00000000
     0.00000000
     0.00000000
     0.00000000
     0.00000000
     0.00000000
     0.00000000
     0.00000000
     0.00000000
     0.00000000
     0.00000000
     0.00000000
     0.00000000
     0.00000000
     0.00000000
     0.00000000
     0.00000000
     0.00000000
     0.00000000
     0.00000000
     0.00000000
     0.00000000
     0.00000000
     0.00000000
     0.00000000
     0.00000000
     0.00000000
     0.00000000
     0.00000000
     0.00000000
     0.00000000
     0.00000000
     0.00000000
     0.00000000
     0.00000000
     0.00000000
     0.00000000
     0.00000000
     0.00000000
     0.00000000
     0.00000000
     0.00000000
     0.00000000
     0.00000000
     0.00000000
     0.00000000
     0.00000000
     0.00000000
     0.00000000
     0.00000000
     0.00000000
     0.00000000
     0.00000000
     0.00000000
     0.00000000
     0.00000000
     0.00000000
     0.00000000
     0.00000000
     0.00000000
     0.00000000
     0.00000000
     0.00000000
     0.00000000
     0.00000000
     0.00000000
     0.00000000
     0.00000000
     0.00000000
     0.00000000
     0.00000000
     0.00000000
     0.00000000
     0.00000000
     0.00000000
     0.00000000
     0.00000000
     0.00000000
     0.00000000
     0.00000000
     0.00000000
     0.00000000
     0.00000000
     0.00000000
     0.00000000
     0.00000000
     0.00000000
     0.00000000
     0.00000000
     0.00000000
     0.00000000
     0.00000000
     0.00000000
     0.00000000
     0.00000000
     0.00000000
     0.00000000
     0.00000000
     0.00000000
     0.00000000
     0.00000000
     0.00000000
     0.00000000
     0.00000000
     0.00000000
     0.00000000
     0.00000000
     0.00000000
     0.00000000
     0.00000000
     0.00000000
     0.00000000
     0.00000000
     0.00000000
     0.00000000
     0.00000000
     0.00000000
     0.00000000
     0.00000000
     0.00000000
     0.00000000
     0.00000000
     0.00000000
     0.00000000
     0.00000000
     0.00000000
     0.00000000
     0.00000000
     0.00000000
     0.00000000
     0.00000000
     0.00000000
     0.00000000
     0.00000000
     0.00000000
     0.00000000
     0.00000000
     0.00000000
     0.00000000
     0.00000000
     0.00000000
     0.00000000
     0.00000000
     0.00000000
     0.00000000
     0.00000000
     0.00000000
     0.00000000
     0.00000000
     0.00000000
     0.00000000
     0.00000000
     0.00000000
     0.00000000
     0.00000000
     0.00000000
     0.00000000
     0.00000000
     0.00000000
     0.00000000
     0.00000000
     0.00000000
     0.00000000
     0.00000000
     0.00000000
     0.00000000
     0.00000000
     0.00000000
     0.00000000
     0.00000000
     0.00000000
     0.00000000
     0.00000000
     0.00000000
     0.00000000
     0.00000000
     0.00000000
     0.00000000
     0.00000000
     0.00000000
     0.00000000
     0.00000000
     0.00000000
     0.00000000
     0.00000000
     0.00000000
     0.00000000
     0.00000000
     0.00000000
     0.00000000
     0.00000000
     0.00000000
     0.00000000
     0.00000000
     0.00000000
     0.00000000
     0.00000000
     0.00000000
     0.00000000
     0.00000000
     0.00000000
     0.00000000
     0.00000000
     0.00000000
     0.00000000
     0.00000000
     0.00000000
     0.00000000
     0.00000000
     0.00000000
     0.00000000
     0.00000000
     0.00000000
     0.00000000
     0.00000000
     0.00000000
     0.00000000
     0.00000000
     0.00000000
     0.00000000
     0.00000000
     0.00000000
     0.00000000
     0.00000000
     0.00000000
     0.00000000
     0.00000000
     0.00000000
     0.00000000
     0.00000000
     0.00000000
     0.00000000
     0.00000000
     0.00000000
     0.00000000
     0.00000000
     0.00000000
     0.00000000
     0.00000000
     0.00000000
     0.00000000
     0.00000000
     0.00000000
     0.00000000
     0.00000000
     0.00000000
     0.00000000
     0.00000000
     0.00000000
     0.00000000
     0.00000000
     0.00000000
     0.00000000
     0.00000000
     0.00000000
     0.00000000
     0.00000000
     0.00000000
     0.00000000
     0.00000000
     0.00000000
     0.00000000
     0.00000000
     0.00000000
     0.00000000
     0.00000000
     0.00000000
     0.00000000
     0.00000000
     0.00000000
     0.00000000
     0.00000000
     0.00000000
     0.00000000
     0.00000000
     0.00000000
     0.00000000
     0.00000000
     0.00000000
     0.00000000
     0.00000000
     0.00000000
     0.00000000
     0.00000000
     0.00000000
     0.00000000
     0.00000000
     0.00000000
     0.00000000
     0.00000000
     0.00000000
     0.00000000
     0.00000000
     0.00000000
     0.00000000
     0.00000000
     0.00000000
     0.00000000
     0.00000000
     0.00000000
     0.00000000
     0.00000000
     0.00000000
     0.00000000
     0.00000000
     0.00000000
     0.00000000
     0.00000000
     0.00000000
     0.00000000
     0.00000000
     0.00000000
     0.00000000
     0.00000000
     0.00000000
     0.00000000
     0.00000000
     0.00000000
     0.00000000
     0.00000000
     0.00000000
     0.00000000
     0.00000000
     0.00000000
     0.00000000
     0.00000000
     0.00000000
     0.00000000
     0.00000000
     0.00000000
     0.00000000
     0.00000000
     0.00000000
     0.00000000
     0.00000000
     0.00000000
     0.00000000
     0.00000000
     0.00000000
     0.00000000
     0.00000000
     0.00000000
     0.00000000
     0.00000000
     0.00000000
     0.00000000
     0.00000000
     0.00000000
     0.00000000
     0.00000000
     0.00000000
     0.00000000
     0.00000000
     0.00000000
     0.00000000
     0.00000000
     0.00000000
     0.00000000
     0.00000000
     0.00000000
     0.00000000
     0.00000000
     0.00000000
     0.00000000
     0.00000000
     0.00000000
     0.00000000
     0.00000000
     0.00000000
     0.00000000
     0.00000000
     0.00000000
     0.00000000
     0.00000000
     0.00000000
     0.00000000
     0.00000000
     0.00000000
     0.00000000
     0.00000000
     0.00000000
     0.00000000
     0.00000000
     0.00000000
     0.00000000
     0.00000000
     0.00000000
     0.00000000
     0.00000000
     0.00000000
     0.00000000
     0.00000000
     0.00000000
     0.00000000
     0.00000000
     0.00000000
     0.00000000
     0.00000000
     0.00000000
     0.00000000
     0.00000000
     0.00000000
     0.00000000
     0.00000000
     0.00000000
     0.00000000
     0.00000000
     0.00000000
     0.00000000
     0.00000000
     0.00000000
     0.00000000
     0.00000000
     0.00000000
     0.00000000
     0.00000000
     0.00000000
     0.00000000
     0.00000000
     0.00000000
     0.00000000
     0.00000000
     0.00000000
     0.00000000
     0.00000000
     0.00000000
     0.00000000
     0.00000000
     0.00000000
     0.00000000
     0.00000000
     0.00000000
     0.00000000
     0.00000000
     0.00000000
     0.00000000
     0.00000000
     0.00000000
     0.00000000
     0.00000000
     0.00000000
     0.00000000
     0.00000000
     0.00000000
     0.00000000
     0.00000000
     0.00000000
     0.00000000
     0.00000000
     0.00000000
     0.00000000
     0.00000000
     0.00000000
     0.00000000
     0.00000000
     0.00000000
     0.00000000
     0.00000000
     0.00000000
     0.00000000
     0.00000000
     0.00000000
     0.00000000
     0.00000000
     0.00000000
     0.00000000
     0.00000000
     0.00000000
     0.00000000
     0.00000000
     0.00000000
     0.00000000
     0.00000000
     0.00000000
     0.00000000
     0.00000000
     0.00000000
     0.00000000
     0.00000000
     0.00000000
     0.00000000
     0.00000000
     0.00000000
     0.00000000
     0.00000000
     0.00000000
     0.00000000
     0.00000000
     0.00000000
     0.00000000
     0.00000000
     0.00000000
     0.00000000
     0.00000000
     0.00000000
     0.00000000
     0.00000000
     0.00000000
     0.00000000
     0.00000000
     0.00000000
     0.00000000
     0.00000000
     0.00000000
     0.00000000
     0.00000000
     0.00000000
     0.00000000
     0.00000000
     0.00000000
     0.00000000
     0.00000000
     0.00000000
     0.00000000
     0.00000000
     0.00000000
     0.00000000
     0.00000000
     0.00000000
     0.00000000
     0.00000000
     0.00000000
     0.00000000
     0.00000000
     0.00000000
     0.00000000
     0.00000000
     0.00000000
     0.00000000
     0.00000000
     0.00000000
     0.00000000
     0.00000000
     0.00000000
     0.00000000
     0.00000000
     0.00000000
     0.00000000
     0.00000000
     0.00000000
     0.00000000
     0.00000000
     0.00000000
     0.00000000
     0.00000000
     0.00000000
     0.00000000
     0.00000000
     0.00000000
     0.00000000
     0.00000000
     0.00000000
     0.00000000
     0.00000000
     0.00000000
     0.00000000
     0.00000000
     0.00000000
     0.00000000
     0.00000000
     0.00000000
     0.00000000
     0.00000000
     0.00000000
     0.00000000
     0.00000000
     0.00000000
     0.00000000
     0.00000000
     0.00000000
     0.00000000
     0.00000000
     0.00000000
     0.00000000
     0.00000000
     0.00000000
     0.00000000
     0.00000000
     0.00000000
     0.00000000
     0.00000000
     0.00000000
     0.00000000
     0.00000000
     0.00000000
     0.00000000
     0.00000000
     0.00000000
     0.00000000
     0.00000000
     0.00000000
     0.00000000
     0.00000000
     0.00000000
     0.00000000
     0.00000000
     0.00000000
     0.00000000
     0.00000000
     0.00000000
     0.00000000
     0.00000000
     0.00000000
     0.00000000
     0.00000000
     0.00000000
     0.00000000
     0.00000000
     0.00000000
     0.00000000
     0.00000000
     0.00000000
     0.00000000
     0.00000000
     0.00000000
     0.00000000
     0.00000000
     0.00000000
     0.00000000
     0.00000000
     0.00000000
     0.00000000
     0.00000000
     0.00000000
     0.00000000
     0.00000000
     0.00000000
     0.00000000
     0.00000000
     0.00000000
     0.00000000
     0.00000000
     0.00000000
     0.00000000
     0.00000000
     0.00000000
     0.00000000
     0.00000000
     0.00000000
     0.00000000
     0.00000000
     0.00000000
     0.00000000
     0.00000000
     0.00000000
     0.00000000
     0.00000000
     0.00000000
     0.00000000
     0.00000000
     0.00000000
     0.00000000
     0.00000000
     0.00000000
     0.00000000
     0.00000000
     0.00000000
     0.00000000
     0.00000000
     0.00000000
     0.00000000
     0.00000000
     0.00000000
     0.00000000
     0.00000000
     0.00000000
     0.00000000
     0.00000000
     0.00000000
     0.00000000
     0.00000000
     0.00000000
     0.00000000
     0.00000000
     0.00000000
     0.00000000
     0.00000000
     0.00000000
     0.00000000
     0.00000000
     0.00000000
     0.00000000
     0.00000000
     0.00000000
     0.00000000
     0.00000000
     0.00000000
     0.00000000
     0.00000000
     0.00000000
     0.00000000
     0.00000000
     0.00000000
     0.00000000
     0.00000000
     0.00000000
     0.00000000
     0.00000000
     0.00000000
     0.00000000
     0.00000000
     0.00000000
     0.00000000
     0.00000000
     0.00000000
     0.00000000
     0.00000000
     0.00000000
     0.00000000
     0.00000000
     0.00000000
     0.00000000
     0.00000000
     0.00000000
     0.00000000
     0.00000000
     0.00000000
     0.00000000
     0.00000000
     0.00000000
     0.00000000
     0.00000000
     0.00000000
     0.00000000
     0.00000000
     0.00000000
     0.00000000
     0.00000000
     0.00000000
     0.00000000
     0.00000000
     0.00000000
     0.00000000
     0.00000000
     0.00000000
     0.00000000
     0.00000000
     0.00000000
     0.00000000
     0.00000000
     0.00000000
     0.00000000
     0.00000000
     0.00000000
     0.00000000
     0.00000000
     0.00000000
     0.00000000
     0.00000000
     0.00000000
     0.00000000
     0.00000000
     0.00000000
     0.00000000
     0.00000000
     0.00000000
     0.00000000
     0.00000000
     0.00000000
     0.00000000
     0.00000000
     0.00000000
     0.00000000
     0.00000000
     0.00000000
     0.00000000
     0.00000000
     0.00000000
     0.00000000
     0.00000000
     0.00000000
     0.00000000
     0.00000000
     0.00000000
     0.00000000
     0.00000000
     0.00000000
     0.00000000
     0.00000000
     0.00000000
     0.00000000
     0.00000000
     0.00000000
     0.00000000
     0.00000000
     0.00000000
     0.00000000
     0.00000000
     0.00000000
     0.00000000
     0.00000000
     0.00000000
     0.00000000
     0.00000000
     0.00000000
     0.00000000
     0.00000000
     0.00000000
     0.00000000
     0.00000000
     0.00000000
     0.00000000
     0.00000000
     0.00000000
     0.00000000
     0.00000000
     0.00000000
     0.00000000
     0.00000000
     0.00000000
     0.00000000
     0.00000000
     0.00000000
     0.00000000
     0.00000000
     0.00000000
     0.00000000
     0.00000000
     0.00000000
     0.00000000
     0.00000000
     0.00000000
     0.00000000
     0.00000000
     0.00000000
     0.00000000
     0.00000000
     0.00000000
     0.00000000
     0.00000000
     0.00000000
     0.00000000
     0.00000000
     0.00000000
     0.00000000
     0.00000000
     0.00000000
     0.00000000
     0.00000000
     0.00000000
     0.00000000
     0.00000000
     0.00000000
     0.00000000
     0.00000000
     0.00000000
     0.00000000
     0.00000000
     0.00000000
     0.00000000
     0.00000000
     0.00000000
     0.00000000
     0.00000000
     0.00000000
     0.00000000
     0.00000000
     0.00000000
     0.00000000
     0.00000000
     0.00000000
     0.00000000
     0.00000000
     0.00000000
     0.00000000
     0.00000000
     0.00000000
     0.00000000
     0.00000000
     0.00000000
     0.00000000
     0.00000000
     0.00000000
     0.00000000
     0.00000000
     0.00000000
     0.00000000
     0.00000000
     0.00000000
     0.00000000
     0.00000000
     0.00000000
     0.00000000
     0.00000000
     0.00000000
     0.00000000
     0.00000000
     0.00000000
     0.00000000
     0.00000000
     0.00000000
     0.00000000
     0.00000000
     0.00000000
     0.00000000
     0.00000000
     0.00000000
     0.00000000
     0.00000000
     0.00000000
     0.00000000
     0.00000000
     0.00000000
     0.00000000
     0.00000000
     0.00000000
     0.00000000
     0.00000000
     0.00000000
     0.00000000
     0.00000000
     0.00000000
     0.00000000
     0.00000000
     0.00000000
     0.00000000
     0.00000000
     0.00000000
     0.00000000
     0.00000000
     0.00000000
     0.00000000
     0.00000000
     0.00000000
     0.00000000
     0.00000000
     0.00000000
     0.00000000
     0.00000000
     0.00000000
     0.00000000
     0.00000000
     0.00000000
     0.00000000
     0.00000000
     0.00000000
     0.00000000
     0.00000000
     0.00000000
     0.00000000
     0.00000000
     0.00000000
     0.00000000
     0.00000000
     0.00000000
     0.00000000
     0.00000000
     0.00000000
     0.00000000
     0.00000000
     0.00000000
     0.00000000
     0.00000000
     0.00000000
     0.00000000
     0.00000000
     0.00000000
     0.00000000
     0.00000000
     0.00000000
     0.00000000
     0.00000000
     0.00000000
     0.00000000
     0.00000000
     0.00000000
     0.00000000
     0.00000000
     0.00000000
     0.00000000
     0.00000000
     0.00000000
     0.00000000
     0.00000000
     0.00000000
     0.00000000
     0.00000000
     0.00000000
     0.00000000
     0.00000000
     0.00000000
     0.00000000
     0.00000000
     0.00000000
     0.00000000
     0.00000000
     0.00000000
     0.00000000
     0.00000000
     0.00000000
     0.00000000
     0.00000000
     0.00000000
     0.00000000
     0.00000000
     0.00000000
     0.00000000
     0.00000000
     0.00000000
     0.00000000
     0.00000000
     0.00000000
     0.00000000
     0.00000000
     0.00000000
     0.00000000
     0.00000000
     0.00000000
     0.00000000
     0.00000000
     0.00000000
     0.00000000
     0.00000000
     0.00000000
     0.00000000
     0.00000000
     0.00000000
     0.00000000
     0.00000000
     0.00000000
     0.00000000
     0.00000000
     0.00000000
     0.00000000
     0.00000000
     0.00000000
     0.00000000
     0.00000000
     0.00000000
     0.00000000
     0.00000000
     0.00000000
     0.00000000
     0.00000000
     0.00000000
     0.00000000
     0.00000000
     0.00000000
     0.00000000
     0.00000000
     0.00000000
     0.00000000
     0.00000000
     0.00000000
     0.00000000
     0.00000000
     0.00000000
     0.00000000
     0.00000000
     0.00000000
     0.00000000
     0.00000000
     0.00000000
     0.00000000
     0.00000000
     0.00000000
     0.00000000
     0.00000000
     0.00000000
     0.00000000
     0.00000000
     0.00000000
     0.00000000
     0.00000000
     0.00000000
     0.00000000
     0.00000000
     0.00000000
     0.00000000
     0.00000000
     0.00000000
     0.00000000
     0.00000000
     0.00000000
     0.00000000
     0.00000000
     0.00000000
     0.00000000
     0.00000000
     0.00000000
     0.00000000
     0.00000000
     0.00000000
     0.00000000
     0.00000000
     0.00000000
     0.00000000
     0.00000000
     0.00000000
     0.00000000
     0.00000000
     0.00000000
     0.00000000
     0.00000000
     0.00000000
     0.00000000
     0.00000000
     0.00000000
     0.00000000
     0.00000000
     0.00000000
     0.00000000
     0.00000000
     0.00000000
     0.00000000
     0.00000000
     0.00000000
     0.00000000
     0.00000000
     0.00000000
     0.00000000
     0.00000000
     0.00000000
     0.00000000
     0.00000000
     0.00000000
     0.00000000
     0.00000000
     0.00000000
     0.00000000
     0.00000000
     0.00000000
     0.00000000
     0.00000000
     0.00000000
     0.00000000
     0.00000000
     0.00000000
     0.00000000
     0.00000000
     0.00000000
     0.00000000
     0.00000000
     0.00000000
     0.00000000
     0.00000000
     0.00000000
     0.00000000
     0.00000000
     0.00000000
     0.00000000
     0.00000000
     0.00000000
     0.00000000
     0.00000000
     0.00000000
     0.00000000
     0.00000000
     0.00000000
     0.00000000
     0.00000000
     0.00000000
     0.00000000
     0.00000000
     0.00000000
     0.00000000
     0.00000000
     0.00000000
     0.00000000
     0.00000000
     0.00000000
     0.00000000
     0.00000000
     0.00000000
     0.00000000
     0.00000000
     0.00000000
     0.00000000
     0.00000000
     0.00000000
     0.00000000
     0.00000000
     0.00000000
     0.00000000
     0.00000000
     0.00000000
     0.00000000
     0.00000000
     0.00000000
     0.00000000
     0.00000000
     0.00000000
     0.00000000
     0.00000000
     0.00000000
     0.00000000
     0.00000000
     0.00000000
     0.00000000
     0.00000000
     0.00000000
     0.00000000
     0.00000000
     0.00000000
     0.00000000
     0.00000000
     0.00000000
     0.00000000
     0.00000000
     0.00000000
     0.00000000
     0.00000000
     0.00000000
     0.00000000
     0.00000000
     0.00000000
     0.00000000
     0.00000000
     0.00000000
     0.00000000
     0.00000000
     0.00000000
     0.00000000
     0.00000000
     0.00000000
     0.00000000
     0.00000000
     0.00000000
     0.00000000
     0.00000000
     0.00000000
     0.00000000
     0.00000000
     0.00000000
     0.00000000
     0.00000000
     0.00000000
     0.00000000
     0.00000000
     0.00000000
     0.00000000
     0.00000000
     0.00000000
     0.00000000
     0.00000000
     0.00000000
     0.00000000
     0.00000000
     0.00000000
     0.00000000
     0.00000000
     0.00000000
     0.00000000
     0.00000000
     0.00000000
     0.00000000
     0.00000000
     0.00000000
     0.00000000
     0.00000000
     0.00000000
     0.00000000
     0.00000000
     0.00000000
     0.00000000
     0.00000000
     0.00000000
     0.00000000
     0.00000000
     0.00000000
     0.00000000
     0.00000000
     0.00000000
     0.00000000
     0.00000000
     0.00000000
     0.00000000
     0.00000000
     0.00000000
     0.00000000
     0.00000000
     0.00000000
     0.00000000
     0.00000000
     0.00000000
     0.00000000
     0.00000000
     0.00000000
     0.00000000
     0.00000000
     0.00000000
     0.00000000
     0.00000000
     0.00000000
     0.00000000
     0.00000000
     0.00000000
     0.00000000
     0.00000000
     0.00000000
     0.00000000
     0.00000000
     0.00000000
     0.00000000
     0.00000000
     0.00000000
     0.00000000
     0.00000000
     0.00000000
     0.00000000
     0.00000000
     0.00000000
     0.00000000
     0.00000000
     0.00000000
     0.00000000
     0.00000000
     0.00000000
     0.00000000
     0.00000000
     0.00000000
     0.00000000
     0.00000000
     0.00000000
     0.00000000
     0.00000000
     0.00000000
     0.00000000
     0.00000000
     0.00000000
     0.00000000
     0.00000000
     0.00000000
     0.00000000
     0.00000000
     0.00000000
     0.00000000
     0.00000000
     0.00000000
     0.00000000
     0.00000000
     0.00000000
     0.00000000
     0.00000000
     0.00000000
     0.00000000
     0.00000000
     0.00000000
     0.00000000
     0.00000000
     0.00000000
     0.00000000
     0.00000000
     0.00000000
     0.00000000
     0.00000000
     0.00000000
     0.00000000
     0.00000000
     0.00000000
     0.00000000
     0.00000000
     0.00000000
     0.00000000
     0.00000000
     0.00000000
     0.00000000
     0.00000000
     0.00000000
     0.00000000
     0.00000000
     0.00000000
     0.00000000
     0.00000000
     0.00000000
     0.00000000
     0.00000000
     0.00000000
     0.00000000
     0.00000000
     0.00000000
     0.00000000
     0.00000000
     0.00000000
     0.00000000
     0.00000000
     0.00000000
     0.00000000
     0.00000000
     0.00000000
     0.00000000
     0.00000000
     0.00000000
     0.00000000
     0.00000000
     0.00000000
     0.00000000
     0.00000000
     0.00000000
     0.00000000
     0.00000000
     0.00000000
VECTORS ShearStress float 
     0.00161880    -0.00153721    -0.00010724
     0.01690626    -0.00959131    -0.00068983
     0.02627468    -0.00981310    -0.00010889
     0.01551828    -0.00346950     0.00057317
     0.01635841    -0.00193481    -0.00073929
    -0.00697498    -0.00015231     0.00360039
    -0.06160731    -0.01177150     0.00326802
    -0.12219671    -0.04235054    -0.00147495
    -0.36358638    -0.13908334    -0.00606707
     0.00000000    -0.00511144    -0.00020304
     0.00000000     0.00000000     0.00000000
     0.00000000     0.00000000     0.00000000
     0.00000000     0.00000000     0.00000000
     0.00000000     0.00000000     0.00000000
     0.00000000     0.00000000     0.00000000
     0.00000000     0.00000000     0.00000000
     0.00000000     0.00000000     0.00000000
     0.00000000     0.00000000     0.00000000
     0.00000000    -0.01192842     0.00101781
     0.00000000     0.00000000     0.00000000
     0.00000000     0.00000000     0.00000000
     0.00000000     0.00000000     0.00000000
     0.00000000     0.00000000     0.00000000
     0.00000000     0.00000000     0.00000000
     0.00000000     0.00000000     0.00000000
     0.00000000     0.00000000     0.00000000
     0.00000000     0.00000000     0.00000000
     0.00000000    -0.01028672     0.00154680
     0.00000000     0.00000000     0.00000000
     0.00000000     0.00000000     0.00000000
     0.00000000     0.00000000     0.00000000
     0.00000000     0.00000000     0.00000000
     0.00000000     0.00000000     0.00000000
     0.00000000     0.00000000     0.00000000
     0.00000000     0.00000000     0.00000000
     0.00000000     0.00000000     0.00000000
     0.00000000    -0.01081948     0.00202231
     0.00000000     0.00000000     0.00000000
     0.00000000     0.00000000     0.00000000
     0.00000000     0.00000000     0.00000000
     0.00000000     0.00000000     0.00000000
     0.00000000     0.00000000     0.00000000
     0.00000000     0.00000000     0.00000000
     0.00000000     0.00000000     0.00000000
     0.00000000     0.00000000     0.00000000
     0.00000000    -0.00343254     0.00181159
     0.00000000     0.00000000     0.00000000
     0.00000000     0.00000000     0.00000000
     0.00000000     0.00000000     0.00000000
     0.00000000     0.00000000     0.00000000
     0.00000000     0.00000000     0.00000000
     0.00000000     0.00000000     0.00000000
     0.00000000     0.00000000     0.00000000
     0.31074581    -0.10559319    -0.02784435
     0.00000000     0.00369597     0.00176706
     0.00000000     0.00000000     0.00000000
     0.00000000     0.00000000     0.00000000
     0.00000000     0.00000000     0.00000000
     0.00000000     0.00000000     0.00000000
     0.00000000     0.00000000     0.00000000
     0.00000000     0.00000000     0.00000000
     0.00000000     0.00000000     0.00000000
     0.00000000     0.00000000     0.00000000
     0.00000000     0.00216272     0.00106590
     0.00000000     0.00000000     0.00000000
     0.00000000     0.00000000     0.00000000
     0.00000000     0.00000000     0.00000000
     0.00000000     0.00000000     0.00000000
     0.00000000     0.00000000     0.00000000
     0.00000000     0.00000000     0.00000000
     0.00000000     0.00000000     0.00000000
     0.00000000     0.00000000     0.00000000
     0.00000000     0.00443072     0.00053603
     0.00000000     0.00000000     0.00000000
     0.00000000     0.00000000     0.00000000
     0.00000000     0.00000000     0.00000000
     0.00000000     0.00000000     0.00000000
     0.00000000     0.00000000     0.00000000
     0.00000000     0.00000000     0.00000000
     0.00000000     0.00000000     0.00000000
     0.00000000     0.00000000     0.00000000
     0.00000000     0.00689290    -0.00041349
     0.00000000     0.00000000     0.00000000
     0.00000000     0.00000000     0.00000000
     0.00000000     0.00000000     0.00000000
     0.00000000     0.00000000     0.00000000
     0.00000000     0.00000000     0.00000000
     0.00000000     0.00000000     0.00000000
     0.00000000     0.00000000     0.00000000
     0.00000000     0.00000000     0.00000000
     0.00247407     0.00242392    -0.00017445
     0.02200786     0.01292119    -0.00100123
     0.01265143     0.00491579     0.00096432
    -0.01297155    -0.00272159     0.00162132
    -0.03811804    -0.00391602     0.00228043
    -0.07263344     0.00012989     0.00236262
    -0.09893071     0.02268895     0.00040496
    -0.12871878     0.05758822    -0.00028709
    -0.22964949     0.11479024    -0.00392644
     0.00014431    -0.00038118    -0.00042739
     0.00284217    -0.00187734    -0.00273241
     0.01433113    -0.00544767    -0.00042261
     0.00917028    -0.00191388     0.00097768
     0.01077462    -0.00150469    -0.00203496
     0.01024324     0.00193254     0.01249522
    -0.01828282    -0.00261339     0.00910344
    -0.08707565    -0.03417279    -0.01765179
    -0.38424070    -0.16090397    -0.04619495
     0.00000000    -0.00371951    -0.00037487
     0.00000000     0.00000000     0.00000000
     0.00000000     0.00000000     0.00000000
     0.00000000     0.00000000     0.00000000
     0.00000000     0.00000000     0.00000000
     0.00000000     0.00000000     0.00000000
     0.00000000     0.00000000     0.00000000
     0.00000000     0.00000000     0.00000000
     0.00000000     0.00000000     0.00000000
     0.00000000    -0.01165275     0.00445860
     0.00000000     0.00000000     0.00000000
     0.00000000     0.00000000     0.00000000
     0.00000000     0.00000000     0.00000000
     0.00000000     0.00000000     0.00000000
     0.00000000     0.00000000     0.00000000
     0.00000000     0.00000000     0.00000000
     0.00000000     0.00000000     0.00000000
     0.00000000     0.00000000     0.00000000
     0.00000000    -0.00927614     0.00659528
     0.00000000     0.00000000     0.00000000
     0.00000000     0.00000000     0.00000000
     0.00000000     0.00000000     0.00000000
     0.00000000     0.00000000     0.00000000
     0.00000000     0.00000000     0.00000000
     0.00000000     0.00000000     0.00000000
     0.00000000     0.00000000     0.00000000
     0.00000000     0.00000000     0.00000000
     0.00000000    -0.01045425     0.00841418
     0.00000000     0.00000000     0.00000000
     0.00000000     0.00000000     0.00000000
     0.00000000     0.00000000     0.00000000
     0.00000000     0.00000000     0.00000000
     0.00000000     0.00000000     0.00000000
     0.00000000     0.00000000     0.00000000
     0.00000000     0.00000000     0.00000000
     0.00000000     0.00000000     0.00000000
     0.00000000    -0.00235521     0.00764385
     0.00000000     0.00000000     0.00000000
     0.00000000     0.00000000     0.00000000
     0.00000000     0.00000000     0.00000000
     0.00000000     0.00000000     0.00000000
     0.00000000     0.00000000     0.00000000
     0.00000000     0.00000000     0.00000000
     0.00000000     0.00000000     0.00000000
     0.26216571    -0.09152581    -0.12542694
     0.00000000     0.00547867     0.00739666
     0.00000000     0.00000000     0.00000000
     0.00000000     0.00000000     0.00000000
     0.00000000     0.00000000     0.00000000
     0.00000000     0.00000000     0.00000000
     0.00000000     0.00000000     0.00000000
     0.00000000     0.00000000     0.00000000
     0.00000000     0.00000000     0.00000000
     0.00000000     0.00000000     0.00000000
     0.00000000     0.00286510     0.00463407
     0.00000000     0.00000000     0.00000000
     0.00000000     0.00000000     0.00000000
     0.00000000     0.00000000     0.00000000
     0.00000000     0.00000000     0.00000000
     0.00000000     0.00000000     0.00000000
     0.00000000     0.00000000     0.00000000
     0.00000000     0.00000000     0.00000000
     0.00000000     0.00000000     0.00000000
     0.00000000     0.00394831     0.00245939
     0.00000000     0.00000000     0.00000000
     0.00000000     0.00000000     0.00000000
     0.00000000     0.00000000     0.00000000
     0.00000000     0.00000000     0.00000000
     0.00000000     0.00000000     0.00000000
     0.00000000     0.00000000     0.00000000
     0.00000000     0.00000000     0.00000000
     0.00000000     0.00000000     0.00000000
     0.00000000     0.00453692    -0.00120949
     0.00000000     0.00000000     0.00000000
     0.00000000     0.00000000     0.00000000
     0.00000000     0.00000000     0.00000000
     0.00000000     0.00000000     0.00000000
     0.00000000     0.00000000     0.00000000
     0.00000000     0.00000000     0.00000000
     0.00000000     0.00000000     0.00000000
     0.00000000     0.00000000     0.00000000
     0.00069064     0.00098678    -0.00067649
     0.00481309     0.00361317    -0.00389338
    -0.00371006    -0.00167609     0.00265670
    -0.01804605    -0.00505342     0.00644090
    -0.03479783    -0.00521267     0.00988266
    -0.06544579    -0.00133707     0.00893012
    -0.09106512     0.02126446    -0.00041635
    -0.12413732     0.05743491    -0.00358592
    -0.23674147     0.12247550    -0.00914673
     0.00063771    -0.00030219     0.00102238
     0.00732145    -0.00220122     0.00600220
     0.01622306    -0.00619002     0.00034310
     0.01372773    -0.00305971     0.00063368
     0.01149441    -0.00120094     0.00008062
     0.02639800     0.00192346     0.00561242
     0.04096558     0.00976075     0.00834251
    -0.02127296    -0.01253236    -0.00786307
    -0.43414431    -0.21223981    -0.04529002
     0.00000000    -0.00202937     0.00305063
     0.00000000     0.00000000     0.00000000
     0.00000000     0.00000000     0.00000000
     0.00000000     0.00000000     0.00000000
     0.00000000     0.00000000     0.00000000
     0.00000000     0.00000000     0.00000000
     0.00000000     0.00000000     0.00000000
     0.00000000     0.00000000     0.00000000
     0.00000000     0.00000000     0.00000000
     0.00000000    -0.00911889     0.00604249
     0.00000000     0.00000000     0.00000000
     0.00000000     0.00000000     0.00000000
     0.00000000     0.00000000     0.00000000
     0.00000000     0.00000000     0.00000000
     0.00000000     0.00000000     0.00000000
     0.00000000     0.00000000     0.00000000
     0.00000000     0.00000000     0.00000000
     0.00000000     0.00000000     0.00000000
     0.00000000    -0.00730176     0.00756521
     0.00000000     0.00000000     0.00000000
     0.00000000     0.00000000     0.00000000
     0.00000000     0.00000000     0.00000000
     0.00000000     0.00000000     0.00000000
     0.00000000     0.00000000     0.00000000
     0.00000000     0.00000000     0.00000000
     0.00000000     0.00000000     0.00000000
     0.00000000     0.00000000     0.00000000
     0.00000000    -0.00798053     0.00832759
     0.00000000     0.00000000     0.00000000
     0.00000000     0.00000000     0.00000000
     0.00000000     0.00000000     0.00000000
     0.00000000     0.00000000     0.00000000
     0.00000000     0.00000000     0.00000000
     0.00000000     0.00000000     0.00000000
     0.00000000     0.00000000     0.00000000
     0.00000000     0.00000000     0.00000000
     0.00000000    -0.00179533     0.00829090
     0.00000000     0.00000000     0.00000000
     0.00000000     0.00000000     0.00000000
     0.00000000     0.00000000     0.00000000
     0.00000000     0.00000000     0.00000000
     0.00000000     0.00000000     0.00000000
     0.00000000     0.00000000     0.00000000
     0.00000000     0.00000000     0.00000000
     0.19401161    -0.07397882    -0.17951399
     0.00000000     0.00453408     0.00756632
     0.00000000     0.00000000     0.00000000
     0.00000000     0.00000000     0.00000000
     0.00000000     0.00000000     0.00000000
     0.00000000     0.00000000     0.00000000
     0.00000000     0.00000000     0.00000000
     0.00000000     0.00000000     0.00000000
     0.00000000     0.00000000     0.00000000
     0.00000000     0.00000000     0.00000000
     0.00000000     0.00272229     0.00595075
     0.00000000     0.00000000     0.00000000
     0.00000000     0.00000000     0.00000000
     0.00000000     0.00000000     0.00000000
     0.00000000     0.00000000     0.00000000
     0.00000000     0.00000000     0.00000000
     0.00000000     0.00000000     0.00000000
     0.00000000     0.00000000     0.00000000
     0.00000000     0.00000000     0.00000000
     0.00000000     0.00310221     0.00419396
     0.00000000     0.00000000     0.00000000
     0.00000000     0.00000000     0.00000000
     0.00000000     0.00000000     0.00000000
     0.00000000     0.00000000     0.00000000
     0.00000000     0.00000000     0.00000000
     0.00000000     0.00000000     0.00000000
     0.00000000     0.00000000     0.00000000
     0.00000000     0.00000000     0.00000000
     0.00000000     0.00308040     0.00274028
     0.00000000     0.00000000     0.00000000
     0.00000000     0.00000000     0.00000000
     0.00000000     0.00000000     0.00000000
     0.00000000     0.00000000     0.00000000
     0.00000000     0.00000000     0.00000000
     0.00000000     0.00000000     0.00000000
     0.00000000     0.00000000     0.00000000
     0.00000000     0.00000000     0.00000000
     0.00109179     0.00085658     0.00090901
     0.00859603     0.00353253     0.00541649
    -0.00069115    -0.00149348     0.00418850
    -0.01185850    -0.00630882     0.01076436
    -0.01847024    -0.00693686     0.01529837
    -0.04511167    -0.00601249     0.01884748
    -0.08420139     0.01995576     0.00288550
    -0.13567428     0.06543928     0.00400086
    -0.27995647     0.15320733     0.00140898
     0.00084779    -0.00025926     0.00123296
     0.01135895    -0.00268694     0.00811467
     0.03332717    -0.01158249     0.00443364
     0.01975691    -0.00438395     0.00125882
     0.02164112    -0.00223760     0.00062160
     0.03495374     0.00125904     0.00212221
     0.05862039     0.00699428    -0.00979191
     0.06709065     0.02765829     0.00258097
    -0.41456359    -0.23552077    -0.01342698
     0.00000000    -0.00187152     0.00311465
     0.00000000     0.00000000     0.00000000
     0.00000000     0.00000000     0.00000000
     0.00000000     0.00000000     0.00000000
     0.00000000     0.00000000     0.00000000
     0.00000000     0.00000000     0.00000000
     0.00000000     0.00000000     0.00000000
     0.00000000     0.00000000     0.00000000
     0.00000000     0.00000000     0.00000000
     0.00000000    -0.00787884     0.00587083
     0.00000000     0.00000000     0.00000000
     0.00000000     0.00000000     0.00000000
     0.00000000     0.00000000     0.00000000
     0.00000000     0.00000000     0.00000000
     0.00000000     0.00000000     0.00000000
     0.00000000     0.00000000     0.00000000
     0.00000000     0.00000000     0.00000000
     0.00000000     0.00000000     0.00000000
     0.00000000    -0.00468773     0.00620700
     0.00000000     0.00000000     0.00000000
     0.00000000     0.00000000     0.00000000
     0.00000000     0.00000000     0.00000000
     0.00000000     0.00000000     0.00000000
     0.00000000     0.00000000     0.00000000
     0.00000000     0.00000000     0.00000000
     0.00000000     0.00000000     0.00000000
     0.00000000     0.00000000     0.00000000
     0.00000000    -0.00560422     0.00785422
     0.00000000     0.00000000     0.00000000
     0.00000000     0.00000000     0.00000000
     0.00000000     0.00000000     0.00000000
     0.00000000     0.00000000     0.00000000
     0.00000000     0.00000000     0.00000000
     0.00000000     0.00000000     0.00000000
     0.00000000     0.00000000     0.00000000
     0.00000000     0.00000000     0.00000000
     0.00000000    -0.00157725     0.00777945
     0.00000000     0.00000000     0.00000000
     0.00000000     0.00000000     0.00000000
     0.00000000     0.00000000     0.00000000
     0.00000000     0.00000000     0.00000000
     0.00000000     0.00000000     0.00000000
     0.00000000     0.00000000     0.00000000
     0.00000000     0.00000000     0.00000000
     0.19112232    -0.08792128    -0.15831687
     0.00000000     0.00266503     0.00669033
     0.00000000     0.00000000     0.00000000
     0.00000000     0.00000000     0.00000000
     0.00000000     0.00000000     0.00000000
     0.00000000     0.00000000     0.00000000
     0.00000000     0.00000000     0.00000000
     0.00000000     0.00000000     0.00000000
     0.00000000     0.00000000     0.00000000
     0.00000000     0.00000000     0.00000000
     0.00000000     0.00196223     0.00511775
     0.00000000     0.00000000     0.00000000
     0.00000000     0.00000000     0.00000000
     0.00000000     0.00000000     0.00000000
     0.00000000     0.00000000     0.00000000
     0.00000000     0.00000000     0.00000000
     0.00000000     0.00000000     0.00000000
     0.00000000     0.00000000     0.00000000
     0.00000000     0.00000000     0.00000000
     0.00000000     0.00321177     0.00478291
     0.00000000     0.00000000     0.00000000
     0.00000000     0.00000000     0.00000000
     0.00000000     0.00000000     0.00000000
     0.00000000     0.00000000     0.00000000
     0.00000000     0.00000000     0.00000000
     0.00000000     0.00000000     0.00000000
     0.00000000     0.00000000     0.00000000
     0.00000000     0.00000000     0.00000000
     0.00000000     0.00399968     0.00431609
     0.00000000     0.00000000     0.00000000
     0.00000000     0.00000000     0.00000000
     0.00000000     0.00000000     0.00000000
     0.00000000     0.00000000     0.00000000
     0.00000000     0.00000000     0.00000000
     0.00000000     0.00000000     0.00000000
     0.00000000     0.00000000     0.00000000
     0.00000000     0.00000000     0.00000000
     0.00253549     0.00162226     0.00190236
     0.02230817     0.00849998     0.01192156
     0.01527360     0.00213389     0.00848363
     0.00116940    -0.00673186     0.01370352
     0.00600355    -0.00665966     0.01427901
     0.00720862    -0.01193824     0.02329366
    -0.01144819     0.00562017    -0.00227556
    -0.09467909     0.04635778     0.01532749
    -0.35229968     0.20025586     0.03405951
     0.00447063    -0.00213240     0.00321765
     0.04214420    -0.01457992     0.02108565
     0.04749086    -0.01660108     0.00702293
     0.04351575    -0.00644289     0.00814877
     0.02005023    -0.00378035    -0.00178756
     0.05889219     0.00187803     0.00259244
     0.04696446     0.00287127    -0.01258370
     0.13130662     0.05013246    -0.02389028
    -0.33535477    -0.18613507     0.07323893
     0.00000000    -0.00329036     0.00428796
     0.00000000     0.00000000     0.00000000
     0.00000000     0.00000000     0.00000000
     0.00000000     0.00000000     0.00000000
     0.00000000     0.00000000     0.00000000
     0.00000000     0.00000000     0.00000000
     0.00000000     0.00000000     0.00000000
     0.00000000     0.00000000     0.00000000
     0.00000000     0.00000000     0.00000000
     0.00000000    -0.00674478     0.00570660
     0.00000000     0.00000000     0.00000000
     0.00000000     0.00000000     0.00000000
     0.00000000     0.00000000     0.00000000
     0.00000000     0.00000000     0.00000000
     0.00000000     0.00000000     0.00000000
     0.00000000     0.00000000     0.00000000
     0.00000000     0.00000000     0.00000000
     0.00000000     0.00000000     0.00000000
     0.00000000    -0.00257716     0.00450742
     0.00000000     0.00000000     0.00000000
     0.00000000     0.00000000     0.00000000
     0.00000000     0.00000000     0.00000000
     0.00000000     0.00000000     0.00000000
     0.00000000     0.00000000     0.00000000
     0.00000000     0.00000000     0.00000000
     0.00000000     0.00000000     0.00000000
     0.00000000     0.00000000     0.00000000
     0.00000000    -0.00124340     0.00584077
     0.00000000     0.00000000     0.00000000
     0.00000000     0.00000000     0.00000000
     0.00000000     0.00000000     0.00000000
     0.00000000     0.00000000     0.00000000
     0.00000000     0.00000000     0.00000000
     0.00000000     0.00000000     0.00000000
     0.00000000     0.00000000     0.00000000
     0.00000000     0.00000000     0.00000000
     0.00000000    -0.00192439     0.00798035
     0.00000000     0.00000000     0.00000000
     0.00000000     0.00000000     0.00000000
     0.00000000     0.00000000     0.00000000
     0.00000000     0.00000000     0.00000000
     0.00000000     0.00000000     0.00000000
     0.00000000     0.00000000     0.00000000
     0.00000000     0.00000000     0.00000000
     0.22220145    -0.14517254    -0.24706374
     0.00000000    -0.00040507     0.00579557
     0.00000000     0.00000000     0.00000000
     0.00000000     0.00000000     0.00000000
     0.00000000     0.00000000     0.00000000
     0.00000000     0.00000000     0.00000000
     0.00000000     0.00000000     0.00000000
     0.00000000     0.00000000     0.00000000
     0.00000000     0.00000000     0.00000000
     0.00000000     0.00000000     0.00000000
     0.00000000     0.00201633     0.00480594
     0.00000000     0.00000000     0.00000000
     0.00000000     0.00000000     0.00000000
     0.00000000     0.00000000     0.00000000
     0.00000000     0.00000000     0.00000000
     0.00000000     0.00000000     0.00000000
     0.00000000     0.00000000     0.00000000
     0.00000000     0.00000000     0.00000000
     0.00000000     0.00000000     0.00000000
     0.00000000     0.00289472     0.00488256
     0.00000000     0.00000000     0.00000000
     0.00000000     0.00000000     0.00000000
     0.00000000     0.00000000     0.00000000
     0.00000000     0.00000000     0.00000000
     0.00000000     0.00000000     0.00000000
     0.00000000     0.00000000     0.00000000
     0.00000000     0.00000000     0.00000000
     0.00000000     0.00000000     0.00000000
     0.00000000     0.00443330     0.00475664
     0.00000000     0.00000000     0.00000000
     0.00000000     0.00000000     0.00000000
     0.00000000     0.00000000     0.00000000
     0.00000000     0.00000000     0.00000000
     0.00000000     0.00000000     0.00000000
     0.00000000     0.00000000     0.00000000
     0.00000000     0.00000000     0.00000000
     0.00000000     0.00000000     0.00000000
     0.00614618     0.00352129     0.00366063
     0.05374312     0.02122937     0.02423988
     0.03388627     0.00475987     0.01485515
     0.02801256    -0.00503114     0.01767945
     0.02185398    -0.00630771     0.01218992
     0.05119343    -0.01329069     0.01781409
     0.06937168     0.00772696    -0.03641785
     0.03656941    -0.00705668    -0.01574307
    -0.36212771     0.20550233     0.07765202
     0.00299803    -0.00128706     0.00186872
     0.02270817    -0.00787190     0.01072117
     0.02329464    -0.00825462     0.00388890
     0.02257120    -0.00323482     0.00417116
     0.00914898    -0.00177089    -0.00054063
     0.02978763     0.00048310     0.00054573
     0.02103240     0.00151282    -0.00488952
     0.06489641     0.02468293    -0.01751015
    -0.14971486    -0.08840245     0.05976119
     0.00513376    -0.00256748     0.00334584
     0.04697080    -0.01756702     0.02103831
     0.04499595    -0.01569328     0.00892356
     0.04396982    -0.00671277     0.00771081
     0.01983800    -0.00347719    -0.00015510
     0.05742737     0.00016642     0.00012643
     0.04686821     0.00353956    -0.00977212
     0.12554109     0.05520661    -0.03895402
    -0.26548614    -0.15595931     0.14895920
     0.00407473    -0.00310748     0.00249436
     0.03537836    -0.01880877     0.01360437
     0.02213364    -0.00530525     0.00653225
     0.02152755    -0.00404462     0.00338629
     0.02097938    -0.00506420    -0.00010335
     0.02701311     0.00257882     0.00121484
     0.05354390    -0.00480964    -0.01457008
     0.06622356     0.07342424    -0.00446724
     0.07919881     0.10310640    -0.03837813
     0.00103922    -0.00069850     0.00098922
     0.00969005    -0.00445876     0.00432151
     0.01425221    -0.00589725     0.00355165
     0.01251951    -0.00015789     0.00299799
     0.01128573    -0.00882955    -0.00181519
     0.02802944     0.00257387     0.00098438
     0.02465168    -0.01472164    -0.01032321
     0.03572868     0.04639822    -0.01512047
     0.10601093    -0.00175623    -0.13628845
     0.00161766    -0.00019069     0.00164995
     0.01359219    -0.00108499     0.00797380
     0.00710255    -0.00250061     0.00219985
     0.01376083    -0.00497400     0.00241342
     0.00715673    -0.00039063     0.00059333
     0.01990034    -0.01264502    -0.00201398
     0.03101181     0.00274456    -0.00642389
     0.02100744     0.05488255    -0.01274441
     0.24552457     0.01049375    -0.35024672
     0.00217671    -0.00065771     0.00227594
     0.02042881    -0.00390236     0.01182145
     0.02303504    -0.00192514     0.00859315
     0.01322064    -0.00570999     0.00299453
     0.01773795    -0.00085411     0.00194802
     0.00977223    -0.00964304     0.00008649
    -0.01281996     0.00100662     0.00301155
    -0.00203594     0.06267006    -0.00037136
     0.04962985     0.01196964    -0.06796580
     0.00114947    -0.00036282     0.00137714
     0.00909645    -0.00317328     0.00598261
     0.00382006    -0.00504682     0.00216626
     0.01222363    -0.00294738     0.00328262
     0.00801586    -0.00731066     0.00199353
     0.01590168     0.00125902    -0.00011964
     0.00377560    -0.00534002    -0.00079824
     0.00374000    -0.02438663     0.00337535
     0.10097957     0.04216229    -0.11134809
     0.00171179     0.00069758     0.00154045
     0.01479250     0.00349394     0.00793929
     0.01036958    -0.00158856     0.00450515
     0.01271550    -0.00781500     0.00568480
     0.01152505    -0.00426362     0.00253691
     0.02418706    -0.00482113     0.00177550
     0.01580533     0.00986756    -0.00757320
     0.01639976    -0.03658394    -0.00198236
     0.06591157     0.14917805    -0.09275080
     0.00243484     0.00116753     0.00192602
     0.02159234     0.00620290     0.01095827
     0.01941082    -0.00083391     0.00844826
     0.02279882    -0.00741251     0.00970988
     0.01490286    -0.00696412     0.00533687
     0.03379811    -0.00949297     0.00481016
     0.05568704     0.00709142    -0.01820129
     0.04156450    -0.05429058    -0.00087584
    -0.05582710     0.15441516    -0.02144348
     0.00611453     0.00346599     0.00362446
     0.05355487     0.02138466     0.02312302
     0.03493466     0.00178672     0.01491274
     0.03206909    -0.00632296     0.01387138
     0.02305399    -0.00961859     0.00999317
     0.05440784    -0.01394048     0.01008613
     0.08123047     0.01303526    -0.03353688
     0.06049931    -0.02345094    -0.02005071
    -0.37915196     0.27098071     0.13677053
     0.00392003     0.00204129     0.00208500
     0.02802435     0.01113865     0.01210447
     0.01757581     0.00171807     0.00757501
     0.01561001    -0.00267579     0.00777278
     0.01146565    -0.00387223     0.00545273
     0.02733108    -0.00672357     0.00656803
     0.03936008     0.00569845    -0.01866042
     0.02841265    -0.00773783    -0.01058067
    -0.17836274     0.11133484     0.05328644
     0.04710760    -0.02005607     0.04565452
    -0.05519775    -0.07848621     0.01360290
    -0.07677826    -0.02027526     0.00365108
    -0.09209590    -0.02450931     0.00205711
    -0.09359056    -0.02513613    -0.00072009
    -0.08164722    -0.02196384    -0.00106097
    -0.07096270    -0.01911679    -0.00125773
    -0.05965154    -0.01610029    -0.00143277
    -0.04808013    -0.01298957    -0.00130667
    -0.03981366    -0.01073415    -0.00081098
    -0.01755899    -0.00701671    -0.00014279
     0.00000000     0.00000000     0.00000000
     0.00000000     0.00000000     0.00000000
     0.00000000     0.00000000     0.00000000
     0.00000000     0.00000000     0.00000000
     0.00000000     0.00000000     0.00000000
     0.00000000     0.00000000     0.00000000
     0.00000000     0.00000000     0.00000000
     0.00000000     0.00000000     0.00000000
     0.00000000     0.00000000     0.00000000
     0.00000000     0.00000000     0.00000000
     0.00579830    -0.02163965    -0.00024426
     0.00000000     0.00000000     0.00000000
     0.00000000     0.00000000     0.00000000
     0.00000000     0.00000000     0.00000000
     0.00000000     0.00000000     0.00000000
     0.00000000     0.00000000     0.00000000
     0.00000000     0.00000000     0.00000000
     0.00000000     0.00000000     0.00000000
     0.00000000     0.00000000     0.00000000
     0.00000000     0.00000000     0.00000000
     0.00000000     0.00000000     0.00000000
     0.01339686    -0.04999760     0.00153418
     0.00000000     0.00000000     0.00000000
     0.00000000     0.00000000     0.00000000
     0.00000000     0.00000000     0.00000000
     0.00000000     0.00000000     0.00000000
     0.00000000     0.00000000     0.00000000
     0.00000000     0.00000000     0.00000000
     0.00000000     0.00000000     0.00000000
     0.00000000     0.00000000     0.00000000
     0.00000000     0.00000000     0.00000000
     0.00000000     0.00000000     0.00000000
     0.01436338    -0.05360472     0.00420598
     0.00000000     0.00000000     0.00000000
     0.00000000     0.00000000     0.00000000
     0.00000000     0.00000000     0.00000000
     0.00000000     0.00000000     0.00000000
     0.00000000     0.00000000     0.00000000
     0.00000000     0.00000000     0.00000000
     0.00000000     0.00000000     0.00000000
     0.00000000     0.00000000     0.00000000
     0.00000000     0.00000000     0.00000000
     0.00000000     0.00000000     0.00000000
     0.00639083    -0.02385098     0.00577884
    -0.43613509     0.31586917     0.00157682
    -0.11113161     0.18745006    -0.00501445
     0.24388701     0.06570461    -0.00437684
     0.29921416     0.07963945     0.00657317
     0.25591069     0.06759580     0.01197263
     0.17918505     0.04707317     0.01152952
     0.10107370     0.02635552     0.00892711
     0.04495028     0.01144534     0.00735358
     0.00144863    -0.00006867     0.00560743
    -0.02323808    -0.00649204     0.00325720
    -0.01594215    -0.00684763     0.00107046
     0.00700836    -0.00325017     0.14485317
    -0.07119208    -0.08818611     0.07066377
    -0.08055832    -0.01888907     0.01380395
    -0.10198531    -0.02584171     0.00839448
    -0.09691885    -0.02591823     0.00056998
    -0.08646696    -0.02349551    -0.00141736
    -0.07398744    -0.02049279    -0.00334360
    -0.06138486    -0.01723972    -0.00399430
    -0.04936454    -0.01396138    -0.00372375
    -0.03941803    -0.01100430    -0.00223549
    -0.01746165    -0.00697505    -0.00050422
     0.00000000     0.00000000     0.00000000
     0.00000000     0.00000000     0.00000000
     0.00000000     0.00000000     0.00000000
     0.00000000     0.00000000     0.00000000
     0.00000000     0.00000000     0.00000000
     0.00000000     0.00000000     0.00000000
     0.00000000     0.00000000     0.00000000
     0.00000000     0.00000000     0.00000000
     0.00000000     0.00000000     0.00000000
     0.00000000     0.00000000     0.00000000
     0.00567774    -0.02118946    -0.00124144
     0.00000000     0.00000000     0.00000000
     0.00000000     0.00000000     0.00000000
     0.00000000     0.00000000     0.00000000
     0.00000000     0.00000000     0.00000000
     0.00000000     0.00000000     0.00000000
     0.00000000     0.00000000     0.00000000
     0.00000000     0.00000000     0.00000000
     0.00000000     0.00000000     0.00000000
     0.00000000     0.00000000     0.00000000
     0.00000000     0.00000000     0.00000000
     0.01320507    -0.04928206     0.00694348
     0.00000000     0.00000000     0.00000000
     0.00000000     0.00000000     0.00000000
     0.00000000     0.00000000     0.00000000
     0.00000000     0.00000000     0.00000000
     0.00000000     0.00000000     0.00000000
     0.00000000     0.00000000     0.00000000
     0.00000000     0.00000000     0.00000000
     0.00000000     0.00000000     0.00000000
     0.00000000     0.00000000     0.00000000
     0.00000000     0.00000000     0.00000000
     0.01388962    -0.05183683     0.01893984
     0.00000000     0.00000000     0.00000000
     0.00000000     0.00000000     0.00000000
     0.00000000     0.00000000     0.00000000
     0.00000000     0.00000000     0.00000000
     0.00000000     0.00000000     0.00000000
     0.00000000     0.00000000     0.00000000
     0.00000000     0.00000000     0.00000000
     0.00000000     0.00000000     0.00000000
     0.00000000     0.00000000     0.00000000
     0.00000000     0.00000000     0.00000000
     0.00659185    -0.02460135     0.02590936
    -0.47545516     0.34297530     0.04879607
    -0.13232831     0.18727649     0.04100249
     0.24108622     0.05948735     0.03196987
     0.29105654     0.06890609     0.05068036
     0.25476499     0.05901951     0.04948774
     0.17186511     0.03882404     0.03812787
     0.09803472     0.02090773     0.02801777
     0.03788455     0.00540697     0.02532993
    -0.00015273    -0.00399346     0.02141289
    -0.02586727    -0.00935384     0.01322211
    -0.01621543    -0.00730259     0.00466299
    -0.05465474    -0.01246051     0.35601636
    -0.10637257    -0.12103104     0.12797410
    -0.10503730    -0.01545282     0.03548602
    -0.12183198    -0.02866513     0.01171408
    -0.11406586    -0.02960632     0.00291063
    -0.09878874    -0.02813685    -0.00455637
    -0.08339801    -0.02507527    -0.00755771
    -0.06716517    -0.02139621    -0.00949136
    -0.05123757    -0.01669073    -0.00828401
    -0.04024034    -0.01261268    -0.00511081
    -0.01732221    -0.00712816    -0.00114565
     0.00000000     0.00000000     0.00000000
     0.00000000     0.00000000     0.00000000
     0.00000000     0.00000000     0.00000000
     0.00000000     0.00000000     0.00000000
     0.00000000     0.00000000     0.00000000
     0.00000000     0.00000000     0.00000000
     0.00000000     0.00000000     0.00000000
     0.00000000     0.00000000     0.00000000
     0.00000000     0.00000000     0.00000000
     0.00000000     0.00000000     0.00000000
     0.00562795    -0.02100363    -0.00324961
     0.00000000     0.00000000     0.00000000
     0.00000000     0.00000000     0.00000000
     0.00000000     0.00000000     0.00000000
     0.00000000     0.00000000     0.00000000
     0.00000000     0.00000000     0.00000000
     0.00000000     0.00000000     0.00000000
     0.00000000     0.00000000     0.00000000
     0.00000000     0.00000000     0.00000000
     0.00000000     0.00000000     0.00000000
     0.00000000     0.00000000     0.00000000
     0.01222570    -0.04562688     0.01062973
     0.00000000     0.00000000     0.00000000
     0.00000000     0.00000000     0.00000000
     0.00000000     0.00000000     0.00000000
     0.00000000     0.00000000     0.00000000
     0.00000000     0.00000000     0.00000000
     0.00000000     0.00000000     0.00000000
     0.00000000     0.00000000     0.00000000
     0.00000000     0.00000000     0.00000000
     0.00000000     0.00000000     0.00000000
     0.00000000     0.00000000     0.00000000
     0.01306482    -0.04875869     0.02917926
     0.00000000     0.00000000     0.00000000
     0.00000000     0.00000000     0.00000000
     0.00000000     0.00000000     0.00000000
     0.00000000     0.00000000     0.00000000
     0.00000000     0.00000000     0.00000000
     0.00000000     0.00000000     0.00000000
     0.00000000     0.00000000     0.00000000
     0.00000000     0.00000000     0.00000000
     0.00000000     0.00000000     0.00000000
     0.00000000     0.00000000     0.00000000
     0.00720448    -0.02688727     0.03941951
    -0.57363385     0.40166118     0.13986749
    -0.15132658     0.19503675     0.07383288
     0.23953685     0.04126158     0.06663351
     0.29468182     0.04374160     0.10019641
     0.23557162     0.02968729     0.09528190
     0.15140519     0.01645966     0.06860118
     0.07201888     0.00051713     0.05359799
     0.02127494    -0.01009670     0.04530003
    -0.01115643    -0.01595593     0.03737753
    -0.02574588    -0.01484745     0.02291488
    -0.01571193    -0.00816397     0.00739456
    -0.13199170     0.07212463     0.64754572
    -0.15629449    -0.13381007     0.18813667
    -0.14080566    -0.00473451     0.06012116
    -0.16733338    -0.03625611     0.01628581
    -0.14130479    -0.03686319     0.00191633
    -0.12250183    -0.03721018    -0.00789594
    -0.09917726    -0.03478028    -0.01494535
    -0.07535888    -0.02890680    -0.01593896
    -0.05509893    -0.02245283    -0.01407002
    -0.03919372    -0.01536400    -0.00888277
    -0.01656198    -0.00712985    -0.00189834
     0.00000000     0.00000000     0.00000000
     0.00000000     0.00000000     0.00000000
     0.00000000     0.00000000     0.00000000
     0.00000000     0.00000000     0.00000000
     0.00000000     0.00000000     0.00000000
     0.00000000     0.00000000     0.00000000
     0.00000000     0.00000000     0.00000000
     0.00000000     0.00000000     0.00000000
     0.00000000     0.00000000     0.00000000
     0.00000000     0.00000000     0.00000000
     0.00527749    -0.01969575    -0.00611508
     0.00000000     0.00000000     0.00000000
     0.00000000     0.00000000     0.00000000
     0.00000000     0.00000000     0.00000000
     0.00000000     0.00000000     0.00000000
     0.00000000     0.00000000     0.00000000
     0.00000000     0.00000000     0.00000000
     0.00000000     0.00000000     0.00000000
     0.00000000     0.00000000     0.00000000
     0.00000000     0.00000000     0.00000000
     0.00000000     0.00000000     0.00000000
     0.01129123    -0.04213878     0.00706590
     0.00000000     0.00000000     0.00000000
     0.00000000     0.00000000     0.00000000
     0.00000000     0.00000000     0.00000000
     0.00000000     0.00000000     0.00000000
     0.00000000     0.00000000     0.00000000
     0.00000000     0.00000000     0.00000000
     0.00000000     0.00000000     0.00000000
     0.00000000     0.00000000     0.00000000
     0.00000000     0.00000000     0.00000000
     0.00000000     0.00000000     0.00000000
     0.01211058    -0.04519720     0.02613285
     0.00000000     0.00000000     0.00000000
     0.00000000     0.00000000     0.00000000
     0.00000000     0.00000000     0.00000000
     0.00000000     0.00000000     0.00000000
     0.00000000     0.00000000     0.00000000
     0.00000000     0.00000000     0.00000000
     0.00000000     0.00000000     0.00000000
     0.00000000     0.00000000     0.00000000
     0.00000000     0.00000000     0.00000000
     0.00000000     0.00000000     0.00000000
     0.00776394    -0.02897511     0.03736040
    -0.71724526     0.49861339     0.20518294
    -0.09938818     0.16069328     0.13025421
     0.32130735     0.01977458     0.12083042
     0.29747218    -0.00641770     0.15873231
     0.19276020    -0.01362037     0.12093403
     0.08916664    -0.02318385     0.08745864
     0.02584744    -0.02828655     0.06544426
    -0.00932322    -0.03265929     0.05619785
    -0.02103522    -0.02924865     0.04401234
    -0.02932947    -0.02299653     0.02819633
    -0.01539470    -0.00926094     0.00778376
    -0.40054685     0.31918595     1.28759956
    -0.19987674    -0.10439237     0.27790235
    -0.19572657     0.01284965     0.08480134
    -0.21441690    -0.05109013     0.00869405
    -0.16959914    -0.04217205     0.00419880
    -0.14525334    -0.05073273    -0.01522566
    -0.11022999    -0.04481785    -0.01990107
    -0.08070488    -0.03806662    -0.02138070
    -0.05391867    -0.02823807    -0.01796970
    -0.03621149    -0.01919576    -0.01234060
    -0.01453261    -0.00664841    -0.00231023
     0.00000000     0.00000000     0.00000000
     0.00000000     0.00000000     0.00000000
     0.00000000     0.00000000     0.00000000
     0.00000000     0.00000000     0.00000000
     0.00000000     0.00000000     0.00000000
     0.00000000     0.00000000     0.00000000
     0.00000000     0.00000000     0.00000000
     0.00000000     0.00000000     0.00000000
     0.00000000     0.00000000     0.00000000
     0.00000000     0.00000000     0.00000000
     0.00407877    -0.01522217    -0.00669984
     0.00000000     0.00000000     0.00000000
     0.00000000     0.00000000     0.00000000
     0.00000000     0.00000000     0.00000000
     0.00000000     0.00000000     0.00000000
     0.00000000     0.00000000     0.00000000
     0.00000000     0.00000000     0.00000000
     0.00000000     0.00000000     0.00000000
     0.00000000     0.00000000     0.00000000
     0.00000000     0.00000000     0.00000000
     0.00000000     0.00000000     0.00000000
     0.00857195    -0.03199069     0.00139479
     0.00000000     0.00000000     0.00000000
     0.00000000     0.00000000     0.00000000
     0.00000000     0.00000000     0.00000000
     0.00000000     0.00000000     0.00000000
     0.00000000     0.00000000     0.00000000
     0.00000000     0.00000000     0.00000000
     0.00000000     0.00000000     0.00000000
     0.00000000     0.00000000     0.00000000
     0.00000000     0.00000000     0.00000000
     0.00000000     0.00000000     0.00000000
     0.00978579    -0.03652082     0.01372615
     0.00000000     0.00000000     0.00000000
     0.00000000     0.00000000     0.00000000
     0.00000000     0.00000000     0.00000000
     0.00000000     0.00000000     0.00000000
     0.00000000     0.00000000     0.00000000
     0.00000000     0.00000000     0.00000000
     0.00000000     0.00000000     0.00000000
     0.00000000     0.00000000     0.00000000
     0.00000000     0.00000000     0.00000000
     0.00000000     0.00000000     0.00000000
     0.00638996    -0.02384746     0.02096669
    -1.04423086     0.78027221     0.26545085
     0.00499433     0.12759870     0.10453516
     0.38850873    -0.06406165     0.21761557
     0.21739593    -0.06949744     0.16722549
     0.07844103    -0.06854131     0.11760836
     0.00701343    -0.05597544     0.07619165
    -0.02562852    -0.05576296     0.06421613
    -0.03122360    -0.04635835     0.05001614
    -0.03094097    -0.04042220     0.04222098
    -0.02583288    -0.02779380     0.02740872
    -0.01315131    -0.00869641     0.00567345
    -0.32066525     0.20980691     0.71800211
    -0.12430856    -0.05285217     0.15882412
    -0.11490385     0.02025727     0.04237734
    -0.12084557    -0.03000051     0.00215298
    -0.09517317    -0.02283396     0.00221884
    -0.08055579    -0.03135392    -0.00808324
    -0.06039201    -0.02779881    -0.00966702
    -0.04372064    -0.02442446    -0.01056002
    -0.02867606    -0.01813077    -0.00869438
    -0.01907398    -0.01241235    -0.00607272
    -0.01049248    -0.00417782    -0.00106619
    -1.03455766     0.64570789     1.71436535
    -0.34538495    -0.16175669     0.38465489
    -0.31856302     0.06008010     0.07651322
    -0.30710870    -0.09015903    -0.00138709
    -0.24416553    -0.06857794     0.00061489
    -0.20172140    -0.09074814    -0.01747856
    -0.15039845    -0.08006251    -0.01945817
    -0.10811731    -0.07004116    -0.02055791
    -0.07111383    -0.05258378    -0.01679716
    -0.04776684    -0.03587249    -0.01163433
    -0.01995715    -0.00984788    -0.00212954
    -0.71090908     0.91174820     0.76923749
    -0.33820685    -0.25021521     0.23853933
    -0.38490087    -0.05123793     0.01483373
    -0.25746290    -0.15817599    -0.01041374
    -0.21147226    -0.13815984    -0.01031127
    -0.15583571    -0.12497643    -0.01143332
    -0.11310723    -0.10528958    -0.01084483
    -0.08023320    -0.08326241    -0.00895287
    -0.05496401    -0.06517946    -0.00745073
    -0.04063814    -0.04301948    -0.00474377
    -0.01894952    -0.01260346    -0.00044471
    -0.88475317     1.30543264     0.42107141
    -0.28018272     0.09276800     0.19187657
    -0.18319610    -0.27171509     0.04072912
    -0.12599195    -0.25934283     0.03818827
    -0.10698798    -0.19774813     0.02824444
    -0.09622909    -0.15701733     0.02169902
    -0.07853212    -0.11937317     0.01612552
    -0.06182520    -0.09605152     0.01309872
    -0.04518650    -0.07281814     0.00996124
    -0.03778419    -0.04914804     0.00642344
    -0.01855277    -0.01389494     0.00217387
    -1.33699692     1.30163110     0.46091359
    -0.00229143     0.20787840     0.10191788
     0.48693076    -0.23280070     0.19177551
     0.25093333    -0.21028314     0.14425260
     0.07014759    -0.16768504     0.09688352
    -0.01193072    -0.12778138     0.06388395
    -0.04580887    -0.11203420     0.05181435
    -0.04549733    -0.09078036     0.04061413
    -0.04211480    -0.07564021     0.03356710
    -0.03337819    -0.05117029     0.02202065
    -0.01813051    -0.01256711     0.00472460
    -0.57227516     0.47803463     0.16212013
     0.01430083     0.07367487     0.04232743
     0.22471108    -0.06990401     0.10847708
     0.11629622    -0.06384790     0.07902489
     0.03560020    -0.05477147     0.05365455
    -0.00104946    -0.04164780     0.03445699
    -0.01669213    -0.03907193     0.02893149
    -0.01738714    -0.03146040     0.02237862
    -0.01665021    -0.02705763     0.01890575
    -0.01297427    -0.01826554     0.01236482
    -0.00956239    -0.00520983     0.00221986
    -0.58100510     0.15203217     0.04473547
    -0.72869674     0.19516452     0.00111922
    -0.65313296     0.17495219     0.00072152
    -0.52657469     0.14092571     0.00206947
    -0.35326898     0.09530323    -0.00793409
    -0.13920209     0.03725813     0.00049710
    -0.04508453     0.01185574     0.00275680
     0.00101623     0.02097324     0.00246011
     0.00000000     0.00000000     0.00000000
     0.00000000     0.00000000     0.00000000
     0.00000000     0.00000000     0.00000000
     0.00000000     0.00000000     0.00000000
     0.00000000     0.00000000     0.00000000
     0.00000000     0.00000000     0.00000000
     0.00000000     0.00000000     0.00000000
     0.00000000     0.00000000     0.00000000
     0.04995411     0.18642925     0.01935928
     0.00000000     0.00000000     0.00000000
     0.00000000     0.00000000     0.00000000
     0.00000000     0.00000000     0.00000000
     0.00000000     0.00000000     0.00000000
     0.00000000     0.00000000     0.00000000
     0.00000000     0.00000000     0.00000000
     0.00000000     0.00000000     0.00000000
     0.00000000     0.00000000     0.00000000
     0.08912242     0.33261132     0.03253068
     0.00000000     0.00000000     0.00000000
     0.00000000     0.00000000     0.00000000
     0.00000000     0.00000000     0.00000000
     0.00000000     0.00000000     0.00000000
     0.00000000     0.00000000     0.00000000
     0.00000000     0.00000000     0.00000000
     0.00000000     0.00000000     0.00000000
     0.00000000     0.00000000     0.00000000
     0.06618931     0.24702572     0.03393895
     0.00000000     0.00000000     0.00000000
     0.00000000     0.00000000     0.00000000
     0.00000000     0.00000000     0.00000000
     0.00000000     0.00000000     0.00000000
     0.00000000     0.00000000     0.00000000
     0.00000000     0.00000000     0.00000000
     0.00000000     0.00000000     0.00000000
     0.00000000     0.00000000     0.00000000
     0.02076711     0.07750296     0.02550621
    -0.18681762    -0.21080762    -0.07284762
     1.24819766    -0.33746564    -0.03701816
     1.49462141    -0.39970936     0.00942934
     1.26826332    -0.33775466     0.02543925
     0.87134052    -0.23182966     0.02025987
     0.60485490    -0.16059448     0.01814007
     0.30276712    -0.07969169     0.01758919
     0.15060874    -0.03873650     0.01986555
     0.01801215     0.00261422     0.00534842
    -0.05618386    -0.02411142     0.18495993
    -0.68848085     0.14542585     0.22596520
    -0.75939937     0.19939556     0.01508530
    -0.71508718     0.18398543     0.05048990
    -0.57194052     0.14379038     0.05070616
    -0.39342773     0.10244014     0.02425372
    -0.16787246     0.03621184     0.05019107
    -0.05046586     0.00644388     0.04173309
    -0.00036599     0.01619344     0.01402731
     0.00000000     0.00000000     0.00000000
     0.00000000     0.00000000     0.00000000
     0.00000000     0.00000000     0.00000000
     0.00000000     0.00000000     0.00000000
     0.00000000     0.00000000     0.00000000
     0.00000000     0.00000000     0.00000000
     0.00000000     0.00000000     0.00000000
     0.00000000     0.00000000     0.00000000
     0.04055788     0.15136138     0.08471696
     0.00000000     0.00000000     0.00000000
     0.00000000     0.00000000     0.00000000
     0.00000000     0.00000000     0.00000000
     0.00000000     0.00000000     0.00000000
     0.00000000     0.00000000     0.00000000
     0.00000000     0.00000000     0.00000000
     0.00000000     0.00000000     0.00000000
     0.00000000     0.00000000     0.00000000
     0.07801304     0.29114787     0.14405314
     0.00000000     0.00000000     0.00000000
     0.00000000     0.00000000     0.00000000
     0.00000000     0.00000000     0.00000000
     0.00000000     0.00000000     0.00000000
     0.00000000     0.00000000     0.00000000
     0.00000000     0.00000000     0.00000000
     0.00000000     0.00000000     0.00000000
     0.00000000     0.00000000     0.00000000
     0.05939973     0.22168464     0.14961163
     0.00000000     0.00000000     0.00000000
     0.00000000     0.00000000     0.00000000
     0.00000000     0.00000000     0.00000000
     0.00000000     0.00000000     0.00000000
     0.00000000     0.00000000     0.00000000
     0.00000000     0.00000000     0.00000000
     0.00000000     0.00000000     0.00000000
     0.00000000     0.00000000     0.00000000
     0.02110159     0.07875094     0.11284799
    -0.22243194    -0.26206913    -0.15512545
     1.29986589    -0.36046877    -0.05739569
     1.58739142    -0.41623755     0.04779301
     1.26738469    -0.32664725     0.06467618
     0.91784403    -0.23665840     0.04648583
     0.55678155    -0.13959437     0.04776900
     0.33295109    -0.07799088     0.05849143
     0.07336037    -0.00475317     0.08176867
     0.00691626     0.00782482     0.02312887
    -0.50207157     0.04062030     0.40542503
    -0.89535346     0.14983583     0.27338071
    -0.86849228     0.17488890     0.15565580
    -0.88005935     0.22681348     0.03256461
    -0.69668424     0.12992135     0.15994035
    -0.51286600     0.13628340     0.00802589
    -0.21781759     0.00961951     0.13905252
    -0.11103577     0.00733154     0.06625841
    -0.00919670     0.01232251     0.01848645
     0.00000000     0.00000000     0.00000000
     0.00000000     0.00000000     0.00000000
     0.00000000     0.00000000     0.00000000
     0.00000000     0.00000000     0.00000000
     0.00000000     0.00000000     0.00000000
     0.00000000     0.00000000     0.00000000
     0.00000000     0.00000000     0.00000000
     0.00000000     0.00000000     0.00000000
     0.02843821     0.10612809     0.11247975
     0.00000000     0.00000000     0.00000000
     0.00000000     0.00000000     0.00000000
     0.00000000     0.00000000     0.00000000
     0.00000000     0.00000000     0.00000000
     0.00000000     0.00000000     0.00000000
     0.00000000     0.00000000     0.00000000
     0.00000000     0.00000000     0.00000000
     0.00000000     0.00000000     0.00000000
     0.05291911     0.19749138     0.20124668
     0.00000000     0.00000000     0.00000000
     0.00000000     0.00000000     0.00000000
     0.00000000     0.00000000     0.00000000
     0.00000000     0.00000000     0.00000000
     0.00000000     0.00000000     0.00000000
     0.00000000     0.00000000     0.00000000
     0.00000000     0.00000000     0.00000000
     0.00000000     0.00000000     0.00000000
     0.04356636     0.16258821     0.20462129
     0.00000000     0.00000000     0.00000000
     0.00000000     0.00000000     0.00000000
     0.00000000     0.00000000     0.00000000
     0.00000000     0.00000000     0.00000000
     0.00000000     0.00000000     0.00000000
     0.00000000     0.00000000     0.00000000
     0.00000000     0.00000000     0.00000000
     0.00000000     0.00000000     0.00000000
     0.02232447     0.08331591     0.15818263
    -0.35959352    -0.43006111    -0.33533245
     1.59642245    -0.47365449    -0.12575834
     1.79216971    -0.44230932     0.10509189
     1.42063192    -0.33436998     0.12955168
     0.92194367    -0.21214545     0.09643362
     0.56893854    -0.11359356     0.10809069
     0.18200196    -0.00532704     0.12381298
     0.09047707     0.02225690     0.13484504
     0.01250109     0.01171591     0.03459239
    -0.96183529     0.07140695     0.63267746
    -1.24347712     0.29319019     0.09239445
    -1.05146857     0.06117014     0.39704737
    -1.17684726     0.33848805    -0.03555886
    -0.92042062     0.10459301     0.26050497
    -0.67960657     0.18665408    -0.00551740
    -0.34972545    -0.03859152     0.24398837
    -0.15120460     0.00129161     0.07399693
    -0.01371964     0.00829103     0.01523101
     0.00000000     0.00000000     0.00000000
     0.00000000     0.00000000     0.00000000
     0.00000000     0.00000000     0.00000000
     0.00000000     0.00000000     0.00000000
     0.00000000     0.00000000     0.00000000
     0.00000000     0.00000000     0.00000000
     0.00000000     0.00000000     0.00000000
     0.00000000     0.00000000     0.00000000
     0.01707616     0.06373089     0.08912090
     0.00000000     0.00000000     0.00000000
     0.00000000     0.00000000     0.00000000
     0.00000000     0.00000000     0.00000000
     0.00000000     0.00000000     0.00000000
     0.00000000     0.00000000     0.00000000
     0.00000000     0.00000000     0.00000000
     0.00000000     0.00000000     0.00000000
     0.00000000     0.00000000     0.00000000
     0.02748043     0.10255469     0.14577223
     0.00000000     0.00000000     0.00000000
     0.00000000     0.00000000     0.00000000
     0.00000000     0.00000000     0.00000000
     0.00000000     0.00000000     0.00000000
     0.00000000     0.00000000     0.00000000
     0.00000000     0.00000000     0.00000000
     0.00000000     0.00000000     0.00000000
     0.00000000     0.00000000     0.00000000
     0.01866282     0.06964821     0.14945018
     0.00000000     0.00000000     0.00000000
     0.00000000     0.00000000     0.00000000
     0.00000000     0.00000000     0.00000000
     0.00000000     0.00000000     0.00000000
     0.00000000     0.00000000     0.00000000
     0.00000000     0.00000000     0.00000000
     0.00000000     0.00000000     0.00000000
     0.00000000     0.00000000     0.00000000
     0.01761913     0.06575713     0.12305377
    -0.56489141    -0.77080748    -0.58606103
     2.13349876    -0.70182279    -0.24052408
     2.29060556    -0.52246309     0.16610600
     1.54399724    -0.31341211     0.18296608
     0.93235426    -0.15255631     0.17715533
     0.27789549     0.02097324     0.17613935
     0.05204481     0.07383489     0.16313185
    -0.06578477     0.09139414     0.13892341
    -0.00738295     0.01910721     0.03066424
    -1.22888784    -0.20495861     0.96742158
    -1.58911688     0.68445334    -0.32487990
    -1.31251386    -0.16977400     0.67435042
    -1.54315003     0.58352015    -0.21629489
    -1.14213739     0.05740753     0.32357121
    -0.94808268     0.27733012    -0.02895837
    -0.41124673    -0.09975222     0.27451631
    -0.28013812     0.02284692     0.06886960
    -0.03223609     0.00723604     0.00864244
     0.00000000     0.00000000     0.00000000
     0.00000000     0.00000000     0.00000000
     0.00000000     0.00000000     0.00000000
     0.00000000     0.00000000     0.00000000
     0.00000000     0.00000000     0.00000000
     0.00000000     0.00000000     0.00000000
     0.00000000     0.00000000     0.00000000
     0.00000000     0.00000000     0.00000000
     0.00345539     0.01289761     0.03921633
     0.00000000     0.00000000     0.00000000
     0.00000000     0.00000000     0.00000000
     0.00000000     0.00000000     0.00000000
     0.00000000     0.00000000     0.00000000
     0.00000000     0.00000000     0.00000000
     0.00000000     0.00000000     0.00000000
     0.00000000     0.00000000     0.00000000
     0.00000000     0.00000000     0.00000000
     0.00314928     0.01175479     0.04831226
     0.00000000     0.00000000     0.00000000
     0.00000000     0.00000000     0.00000000
     0.00000000     0.00000000     0.00000000
     0.00000000     0.00000000     0.00000000
     0.00000000     0.00000000     0.00000000
     0.00000000     0.00000000     0.00000000
     0.00000000     0.00000000     0.00000000
     0.00000000     0.00000000     0.00000000
     0.00171791     0.00641210     0.04683075
     0.00000000     0.00000000     0.00000000
     0.00000000     0.00000000     0.00000000
     0.00000000     0.00000000     0.00000000
     0.00000000     0.00000000     0.00000000
     0.00000000     0.00000000     0.00000000
     0.00000000     0.00000000     0.00000000
     0.00000000     0.00000000     0.00000000
     0.00000000     0.00000000     0.00000000
     0.00920457     0.03435209     0.04096102
    -0.49758578    -1.28726075    -0.96261985
     3.23516543    -1.02139840    -0.20674291
     2.46847144    -0.46849006     0.25179522
     1.44864068    -0.21740424     0.22068514
     0.25108099     0.10855504     0.23003396
    -0.05423874     0.12810097     0.14925177
    -0.27692907     0.19232610     0.15569689
    -0.03695995     0.07709584     0.08957436
     0.00117502     0.01181345     0.01446000
    -0.74018843    -0.34000474     0.50931621
    -0.87578427     0.48837492    -0.20800137
    -0.76730608    -0.21631062     0.34947627
    -0.86195685     0.38750007    -0.12856369
    -0.65451351    -0.01863721     0.16086802
    -0.53745282     0.17574758    -0.02507763
    -0.23704025    -0.09103296     0.12886222
    -0.16610141     0.01119053     0.02824049
    -0.02586579     0.00506847     0.00239074
    -2.08349629    -1.62233928     1.36780934
    -2.09368915     1.34730134    -0.40545670
    -2.04641383    -0.61869249     0.62296874
    -2.05882392     1.07274793    -0.26100357
    -1.67155012    -0.08230625     0.28411722
    -1.28857553     0.49010704    -0.06720049
    -0.64344231    -0.25592059     0.22675944
    -0.37906803     0.02021454     0.04450962
    -0.04231467     0.00965374     0.00551395
    -1.02609885    -2.71783177     0.54220753
    -1.09276149     0.60632839    -0.07872835
    -1.81028333     0.25236881     0.06798029
    -1.09465831     0.84092450    -0.09110345
    -1.27249471     0.27918918     0.02831971
    -0.71440475     0.41322214    -0.03623736
    -0.68381895    -0.03366001     0.04549851
    -0.08231954    -0.01938158     0.00915172
     0.00011512    -0.00091654     0.00463540
    -0.87319093    -3.43451010    -0.33834274
     0.71787853    -0.62047637    -0.08149675
     0.24950937     0.56604236     0.10422022
    -0.55266691     0.68191133     0.08167812
    -0.59213797     0.59295558     0.07452827
    -0.67347170     0.38148581     0.03279259
    -0.39764722     0.18170188     0.01852752
    -0.20447408     0.06945294     0.00544533
    -0.02205234     0.00681131     0.00453530
    -0.65533109    -2.96836310    -1.01015686
     4.30693140    -1.35914489    -0.10498291
     3.10898883    -0.42677250     0.20512226
     1.72098821     0.05805180     0.25973506
     0.09842601     0.33577105     0.18591357
    -0.20092613     0.32043788     0.13747779
    -0.44794398     0.31917723     0.10820877
    -0.05838517     0.12579097     0.06028553
     0.00087329     0.01557594     0.01016950
    -0.25939534    -0.95441198    -0.51081629
     1.86909142    -0.57895023    -0.06815672
     1.36299999    -0.23117120     0.11299588
     0.79356498    -0.05961224     0.12491853
     0.07518725     0.10330862     0.10368320
    -0.05152026     0.10124494     0.07212745
    -0.17892430     0.12661680     0.06624150
    -0.01286278     0.04702096     0.03648939
     0.00211195     0.00637116     0.00577615
     0.00000000     0.00000000     0.00000000
     0.00000000     0.00000000     0.00000000
     0.00000000     0.00000000     0.00000000
     0.00000000     0.00000000     0.00000000
     0.00000000     0.00000000     0.00000000
     0.00000000     0.00000000     0.00000000
     0.00000000     0.00000000     0.00000000
     0.00000000     0.00000000     0.00000000
     0.00000000     0.00000000     0.00000000
     0.00000000     0.00000000     0.00000000
     0.00000000     0.00000000     0.00000000
     0.00000000     0.00000000     0.00000000
     0.00000000     0.00000000     0.00000000
     0.00000000     0.00000000     0.00000000
     0.00000000     0.00000000     0.00000000
     0.00000000     0.00000000     0.00000000
     0.00000000     0.00000000     0.00000000
     0.00000000     0.00000000     0.00000000
     0.00000000     0.00000000     0.00000000
     0.00000000     0.00000000     0.00000000
     0.00000000     0.00000000     0.00000000
     0.00000000     0.00000000     0.00000000
     0.00000000     0.00000000     0.00000000
     0.00000000     0.00000000     0.00000000
     0.00000000     0.00000000     0.00000000
     0.00000000     0.00000000     0.00000000
     0.00000000     0.00000000     0.00000000
     0.00000000     0.00000000     0.00000000
     0.00000000     0.00000000     0.00000000
     0.00000000     0.00000000     0.00000000
     0.00000000     0.00000000     0.00000000
     0.00000000     0.00000000     0.00000000
     0.00000000     0.00000000     0.00000000
     0.00000000     0.00000000     0.00000000
     0.00000000     0.00000000     0.00000000
     0.00000000     0.00000000     0.00000000
     0.00000000     0.00000000     0.00000000
     0.00000000     0.00000000     0.00000000
     0.00000000     0.00000000     0.00000000
     0.00000000     0.00000000     0.00000000
     0.00000000     0.00000000     0.00000000
     0.00000000     0.00000000     0.00000000
     0.00000000     0.00000000     0.00000000
     0.00000000     0.00000000     0.00000000
     0.00000000     0.00000000     0.00000000
     0.00000000     0.00000000     0.00000000
     0.00000000     0.00000000     0.00000000
     0.00000000     0.00000000     0.00000000
     0.00000000     0.00000000     0.00000000
     0.00000000     0.00000000     0.00000000
     0.00000000     0.00000000     0.00000000
     0.00000000     0.00000000     0.00000000
     0.00000000     0.00000000     0.00000000
     0.00000000     0.00000000     0.00000000
     0.00000000     0.00000000     0.00000000
     0.00000000     0.00000000     0.00000000
     0.00000000     0.00000000     0.00000000
     0.00000000     0.00000000     0.00000000
     0.00000000     0.00000000     0.00000000
     0.00000000     0.00000000     0.00000000
     0.00000000     0.00000000     0.00000000
     0.00000000     0.00000000     0.00000000
     0.00000000     0.00000000     0.00000000
     0.00000000     0.00000000     0.00000000
     0.00000000     0.00000000     0.00000000
     0.00000000     0.00000000     0.00000000
     0.00000000     0.00000000     0.00000000
     0.00000000     0.00000000     0.00000000
     0.00000000     0.00000000     0.00000000
     0.00000000     0.00000000     0.00000000
     0.00000000     0.00000000     0.00000000
     0.00000000     0.00000000     0.00000000
     0.00000000     0.00000000     0.00000000
     0.00000000     0.00000000     0.00000000
     0.00000000     0.00000000     0.00000000
     0.00000000     0.00000000     0.00000000
     0.00000000     0.00000000     0.00000000
     0.00000000     0.00000000     0.00000000
     0.00000000     0.00000000     0.00000000
     0.00000000     0.00000000     0.00000000
     0.00000000     0.00000000     0.00000000
     0.00000000     0.00000000     0.00000000
     0.00000000     0.00000000     0.00000000
     0.00000000     0.00000000     0.00000000
     0.00000000     0.00000000     0.00000000
     0.00000000     0.00000000     0.00000000
     0.00000000     0.00000000     0.00000000
     0.00000000     0.00000000     0.00000000
     0.00000000     0.00000000     0.00000000
     0.00000000     0.00000000     0.00000000
     0.00000000     0.00000000     0.00000000
     0.00000000     0.00000000     0.00000000
     0.00000000     0.00000000     0.00000000
     0.00000000     0.00000000     0.00000000
     0.00000000     0.00000000     0.00000000
     0.00000000     0.00000000     0.00000000
     0.00000000     0.00000000     0.00000000
     0.00000000     0.00000000     0.00000000
     0.00000000     0.00000000     0.00000000
     0.00000000     0.00000000     0.00000000
     0.00000000     0.00000000     0.00000000
     0.00000000     0.00000000     0.00000000
     0.00000000     0.00000000     0.00000000
     0.00000000     0.00000000     0.00000000
     0.00000000     0.00000000     0.00000000
     0.00000000     0.00000000     0.00000000
     0.00000000     0.00000000     0.00000000
     0.00000000     0.00000000     0.00000000
     0.00000000     0.00000000     0.00000000
     0.00000000     0.00000000     0.00000000
     0.00000000     0.00000000     0.00000000
     0.00000000     0.00000000     0.00000000
     0.00000000     0.00000000     0.00000000
     0.00000000     0.00000000     0.00000000
     0.00000000     0.00000000     0.00000000
     0.00000000     0.00000000     0.00000000
     0.00000000     0.00000000     0.00000000
     0.00000000     0.00000000     0.00000000
     0.00000000     0.00000000     0.00000000
     0.00000000     0.00000000     0.00000000
     0.00000000     0.00000000     0.00000000
     0.00000000     0.00000000     0.00000000
     0.00000000     0.00000000     0.00000000
     0.00000000     0.00000000     0.00000000
     0.00000000     0.00000000     0.00000000
     0.00000000     0.00000000     0.00000000
     0.00000000     0.00000000     0.00000000
     0.00000000     0.00000000     0.00000000
     0.00000000     0.00000000     0.00000000
     0.00000000     0.00000000     0.00000000
     0.00000000     0.00000000     0.00000000
     0.00000000     0.00000000     0.00000000
     0.00000000     0.00000000     0.00000000
     0.00000000     0.00000000     0.00000000
     0.00000000     0.00000000     0.00000000
     0.00000000     0.00000000     0.00000000
     0.00000000     0.00000000     0.00000000
     0.00000000     0.00000000     0.00000000
     0.00000000     0.00000000     0.00000000
     0.00000000     0.00000000     0.00000000
     0.00000000     0.00000000     0.00000000
     0.00000000     0.00000000     0.00000000
     0.00000000     0.00000000     0.00000000
     0.00000000     0.00000000     0.00000000
     0.00000000     0.00000000     0.00000000
     0.00000000     0.00000000     0.00000000
     0.00000000     0.00000000     0.00000000
     0.00000000     0.00000000     0.00000000
     0.00000000     0.00000000     0.00000000
     0.00000000     0.00000000     0.00000000
     0.00000000     0.00000000     0.00000000
     0.00000000     0.00000000     0.00000000
     0.00000000     0.00000000     0.00000000
     0.00000000     0.00000000     0.00000000
     0.00000000     0.00000000     0.00000000
     0.00000000     0.00000000     0.00000000
     0.00000000     0.00000000     0.00000000
     0.00000000     0.00000000     0.00000000
     0.00000000     0.00000000     0.00000000
     0.00000000     0.00000000     0.00000000
     0.00000000     0.00000000     0.00000000
     0.00000000     0.00000000     0.00000000
     0.00000000     0.00000000     0.00000000
     0.00000000     0.00000000     0.00000000
     0.00000000     0.00000000     0.00000000
     0.00000000     0.00000000     0.00000000
     0.00000000     0.00000000     0.00000000
     0.00000000     0.00000000     0.00000000
     0.00000000     0.00000000     0.00000000
     0.00000000     0.00000000     0.00000000
     0.00000000     0.00000000     0.00000000
     0.00000000     0.00000000     0.00000000
     0.00000000     0.00000000     0.00000000
     0.00000000     0.00000000     0.00000000
     0.00000000     0.00000000     0.00000000
     0.00000000     0.00000000     0.00000000
     0.00000000     0.00000000     0.00000000
     0.00000000     0.00000000     0.00000000
     0.00000000     0.00000000     0.00000000
     0.00000000     0.00000000     0.00000000
     0.00000000     0.00000000     0.00000000
     0.00000000     0.00000000     0.00000000
     0.00000000     0.00000000     0.00000000
     0.00000000     0.00000000     0.00000000
     0.00000000     0.00000000     0.00000000
     0.00000000     0.00000000     0.00000000
     0.00000000     0.00000000     0.00000000
     0.00000000     0.00000000     0.00000000
     0.00000000     0.00000000     0.00000000
     0.00000000     0.00000000     0.00000000
     0.00000000     0.00000000     0.00000000
     0.00000000     0.00000000     0.00000000
     0.00000000     0.00000000     0.00000000
     0.00000000     0.00000000     0.00000000
     0.00000000     0.00000000     0.00000000
     0.00000000     0.00000000     0.00000000
     0.00000000     0.00000000     0.00000000
     0.00000000     0.00000000     0.00000000
     0.00000000     0.00000000     0.00000000
     0.00000000     0.00000000     0.00000000
     0.00000000     0.00000000     0.00000000
     0.00000000     0.00000000     0.00000000
     0.00000000     0.00000000     0.00000000
     0.00000000     0.00000000     0.00000000
     0.00000000     0.00000000     0.00000000
     0.00000000     0.00000000     0.00000000
     0.00000000     0.00000000     0.00000000
     0.00000000     0.00000000     0.00000000
     0.00000000     0.00000000     0.00000000
     0.00000000     0.00000000     0.00000000
     0.00000000     0.00000000     0.00000000
     0.00000000     0.00000000     0.00000000
     0.00000000     0.00000000     0.00000000
     0.00000000     0.00000000     0.00000000
     0.00000000     0.00000000     0.00000000
     0.00000000     0.00000000     0.00000000
     0.00000000     0.00000000     0.00000000
     0.00000000     0.00000000     0.00000000
     0.00000000     0.00000000     0.00000000
     0.00000000     0.00000000     0.00000000
     0.00000000     0.00000000     0.00000000
     0.00000000     0.00000000     0.00000000
     0.00000000     0.00000000     0.00000000
     0.00000000     0.00000000     0.00000000
     0.00000000     0.00000000     0.00000000
     0.00000000     0.00000000     0.00000000
     0.00000000     0.00000000     0.00000000
     0.00000000     0.00000000     0.00000000
     0.00000000     0.00000000     0.00000000
     0.00000000     0.00000000     0.00000000
     0.00000000     0.00000000     0.00000000
     0.00000000     0.00000000     0.00000000
     0.00000000     0.00000000     0.00000000
     0.00000000     0.00000000     0.00000000
     0.00000000     0.00000000     0.00000000
     0.00000000     0.00000000     0.00000000
     0.00000000     0.00000000     0.00000000
     0.00000000     0.00000000     0.00000000
     0.00000000     0.00000000     0.00000000
     0.00000000     0.00000000     0.00000000
     0.00000000     0.00000000     0.00000000
     0.00000000     0.00000000     0.00000000
     0.00000000     0.00000000     0.00000000
     0.00000000     0.00000000     0.00000000
     0.00000000     0.00000000     0.00000000
     0.00000000     0.00000000     0.00000000
     0.00000000     0.00000000     0.00000000
     0.00000000     0.00000000     0.00000000
     0.00000000     0.00000000     0.00000000
     0.00000000     0.00000000     0.00000000
     0.00000000     0.00000000     0.00000000
     0.00000000     0.00000000     0.00000000
     0.00000000     0.00000000     0.00000000
     0.00000000     0.00000000     0.00000000
     0.00000000     0.00000000     0.00000000
     0.00000000     0.00000000     0.00000000
     0.00000000     0.00000000     0.00000000
     0.00000000     0.00000000     0.00000000
     0.00000000     0.00000000     0.00000000
     0.00000000     0.00000000     0.00000000
     0.00000000     0.00000000     0.00000000
     0.00000000     0.00000000     0.00000000
     0.00000000     0.00000000     0.00000000
     0.00000000     0.00000000     0.00000000
     0.00000000     0.00000000     0.00000000
     0.00000000     0.00000000     0.00000000
     0.00000000     0.00000000     0.00000000
     0.00000000     0.00000000     0.00000000
     0.00000000     0.00000000     0.00000000
     0.00000000     0.00000000     0.00000000
     0.00000000     0.00000000     0.00000000
     0.00000000     0.00000000     0.00000000
     0.00000000     0.00000000     0.00000000
     0.00000000     0.00000000     0.00000000
     0.00000000     0.00000000     0.00000000
     0.00000000     0.00000000     0.00000000
SCALARS Pressures float
LOOKUP_TABLE default
   282.64738178
   564.74005318
   562.41797352
   561.81098133
   561.57700545
   561.39371204
   560.75791407
   562.65949631
   757.81050110
   567.16233349
  1129.91095838
  1124.74660394
  1123.67323035
  1123.20907915
  1122.64440590
  1122.39214182
  1124.59007740
  1125.81847382
   567.34256649
  1130.15342411
  1124.77997014
  1123.68325710
  1123.27606052
  1122.66901356
  1122.04808140
  1122.51695442
  1113.63510990
   567.70117283
  1130.48449159
  1124.77560997
  1123.72057551
  1123.36281210
  1122.98997462
  1122.11655521
  1122.08137703
  1116.96024513
   568.10266685
  1130.88782167
  1124.82232785
  1123.75625259
  1123.46025366
  1123.30427730
  1123.58088350
  1126.15359974
  1122.79019260
   568.28248310
  1131.09851146
  1124.82194614
  1123.89042425
  1123.46996880
  1123.42476606
  1124.06004882
  1128.10945225
  1123.64294815
   568.15379369
  1130.87774909
  1124.95912373
  1124.03173244
  1123.67176056
  1123.29605007
  1123.33806467
  1124.18873453
  1123.89115715
   567.49686277
  1130.51766050
  1125.21115303
  1124.30386019
  1123.93176031
  1123.51308513
  1122.15016103
  1120.16875219
  1122.05255127
   567.49236107
  1130.37906653
  1125.37155718
  1124.71754003
  1124.39826667
  1124.11095476
  1122.37141991
  1119.92307949
  1120.77577400
   566.99391842
  1130.09472853
  1125.56355077
  1124.95772135
  1124.86494863
  1125.00983095
  1124.43510818
  1123.27282238
  1126.07918930
   283.89800072
   565.06823587
   562.76791143
   562.54604816
   562.45522213
   562.80805492
   563.05765152
   562.78061676
   753.47106425
   282.81578517
   564.81841511
   562.41694635
   561.81889445
   561.57511288
   561.25258470
   560.55550763
   562.37194869
   757.97164917
   567.18320298
  1129.94977389
  1124.75249781
  1123.67313775
  1123.19208357
  1122.37660494
  1121.84082028
  1123.98776290
  1125.84122849
   567.25550580
  1130.10275488
  1124.79345079
  1123.68339875
  1123.25088003
  1122.43088734
  1121.57044265
  1122.02366114
  1113.31637049
   567.50118768
  1130.35818267
  1124.80999523
  1123.72475144
  1123.34241179
  1122.79406354
  1121.83613011
  1121.52473640
  1116.74086094
   567.85621464
  1130.67679715
  1124.85711914
  1123.76138148
  1123.45434532
  1123.18239158
  1123.36807442
  1125.66678214
  1123.11887217
   567.97514057
  1130.85229194
  1124.87482405
  1123.89260685
  1123.47941965
  1123.36835307
  1123.86769009
  1127.83407283
  1123.86715245
   567.84528834
  1130.68491918
  1125.01559371
  1124.03306240
  1123.64335132
  1123.23621531
  1123.13422818
  1123.89023018
  1123.75879884
   567.32633877
  1130.42016482
  1125.25115132
  1124.29338640
  1123.85166079
  1123.34972723
  1121.91982122
  1119.74455404
  1121.76793957
   567.36935574
  1130.32890281
  1125.38245949
  1124.66275662
  1124.24778283
  1123.78968930
  1122.03546333
  1119.24084854
  1120.07972050
   567.05143222
  1130.14536324
  1125.54426587
  1124.88836503
  1124.67793995
  1124.57226193
  1123.79620504
  1122.47444534
  1125.36152267
   283.89515254
   565.11398745
   562.76716480
   562.51275378
   562.37204337
   562.56924248
   562.59695053
   562.37210083
   753.10160700
   282.90166607
   564.84856942
   562.41629064
   561.82154962
   561.56304237
   561.05543780
   560.18858477
   561.52101824
   757.20244948
   567.17328611
  1129.94682947
  1124.76993394
  1123.68011197
  1123.15382704
  1122.03860319
  1121.16119990
  1123.13601705
  1125.89805484
   567.21209598
  1130.02445197
  1124.82250267
  1123.70012832
  1123.19756216
  1122.12926540
  1121.23787484
  1122.24556732
  1113.88659096
   567.29475009
  1130.16877878
  1124.85174838
  1123.74375674
  1123.28082198
  1122.44801483
  1121.54048392
  1121.35932064
  1117.37083912
   567.50701153
  1130.35422766
  1124.89847800
  1123.78868458
  1123.40439266
  1122.87148160
  1122.81994617
  1124.80225646
  1124.26252460
   567.56250691
  1130.46961069
  1124.93644321
  1123.90848172
  1123.45802099
  1123.19362324
  1123.40754342
  1127.07975519
  1124.05984282
   567.55501062
  1130.41007155
  1125.06695354
  1124.03735164
  1123.58022299
  1123.11706330
  1122.80820955
  1123.41968274
  1123.41612124
   567.21403527
  1130.27016640
  1125.25846660
  1124.25181636
  1123.71864292
  1123.03825296
  1121.62609448
  1119.07451987
  1121.13215256
   567.28805000
  1130.24689287
  1125.36844450
  1124.53739429
  1123.98810345
  1123.12544024
  1121.49396980
  1118.26815081
  1118.80401611
   567.07141134
  1130.15358949
  1125.49971423
  1124.72416741
  1124.32361934
  1123.58641526
  1122.40445065
  1120.85228777
  1123.96246338
   283.85215554
   565.12476134
   562.74363700
   562.42322576
   562.20160863
   562.00622115
   561.59118724
   561.24522495
   752.20301692
   282.75426498
   564.78601572
   562.42211086
   561.81919154
   561.55014845
   561.00854456
   560.01358271
   560.76718497
   755.16481876
   566.99023667
  1129.84966800
  1124.79253200
  1123.69686984
  1123.10989060
  1122.01055244
  1120.92001811
  1122.20369744
  1126.38454986
   567.08267546
  1129.94012868
  1124.85843709
  1123.73276910
  1123.12563914
  1122.11090294
  1121.22737923
  1122.79726267
  1116.56367350
   567.14354163
  1130.04630160
  1124.87434608
  1123.76589233
  1123.20085216
  1122.25767046
  1121.48395276
  1121.97610283
  1118.98597097
   567.33305746
  1130.15623868
  1124.91379988
  1123.80827630
  1123.33004570
  1122.54365820
  1122.49602866
  1124.13416123
  1125.23072433
   567.28882200
  1130.22174460
  1124.97388148
  1123.91836321
  1123.38495755
  1122.97323871
  1122.97949970
  1126.02337813
  1123.94609022
   567.34092337
  1130.22065169
  1125.06382549
  1124.02129236
  1123.49133769
  1123.03591675
  1122.42445236
  1122.60555482
  1123.08998013
   567.11529982
  1130.15080094
  1125.19650137
  1124.16874984
  1123.61255971
  1122.85352129
  1121.44515878
  1118.69842124
  1120.96319151
   567.15599477
  1130.14619064
  1125.30425817
  1124.37739843
  1123.79178762
  1122.72636545
  1121.18157160
  1117.83470583
  1118.74307704
   566.96754915
  1130.05158347
  1125.42097105
  1124.51944460
  1124.04221615
  1122.80502483
  1121.16088676
  1118.97186875
  1123.03758502
   283.83853322
   565.07087320
   562.69580050
   562.31039210
   562.06151757
   561.47461984
   560.64650154
   559.73459888
   751.08842468
   282.83928145
   564.73739768
   562.41265720
   561.79934522
   561.56257644
   561.02299023
   560.17078805
   560.24078226
   752.74031576
   566.90009369
  1129.72467829
  1124.79220915
  1123.66835471
  1123.11103316
  1122.07084718
  1120.91986981
  1121.08650267
  1126.23884773
   567.03932714
  1129.85996705
  1124.85502249
  1123.72273171
  1123.11275613
  1122.16680816
  1121.23898330
  1121.98520005
  1119.93452930
   567.07722002
  1129.97763112
  1124.88067867
  1123.75403486
  1123.19025362
  1122.25904590
  1121.85924768
  1122.64347172
  1120.61301303
   567.15726222
  1129.99647181
  1124.92249610
  1123.78932081
  1123.29401916
  1122.44200121
  1122.63037388
  1124.62923777
  1125.73809266
   567.02979000
  1129.98417945
  1124.97934794
  1123.87550709
  1123.33365497
  1122.81612788
  1122.69417344
  1124.81132007
  1124.69779062
   567.16525596
  1130.06619877
  1125.04445411
  1123.96016334
  1123.42469439
  1122.95614952
  1122.25278181
  1121.90065873
  1123.58896542
   567.09409973
  1130.06642470
  1125.12981629
  1124.05121579
  1123.54606202
  1122.82709813
  1121.34917331
  1118.70714569
  1122.30538893
   567.06180128
  1130.03276762
  1125.20217577
  1124.18999619
  1123.67183021
  1122.71750510
  1120.73185003
  1116.94182658
  1120.18993807
   566.92905706
  1129.91808516
  1125.28149052
  1124.30327244
  1123.85097706
  1122.62509763
  1120.28293598
  1116.67964864
  1122.52592754
   283.76733244
   564.97819579
   562.62673689
   562.19082762
   561.96610451
   561.29276252
   560.08062315
   558.23038340
   749.83227412
   188.65945102
   376.46875049
   374.93183653
   374.51773270
   374.38514694
   374.01887306
   373.55898603
   373.26988665
   563.56732178
   283.48110689
   564.82754506
   562.39041525
   561.81507427
   561.56742561
   561.04449594
   560.51630223
   560.32609808
   750.42714818
   283.58452511
   564.91824752
   562.41562235
   561.84832072
   561.57182938
   561.08879006
   560.70307696
   560.66832078
   747.67817497
   283.57782722
   564.98417142
   562.43589072
   561.86743559
   561.60921770
   561.15031403
   561.13792634
   561.54264164
   747.64952374
   283.52633508
   564.96157448
   562.46121900
   561.88647391
   561.64414763
   561.23957168
   561.37665872
   562.70735073
   750.72815609
   283.46957590
   564.92900933
   562.47805870
   561.91823086
   561.66228315
   561.38054238
   561.28455149
   562.08835042
   750.35448647
   283.61095172
   565.00957400
   562.51155032
   561.95902644
   561.70610866
   561.44910580
   561.17134315
   560.91892374
   749.46918170
   283.61492780
   565.02445558
   562.54620671
   561.99282601
   561.76636460
   561.41864514
   560.68536830
   559.42306638
   748.97691472
   283.57068130
   564.99410030
   562.56968120
   562.04600544
   561.81949654
   561.38236797
   560.19449484
   558.09596276
   747.41205819
   283.47844625
   564.92209220
   562.59774321
   562.09849089
   561.88691461
   561.33914161
   559.94784892
   557.72203350
   748.17183717
   189.11307009
   376.60295256
   375.05515242
   374.75190878
   374.61568435
   374.21219842
   373.27624544
   371.67895603
   561.87118721
  1109.22145462
  1121.60778999
  1112.11847305
  1112.34492874
  1112.32969666
  1112.53391266
  1112.78005791
  1112.94209099
  1113.06476402
  1113.14525795
  1114.04442596
  1128.23831558
  1122.56651878
  1111.90742779
  1112.07722569
  1112.28732681
  1112.52931118
  1112.76328945
  1112.96314621
  1113.11633587
  1113.21876955
  1113.32381916
  1129.40668297
  1122.57965565
  1111.09922886
  1111.38210201
  1111.80849457
  1112.28434849
  1112.77947617
  1113.14427519
  1113.36704636
  1113.49732542
  1113.53181648
  1128.26123619
  1122.67942286
  1110.93527460
  1110.47325897
  1111.11039352
  1112.31795120
  1113.20631981
  1113.64367247
  1113.83004808
  1113.92453289
  1113.94860840
  1134.88403368
  1128.31549740
  1114.95147943
  1113.28770828
  1112.84445190
  1113.33239937
  1113.84504986
  1114.09915733
  1114.18183637
  1114.22243381
  1114.30391407
  1140.91462040
  1132.90621281
  1118.53448486
  1116.58358002
  1114.84014893
  1114.07288361
  1114.08989143
  1114.21531868
  1114.26976156
  1114.29817152
  1115.17103195
  1124.84615755
  1121.11295128
  1112.17825794
  1112.27455139
  1112.30254841
  1112.54827309
  1112.77706528
  1112.94784927
  1113.06916571
  1113.15266085
  1113.22554398
  1127.91796517
  1122.25002050
  1111.85334539
  1112.03663635
  1112.26819897
  1112.52305555
  1112.76497984
  1112.96760726
  1113.12104011
  1113.22205901
  1113.25336504
  1129.35333443
  1122.41021681
  1110.93883419
  1111.35491085
  1111.81229973
  1112.31764746
  1112.79683495
  1113.14842391
  1113.35842216
  1113.48459041
  1113.53028631
  1128.02373123
  1122.43871140
  1110.67116475
  1110.48130512
  1111.28048086
  1112.43795204
  1113.22673893
  1113.61851978
  1113.79132187
  1113.88604987
  1113.92337036
  1134.44721866
  1127.91703033
  1114.63942933
  1113.17246056
  1112.87787151
  1113.35544586
  1113.82281828
  1114.04716313
  1114.13189995
  1114.17738724
  1114.20235920
  1140.56387091
  1132.38998175
  1118.28576469
  1116.29341125
  1114.58553123
  1113.97244453
  1114.03293419
  1114.16676927
  1114.22508597
  1114.26039839
  1114.33736420
  1123.12383509
  1120.10800266
  1112.25614452
  1112.08256149
  1112.28179264
  1112.54414845
  1112.77937031
  1112.95106030
  1113.08707762
  1113.17080879
  1113.41127110
  1127.07153916
  1121.44868994
  1111.69005966
  1111.92060804
  1112.21218109
  1112.50756741
  1112.77036095
  1112.98209381
  1113.13731098
  1113.23395014
  1113.30761242
  1129.12695456
  1121.95271826
  1110.62604094
  1111.27936268
  1111.85637426
  1112.38905048
  1112.84678698
  1113.15499353
  1113.34460640
  1113.45657206
  1113.49314022
  1127.61651278
  1122.02857447
  1110.26217175
  1110.65585852
  1111.71611881
  1112.67033625
  1113.25212765
  1113.54897499
  1113.70231366
  1113.79405379
  1113.82651806
  1133.60021925
  1127.04901934
  1113.96595573
  1112.93038559
  1112.91998005
  1113.38039827
  1113.73542207
  1113.92053372
  1114.01045549
  1114.06812930
  1114.12326527
  1139.20207882
  1131.15694904
  1117.53567505
  1115.34912491
  1113.97790146
  1113.72723866
  1113.89881122
  1114.03997719
  1114.11795211
  1114.16420364
  1114.37582111
  1121.62899780
  1119.73116493
  1112.16958046
  1111.89691544
  1112.23494911
  1112.53002262
  1112.77006626
  1112.97189760
  1113.11506581
  1113.20195389
  1116.20585108
  1126.03804970
  1120.41174698
  1111.42637539
  1111.73474026
  1112.13727379
  1112.48918962
  1112.78304839
  1113.01104808
  1113.16678345
  1113.25771189
  1113.76001906
  1128.91068220
  1121.24832201
  1110.30305243
  1111.24880171
  1111.91837072
  1112.48399496
  1112.89730346
  1113.17269599
  1113.33905125
  1113.43639803
  1113.36594105
  1128.10644603
  1121.82471323
  1110.11442518
  1111.09767389
  1112.13357878
  1112.82872486
  1113.23460543
  1113.47333825
  1113.61388850
  1113.70001173
  1113.62709379
  1133.23332524
  1126.22518158
  1113.32025623
  1112.63221407
  1112.91226435
  1113.32204109
  1113.60539281
  1113.77528876
  1113.88109803
  1113.94530344
  1114.45795751
  1137.62802124
  1130.20525169
  1116.33459663
  1113.99411869
  1113.35451412
  1113.50626576
  1113.74015117
  1113.89909446
  1113.99402046
  1114.04990959
  1117.07942247
  1121.43240547
  1119.98776829
  1111.74175560
  1111.69854021
  1112.17878819
  1112.48633480
  1112.78633285
  1113.00528193
  1113.16028273
  1113.24140978
  1120.53703713
  1126.24522781
  1119.93359762
  1111.08725744
  1111.54620361
  1112.07861924
  1112.48291337
  1112.81917298
  1113.05588013
  1113.21190336
  1113.29426232
  1114.92731512
  1129.77700663
  1120.60023880
  1110.12919664
  1111.23395038
  1111.99772966
  1112.56273699
  1112.95151401
  1113.20220995
  1113.35629767
  1113.43931624
  1113.19872743
  1130.24125171
  1121.88990831
  1110.20669603
  1111.44990492
  1112.32499564
  1112.86179841
  1113.20734942
  1113.42692417
  1113.56398752
  1113.64126140
  1113.40203351
  1133.82635140
  1125.77432489
  1112.56423283
  1112.34585804
  1112.81581500
  1113.21438017
  1113.48232126
  1113.66649419
  1113.78112853
  1113.84798816
  1115.44696146
  1135.66616249
  1129.08988380
  1114.54070759
  1112.86593997
  1112.99864775
  1113.35114557
  1113.60095859
  1113.77708161
  1113.88335335
  1113.94497114
  1121.16971767
  1121.49446106
  1120.11109948
  1111.41859651
  1111.56419849
  1112.17586327
  1112.43828773
  1112.81720114
  1113.01528168
  1113.19102168
  1113.26046562
  1123.07825232
  1126.95981979
  1120.00755894
  1110.90262043
  1111.46809578
  1112.05798197
  1112.48578238
  1112.84630084
  1113.08178341
  1113.23911744
  1113.31565267
  1115.76690602
  1130.68657207
  1120.36849213
  1110.12593079
  1111.20130301
  1112.05536151
  1112.58463860
  1112.98780131
  1113.21644235
  1113.37390769
  1113.44712514
  1113.12309706
  1131.71641064
  1121.98953915
  1110.30183029
  1111.52682781
  1112.36450315
  1112.84886670
  1113.20258522
  1113.41175473
  1113.55222970
  1113.62304008
  1113.30478323
  1134.37608719
  1125.67776203
  1112.09248543
  1112.23084629
  1112.73577029
  1113.16698235
  1113.42411435
  1113.62830937
  1113.73900843
  1113.80928737
  1116.12373412
  1134.26731873
  1128.20941162
  1113.44652748
  1112.43864989
  1112.91315663
  1113.27223146
  1113.54326034
  1113.71770883
  1113.83415961
  1113.89590514
  1123.42853618
  1042.96353912
  1042.67933655
  1047.33506012
  1052.32075500
  1059.10207748
  1062.11081696
  1063.01139688
  1035.25102711
  1082.40774155
  1042.01268387
  1040.13518906
  1044.47029495
  1050.79018784
  1057.28345680
  1061.41070557
  1062.84327435
  1061.04051828
  1074.75920486
  1034.52797699
  1030.97513866
  1037.32290173
  1047.63155365
  1055.26163101
  1060.10451126
  1062.47040176
  1063.50495911
  1072.35773087
  1032.41443253
  1025.42087460
  1035.06894970
  1048.20627213
  1055.97674942
  1059.93590450
  1062.11479950
  1063.42657661
  1106.12789917
  1066.39674759
  1043.43315125
  1043.19825745
  1051.47286224
  1057.42824173
  1060.35474110
  1061.76384401
  1059.81679440
  1145.35388184
  1095.95875549
  1060.38378906
  1049.29888916
  1052.53666687
  1057.96141052
  1060.33610153
  1061.56374073
  1032.96034431
  1090.03799820
  1039.69964981
  1042.29750824
  1047.08597565
  1051.92962265
  1059.07298851
  1061.91365147
  1062.98654008
  1038.30099344
  1081.11170959
  1039.44848824
  1039.34162903
  1044.02094841
  1050.42552757
  1057.00038815
  1061.19472027
  1062.69353163
  1060.91408658
  1073.57962990
  1032.61202049
  1029.87492514
  1036.84756613
  1047.41005516
  1054.91136360
  1059.77785063
  1062.13451862
  1063.38371944
  1071.21977615
  1030.97790146
  1025.41153479
  1035.58602476
  1048.22940445
  1055.75518417
  1059.59236240
  1061.69832993
  1063.02062035
  1106.63803482
  1066.70735359
  1043.47370911
  1043.56198883
  1051.59294128
  1057.32693291
  1060.12054443
  1061.47870517
  1060.14460897
  1145.81035614
  1097.48561859
  1059.48844910
  1048.69113922
  1052.62575150
  1058.03843689
  1060.13627625
  1061.42926455
  1037.48823643
  1088.14291000
  1034.12390614
  1041.65347767
  1046.42009354
  1051.03345108
  1058.53296947
  1061.47874069
  1062.76951408
  1035.41280556
  1079.29761124
  1033.88171244
  1037.34545183
  1042.98683929
  1049.54561520
  1056.42120600
  1060.65815353
  1062.35933924
  1059.75593567
  1071.25170326
  1027.96902847
  1028.10433769
  1036.59012032
  1047.21857357
  1054.38531017
  1059.15415239
  1061.51196456
  1062.69285822
  1069.84797478
  1028.77491570
  1026.23802948
  1037.36701202
  1048.48886871
  1055.35416126
  1058.94970655
  1060.94427228
  1062.34599066
  1108.87981987
  1066.86403847
  1043.14208603
  1044.20883560
  1051.85419464
  1056.98649788
  1059.59568977
  1060.92979383
  1057.74423122
  1150.11478424
  1098.47678375
  1056.97936249
  1047.31030273
  1053.11001968
  1057.72585106
  1059.76270485
  1061.04580784
  1032.08313179
  1091.03905869
  1030.21738529
  1039.70063114
  1044.82060051
  1049.76009941
  1057.51636505
  1060.88159752
  1062.48559952
  1025.68397141
  1078.38731003
  1028.47021341
  1034.99747515
  1041.63258648
  1048.72287464
  1055.86639214
  1060.08725119
  1062.01728392
  1056.90577316
  1068.97262192
  1023.91709137
  1027.87297153
  1037.82539082
  1047.67417145
  1054.36188698
  1058.86526585
  1061.10769171
  1062.93945301
  1071.06620979
  1029.21384239
  1028.82248783
  1039.72780704
  1049.25629807
  1055.22400475
  1058.68375444
  1060.52690703
  1062.28110421
  1111.41579056
  1065.71434402
  1041.29002762
  1044.60614967
  1051.78311682
  1056.48190427
  1059.15663791
  1060.52918983
  1056.24490881
  1152.90884399
  1094.11214447
  1050.38670349
  1046.96289444
  1052.71633053
  1057.02315378
  1059.38339376
  1060.67098069
  1025.67894030
  1087.54154968
  1026.99003601
  1036.07927704
  1041.93705606
  1048.72122812
  1056.37416553
  1060.25879574
  1062.17961207
  1032.45303137
  1076.81890917
  1025.25795555
  1032.65542412
  1040.46752381
  1048.32592702
  1055.46557617
  1059.72969151
  1061.75598045
  1056.60459319
  1070.32023859
  1023.19907570
  1028.56029534
  1039.46400476
  1048.34512740
  1054.71755868
  1059.02432537
  1060.99782711
  1062.22941792
  1077.29751587
  1032.19517517
  1030.83831429
  1041.39580369
  1049.83939296
  1055.34627348
  1058.83069587
  1060.50237817
  1062.15924585
  1114.77111244
  1062.02430344
  1037.55883980
  1044.71449852
  1051.13532066
  1056.16378546
  1058.91883378
  1060.39166876
  1052.64364035
  1149.49140167
  1082.53053284
  1041.33007050
  1046.56740761
  1051.35148430
  1056.51315451
  1059.02433929
  1060.44188658
  1024.67146982
  1082.32542419
  1025.35735321
  1034.14856720
  1040.23620701
  1048.45066929
  1055.73764038
  1059.99539185
  1061.96537001
  1043.01277126
  1075.64274311
  1024.45461655
  1031.45873260
  1040.07195139
  1048.23646784
  1055.32346058
  1059.62245274
  1061.65228263
  1058.12185652
  1072.79858494
  1023.80596161
  1028.80861139
  1040.08523798
  1048.59050238
  1054.92086756
  1059.17523384
  1061.00556445
  1060.70316648
  1082.07674026
  1033.97112656
  1031.10551691
  1041.96691751
  1049.89139044
  1055.41924107
  1058.94447565
  1060.55762649
  1061.83360052
  1117.32211304
  1059.33003616
  1035.30752945
  1044.70864868
  1050.69977665
  1056.11113405
  1058.82942352
  1060.39097921
  1047.81350197
  1147.12785339
  1074.77786255
  1037.25234985
  1045.74624252
  1050.77551079
  1056.31624031
  1058.87084979
  1060.33863910
  1020.13519410
     0.00000000
     0.00000000
     0.00000000
     0.00000000
     0.00000000
     0.00000000
     0.00000000
     0.00000000
     0.00000000
     0.00000000
     0.00000000
     0.00000000
     0.00000000
     0.00000000
     0.00000000
     0.00000000
     0.00000000
     0.00000000
     0.00000000
     0.00000000
     0.00000000
     0.00000000
     0.00000000
     0.00000000
     0.00000000
     0.00000000
     0.00000000
     0.00000000
     0.00000000
     0.00000000
     0.00000000
     0.00000000
     0.00000000
     0.00000000
     0.00000000
     0.00000000
     0.00000000
     0.00000000
     0.00000000
     0.00000000
     0.00000000
     0.00000000
     0.00000000
     0.00000000
     0.00000000
     0.00000000
     0.00000000
     0.00000000
     0.00000000
     0.00000000
     0.00000000
     0.00000000
     0.00000000
     0.00000000
     0.00000000
     0.00000000
     0.00000000
     0.00000000
     0.00000000
     0.00000000
     0.00000000
     0.00000000
     0.00000000
     0.00000000
     0.00000000
     0.00000000
     0.00000000
     0.00000000
     0.00000000
     0.00000000
     0.00000000
     0.00000000
     0.00000000
     0.00000000
     0.00000000
     0.00000000
     0.00000000
     0.00000000
     0.00000000
     0.00000000
     0.00000000
     0.00000000
     0.00000000
     0.00000000
     0.00000000
     0.00000000
     0.00000000
     0.00000000
     0.00000000
     0.00000000
     0.00000000
     0.00000000
     0.00000000
     0.00000000
     0.00000000
     0.00000000
     0.00000000
     0.00000000
     0.00000000
     0.00000000
     0.00000000
     0.00000000
     0.00000000
     0.00000000
     0.00000000
     0.00000000
     0.00000000
     0.00000000
     0.00000000
     0.00000000
     0.00000000
     0.00000000
     0.00000000
     0.00000000
     0.00000000
     0.00000000
     0.00000000
     0.00000000
     0.00000000
     0.00000000
     0.00000000
     0.00000000
     0.00000000
     0.00000000
     0.00000000
     0.00000000
     0.00000000
     0.00000000
     0.00000000
     0.00000000
     0.00000000
     0.00000000
     0.00000000
     0.00000000
     0.00000000
     0.00000000
     0.00000000
     0.00000000
     0.00000000
     0.00000000
     0.00000000
     0.00000000
     0.00000000
     0.00000000
     0.00000000
     0.00000000
     0.00000000
     0.00000000
     0.00000000
     0.00000000
     0.00000000
     0.00000000
     0.00000000
     0.00000000
     0.00000000
     0.00000000
     0.00000000
     0.00000000
     0.00000000
     0.00000000
     0.00000000
     0.00000000
     0.00000000
     0.00000000
     0.00000000
     0.00000000
     0.00000000
     0.00000000
     0.00000000
     0.00000000
     0.00000000
     0.00000000
     0.00000000
     0.00000000
     0.00000000
     0.00000000
     0.00000000
     0.00000000
     0.00000000
     0.00000000
     0.00000000
     0.00000000
     0.00000000
     0.00000000
     0.00000000
     0.00000000
     0.00000000
     0.00000000
     0.00000000
     0.00000000
     0.00000000
     0.00000000
     0.00000000
     0.00000000
     0.00000000
     0.00000000
     0.00000000
     0.00000000
     0.00000000
     0.00000000
     0.00000000
     0.00000000
     0.00000000
     0.00000000
     0.00000000
     0.00000000
     0.00000000
     0.00000000
     0.00000000
     0.00000000
     0.00000000
     0.00000000
     0.00000000
     0.00000000
     0.00000000
     0.00000000
     0.00000000
     0.00000000
     0.00000000
     0.00000000
     0.00000000
     0.00000000
     0.00000000
     0.00000000
     0.00000000
     0.00000000
     0.00000000
     0.00000000
     0.00000000
     0.00000000
     0.00000000
     0.00000000
     0.00000000
     0.00000000
     0.00000000
     0.00000000
     0.00000000
     0.00000000
     0.00000000
     0.00000000
     0.00000000
     0.00000000
     0.00000000
     0.00000000
     0.00000000
     0.00000000
     0.00000000
     0.00000000
     0.00000000
     0.00000000
     0.00000000
     0.00000000
     0.00000000
     0.00000000
     0.00000000
     0.00000000
     0.00000000
     0.00000000
     0.00000000
     0.00000000
     0.00000000
     0.00000000
     0.00000000
     0.00000000
     0.00000000
     0.00000000
     0.00000000
     0.00000000
     0.00000000
     0.00000000
     0.00000000
     0.00000000
     0.00000000
     0.00000000
     0.00000000
     0.00000000
VECTORS Displacements float 
    -0.08895789    -0.01823672     0.00000000
    -0.08642520    -0.07213416     0.00000000
    -0.07438245    -0.09295268     0.00000000
    -0.06094582    -0.10616241     0.00000000
    -0.04445414    -0.10601149     0.00000000
    -0.02659348    -0.09357563     0.00000000
    -0.00775754    -0.06592016     0.00000000
     0.00443416    -0.04444786     0.00000000
     0.00000000     0.00000000     0.00000000
    -0.09311407    -0.01456710     0.00586367
    -0.07613990    -0.06572020     0.00000000
    -0.07539867    -0.08580126     0.00000000
    -0.07250037    -0.09729287     0.00000000
    -0.06920421    -0.09757823     0.00000000
    -0.06601707    -0.08574662     0.00000000
    -0.06334768    -0.06407440     0.00000000
    -0.06876283    -0.04255587     0.00000000
    -0.07004253    -0.00257993     0.00000000
    -0.09234470    -0.01079013     0.00557428
    -0.07737117    -0.05447912     0.00000000
    -0.07820545    -0.07361999     0.00000000
    -0.08250675    -0.08404352     0.00000000
    -0.08800836    -0.08383484     0.00000000
    -0.09453783    -0.07313971     0.00000000
    -0.10322410    -0.05150095     0.00000000
    -0.10930633    -0.02767071     0.00000000
    -0.11565505     0.00569697     0.00000000
    -0.09478390    -0.00795416     0.00435401
    -0.07878933    -0.04308484     0.00000000
    -0.08146629    -0.05987859     0.00000000
    -0.08915164    -0.06861472     0.00000000
    -0.09835156    -0.06831424     0.00000000
    -0.10666489    -0.05844004     0.00000000
    -0.11273811    -0.03719533     0.00000000
    -0.11760375    -0.01155132     0.00000000
    -0.11989239     0.01613978     0.00000000
    -0.09539283    -0.00521584     0.00346429
    -0.08043502    -0.03225166     0.00000000
    -0.08348523    -0.04572568     0.00000000
    -0.09232588    -0.05282463     0.00000000
    -0.10153223    -0.05319626     0.00000000
    -0.10614033    -0.04620164     0.00000000
    -0.10039552    -0.02920080     0.00000000
    -0.09469677    -0.00513694     0.00000000
    -0.08796984     0.01905296     0.00000000
    -0.09515699    -0.00263343     0.00311233
    -0.08015446    -0.02171714     0.00000000
    -0.08375279    -0.03136433     0.00000000
    -0.09344782    -0.03668462     0.00000000
    -0.10306492    -0.03869675     0.00000000
    -0.10584136    -0.03636921     0.00000000
    -0.09343280    -0.02975553     0.00000000
    -0.05504515    -0.02238436     0.00000000
     0.00000000     0.00000000     0.00000000
    -0.09390950    -0.00004693     0.00323209
    -0.07862381    -0.01091975     0.00000000
    -0.08302594    -0.01598402     0.00000000
    -0.09520965    -0.01897337     0.00000000
    -0.10999933    -0.02169901     0.00000000
    -0.12305846    -0.02402594     0.00000000
    -0.13107373    -0.02170907     0.00000000
    -0.11994022    -0.01377882     0.00000000
    -0.09831327     0.01871041     0.00000000
    -0.09182674     0.00254687     0.00377779
    -0.07480572     0.00072625     0.00000000
    -0.07916598     0.00114331     0.00000000
    -0.09158232     0.00130018     0.00000000
    -0.10803262    -0.00072021     0.00000000
    -0.12597862    -0.00427235     0.00000000
    -0.14221202    -0.00588924     0.00000000
    -0.15178248     0.00188694     0.00000000
    -0.14963117     0.02199817     0.00000000
    -0.08793587     0.00527181     0.00452079
    -0.07049610     0.01353015     0.00000000
    -0.07270286     0.01987567     0.00000000
    -0.08149124     0.02328095     0.00000000
    -0.09303155     0.02241616     0.00000000
    -0.10571263     0.01795100     0.00000000
    -0.11814580     0.01228923     0.00000000
    -0.13407588     0.01456857     0.00000000
    -0.14557529     0.02313850     0.00000000
    -0.08630105     0.00833052     0.00446550
    -0.06637194     0.02750412     0.00000000
    -0.06667263     0.03910185     0.00000000
    -0.06707602     0.04473962     0.00000000
    -0.06738415     0.04437496     0.00000000
    -0.06651863     0.03737505     0.00000000
    -0.06189240     0.02552427     0.00000000
    -0.07227745     0.02003826     0.00000000
    -0.07563503     0.00905835     0.00000000
    -0.08024173     0.01166191     0.00000000
    -0.07539817     0.03873643     0.00000000
    -0.06501183     0.05405065     0.00000000
    -0.05269507     0.06250234     0.00000000
    -0.03784801     0.06188577     0.00000000
    -0.02208185     0.05238943     0.00000000
    -0.00509144     0.03181596     0.00000000
     0.00308489     0.01914905     0.00000000
     0.00000000     0.00000000     0.00000000
    -0.08885686    -0.01809089     0.00692434
    -0.08599210    -0.06987832     0.01369555
    -0.07466047    -0.09254070     0.01677925
    -0.06099793    -0.10543000     0.01858521
    -0.04433354    -0.10525914     0.01828658
    -0.02640298    -0.09298212     0.01643918
    -0.00759160    -0.06556511     0.01337582
     0.00475880    -0.04394270     0.01004273
     0.00000000     0.00000000     0.00000000
    -0.09256925    -0.01431932     0.00695315
    -0.07672007    -0.06352753     0.01444528
    -0.07505223    -0.08512016     0.01981971
    -0.07153562    -0.09660969     0.02167520
    -0.06715968    -0.09644151     0.02252706
    -0.06252876    -0.08483081     0.02202876
    -0.05761260    -0.06275097     0.02048026
    -0.06121631    -0.04153237     0.01691628
    -0.06345379    -0.00256905     0.00687587
    -0.09352948    -0.01118861     0.00750406
    -0.07802448    -0.05275926     0.01572377
    -0.07766703    -0.07292375     0.02149422
    -0.08097032    -0.08325475     0.02460035
    -0.08480782    -0.08294824     0.02596922
    -0.08871913    -0.07243908     0.02641153
    -0.09369596    -0.05071995     0.02446660
    -0.09742305    -0.02781759     0.02123373
    -0.10542957     0.00470957     0.01273739
    -0.09472027    -0.00815952     0.00730628
    -0.07938244    -0.04208360     0.01643094
    -0.08085270    -0.05911813     0.02316832
    -0.08729043    -0.06782124     0.02674181
    -0.09472354    -0.06755968     0.02837160
    -0.10057462    -0.05803229     0.02821856
    -0.10325815    -0.03719716     0.02630750
    -0.10543889    -0.01290112     0.02268375
    -0.10935785     0.01428404     0.01379260
    -0.09532090    -0.00536334     0.00693565
    -0.08047391    -0.03146642     0.01689580
    -0.08267729    -0.04490507     0.02387113
    -0.09036119    -0.05190149     0.02758110
    -0.09811385    -0.05235087     0.02905688
    -0.10114025    -0.04575957     0.02768803
    -0.09374922    -0.02942598     0.02493304
    -0.08589216    -0.00671268     0.02124371
    -0.07993722     0.01714650     0.01027098
    -0.09504069    -0.00265512     0.00665226
    -0.08017881    -0.02095639     0.01675128
    -0.08284849    -0.03038813     0.02369088
    -0.09147175    -0.03554558     0.02734558
    -0.09984810    -0.03755974     0.02853418
    -0.10170629    -0.03556211     0.02670506
    -0.08924431    -0.02935158     0.02052025
    -0.05260784    -0.02197506     0.01001876
     0.00000000     0.00000000     0.00000000
    -0.09375514    -0.00002518     0.00656135
    -0.07851541    -0.01010114     0.01651502
    -0.08211418    -0.01486498     0.02319869
    -0.09307751    -0.01763335     0.02709276
    -0.10627014    -0.02030377     0.02892263
    -0.11753328    -0.02276540     0.02886870
    -0.12351884    -0.02124581     0.02592886
    -0.11265653    -0.01396070     0.02097702
    -0.09299522     0.01747427     0.00630120
    -0.09157926     0.00263147     0.00640541
    -0.07517608     0.00147615     0.01548966
    -0.07838309     0.00215213     0.02140478
    -0.08944203     0.00256116     0.02511347
    -0.10396642     0.00062690     0.02708488
    -0.11940757    -0.00306987     0.02743132
    -0.13260774    -0.00578461     0.02633585
    -0.14088430     0.00088765     0.02476461
    -0.14053982     0.02022811     0.01498491
    -0.08899493     0.00541211     0.00609850
    -0.07110015     0.01380729     0.01382000
    -0.07218596     0.02054171     0.01812075
    -0.07971337     0.02412146     0.02127254
    -0.08947237     0.02335769     0.02273615
    -0.09983002     0.01870854     0.02322294
    -0.10948874     0.01189605     0.02223384
    -0.12373617     0.01323440     0.02203084
    -0.13629258     0.02149910     0.01646584
    -0.08575423     0.00820514     0.00528752
    -0.06708325     0.02762556     0.01097530
    -0.06654263     0.03911969     0.01447599
    -0.06608454     0.04498953     0.01626877
    -0.06530967     0.04469004     0.01713523
    -0.06328183     0.03762524     0.01639293
    -0.05728050     0.02503604     0.01487352
    -0.06645266     0.01901300     0.01318135
    -0.07021120     0.00833987     0.00644925
    -0.08036415     0.01141064     0.00469929
    -0.07557917     0.03853815     0.00806418
    -0.06517301     0.05380951     0.01093632
    -0.05266142     0.06231128     0.01183704
    -0.03781890     0.06183995     0.01153789
    -0.02206970     0.05240164     0.01047404
    -0.00496509     0.03181065     0.00799408
     0.00318498     0.01887829     0.00545655
     0.00000000     0.00000000     0.00000000
    -0.08899028    -0.01755476     0.01169409
    -0.08587627    -0.06659064     0.02593367
    -0.07527739    -0.09047989     0.03287203
    -0.06095187    -0.10311247     0.03620987
    -0.04395815    -0.10312233     0.03519305
    -0.02605822    -0.09138696     0.03226009
    -0.00717767    -0.06453528     0.02621247
     0.00561102    -0.04241977     0.01938084
     0.00000000     0.00000000     0.00000000
    -0.09190938    -0.01423506     0.01212347
    -0.07776627    -0.06010351     0.02830107
    -0.07503202    -0.08233085     0.03826933
    -0.06980597    -0.09355913     0.04187490
    -0.06288554    -0.09352757     0.04350078
    -0.05471902    -0.08247570     0.04197118
    -0.04469025    -0.05950358     0.03792114
    -0.04405091    -0.03866975     0.03003127
    -0.04831621    -0.00239141     0.00974556
    -0.09360573    -0.01136790     0.01201397
    -0.07882168    -0.04995940     0.03067846
    -0.07695751    -0.07004306     0.04181201
    -0.07748120    -0.08016265     0.04748397
    -0.07703460    -0.08007614     0.04946521
    -0.07486193    -0.07004220     0.04920412
    -0.07123271    -0.04816840     0.04441387
    -0.06945870    -0.02718239     0.03622822
    -0.08017246     0.00269012     0.01837914
    -0.09460727    -0.00856273     0.01189703
    -0.07980523    -0.03978411     0.03231876
    -0.07929615    -0.05628894     0.04507298
    -0.08249859    -0.06473204     0.05164548
    -0.08544434    -0.06470617     0.05419692
    -0.08524586    -0.05597668     0.05280036
    -0.07983107    -0.03621835     0.04791697
    -0.07586091    -0.01520643     0.03849527
    -0.08229288     0.00977671     0.01927923
    -0.09504530    -0.00562894     0.01165485
    -0.08042657    -0.02948889     0.03318133
    -0.08066518    -0.04211758     0.04656752
    -0.08508192    -0.04866887     0.05332856
    -0.08889610    -0.04932025     0.05587089
    -0.08778058    -0.04365029     0.05281291
    -0.07639932    -0.02889898     0.04657902
    -0.06403724    -0.00965421     0.03711291
    -0.05944277     0.01208547     0.01351742
    -0.09461234    -0.00280225     0.01134030
    -0.07965307    -0.01911681     0.03296431
    -0.08061465    -0.02757817     0.04631265
    -0.08606076    -0.03209355     0.05299678
    -0.09085902    -0.03404641     0.05515438
    -0.08996843    -0.03273100     0.05166685
    -0.07695413    -0.02726725     0.04031278
    -0.04520864    -0.02012845     0.02051813
     0.00000000     0.00000000     0.00000000
    -0.09313552     0.00000538     0.01098827
    -0.07797379    -0.00829986     0.03249718
    -0.07980963    -0.01207137     0.04534608
    -0.08723467    -0.01410359     0.05238141
    -0.09574608    -0.01657408     0.05548415
    -0.10166801    -0.01926807     0.05466665
    -0.10159547    -0.01948693     0.04860029
    -0.09073802    -0.01427412     0.03847326
    -0.07769700     0.01399975     0.00997769
    -0.09114071     0.00271501     0.01049274
    -0.07495562     0.00298782     0.03047656
    -0.07654772     0.00445293     0.04187292
    -0.08398261     0.00544357     0.04858635
    -0.09322673     0.00370302     0.05163202
    -0.10177184    -0.00032223     0.05132833
    -0.10660288    -0.00559359     0.04835475
    -0.11075630    -0.00195599     0.04370419
    -0.11458742     0.01498331     0.02394205
    -0.08859716     0.00536781     0.00984728
    -0.07152523     0.01477427     0.02690269
    -0.07125697     0.02185375     0.03553589
    -0.07564579     0.02577116     0.04125216
    -0.08083876     0.02528998     0.04339444
    -0.08535732     0.02018391     0.04359687
    -0.08790654     0.01058201     0.04096035
    -0.09749524     0.00948321     0.03911257
    -0.11133998     0.01679305     0.02656124
    -0.08535887     0.00800420     0.00928668
    -0.06840663     0.02784969     0.02123236
    -0.06672370     0.03926673     0.02823681
    -0.06421194     0.04533923     0.03171882
    -0.06086472     0.04549832     0.03323905
    -0.05595868     0.03841660     0.03163944
    -0.04678226     0.02386894     0.02801044
    -0.05317775     0.01672397     0.02435563
    -0.05770319     0.00705464     0.01004217
    -0.08093382     0.01075435     0.00838151
    -0.07613386     0.03793257     0.01596225
    -0.06567397     0.05328529     0.02102530
    -0.05261176     0.06185988     0.02306226
    -0.03789545     0.06181749     0.02286236
    -0.02202415     0.05258281     0.02078725
    -0.00469622     0.03199696     0.01582308
     0.00329851     0.01827407     0.01060692
     0.00000000     0.00000000     0.00000000
    -0.08942607    -0.01660377     0.01592420
    -0.08657054    -0.06292702     0.03694589
    -0.07594520    -0.08668071     0.04728892
    -0.06083288    -0.09943700     0.05135856
    -0.04374861    -0.10060197     0.05118849
    -0.02571826    -0.08942220     0.04739973
    -0.00661579    -0.06300880     0.03849115
     0.00640771    -0.04015621     0.02808306
     0.00000000     0.00000000     0.00000000
    -0.09146789    -0.01408564     0.01682418
    -0.07921372    -0.05669125     0.04153364
    -0.07596383    -0.07786487     0.05431878
    -0.06779413    -0.08956614     0.05961410
    -0.05705966    -0.09035183     0.06091990
    -0.04466847    -0.07981373     0.05800733
    -0.02927923    -0.05568989     0.05074095
    -0.02399054    -0.03455279     0.03875072
    -0.02929394    -0.00217915     0.00765019
    -0.09303749    -0.01171792     0.01716700
    -0.07892149    -0.04712530     0.04527908
    -0.07607186    -0.06555872     0.05996165
    -0.07298033    -0.07587159     0.06699459
    -0.06720246    -0.07609191     0.06841361
    -0.05799089    -0.06662164     0.06614482
    -0.04551519    -0.04485344     0.05808769
    -0.03760425    -0.02561144     0.04430810
    -0.04801750     0.00014125     0.01468269
    -0.09425698    -0.00902495     0.01707087
    -0.07990136    -0.03712606     0.04752369
    -0.07722485    -0.05175954     0.06473092
    -0.07625241    -0.05998513     0.07307808
    -0.07340305    -0.06007564     0.07545024
    -0.06602768    -0.05224101     0.07153653
    -0.05228711    -0.03407828     0.06285914
    -0.04210129    -0.01662109     0.04681783
    -0.04881807     0.00347739     0.01450768
    -0.09439269    -0.00607582     0.01694613
    -0.08060739    -0.02686631     0.04864170
    -0.07824304    -0.03737987     0.06679375
    -0.07804126    -0.04340155     0.07537077
    -0.07613937    -0.04400848     0.07836855
    -0.06949361    -0.03914441     0.07349818
    -0.05386597    -0.02631583     0.06335604
    -0.03842203    -0.01113523     0.04723871
    -0.03567947     0.00531351     0.00906292
    -0.09309639    -0.00305830     0.01644447
    -0.07974100    -0.01638081     0.04853196
    -0.07802186    -0.02266651     0.06654554
    -0.07869314    -0.02616349     0.07505702
    -0.07768044    -0.02786163     0.07778260
    -0.07177182    -0.02706986     0.07310701
    -0.05707657    -0.02243958     0.05849514
    -0.03243420    -0.01600210     0.03181512
     0.00000000     0.00000000     0.00000000
    -0.09178956    -0.00005206     0.01582637
    -0.07815000    -0.00535673     0.04767096
    -0.07733790    -0.00718962     0.06503535
    -0.07932986    -0.00786897     0.07388125
    -0.08064144    -0.01016931     0.07738718
    -0.07849393    -0.01291003     0.07483407
    -0.06987854    -0.01490937     0.06549812
    -0.05870007    -0.01253823     0.05032583
    -0.05484901     0.00995283     0.00913064
    -0.08962855     0.00286256     0.01499804
    -0.07558172     0.00588217     0.04494463
    -0.07478329     0.00854125     0.06029954
    -0.07693136     0.01086539     0.06874276
    -0.07848906     0.00918078     0.07144219
    -0.07718290     0.00484284     0.06907405
    -0.07097228    -0.00277913     0.06331836
    -0.06962291    -0.00329684     0.05411907
    -0.07700201     0.00891001     0.02244942
    -0.08806026     0.00532217     0.01405179
    -0.07231870     0.01661794     0.04005508
    -0.07068574     0.02418047     0.05176102
    -0.07074723     0.02934931     0.05877089
    -0.06930117     0.02875713     0.06047422
    -0.06569967     0.02309684     0.05936815
    -0.05896851     0.01082120     0.05443964
    -0.06205890     0.00614877     0.04917657
    -0.07456047     0.01004459     0.02506207
    -0.08507655     0.00771150     0.01299543
    -0.06973986     0.02820475     0.03166813
    -0.06732968     0.03958977     0.04071497
    -0.06179755     0.04680057     0.04572273
    -0.05461813     0.04695681     0.04729856
    -0.04585923     0.03979296     0.04463674
    -0.03241352     0.02307582     0.03862373
    -0.03540218     0.01331867     0.03353980
    -0.04098522     0.00525231     0.00958683
    -0.08177417     0.00995909     0.01178888
    -0.07684064     0.03690372     0.02376865
    -0.06628974     0.05267712     0.03058921
    -0.05299682     0.06150930     0.03373204
    -0.03803711     0.06208898     0.03426787
    -0.02207061     0.05317420     0.03148230
    -0.00460075     0.03245703     0.02361052
     0.00359918     0.01789493     0.01557430
     0.00000000     0.00000000     0.00000000
    -0.09003923    -0.01548901     0.01948003
    -0.08823097    -0.05797030     0.04644487
    -0.07678807    -0.08189517     0.05961854
    -0.06157670    -0.09467244     0.06534775
    -0.04400727    -0.09499077     0.06622622
    -0.02531607    -0.08375291     0.06174910
    -0.00577735    -0.05889258     0.04983650
     0.00794690    -0.03655887     0.03543347
     0.00000000     0.00000000     0.00000000
    -0.09135274    -0.01397283     0.02124045
    -0.08204663    -0.05210462     0.05338282
    -0.07764883    -0.07248245     0.06717939
    -0.06552698    -0.08415736     0.07303569
    -0.05099935    -0.08454888     0.07419041
    -0.03510403    -0.07379353     0.07015649
    -0.01441101    -0.05124958     0.05961365
    -0.00586639    -0.03061323     0.04502560
    -0.01090834    -0.00104231     0.00230922
    -0.09240544    -0.01201932     0.02225901
    -0.08072998    -0.04326781     0.05858719
    -0.07730976    -0.06055329     0.07480548
    -0.06867904    -0.06974310     0.08217801
    -0.05640456    -0.07000038     0.08262676
    -0.04146509    -0.06096700     0.07762000
    -0.02156876    -0.04191357     0.06649540
    -0.01154569    -0.02361773     0.04985584
    -0.01787877    -0.00093349     0.00499059
    -0.09358579    -0.00962348     0.02298382
    -0.08086069    -0.03318531     0.06143690
    -0.07752827    -0.04660466     0.08046176
    -0.07037723    -0.05393471     0.08912263
    -0.05992778    -0.05378899     0.09108993
    -0.04572352    -0.04652478     0.08405133
    -0.02528967    -0.03147463     0.07168659
    -0.01407738    -0.01670176     0.05236949
    -0.01824136    -0.00114224     0.00430931
    -0.09463468    -0.00668654     0.02290490
    -0.08135239    -0.02250573     0.06268234
    -0.07753175    -0.03148945     0.08283122
    -0.07085372    -0.03636169     0.09125827
    -0.06136365    -0.03671811     0.09460710
    -0.04821375    -0.03219343     0.08825877
    -0.02800111    -0.02185394     0.07455837
    -0.01322690    -0.01002761     0.05423254
    -0.01582126    -0.00185694     0.00221438
    -0.09435233    -0.00346949     0.02214955
    -0.08090266    -0.01188528     0.06236052
    -0.07708797    -0.01564218     0.08250254
    -0.07072658    -0.01791350     0.09095501
    -0.06168528    -0.01894885     0.09393147
    -0.04885603    -0.01810577     0.08853999
    -0.02979448    -0.01450205     0.07313283
    -0.01477394    -0.01021871     0.04484054
     0.00000000     0.00000000     0.00000000
    -0.09303743    -0.00028350     0.02125426
    -0.07981768    -0.00093621     0.06081974
    -0.07669489     0.00050348     0.08033598
    -0.07112133     0.00098335     0.08894799
    -0.06300737    -0.00041321     0.09251806
    -0.05138663    -0.00313335     0.08756624
    -0.03273644    -0.00571826     0.07467753
    -0.02124156    -0.00910309     0.05640041
    -0.02947414     0.00890094     0.00525758
    -0.09086079     0.00267094     0.01981755
    -0.07778472     0.01004909     0.05730056
    -0.07529145     0.01597298     0.07459387
    -0.06969378     0.01909705     0.08324421
    -0.06140543     0.01768832     0.08489148
    -0.04979261     0.01317332     0.07926445
    -0.03200884     0.00516759     0.07001372
    -0.02718572     0.00008141     0.05792078
    -0.03707416     0.00396670     0.01204052
    -0.08860631     0.00523732     0.01823195
    -0.07613908     0.02018029     0.05200515
    -0.07320309     0.02982885     0.06500470
    -0.06590078     0.03517440     0.07255472
    -0.05647089     0.03495841     0.07293825
    -0.04381996     0.02836034     0.06978926
    -0.02631367     0.01630642     0.06166920
    -0.02470062     0.00882724     0.05264060
    -0.03574958     0.00295885     0.01323603
    -0.08572064     0.00737505     0.01669653
    -0.07386022     0.02810646     0.04284813
    -0.07006237     0.04082267     0.05266049
    -0.05970170     0.04873448     0.05833096
    -0.04807131     0.04833818     0.06027884
    -0.03477528     0.04007621     0.05671689
    -0.01536171     0.02426505     0.04769813
    -0.01313655     0.01468188     0.04036837
    -0.02152181     0.00161167     0.00558431
    -0.08291791     0.00894113     0.01468857
    -0.07784771     0.03559770     0.03003038
    -0.06732169     0.05137754     0.03872951
    -0.05398361     0.06055399     0.04384737
    -0.03855918     0.06014288     0.04504834
    -0.02214790     0.05117383     0.04147494
    -0.00469937     0.03209962     0.03091266
     0.00400843     0.01781722     0.01984775
     0.00000000     0.00000000     0.00000000
    -0.09097612    -0.01453537     0.02253027
    -0.08921115    -0.05262575     0.05451258
    -0.07823344    -0.07410993     0.06921122
    -0.06247424    -0.08533006     0.07656489
    -0.04442098    -0.08578633     0.07738747
    -0.02479147    -0.07548599     0.07235341
    -0.00481308    -0.05314229     0.05908437
     0.01194851    -0.03210804     0.04156906
     0.00000000     0.00000000     0.00000000
    -0.09114689    -0.01345281     0.02519866
    -0.09001859    -0.04615376     0.06164004
    -0.07882334    -0.06560859     0.07743871
    -0.06308242    -0.07661919     0.08400207
    -0.04517348    -0.07662150     0.08497681
    -0.02427510    -0.06733508     0.07966397
    -0.00318299    -0.04753304     0.06603653
     0.01372375    -0.02731259     0.04713189
     0.00000000     0.00000000     0.00000000
    -0.09153328    -0.01202524     0.02777464
    -0.09146600    -0.03771877     0.06671016
    -0.07912544    -0.05377660     0.08475305
    -0.06276958    -0.06428361     0.09197308
    -0.04514008    -0.06615111     0.09128436
    -0.02309368    -0.05817203     0.08490505
    -0.00330981    -0.04044557     0.07137013
     0.01548340    -0.02218033     0.05112613
     0.00000000     0.00000000     0.00000000
    -0.09203327    -0.00992017     0.02979241
    -0.09232840    -0.02825919     0.06974452
    -0.07981707    -0.03981667     0.08933648
    -0.06231112    -0.04645273     0.09793936
    -0.04306643    -0.04941268     0.09861775
    -0.02221238    -0.04533407     0.09011598
    -0.00130152    -0.03137933     0.07521557
     0.01611658    -0.01653604     0.05388409
     0.00000000     0.00000000     0.00000000
    -0.09213251    -0.00711548     0.03086170
    -0.09268711    -0.01775140     0.07118045
    -0.08006535    -0.02400952     0.09075566
    -0.06193469    -0.02810214     0.09894532
    -0.04201241    -0.02926862     0.10152458
    -0.02151926    -0.02722055     0.09440796
     0.00012830    -0.02002471     0.07815263
     0.01718427    -0.01058879     0.05462476
     0.00000000     0.00000000     0.00000000
    -0.09173926    -0.00404230     0.03069979
    -0.09240018    -0.00642559     0.07075078
    -0.07963474    -0.00796880     0.09008713
    -0.06166441    -0.00853675     0.09783297
    -0.04136861    -0.00835899     0.10051000
    -0.02099951    -0.00736232     0.09471458
     0.00050264    -0.00594940     0.07872190
     0.01754822    -0.00519175     0.05178268
     0.00000000     0.00000000     0.00000000
    -0.09085685    -0.00088236     0.02926196
    -0.09131633     0.00466248     0.06844168
    -0.07866911     0.00797653     0.08735628
    -0.06082703     0.01075118     0.09557272
    -0.04146337     0.01190552     0.09782258
    -0.02097540     0.01225794     0.09128853
     0.00039485     0.00730029     0.07568516
     0.01748715     0.00049758     0.05481282
     0.00000000     0.00000000     0.00000000
    -0.08966917     0.00208959     0.02680290
    -0.08946017     0.01488299     0.06412414
    -0.07706872     0.02271550     0.08217937
    -0.06017462     0.02813699     0.09025852
    -0.04163047     0.03116860     0.09025340
    -0.02214945     0.02815551     0.08312365
    -0.00103835     0.01804919     0.06998696
     0.01611269     0.00705810     0.05373004
     0.00000000     0.00000000     0.00000000
    -0.08816345     0.00455384     0.02356138
    -0.08697064     0.02377926     0.05791261
    -0.07481039     0.03551966     0.07313953
    -0.06032505     0.04390627     0.07967434
    -0.04132057     0.04460389     0.07957917
    -0.02332000     0.03826659     0.07492545
    -0.00108057     0.02530623     0.06276690
     0.01493164     0.01277291     0.04789918
     0.00000000     0.00000000     0.00000000
    -0.08698552     0.00644567     0.02026909
    -0.08474481     0.03216116     0.04985206
    -0.07264716     0.04555171     0.06238185
    -0.05909268     0.05313966     0.06902876
    -0.04091101     0.05341372     0.07020181
    -0.02232065     0.04583474     0.06604412
    -0.00174122     0.03067373     0.05409053
     0.01279099     0.01832909     0.03957388
     0.00000000     0.00000000     0.00000000
    -0.08508551     0.00782419     0.01753982
    -0.08031287     0.03500074     0.03768731
    -0.06965205     0.04995483     0.04854323
    -0.05580603     0.05774864     0.05509524
    -0.03961071     0.05810964     0.05646488
    -0.02230483     0.04963279     0.05210727
    -0.00380875     0.03249964     0.04068054
     0.00738993     0.02061146     0.02863338
     0.00000000     0.00000000     0.00000000
     0.00000000     0.00000000     0.00000000
     0.00000000     0.00000000     0.00000000
     0.00000000     0.00000000     0.00000000
     0.00000000     0.00000000     0.00000000
     0.00000000     0.00000000     0.00000000
     0.00000000     0.00000000     0.00000000
     0.00000000     0.00000000     0.00000000
     0.00000000     0.00000000     0.00000000
     0.00000000     0.00000000     0.00000000
     0.00000000     0.00000000     0.00000000
     0.00000000     0.00000000     0.00000000
    -0.04216916     0.00726171     0.00000000
    -0.06397641    -0.01303871     0.00000000
    -0.06553905    -0.00201089     0.00000000
    -0.06005949    -0.00212073     0.00000000
    -0.05255795    -0.00158810     0.00000000
    -0.04422303    -0.00039401     0.00000000
    -0.03569189     0.00127497     0.00000000
    -0.02717160     0.00317623     0.00000000
    -0.01873636     0.00501958     0.00000000
    -0.01041010     0.00667894     0.00000000
     0.00000000     0.00000000     0.00000000
    -0.12876919     0.00567296     0.00000000
    -0.13174885    -0.01662626     0.00000000
    -0.12694065    -0.01665146     0.00000000
    -0.11172253    -0.01750189     0.00000000
    -0.09395898    -0.01622989     0.00000000
    -0.07612963    -0.01315329     0.00000000
    -0.05876811    -0.00940953     0.00000000
    -0.04204573    -0.00542318     0.00000000
    -0.02613857    -0.00139547     0.00000000
    -0.01144696     0.00144877     0.00000000
     0.00000000     0.00000000     0.00000000
    -0.15395370     0.01866496     0.00000000
    -0.14608341    -0.00594481     0.00000000
    -0.13136164    -0.02784560     0.00000000
    -0.11186275    -0.03185506     0.00000000
    -0.09261086    -0.02947513     0.00000000
    -0.07398749    -0.02563637     0.00000000
    -0.05626811    -0.02123388     0.00000000
    -0.03939867    -0.01672874     0.00000000
    -0.02342217    -0.01235062     0.00000000
    -0.00919276    -0.00733910     0.00000000
     0.00000000     0.00000000     0.00000000
    -0.07737322     0.01510283     0.00000000
    -0.08920540     0.00642498     0.00000000
    -0.06733380    -0.02445863     0.00000000
    -0.05601549    -0.02446263     0.00000000
    -0.04623071    -0.02322233     0.00000000
    -0.03737847    -0.02098773     0.00000000
    -0.02901126    -0.01864315     0.00000000
    -0.02092072    -0.01629280     0.00000000
    -0.01306649    -0.01381728     0.00000000
    -0.00539768    -0.01114739     0.00000000
     0.00000000     0.00000000     0.00000000
     0.00000000     0.00000000     0.00000000
     0.00000000     0.00000000     0.00000000
     0.00000000     0.00000000     0.00000000
     0.00000000     0.00000000     0.00000000
     0.00000000     0.00000000     0.00000000
     0.00000000     0.00000000     0.00000000
     0.00000000     0.00000000     0.00000000
     0.00000000     0.00000000     0.00000000
     0.00000000     0.00000000     0.00000000
     0.00000000     0.00000000     0.00000000
     0.00000000     0.00000000     0.00000000
     0.00000000     0.00000000     0.00000000
     0.00000000     0.00000000     0.00000000
     0.00000000     0.00000000     0.00000000
     0.00000000     0.00000000     0.00000000
     0.00000000     0.00000000     0.00000000
     0.00000000     0.00000000     0.00000000
     0.00000000     0.00000000     0.00000000
     0.00000000     0.00000000     0.00000000
     0.00000000     0.00000000     0.00000000
     0.00000000     0.00000000     0.00000000
     0.00000000     0.00000000     0.00000000
    -0.03887459     0.00687068     0.00529932
    -0.06055267    -0.01235249     0.00749733
    -0.06137354    -0.00149669    -0.00029062
    -0.05594222    -0.00175796    -0.00253461
    -0.04893362    -0.00132580    -0.00325392
    -0.04124850    -0.00028071    -0.00338719
    -0.03341571     0.00121659    -0.00333623
    -0.02557428     0.00295562    -0.00322940
    -0.01778076     0.00466359    -0.00302268
    -0.01000718     0.00628992    -0.00247281
     0.00000000     0.00000000     0.00000000
    -0.12038680     0.00505917     0.01340419
    -0.12537812    -0.01592331     0.00770695
    -0.12033303    -0.01568992    -0.00184974
    -0.10547104    -0.01639772    -0.00601316
    -0.08856584    -0.01520751    -0.00747793
    -0.07182744    -0.01235268    -0.00761096
    -0.05562189    -0.00888360    -0.00729570
    -0.04000255    -0.00516617    -0.00677500
    -0.02506805    -0.00136971    -0.00583379
    -0.01109812     0.00135948    -0.00387891
     0.00000000     0.00000000     0.00000000
    -0.14405371     0.01745050     0.01375198
    -0.13911660    -0.00562060     0.00635771
    -0.12448286    -0.02660383    -0.00237862
    -0.10552630    -0.03024559    -0.00679788
    -0.08723543    -0.02791278    -0.00804849
    -0.06976989    -0.02428523    -0.00797017
    -0.05324376    -0.02016041    -0.00750215
    -0.03749079    -0.01594370    -0.00689048
    -0.02248185    -0.01183850    -0.00590213
    -0.00893676    -0.00708472    -0.00392149
     0.00000000     0.00000000     0.00000000
    -0.07085663     0.01371416     0.00585617
    -0.08390553     0.00608943     0.00481757
    -0.06245253    -0.02309797    -0.00278168
    -0.05180794    -0.02284920    -0.00383255
    -0.04280617    -0.02171366    -0.00377980
    -0.03473329    -0.01965319    -0.00347754
    -0.02710718    -0.01749591    -0.00322449
    -0.01968853    -0.01533220    -0.00304235
    -0.01244190    -0.01304922    -0.00282879
    -0.00525048    -0.01061681    -0.00232855
     0.00000000     0.00000000     0.00000000
     0.00000000     0.00000000     0.00000000
     0.00000000     0.00000000     0.00000000
     0.00000000     0.00000000     0.00000000
     0.00000000     0.00000000     0.00000000
     0.00000000     0.00000000     0.00000000
     0.00000000     0.00000000     0.00000000
     0.00000000     0.00000000     0.00000000
     0.00000000     0.00000000     0.00000000
     0.00000000     0.00000000     0.00000000
     0.00000000     0.00000000     0.00000000
     0.00000000     0.00000000     0.00000000
     0.00000000     0.00000000     0.00000000
     0.00000000     0.00000000     0.00000000
     0.00000000     0.00000000     0.00000000
     0.00000000     0.00000000     0.00000000
     0.00000000     0.00000000     0.00000000
     0.00000000     0.00000000     0.00000000
     0.00000000     0.00000000     0.00000000
     0.00000000     0.00000000     0.00000000
     0.00000000     0.00000000     0.00000000
     0.00000000     0.00000000     0.00000000
     0.00000000     0.00000000     0.00000000
    -0.03057072     0.00628714     0.00810853
    -0.05155487    -0.01012496     0.01258367
    -0.05026566    -0.00013487    -0.00104982
    -0.04520237    -0.00078938    -0.00442482
    -0.03964095    -0.00064621    -0.00537650
    -0.03373220    -0.00007087    -0.00549417
    -0.02769640     0.00100400    -0.00539716
    -0.02160670     0.00235096    -0.00524805
    -0.01541455     0.00368303    -0.00496909
    -0.00904694     0.00520968    -0.00418250
     0.00000000     0.00000000     0.00000000
    -0.09641428     0.00376992     0.02167579
    -0.10680611    -0.01348354     0.01386881
    -0.10081091    -0.01275309    -0.00390485
    -0.08717835    -0.01314831    -0.01062632
    -0.07292939    -0.01228678    -0.01262879
    -0.05944825    -0.01014637    -0.01260601
    -0.04657303    -0.00746102    -0.01202806
    -0.03411883    -0.00450249    -0.01122838
    -0.02195135    -0.00137070    -0.00981812
    -0.01009191     0.00100937    -0.00672027
     0.00000000     0.00000000     0.00000000
    -0.11544651     0.01374798     0.02216625
    -0.11863258    -0.00467264     0.01175920
    -0.10412496    -0.02269075    -0.00488432
    -0.08697989    -0.02536175    -0.01203823
    -0.07167662    -0.02323350    -0.01360859
    -0.05769345    -0.02025345    -0.01320974
    -0.04460619    -0.01694511    -0.01237508
    -0.03204688    -0.01357971    -0.01142721
    -0.01979204    -0.01025478    -0.00994138
    -0.00825059    -0.00625315    -0.00680170
     0.00000000     0.00000000     0.00000000
    -0.05425796     0.01030283     0.00813647
    -0.07009343     0.00493447     0.00816126
    -0.04985796    -0.01933094    -0.00506249
    -0.04109174    -0.01868330    -0.00642914
    -0.03421026    -0.01789133    -0.00613723
    -0.02822639    -0.01625110    -0.00557834
    -0.02244896    -0.01458284    -0.00518262
    -0.01671656    -0.01291582    -0.00492643
    -0.01097715    -0.01107321    -0.00464307
    -0.00498706    -0.00922756    -0.00393781
     0.00000000     0.00000000     0.00000000
     0.00000000     0.00000000     0.00000000
     0.00000000     0.00000000     0.00000000
     0.00000000     0.00000000     0.00000000
     0.00000000     0.00000000     0.00000000
     0.00000000     0.00000000     0.00000000
     0.00000000     0.00000000     0.00000000
     0.00000000     0.00000000     0.00000000
     0.00000000     0.00000000     0.00000000
     0.00000000     0.00000000     0.00000000
     0.00000000     0.00000000     0.00000000
     0.00000000     0.00000000     0.00000000
     0.00000000     0.00000000     0.00000000
     0.00000000     0.00000000     0.00000000
     0.00000000     0.00000000     0.00000000
     0.00000000     0.00000000     0.00000000
     0.00000000     0.00000000     0.00000000
     0.00000000     0.00000000     0.00000000
     0.00000000     0.00000000     0.00000000
     0.00000000     0.00000000     0.00000000
     0.00000000     0.00000000     0.00000000
     0.00000000     0.00000000     0.00000000
     0.00000000     0.00000000     0.00000000
    -0.01802409     0.00559986     0.00639854
    -0.03712111    -0.00664418     0.01324098
    -0.03293993     0.00182394    -0.00220739
    -0.02915635     0.00067895    -0.00484809
    -0.02617065     0.00005909    -0.00547088
    -0.02286281     0.00016097    -0.00553998
    -0.01934090     0.00070993    -0.00543539
    -0.01566105     0.00152210    -0.00530508
    -0.01187818     0.00244392    -0.00514968
    -0.00749167     0.00362523    -0.00462124
     0.00000000     0.00000000     0.00000000
    -0.05964056     0.00313284     0.01959221
    -0.07667739    -0.00920584     0.01609842
    -0.06891447    -0.00775066    -0.00599926
    -0.05798429    -0.00778628    -0.01191617
    -0.04868916    -0.00785196    -0.01315927
    -0.04048629    -0.00677013    -0.01286468
    -0.03268926    -0.00522515    -0.01222924
    -0.02497182    -0.00338761    -0.01152164
    -0.01708986    -0.00122478    -0.01041736
    -0.00840168     0.00052529    -0.00762227
     0.00000000     0.00000000     0.00000000
    -0.07116315     0.00916683     0.01949203
    -0.08510432    -0.00281332     0.01416879
    -0.07067910    -0.01590009    -0.00718830
    -0.05717190    -0.01741956    -0.01351213
    -0.04753251    -0.01581250    -0.01416387
    -0.03917854    -0.01398896    -0.01347381
    -0.03131900    -0.01198587    -0.01258476
    -0.02353877    -0.00991872    -0.01173524
    -0.01552288    -0.00787251    -0.01056156
    -0.00704621    -0.00492948    -0.00772788
     0.00000000     0.00000000     0.00000000
    -0.03084186     0.00624905     0.00461952
    -0.04922901     0.00351779     0.00873667
    -0.03098453    -0.01352297    -0.00628113
    -0.02540095    -0.01270261    -0.00668322
    -0.02211793    -0.01219808    -0.00607793
    -0.01897118    -0.01128801    -0.00553737
    -0.01569156    -0.01031902    -0.00517368
    -0.01224272    -0.00932342    -0.00495944
    -0.00868161    -0.00828308    -0.00480552
    -0.00447855    -0.00709841    -0.00435628
     0.00000000     0.00000000     0.00000000
     0.00000000     0.00000000     0.00000000
     0.00000000     0.00000000     0.00000000
     0.00000000     0.00000000     0.00000000
     0.00000000     0.00000000     0.00000000
     0.00000000     0.00000000     0.00000000
     0.00000000     0.00000000     0.00000000
     0.00000000     0.00000000     0.00000000
     0.00000000     0.00000000     0.00000000
     0.00000000     0.00000000     0.00000000
     0.00000000     0.00000000     0.00000000
     0.00000000     0.00000000     0.00000000
     0.00000000     0.00000000     0.00000000
     0.00000000     0.00000000     0.00000000
     0.00000000     0.00000000     0.00000000
     0.00000000     0.00000000     0.00000000
     0.00000000     0.00000000     0.00000000
     0.00000000     0.00000000     0.00000000
     0.00000000     0.00000000     0.00000000
     0.00000000     0.00000000     0.00000000
     0.00000000     0.00000000     0.00000000
     0.00000000     0.00000000     0.00000000
     0.00000000     0.00000000     0.00000000
    -0.00474772     0.00551128     0.00052875
    -0.01836266    -0.00252248     0.00804533
    -0.01166483     0.00339368    -0.00250804
    -0.01142652     0.00054902    -0.00302718
    -0.01136503     0.00028760    -0.00343026
    -0.01068628     0.00013766    -0.00343541
    -0.00965774     0.00031791    -0.00338931
    -0.00840653     0.00062532    -0.00334975
    -0.00703671     0.00084202    -0.00323010
    -0.00579295     0.00183440    -0.00339966
     0.00000000     0.00000000     0.00000000
    -0.01758820     0.00459424     0.00438996
    -0.03714406    -0.00300058     0.01081209
    -0.02729087    -0.00128818    -0.00621266
    -0.02306446    -0.00238997    -0.00746810
    -0.02065038    -0.00310086    -0.00804751
    -0.01854426    -0.00295922    -0.00775438
    -0.01619200    -0.00254211    -0.00744346
    -0.01355792    -0.00193241    -0.00715536
    -0.01059894    -0.00103037    -0.00664604
    -0.00662230    -0.00002874    -0.00592261
     0.00000000     0.00000000     0.00000000
    -0.02080816     0.00474239     0.00326311
    -0.04100997    -0.00027828     0.00975094
    -0.02686504    -0.00642165    -0.00720833
    -0.02188900    -0.00705900    -0.00841258
    -0.01979206    -0.00680544    -0.00857939
    -0.01778337    -0.00654495    -0.00808612
    -0.01548912    -0.00601211    -0.00764617
    -0.01285897    -0.00532426    -0.00728976
    -0.00980097    -0.00463503    -0.00674605
    -0.00580962    -0.00344943    -0.00601462
     0.00000000     0.00000000     0.00000000
    -0.00626458     0.00141984    -0.00327694
    -0.02342437     0.00182446     0.00513488
    -0.00860301    -0.00609408    -0.00504808
    -0.00934755    -0.00485010    -0.00385432
    -0.00928299    -0.00551697    -0.00367386
    -0.00880225    -0.00542788    -0.00334993
    -0.00786929    -0.00523653    -0.00318690
    -0.00668774    -0.00493809    -0.00311097
    -0.00545332    -0.00445125    -0.00299857
    -0.00394881    -0.00467640    -0.00320020
     0.00000000     0.00000000     0.00000000
     0.00000000     0.00000000     0.00000000
     0.00000000     0.00000000     0.00000000
     0.00000000     0.00000000     0.00000000
     0.00000000     0.00000000     0.00000000
     0.00000000     0.00000000     0.00000000
     0.00000000     0.00000000     0.00000000
     0.00000000     0.00000000     0.00000000
     0.00000000     0.00000000     0.00000000
     0.00000000     0.00000000     0.00000000
     0.00000000     0.00000000     0.00000000
     0.00000000     0.00000000     0.00000000
     0.00000000     0.00000000     0.00000000
     0.00000000     0.00000000     0.00000000
     0.00000000     0.00000000     0.00000000
     0.00000000     0.00000000     0.00000000
     0.00000000     0.00000000     0.00000000
     0.00000000     0.00000000     0.00000000
     0.00000000     0.00000000     0.00000000
     0.00000000     0.00000000     0.00000000
     0.00000000     0.00000000     0.00000000
     0.00000000     0.00000000     0.00000000
     0.00000000     0.00000000     0.00000000
     0.00000000     0.00000000     0.00000000
     0.00000000     0.00000000     0.00000000
     0.00000000     0.00000000     0.00000000
     0.00000000     0.00000000     0.00000000
     0.00000000     0.00000000     0.00000000
     0.00000000     0.00000000     0.00000000
     0.00000000     0.00000000     0.00000000
     0.00000000     0.00000000     0.00000000
     0.00000000     0.00000000     0.00000000
     0.00000000     0.00000000     0.00000000
     0.00000000     0.00000000     0.00000000
     0.00000000     0.00000000     0.00000000
     0.00000000     0.00000000     0.00000000
     0.00000000     0.00000000     0.00000000
     0.00000000     0.00000000     0.00000000
     0.00000000     0.00000000     0.00000000
     0.00000000     0.00000000     0.00000000
     0.00000000     0.00000000     0.00000000
     0.00000000     0.00000000     0.00000000
     0.00000000     0.00000000     0.00000000
     0.00000000     0.00000000     0.00000000
     0.00000000     0.00000000     0.00000000
     0.00000000     0.00000000     0.00000000
     0.00000000     0.00000000     0.00000000
     0.00000000     0.00000000     0.00000000
     0.00000000     0.00000000     0.00000000
     0.00000000     0.00000000     0.00000000
     0.00000000     0.00000000     0.00000000
     0.00000000     0.00000000     0.00000000
     0.00000000     0.00000000     0.00000000
     0.00000000     0.00000000     0.00000000
     0.00000000     0.00000000     0.00000000
     0.00000000     0.00000000     0.00000000
     0.00000000     0.00000000     0.00000000
     0.00000000     0.00000000     0.00000000
     0.00000000     0.00000000     0.00000000
     0.00000000     0.00000000     0.00000000
     0.00000000     0.00000000     0.00000000
     0.00000000     0.00000000     0.00000000
     0.00000000     0.00000000     0.00000000
     0.00000000     0.00000000     0.00000000
     0.00000000     0.00000000     0.00000000
     0.00000000     0.00000000     0.00000000
     0.00000000     0.00000000     0.00000000
     0.00000000     0.00000000     0.00000000
     0.00000000     0.00000000     0.00000000
     0.00000000     0.00000000     0.00000000
     0.00000000     0.00000000     0.00000000
     0.00000000     0.00000000     0.00000000
     0.00000000     0.00000000     0.00000000
     0.00000000     0.00000000     0.00000000
     0.00000000     0.00000000     0.00000000
     0.00000000     0.00000000     0.00000000
     0.00000000     0.00000000     0.00000000
     0.00000000     0.00000000     0.00000000
     0.00000000     0.00000000     0.00000000
     0.00000000     0.00000000     0.00000000
     0.00000000     0.00000000     0.00000000
     0.00000000     0.00000000     0.00000000
     0.00000000     0.00000000     0.00000000
     0.00000000     0.00000000     0.00000000
     0.00000000     0.00000000     0.00000000
     0.00000000     0.00000000     0.00000000
    -0.08508195     0.01040951     0.00000000
    -0.08146982     0.01546469     0.00000000
    -0.06720494     0.01152870     0.00000000
    -0.05231159     0.00833548     0.00000000
    -0.03947765     0.00519590     0.00000000
    -0.02844450     0.00244000     0.00000000
    -0.01857974     0.00000777     0.00000000
    -0.00959290    -0.00261182     0.00000000
     0.00000000     0.00000000     0.00000000
    -0.12475122     0.01874819     0.00000000
    -0.11739576     0.02599074     0.00000000
    -0.09757140     0.02346986     0.00000000
    -0.07652065     0.01844795     0.00000000
    -0.05737031     0.01331793     0.00000000
    -0.04025032     0.00863946     0.00000000
    -0.02470317     0.00432640     0.00000000
    -0.01058780     0.00064936     0.00000000
     0.00000000     0.00000000     0.00000000
    -0.12285149     0.01648733     0.00000000
    -0.11242630     0.03092690     0.00000000
    -0.09207529     0.02913578     0.00000000
    -0.07220502     0.02391885     0.00000000
    -0.05413694     0.01866103     0.00000000
    -0.03785376     0.01382029     0.00000000
    -0.02284818     0.00949320     0.00000000
    -0.00920612     0.00532309     0.00000000
     0.00000000     0.00000000     0.00000000
    -0.08117335     0.00791885     0.00000000
    -0.06597199     0.02440338     0.00000000
    -0.05372716     0.02109939     0.00000000
    -0.04240615     0.01813362     0.00000000
    -0.03247783     0.01491734     0.00000000
    -0.02340904     0.01208547     0.00000000
    -0.01488047     0.00940326     0.00000000
    -0.00658905     0.00722601     0.00000000
     0.00000000     0.00000000     0.00000000
     0.00000000     0.00000000     0.00000000
     0.00000000     0.00000000     0.00000000
     0.00000000     0.00000000     0.00000000
     0.00000000     0.00000000     0.00000000
     0.00000000     0.00000000     0.00000000
     0.00000000     0.00000000     0.00000000
     0.00000000     0.00000000     0.00000000
     0.00000000     0.00000000     0.00000000
     0.00000000     0.00000000     0.00000000
     0.00000000     0.00000000     0.00000000
     0.00000000     0.00000000     0.00000000
     0.00000000     0.00000000     0.00000000
     0.00000000     0.00000000     0.00000000
     0.00000000     0.00000000     0.00000000
     0.00000000     0.00000000     0.00000000
     0.00000000     0.00000000     0.00000000
     0.00000000     0.00000000     0.00000000
     0.00000000     0.00000000     0.00000000
    -0.07771916     0.01022961     0.00989984
    -0.07329536     0.01362141    -0.00308462
    -0.06064101     0.01048723    -0.00491318
    -0.04772589     0.00768348    -0.00408800
    -0.03643734     0.00487796    -0.00306937
    -0.02654078     0.00235999    -0.00241992
    -0.01752928     0.00010231    -0.00205096
    -0.00918875    -0.00238587    -0.00170688
     0.00000000     0.00000000     0.00000000
    -0.11569235     0.01846867     0.01319138
    -0.10787460     0.02384200    -0.00329176
    -0.08961507     0.02147596    -0.00612061
    -0.07065953     0.01701893    -0.00595893
    -0.05341631     0.01240870    -0.00489987
    -0.03783864     0.00814708    -0.00405455
    -0.02348335     0.00414496    -0.00339034
    -0.01020484     0.00067124    -0.00233114
     0.00000000     0.00000000     0.00000000
    -0.11466205     0.01626818     0.01162426
    -0.10393781     0.02874427    -0.00255274
    -0.08501723     0.02684282    -0.00590382
    -0.06696330     0.02212923    -0.00556112
    -0.05056756     0.01739350    -0.00462276
    -0.03567273     0.01299357    -0.00386816
    -0.02176623     0.00901194    -0.00327673
    -0.00890412     0.00509664    -0.00227093
     0.00000000     0.00000000     0.00000000
    -0.07549736     0.00789975     0.00759508
    -0.06037190     0.02256520    -0.00260961
    -0.04927683     0.01925910    -0.00357606
    -0.03914619     0.01665600    -0.00303519
    -0.03021919     0.01380220    -0.00240093
    -0.02197088     0.01125961    -0.00202395
    -0.01411891     0.00881802    -0.00181507
    -0.00637818     0.00683318    -0.00157768
     0.00000000     0.00000000     0.00000000
     0.00000000     0.00000000     0.00000000
     0.00000000     0.00000000     0.00000000
     0.00000000     0.00000000     0.00000000
     0.00000000     0.00000000     0.00000000
     0.00000000     0.00000000     0.00000000
     0.00000000     0.00000000     0.00000000
     0.00000000     0.00000000     0.00000000
     0.00000000     0.00000000     0.00000000
     0.00000000     0.00000000     0.00000000
     0.00000000     0.00000000     0.00000000
     0.00000000     0.00000000     0.00000000
     0.00000000     0.00000000     0.00000000
     0.00000000     0.00000000     0.00000000
     0.00000000     0.00000000     0.00000000
     0.00000000     0.00000000     0.00000000
     0.00000000     0.00000000     0.00000000
     0.00000000     0.00000000     0.00000000
     0.00000000     0.00000000     0.00000000
    -0.06013408     0.00962264     0.01525254
    -0.05341990     0.00912655    -0.00508687
    -0.04482997     0.00797236    -0.00766983
    -0.03675027     0.00615755    -0.00630744
    -0.02917464     0.00420798    -0.00477103
    -0.02196581     0.00221131    -0.00384239
    -0.01499377     0.00038816    -0.00333120
    -0.00823894    -0.00175404    -0.00286980
     0.00000000     0.00000000     0.00000000
    -0.09215672     0.01737418     0.02103999
    -0.08281348     0.01809471    -0.00576000
    -0.06854923     0.01621660    -0.00994625
    -0.05506516     0.01329698    -0.00944999
    -0.04284992     0.01007094    -0.00775499
    -0.03132129     0.00687974    -0.00651914
    -0.02013146     0.00369292    -0.00558960
    -0.00915020     0.00078711    -0.00398888
     0.00000000     0.00000000     0.00000000
    -0.09305697     0.01547794     0.01893636
    -0.08133512     0.02279882    -0.00466039
    -0.06612826     0.02076242    -0.00971110
    -0.05290875     0.01733203    -0.00890983
    -0.04099980     0.01396106    -0.00737102
    -0.02977992     0.01072198    -0.00625173
    -0.01880814     0.00765792    -0.00542173
    -0.00810130     0.00442844    -0.00389777
     0.00000000     0.00000000     0.00000000
    -0.06150833     0.00783801     0.01230241
    -0.04649322     0.01789338    -0.00452685
    -0.03831940     0.01477963    -0.00578580
    -0.03121270     0.01307122    -0.00480915
    -0.02479376     0.01105898    -0.00379622
    -0.01849711     0.00923913    -0.00324920
    -0.01229135     0.00735965    -0.00296519
    -0.00592655     0.00582749    -0.00266226
     0.00000000     0.00000000     0.00000000
     0.00000000     0.00000000     0.00000000
     0.00000000     0.00000000     0.00000000
     0.00000000     0.00000000     0.00000000
     0.00000000     0.00000000     0.00000000
     0.00000000     0.00000000     0.00000000
     0.00000000     0.00000000     0.00000000
     0.00000000     0.00000000     0.00000000
     0.00000000     0.00000000     0.00000000
     0.00000000     0.00000000     0.00000000
     0.00000000     0.00000000     0.00000000
     0.00000000     0.00000000     0.00000000
     0.00000000     0.00000000     0.00000000
     0.00000000     0.00000000     0.00000000
     0.00000000     0.00000000     0.00000000
     0.00000000     0.00000000     0.00000000
     0.00000000     0.00000000     0.00000000
     0.00000000     0.00000000     0.00000000
     0.00000000     0.00000000     0.00000000
    -0.03829131     0.00754128     0.01428693
    -0.02898358     0.00371467    -0.00546793
    -0.02552147     0.00473560    -0.00722597
    -0.02320097     0.00435982    -0.00585262
    -0.01973141     0.00321758    -0.00456985
    -0.01561998     0.00191026    -0.00378932
    -0.01134517     0.00062208    -0.00340479
    -0.00677813    -0.00092303    -0.00314573
     0.00000000     0.00000000     0.00000000
    -0.06093571     0.01393262     0.02079811
    -0.04918209     0.01019479    -0.00694177
    -0.04044836     0.00924383    -0.00984784
    -0.03449514     0.00853063    -0.00899068
    -0.02862836     0.00692743    -0.00745961
    -0.02221195     0.00507541    -0.00644217
    -0.01531586     0.00296238    -0.00578019
    -0.00753443     0.00089622    -0.00446259
     0.00000000     0.00000000     0.00000000
    -0.06321211     0.01284516     0.01937617
    -0.05000318     0.01430288    -0.00599333
    -0.04000369     0.01260420    -0.00982846
    -0.03385512     0.01091785    -0.00860064
    -0.02781040     0.00934223    -0.00716924
    -0.02136890     0.00756137    -0.00622493
    -0.01445557     0.00575995    -0.00563540
    -0.00681835     0.00345148    -0.00438077
     0.00000000     0.00000000     0.00000000
    -0.04237142     0.00687161     0.01257457
    -0.02757528     0.01140973    -0.00532765
    -0.02350483     0.00900311    -0.00575071
    -0.02073495     0.00829753    -0.00463562
    -0.01728049     0.00742605    -0.00373386
    -0.01343721     0.00642299    -0.00324994
    -0.00950104     0.00536217    -0.00305148
    -0.00514391     0.00437836    -0.00293152
     0.00000000     0.00000000     0.00000000
     0.00000000     0.00000000     0.00000000
     0.00000000     0.00000000     0.00000000
     0.00000000     0.00000000     0.00000000
     0.00000000     0.00000000     0.00000000
     0.00000000     0.00000000     0.00000000
     0.00000000     0.00000000     0.00000000
     0.00000000     0.00000000     0.00000000
     0.00000000     0.00000000     0.00000000
     0.00000000     0.00000000     0.00000000
     0.00000000     0.00000000     0.00000000
     0.00000000     0.00000000     0.00000000
     0.00000000     0.00000000     0.00000000
     0.00000000     0.00000000     0.00000000
     0.00000000     0.00000000     0.00000000
     0.00000000     0.00000000     0.00000000
     0.00000000     0.00000000     0.00000000
     0.00000000     0.00000000     0.00000000
     0.00000000     0.00000000     0.00000000
    -0.01767690     0.00250394     0.00837434
    -0.00659963    -0.00034554    -0.00396381
    -0.00928393     0.00262923    -0.00394016
    -0.01050336     0.00229942    -0.00334273
    -0.00982407     0.00186957    -0.00272867
    -0.00826032     0.00119401    -0.00237031
    -0.00642100     0.00069801    -0.00214728
    -0.00499786    -0.00012284    -0.00227388
     0.00000000     0.00000000     0.00000000
    -0.02776792     0.00668498     0.01203315
    -0.01388169     0.00210417    -0.00568010
    -0.01396283     0.00344565    -0.00527402
    -0.01463807     0.00392404    -0.00505954
    -0.01379924     0.00351822    -0.00432200
    -0.01170758     0.00283369    -0.00393716
    -0.00904860     0.00193575    -0.00363415
    -0.00567796     0.00094605    -0.00338151
     0.00000000     0.00000000     0.00000000
    -0.03005272     0.00709471     0.01186074
    -0.01525537     0.00464502    -0.00537008
    -0.01441798     0.00427920    -0.00541192
    -0.01479047     0.00463562    -0.00490723
    -0.01363270     0.00452312    -0.00420797
    -0.01142071     0.00395302    -0.00383599
    -0.00868249     0.00327669    -0.00356097
    -0.00531445     0.00232390    -0.00333836
     0.00000000     0.00000000     0.00000000
    -0.02057701     0.00453407     0.00783746
    -0.00690393     0.00400948    -0.00418078
    -0.00967775     0.00292205    -0.00325115
    -0.00978041     0.00370200    -0.00277855
    -0.00880826     0.00360945    -0.00228122
    -0.00720937     0.00331608    -0.00206033
    -0.00554555     0.00277766    -0.00192837
    -0.00408699     0.00274458    -0.00212558
     0.00000000     0.00000000     0.00000000
     0.00000000     0.00000000     0.00000000
     0.00000000     0.00000000     0.00000000
     0.00000000     0.00000000     0.00000000
     0.00000000     0.00000000     0.00000000
     0.00000000     0.00000000     0.00000000
     0.00000000     0.00000000     0.00000000
     0.00000000     0.00000000     0.00000000
     0.00000000     0.00000000     0.00000000
     0.00000000     0.00000000     0.00000000
     0.00000000     0.00000000     0.00000000
     0.00000000     0.00000000     0.00000000
     0.00000000     0.00000000     0.00000000
     0.00000000     0.00000000     0.00000000
     0.00000000     0.00000000     0.00000000
     0.00000000     0.00000000     0.00000000
     0.00000000     0.00000000     0.00000000
     0.00000000     0.00000000     0.00000000
     0.00000000     0.00000000     0.00000000
     0.00000000     0.00000000     0.00000000
     0.00000000     0.00000000     0.00000000
     0.00000000     0.00000000     0.00000000
     0.00000000     0.00000000     0.00000000
     0.00000000     0.00000000     0.00000000
     0.00000000     0.00000000     0.00000000
     0.00000000     0.00000000     0.00000000
     0.00000000     0.00000000     0.00000000
     0.00000000     0.00000000     0.00000000
     0.00000000     0.00000000     0.00000000
     0.00000000     0.00000000     0.00000000
     0.00000000     0.00000000     0.00000000
     0.00000000     0.00000000     0.00000000
     0.00000000     0.00000000     0.00000000
     0.00000000     0.00000000     0.00000000
     0.00000000     0.00000000     0.00000000
     0.00000000     0.00000000     0.00000000
     0.00000000     0.00000000     0.00000000
     0.00000000     0.00000000     0.00000000
     0.00000000     0.00000000     0.00000000
     0.00000000     0.00000000     0.00000000
     0.00000000     0.00000000     0.00000000
     0.00000000     0.00000000     0.00000000
     0.00000000     0.00000000     0.00000000
     0.00000000     0.00000000     0.00000000
     0.00000000     0.00000000     0.00000000
     0.00000000     0.00000000     0.00000000
     0.00000000     0.00000000     0.00000000
     0.00000000     0.00000000     0.00000000
     0.00000000     0.00000000     0.00000000
     0.00000000     0.00000000     0.00000000
     0.00000000     0.00000000     0.00000000
     0.00000000     0.00000000     0.00000000
     0.00000000     0.00000000     0.00000000
     0.00000000     0.00000000     0.00000000
     0.00000000     0.00000000     0.00000000
     0.00000000     0.00000000     0.00000000
     0.00000000     0.00000000     0.00000000
     0.00000000     0.00000000     0.00000000
     0.00000000     0.00000000     0.00000000
     0.00000000     0.00000000     0.00000000
     0.00000000     0.00000000     0.00000000
     0.00000000     0.00000000     0.00000000
     0.00000000     0.00000000     0.00000000
     0.00000000     0.00000000     0.00000000
    -0.07507135    -0.00768590     0.00000000
    -0.06961055    -0.02069862     0.00000000
    -0.06746048    -0.04583265     0.00000000
    -0.06065891    -0.06176068     0.00000000
    -0.05131377    -0.06831467     0.00000000
    -0.03975410    -0.06709368     0.00000000
    -0.02646729    -0.05576040     0.00000000
    -0.01485065    -0.03469508     0.00000000
    -0.00708848    -0.01687388     0.00000000
     0.00000000     0.00000000     0.00000000
    -0.07552498    -0.00773901     0.00399197
    -0.07030983    -0.02161297     0.00754264
    -0.06830432    -0.04608322     0.01280248
    -0.06090330    -0.06205892     0.01419029
    -0.05155908    -0.06881017     0.01458192
    -0.03973752    -0.06774210     0.01339402
    -0.02636770    -0.05622948     0.01184677
    -0.01466457    -0.03490804     0.00968305
    -0.00686276    -0.01682091     0.00791458
     0.00000000     0.00000000     0.00616055
    -0.07697031    -0.00788935     0.00854513
    -0.07130182    -0.02221236     0.01546123
    -0.06988076    -0.04614271     0.02332851
    -0.06189624    -0.06295549     0.02720096
    -0.05207117    -0.07018206     0.02744763
    -0.03969139    -0.06889256     0.02602492
    -0.02616741    -0.05720931     0.02321131
    -0.01404409    -0.03570105     0.01891878
    -0.00642920    -0.01686822     0.01547411
     0.00000000     0.00000000     0.01209341
    -0.07814108    -0.00791339     0.01192246
    -0.07257128    -0.02175334     0.02143244
    -0.07162464    -0.04645935     0.03193986
    -0.06341491    -0.06338692     0.03752563
    -0.05249628    -0.07077872     0.03843725
    -0.03955876    -0.06901389     0.03770869
    -0.02580632    -0.05778149     0.03398766
    -0.01349919    -0.03702928     0.02748866
    -0.00577151    -0.01725088     0.02163404
     0.00000000     0.00000000     0.01745102
    -0.07888649    -0.00774709     0.01447917
    -0.07411900    -0.02102963     0.02662798
    -0.07336704    -0.04558207     0.03858366
    -0.06474101    -0.06247139     0.04518560
    -0.05274778    -0.07055216     0.04767470
    -0.03941380    -0.07049999     0.04685283
    -0.02536698    -0.06018063     0.04217660
    -0.01327039    -0.03915922     0.03376866
    -0.00569713    -0.01832896     0.02614044
     0.00000000     0.00000000     0.02175692
    -0.07970492    -0.00758943     0.01675503
    -0.07589023    -0.01969064     0.03138216
    -0.07572591    -0.04295989     0.04367418
    -0.06687563    -0.06079502     0.05063086
    -0.05480282    -0.06913970     0.05299852
    -0.04042687    -0.06851409     0.05139987
    -0.02490507    -0.05857499     0.04589652
    -0.01033864    -0.03924863     0.03709858
    -0.00633195    -0.02015421     0.02943638
     0.00000000     0.00000000     0.02477105
    -0.07999834    -0.00694144     0.01867897
    -0.07859546    -0.01809324     0.03482306
    -0.07758133    -0.03965170     0.04718952
    -0.06878702    -0.05608309     0.05442679
    -0.05739957    -0.06342165     0.05714274
    -0.04141159    -0.06277163     0.05529337
    -0.02437398    -0.05358963     0.04914514
    -0.00725862    -0.03642876     0.03979950
    -0.00348829    -0.02098457     0.03328948
     0.00000000     0.00000000     0.02852171
    -0.07993568    -0.00634754     0.02008288
    -0.08034194    -0.01594465     0.03713271
    -0.07953665    -0.03463286     0.04843161
    -0.06944142    -0.04897334     0.05502694
    -0.05736322    -0.05685111     0.05911213
    -0.04143100    -0.05598215     0.05867889
    -0.02476157    -0.04744216     0.05260134
    -0.00504295    -0.03265422     0.04233815
    -0.00167206    -0.02018246     0.03730328
     0.00000000     0.00000000     0.03120688
    -0.08029857    -0.00543934     0.02095635
    -0.08110372    -0.01320818     0.03865263
    -0.08148886    -0.02684632     0.04923717
    -0.07117314    -0.03767810     0.05284017
    -0.05621804    -0.04492081     0.05497551
    -0.04004822    -0.04669309     0.05545144
    -0.02365704    -0.03980307     0.05296528
    -0.00610508    -0.02783445     0.04359205
    -0.00059528    -0.01741943     0.04019361
     0.00000000     0.00000000     0.03230737
    -0.08005443    -0.00469717     0.02125999
    -0.08150995    -0.00939998     0.03915257
    -0.08262332    -0.01747600     0.04890285
    -0.07221570    -0.02338601     0.05126320
    -0.05666461    -0.02740588     0.05289373
    -0.03926776    -0.02855831     0.05067655
    -0.02129101    -0.02743549     0.04829124
    -0.00582495    -0.01793816     0.04136885
     0.00014523    -0.01324489     0.04178810
     0.00000000     0.00000000     0.03102209
    -0.07974463    -0.00355864     0.02101579
    -0.08116250    -0.00527296     0.03857560
    -0.08258317    -0.00703090     0.04782597
    -0.07200520    -0.00818604     0.04971361
    -0.05661744    -0.00850679     0.05164246
    -0.03881862    -0.00831451     0.04927786
    -0.02084087    -0.00724883     0.04562119
    -0.00510650    -0.00686196     0.03992236
     0.00118431    -0.00764456     0.04344529
     0.00000000     0.00000000     0.02790804
    -0.07878133    -0.00248431     0.02010663
    -0.08032813    -0.00095984     0.03695378
    -0.08095977     0.00306067     0.04598704
    -0.07069715     0.00690907     0.04834005
    -0.05541867     0.00980984     0.04984899
    -0.03851616     0.01193373     0.04850838
    -0.02087006     0.01140767     0.04627261
    -0.00606006     0.00516044     0.04042667
     0.00102406    -0.00146063     0.04210695
     0.00000000     0.00000000     0.03552484
    -0.07846278    -0.00144694     0.01859657
    -0.07842887     0.00284743     0.03405522
    -0.07829818     0.01187386     0.04327109
    -0.06802404     0.02030278     0.04702637
    -0.05401776     0.02602789     0.04953228
    -0.03913749     0.02697046     0.05094265
    -0.02218801     0.02208195     0.04812393
    -0.00580861     0.01411810     0.03963985
     0.00001805     0.00427733     0.04044645
     0.00000000     0.00000000     0.03774561
    -0.07769145    -0.00031301     0.01663803
    -0.07629899     0.00551573     0.03032130
    -0.07452893     0.01893441     0.03930366
    -0.06597139     0.02892650     0.04576693
    -0.05297390     0.03475182     0.04913134
    -0.04016789     0.03430682     0.04872535
    -0.02174321     0.02806204     0.04330357
    -0.00557242     0.01725287     0.03493393
    -0.00094359     0.00863038     0.03646524
     0.00000000     0.00000000     0.03531926
    -0.07687455     0.00068582     0.01472610
    -0.07332562     0.00833355     0.02528504
    -0.07019967     0.02232628     0.03298150
    -0.06321734     0.03413986     0.03918509
    -0.05161147     0.03960365     0.04111184
    -0.03785282     0.03930056     0.03968747
    -0.02164269     0.03213660     0.03532155
    -0.00769510     0.01918943     0.02815096
    -0.00538354     0.01045773     0.02762037
     0.00000000     0.00000000     0.02702746
    -0.07647050     0.00232133     0.01282376
    -0.07141139     0.01074645     0.02102237
    -0.06827668     0.02522816     0.02877165
    -0.05921301     0.03713503     0.03454291
    -0.04884808     0.04311999     0.03647359
    -0.03574978     0.04213559     0.03529285
    -0.02139271     0.03462004     0.03110583
    -0.01137032     0.01941684     0.02438114
    -0.00667563     0.00963523     0.02077569
     0.00000000     0.00000000     0.01909249
    -0.07562889     0.00279824     0.01065273
    -0.07034088     0.01190681     0.01778377
    -0.06688230     0.02613125     0.02498333
    -0.05785321     0.03729584     0.02962543
    -0.04682238     0.04240857     0.03204484
    -0.03470091     0.04202509     0.03166832
    -0.02217998     0.03381953     0.02789509
    -0.01134729     0.01751362     0.02095211
    -0.00517324     0.00611374     0.01783765
     0.00000000     0.00000000     0.01622362
    -0.07441736     0.00279839     0.00867519
    -0.06851004     0.01179115     0.01402259
    -0.06496992     0.02485643     0.01984329
    -0.05664765     0.03521953     0.02312901
    -0.04627600     0.03947923     0.02456986
    -0.03452324     0.03758488     0.02449826
    -0.02205098     0.02893341     0.02180655
    -0.01083065     0.01259943     0.01635996
    -0.00531209     0.00391041     0.01423029
     0.00000000     0.00000000     0.01316436
    -0.07323210     0.00281766     0.00633155
    -0.06726168     0.01164316     0.00958961
    -0.06348589     0.02359455     0.01419627
    -0.05555197     0.03354270     0.01649794
    -0.04581225     0.03775719     0.01663085
    -0.03450175     0.03574289     0.01623321
    -0.02204293     0.02653807     0.01436698
    -0.01105985     0.01009261     0.01118296
    -0.00589382     0.00338782     0.01009596
     0.00000000     0.00000000     0.00926718
    -0.07190439     0.00293309     0.00304529
    -0.06710554     0.01116289     0.00453662
    -0.06231524     0.02248380     0.00728330
    -0.05476862     0.03223248     0.00869475
    -0.04545672     0.03614635     0.00837673
    -0.03444054     0.03432634     0.00811354
    -0.02213852     0.02504686     0.00713903
    -0.01142303     0.00908719     0.00567841
    -0.00682268     0.00324198     0.00525793
     0.00000000     0.00000000     0.00481148
    -0.07147155     0.00289291     0.00000000
    -0.06691839     0.01083997     0.00000000
    -0.06193757     0.02204314     0.00000000
    -0.05444609     0.03157739     0.00000000
    -0.04535150     0.03545917     0.00000000
    -0.03439479     0.03377938     0.00000000
    -0.02217830     0.02451267     0.00000000
    -0.01162135     0.00879814     0.00000000
    -0.00698122     0.00323157     0.00000000
     0.00000000     0.00000000     0.00000000
    -0.07994866    -0.00281580     0.00000000
    -0.07987453    -0.00351104     0.00000000
    -0.08030608    -0.00385293     0.00000000
    -0.07922627    -0.00359588     0.00000000
    -0.07861693    -0.00310438     0.00000000
    -0.07823212    -0.00246580     0.00000000
    -0.07809552    -0.00181314     0.00000000
    -0.07816331    -0.00122869     0.00000000
    -0.07874870    -0.00084104     0.00000000
    -0.07819173    -0.00085612     0.00000000
    -0.07802346    -0.00121494     0.00000000
    -0.08005015    -0.00275950     0.00283717
    -0.07977099    -0.00341537     0.00339943
    -0.07982319    -0.00376757     0.00363504
    -0.07917280    -0.00355485     0.00356606
    -0.07863473    -0.00308710     0.00353972
    -0.07829056    -0.00245422     0.00352073
    -0.07816612    -0.00184254     0.00356219
    -0.07821077    -0.00128338     0.00354454
    -0.07826576    -0.00091713     0.00351775
    -0.07815853    -0.00093711     0.00327990
    -0.07808388    -0.00127298     0.00269022
    -0.08003985    -0.00270433     0.00423945
    -0.07981551    -0.00327439     0.00473779
    -0.07949729    -0.00357430     0.00511338
    -0.07908256    -0.00342548     0.00545448
    -0.07869104    -0.00297749     0.00564441
    -0.07850752    -0.00244686     0.00573973
    -0.07845269    -0.00192175     0.00573460
    -0.07837107    -0.00147365     0.00555284
    -0.07829416    -0.00118865     0.00514949
    -0.07827289    -0.00115187     0.00467788
    -0.07813297    -0.00135908     0.00411097
    -0.08004001    -0.00283202     0.00545359
    -0.07990730    -0.00322261     0.00601547
    -0.07955689    -0.00338752     0.00634499
    -0.07901336    -0.00319743     0.00662515
    -0.07887523    -0.00279562     0.00694915
    -0.07908720    -0.00240928     0.00707673
    -0.07896741    -0.00205686     0.00700034
    -0.07895569    -0.00170442     0.00678432
    -0.07852098    -0.00155688     0.00637242
    -0.07851114    -0.00144852     0.00588251
    -0.07835001    -0.00146219     0.00521713
    -0.08013350    -0.00308846     0.00655266
    -0.07992230    -0.00322779     0.00691599
    -0.07954538    -0.00322082     0.00712654
    -0.07900654    -0.00298476     0.00725401
    -0.07844911    -0.00269036     0.00719520
    -0.07822682    -0.00243099     0.00706518
    -0.07813752    -0.00223477     0.00695329
    -0.07825314    -0.00201568     0.00685900
    -0.07838461    -0.00181514     0.00682332
    -0.07862132    -0.00166456     0.00662608
    -0.07861288    -0.00157005     0.00620414
    -0.07996167    -0.00322701     0.00718966
    -0.07982399    -0.00321752     0.00754032
    -0.07941704    -0.00291761     0.00761782
    -0.07886971    -0.00270697     0.00756694
    -0.07847677    -0.00261349     0.00741977
    -0.07816708    -0.00254207     0.00720620
    -0.07813885    -0.00245797     0.00701784
    -0.07813911    -0.00238731     0.00694472
    -0.07836538    -0.00211615     0.00700054
    -0.07844826    -0.00186688     0.00702952
    -0.07854189    -0.00168489     0.00674310
