# vtk DataFile Version 3.0
Example VTK
ASCII
DATASET UNSTRUCTURED_GRID
POINTS  1589 float
 -0.730196882445E+01 -0.458294908203E+01  0.119392771717E-26
 -0.594303877103E+01 -0.610451431720E+01  0.332190447612E-26
 -0.458425185489E+01 -0.704456443401E+01  0.384240913389E-26
 -0.323056086796E+01 -0.761894282136E+01  0.415854035862E-26
 -0.187822345375E+01 -0.790472192324E+01  0.427632498503E-26
 -0.534034468287E+00 -0.791700283861E+01  0.412521756154E-26
  0.804614506462E+00 -0.767275549500E+01  0.304241512304E-26
  0.162292776572E+01 -0.707062702330E+01  0.149714978189E-26
  0.255688000000E+01 -0.652469000000E+01  0.186266108685E-27
 -0.730505639876E+01 -0.368626102155E+01 -0.983064176139E-02
 -0.602056160979E+01 -0.491143504996E+01  0.000000000000E+00
 -0.469561951237E+01 -0.565965260530E+01  0.000000000000E+00
 -0.337043137676E+01 -0.611613761241E+01  0.000000000000E+00
 -0.204644117070E+01 -0.633552254102E+01  0.000000000000E+00
 -0.713586084020E+00 -0.633277630464E+01  0.000000000000E+00
  0.649145438364E+00 -0.610840450373E+01  0.000000000000E+00
  0.165276499416E+01 -0.571098408331E+01  0.000000000000E+00
  0.284126132268E+01 -0.540575409503E+01  0.000000000000E+00
 -0.730994784904E+01 -0.279203938330E+01 -0.123655828579E-01
 -0.605364378714E+01 -0.371915766131E+01  0.000000000000E+00
 -0.476906765071E+01 -0.427541106046E+01  0.000000000000E+00
 -0.346900272679E+01 -0.461039653819E+01  0.000000000000E+00
 -0.215144446681E+01 -0.476600982994E+01  0.000000000000E+00
 -0.798281824173E+00 -0.475088957277E+01  0.000000000000E+00
  0.630319860766E+00 -0.456411608907E+01  0.000000000000E+00
  0.175615590860E+01 -0.441562136800E+01  0.000000000000E+00
  0.305895420184E+01 -0.434536109908E+01  0.000000000000E+00
 -0.731404207456E+01 -0.189751462816E+01 -0.146956831656E-01
 -0.607683574618E+01 -0.251871823465E+01  0.000000000000E+00
 -0.481545690145E+01 -0.288646567096E+01  0.000000000000E+00
 -0.353123199246E+01 -0.310428012186E+01  0.000000000000E+00
 -0.221483568951E+01 -0.320107935150E+01  0.000000000000E+00
 -0.844767441913E+00 -0.318257519842E+01  0.000000000000E+00
  0.617488352862E+00 -0.305259820346E+01  0.000000000000E+00
  0.183391685627E+01 -0.314791809709E+01  0.000000000000E+00
  0.322183678434E+01 -0.329237033052E+01  0.000000000000E+00
 -0.731856405649E+01 -0.100359289093E+01 -0.159415038855E-01
 -0.609204640057E+01 -0.131362959796E+01  0.000000000000E+00
 -0.484494194125E+01 -0.149358885148E+01  0.000000000000E+00
 -0.356978373029E+01 -0.159758371267E+01  0.000000000000E+00
 -0.225463423736E+01 -0.163994359952E+01  0.000000000000E+00
 -0.878481431483E+00 -0.162392882289E+01  0.000000000000E+00
  0.592296572522E+00 -0.155461537999E+01  0.000000000000E+00
  0.187092102229E+01 -0.188003684028E+01  0.000000000000E+00
  0.332024260943E+01 -0.222445099341E+01  0.000000000000E+00
 -0.732316821492E+01 -0.109820842847E+00 -0.170306091647E-01
 -0.610343664553E+01 -0.105913509836E+00  0.000000000000E+00
 -0.486312228678E+01 -0.983613536100E-01  0.000000000000E+00
 -0.359301936415E+01 -0.904275070166E-01  0.000000000000E+00
 -0.227905101199E+01 -0.805132941740E-01  0.000000000000E+00
 -0.900263069984E+00 -0.692134979877E-01  0.000000000000E+00
  0.575704073950E+00 -0.604679587026E-01  0.000000000000E+00
  0.189441549721E+01 -0.582757468857E+00  0.000000000000E+00
  0.333333000000E+01 -0.112691000000E+01  0.220955220449E-26
 -0.732785361313E+01  0.783900694437E+00 -0.173241422244E-01
 -0.610938895424E+01  0.110250300983E+01  0.000000000000E+00
 -0.487046706846E+01  0.129732016517E+01  0.000000000000E+00
 -0.360046728106E+01  0.141655167557E+01  0.000000000000E+00
 -0.228400578203E+01  0.147740916104E+01  0.000000000000E+00
 -0.895059526237E+00  0.148287806475E+01  0.000000000000E+00
  0.609661149181E+00  0.142171935127E+01  0.000000000000E+00
  0.186533781817E+01  0.899394362988E+00  0.000000000000E+00
  0.324644041670E+01  0.360765604474E+00  0.000000000000E+00
 -0.733240423519E+01  0.167766803420E+01 -0.173019681361E-01
 -0.611145351872E+01  0.230969053162E+01  0.000000000000E+00
 -0.486605101455E+01  0.269147869703E+01  0.000000000000E+00
 -0.359298748180E+01  0.292280561718E+01  0.000000000000E+00
 -0.227765024154E+01  0.303538533281E+01  0.000000000000E+00
 -0.891301324757E+00  0.303319867503E+01  0.000000000000E+00
  0.614938628549E+00  0.290259225277E+01  0.000000000000E+00
  0.178880675926E+01  0.236955208928E+01  0.000000000000E+00
  0.308651819129E+01  0.187681565928E+01  0.000000000000E+00
 -0.733833102835E+01  0.257238177578E+01 -0.154165163015E-01
 -0.610614869999E+01  0.351309280401E+01  0.000000000000E+00
 -0.484448578129E+01  0.408219505501E+01  0.000000000000E+00
 -0.356277854948E+01  0.442890529803E+01  0.000000000000E+00
 -0.225510302169E+01  0.459761048184E+01  0.000000000000E+00
 -0.895415490658E+00  0.459387586556E+01  0.000000000000E+00
  0.570050531956E+00  0.440112562239E+01  0.000000000000E+00
  0.162388730214E+01  0.385169462859E+01  0.000000000000E+00
  0.281428764748E+01  0.338804674624E+01  0.000000000000E+00
 -0.734538130262E+01  0.346687110881E+01 -0.122951595075E-01
 -0.609198873838E+01  0.470817452294E+01  0.000000000000E+00
 -0.479354878800E+01  0.546835318178E+01  0.000000000000E+00
 -0.349315483979E+01  0.593580903845E+01  0.000000000000E+00
 -0.219064923632E+01  0.616767534125E+01  0.000000000000E+00
 -0.874277405864E+00  0.617568172149E+01  0.000000000000E+00
  0.496552122132E+00  0.594484159232E+01  0.000000000000E+00
  0.138140895976E+01  0.536698032525E+01  0.000000000000E+00
  0.240704909100E+01  0.493386898319E+01  0.000000000000E+00
 -0.735681268391E+01  0.436411299420E+01  0.105434366360E-26
 -0.603061933044E+01  0.590362681332E+01  0.309148852796E-26
 -0.470212419275E+01  0.685509710809E+01  0.365336303493E-26
 -0.337409951281E+01  0.744111570850E+01  0.393719625632E-26
 -0.204767928579E+01  0.774104846901E+01  0.400194957490E-26
 -0.729138668368E+00  0.776911080774E+01  0.376756514069E-26
  0.574903820773E+00  0.753299479663E+01  0.235139962708E-26
  0.118864822555E+01  0.696234222666E+01  0.839987588454E-27
  0.195297000000E+01  0.652469000000E+01  0.246796325177E-27
 -0.730212334225E+01 -0.452750591737E+01  0.815111463424E+00
 -0.594250960126E+01 -0.603171384741E+01  0.109587584947E+01
 -0.458299948869E+01 -0.695853090173E+01  0.126871297525E+01
 -0.322827713284E+01 -0.752580001321E+01  0.137555467074E+01
 -0.187499071662E+01 -0.780759297690E+01  0.143115892745E+01
 -0.528922489319E+00 -0.781956800880E+01  0.144148235553E+01
  0.811235836748E+00 -0.757773602043E+01  0.140929362086E+01
  0.163562816198E+01 -0.699298167465E+01  0.123711070044E+01
  0.256440000000E+01 -0.647239000000E+01  0.677093000000E+00
 -0.730520264920E+01 -0.366241510647E+01  0.905184409113E+00
 -0.601516981754E+01 -0.487898694120E+01  0.122034945403E+01
 -0.468757606053E+01 -0.562161834118E+01  0.141031813850E+01
 -0.335908652239E+01 -0.607465529109E+01  0.152933775370E+01
 -0.203218531579E+01 -0.629278677976E+01  0.158928701855E+01
 -0.697489210849E+00 -0.629063166938E+01  0.159474974862E+01
  0.663812961891E+00 -0.607031568489E+01  0.153391946590E+01
  0.165797894133E+01 -0.568383846776E+01  0.132778804940E+01
  0.283295132696E+01 -0.539240683129E+01  0.745014371732E+00
 -0.730906675671E+01 -0.278531263135E+01  0.973090689326E+00
 -0.604718120966E+01 -0.371004123546E+01  0.131691953632E+01
 -0.475843180677E+01 -0.426504450748E+01  0.152249416258E+01
 -0.345400481364E+01 -0.459923937691E+01  0.164732970488E+01
 -0.213396327189E+01 -0.475506352243E+01  0.170697196550E+01
 -0.782027749264E+00 -0.474098736040E+01  0.170303235658E+01
  0.638721645333E+00 -0.455712749762E+01  0.163237764778E+01
  0.175188403618E+01 -0.441131494976E+01  0.141469625968E+01
  0.304105674949E+01 -0.434587051888E+01  0.798753376389E+00
 -0.731316678501E+01 -0.189887017070E+01  0.101915163178E+01
 -0.606952243855E+01 -0.252012091226E+01  0.138233993241E+01
 -0.480416386987E+01 -0.288843942654E+01  0.159743770471E+01
 -0.351557736714E+01 -0.310662483337E+01  0.172668280290E+01
 -0.219717648516E+01 -0.320393210596E+01  0.178569428740E+01
 -0.829121566565E+00 -0.318599097018E+01  0.177887280773E+01
  0.624455378442E+00 -0.305640759666E+01  0.170419454557E+01
  0.182618797415E+01 -0.315037524197E+01  0.147407585683E+01
  0.320102220400E+01 -0.329331044289E+01  0.826097127939E+00
 -0.731775521351E+01 -0.100551263984E+01  0.104125380662E+01
 -0.608564098940E+01 -0.131660570722E+01  0.141438083279E+01
 -0.483395174463E+01 -0.149736595527E+01  0.163388672175E+01
 -0.355456974209E+01 -0.160193621795E+01  0.176513109262E+01
 -0.223733956986E+01 -0.164469387192E+01  0.182412961308E+01
 -0.862195873291E+00 -0.162852548996E+01  0.181756395384E+01
  0.602499328272E+00 -0.155794669931E+01  0.174166319129E+01
  0.186750547549E+01 -0.188129645838E+01  0.150501716255E+01
  0.330292920675E+01 -0.222147648625E+01  0.829288613050E+00
 -0.732297800435E+01 -0.109604529264E+00  0.103867298210E+01
 -0.609674228359E+01 -0.105954895283E+00  0.141132559849E+01
 -0.485264930599E+01 -0.986246515124E-01  0.163055140183E+01
 -0.357859251185E+01 -0.909237983679E-01  0.176096701266E+01
 -0.226285867501E+01 -0.811984708262E-01  0.181880618977E+01
 -0.884881934006E+00 -0.693317229195E-01  0.181072476737E+01
  0.586761072524E+00 -0.589717684255E-01  0.173756583597E+01
  0.190054107184E+01 -0.583229922764E+00  0.149480912138E+01
  0.333333000000E+01 -0.112691000000E+01  0.833333000000E+00
 -0.732736882233E+01  0.786106482040E+00  0.104075649841E+01
 -0.610329296223E+01  0.110536396995E+01  0.141577214443E+01
 -0.485990503661E+01  0.130059946507E+01  0.163583050134E+01
 -0.358629035673E+01  0.142002705500E+01  0.176618084204E+01
 -0.226914184554E+01  0.148104352680E+01  0.182217535679E+01
 -0.883715479339E+00  0.148743178956E+01  0.180901046136E+01
  0.610892156616E+00  0.142956819420E+01  0.172494172353E+01
  0.185645691084E+01  0.906458223974E+00  0.150273567133E+01
  0.323512178630E+01  0.347416885361E+00  0.930957666825E+00
 -0.733195522974E+01  0.167933499242E+01  0.101833171623E+01
 -0.610447136917E+01  0.231076341659E+01  0.138507582902E+01
 -0.485546905458E+01  0.269309525033E+01  0.160148924931E+01
 -0.357898559425E+01  0.292459643428E+01  0.172953428905E+01
 -0.226370561565E+01  0.303772387720E+01  0.178387700992E+01
 -0.882528462802E+00  0.303732396181E+01  0.176872984692E+01
  0.610943401892E+00  0.291200548094E+01  0.167869769926E+01
  0.177140780799E+01  0.238165561420E+01  0.147316009755E+01
  0.306715014265E+01  0.186906836494E+01  0.977470762457E+00
 -0.733768208277E+01  0.256584080517E+01  0.972517841038E+00
 -0.609970817234E+01  0.350335066178E+01  0.132071922236E+01
 -0.483420912666E+01  0.407165265583E+01  0.152863564800E+01
 -0.354894013746E+01  0.441757420427E+01  0.165296129313E+01
 -0.224043116752E+01  0.458670158822E+01  0.170861439115E+01
 -0.884690442223E+00  0.458532295452E+01  0.169583112472E+01
  0.568952689180E+00  0.440005317439E+01  0.160678442826E+01
  0.160946680400E+01  0.385766529828E+01  0.141402402092E+01
  0.279436185106E+01  0.338698225170E+01  0.966582867585E+00
 -0.734555620438E+01  0.344334108704E+01  0.905617782939E+00
 -0.608586885632E+01  0.467456000864E+01  0.122473344141E+01
 -0.478520823428E+01  0.543033930027E+01  0.141795664129E+01
 -0.348165888385E+01  0.589419503835E+01  0.153790264373E+01
 -0.217637024134E+01  0.612509114272E+01  0.159691828986E+01
 -0.858728063483E+00  0.613422494711E+01  0.159715373862E+01
  0.507938296763E+00  0.591214312041E+01  0.151322398941E+01
  0.138069281000E+01  0.534702599051E+01  0.132391891050E+01
  0.239760719329E+01  0.492124545965E+01  0.905303254126E+00
 -0.735629735884E+01  0.430896671280E+01  0.816610822802E+00
 -0.602925348783E+01  0.582932175168E+01  0.110132661562E+01
 -0.470012035812E+01  0.676892749761E+01  0.127620997694E+01
 -0.337091663115E+01  0.734755245224E+01  0.138441634327E+01
 -0.204326346794E+01  0.764342665650E+01  0.143993772234E+01
 -0.722987927414E+00  0.767135811102E+01  0.144928510785E+01
  0.583495394176E+00  0.743844274169E+01  0.140200053006E+01
  0.120651143641E+01  0.688289629443E+01  0.121464677319E+01
  0.196387000000E+01  0.646426000000E+01  0.786055000000E+00
 -0.730229789978E+01 -0.436329261974E+01  0.161238815739E+01
 -0.594072566942E+01 -0.581247889344E+01  0.216525064773E+01
 -0.457925184842E+01 -0.670311341915E+01  0.250575089104E+01
 -0.322180034172E+01 -0.724864987840E+01  0.271629487969E+01
 -0.186520434127E+01 -0.751887880198E+01  0.282561377112E+01
 -0.514915788431E+00 -0.752988759581E+01  0.284473564053E+01
  0.836691122105E+00 -0.729590360932E+01  0.277386184188E+01
  0.168039753780E+01 -0.676077348574E+01  0.243212776171E+01
  0.258678000000E+01 -0.631679000000E+01  0.133751000000E+01
 -0.730488916878E+01 -0.355117909407E+01  0.179704525691E+01
 -0.600384800130E+01 -0.472842100844E+01  0.241822867923E+01
 -0.466744701654E+01 -0.544771424183E+01  0.279511144717E+01
 -0.333064037945E+01 -0.588551670153E+01  0.303020824276E+01
 -0.199483978185E+01 -0.609710573186E+01  0.314863375491E+01
 -0.652826344411E+00 -0.609531982098E+01  0.315898756781E+01
  0.707673065154E+00 -0.588942597919E+01  0.304175212800E+01
  0.168168244241E+01 -0.554183947898E+01  0.264542030228E+01
  0.282343611461E+01 -0.529938891362E+01  0.148988944018E+01
 -0.730741936560E+01 -0.271345631206E+01  0.193983775298E+01
 -0.603244608264E+01 -0.361137667622E+01  0.261667373314E+01
 -0.473031666781E+01 -0.415203502330E+01  0.302431750016E+01
 -0.341343194403E+01 -0.447741071884E+01  0.327285680832E+01
 -0.208449250364E+01 -0.463047698562E+01  0.339243321910E+01
 -0.732268948292E+00 -0.461891607036E+01  0.338799390060E+01
  0.672937595457E+00 -0.444585543370E+01  0.325192066014E+01
  0.175784179141E+01 -0.432198932496E+01  0.283257980299E+01
  0.300945416749E+01 -0.428617013269E+01  0.160685677421E+01
 -0.731100091331E+01 -0.185556186880E+01  0.203773750094E+01
 -0.605351278030E+01 -0.246141640276E+01  0.275284445246E+01
 -0.477262987534E+01 -0.282171230804E+01  0.317989327623E+01
 -0.347056762069E+01 -0.303540883515E+01  0.343830588261E+01
 -0.214415000367E+01 -0.313199623160E+01  0.355769426135E+01
 -0.778466421325E+00 -0.311585612760E+01  0.354778559133E+01
  0.657085606924E+00 -0.299104179158E+01  0.340452277010E+01
  0.182470853263E+01 -0.309439076657E+01  0.296065582639E+01
  0.315939423375E+01 -0.325147149176E+01  0.166764430231E+01
 -0.731674781152E+01 -0.985734249397E+00  0.208837328688E+01
 -0.606892803534E+01 -0.128917066938E+01  0.282179145456E+01
 -0.480163225981E+01 -0.146682567496E+01  0.325889954615E+01
 -0.350882599294E+01 -0.156989657828E+01  0.352179775381E+01
 -0.218351833212E+01 -0.161293094081E+01  0.364142015437E+01
 -0.809468320830E+00 -0.159720624565E+01  0.363100642640E+01
  0.642499504528E+00 -0.152627489453E+01  0.348456089120E+01
  0.187522020146E+01 -0.185162642922E+01  0.302650883361E+01
  0.326778956091E+01 -0.219469151476E+01  0.167478021128E+01
 -0.732195043130E+01 -0.109165291532E+00  0.208652491384E+01
 -0.608077450044E+01 -0.105780629210E+00  0.282153971503E+01
 -0.482087745645E+01 -0.990238290605E-01  0.325842385241E+01
 -0.353402272889E+01 -0.921011404712E-01  0.352036677182E+01
 -0.221124876203E+01 -0.834537462353E-01  0.363796992753E+01
 -0.835177784371E+00 -0.705876252752E-01  0.362425937549E+01
  0.624857253675E+00 -0.570656506947E-01  0.348062913105E+01
  0.192192014432E+01 -0.585544320060E+00  0.300060128275E+01
  0.333333000000E+01 -0.112691000000E+01  0.166667000000E+01
 -0.732699290847E+01  0.767325732482E+00  0.208844826875E+01
 -0.608683764957E+01  0.107805122040E+01  0.282453735061E+01
 -0.482777861594E+01  0.126935176674E+01  0.326272570972E+01
 -0.354204512180E+01  0.138592465472E+01  0.352438573868E+01
 -0.222080037763E+01  0.144569904459E+01  0.363899367083E+01
 -0.844388124910E+00  0.145470327421E+01  0.361752399393E+01
  0.624000039770E+00  0.140636029132E+01  0.345608884134E+01
  0.184199166126E+01  0.886167883111E+00  0.302519428728E+01
  0.320524728864E+01  0.319126865106E+00  0.186733818452E+01
 -0.733068941995E+01  0.163686964061E+01  0.203792890878E+01
 -0.608896004800E+01  0.225174315973E+01  0.275833769966E+01
 -0.482428824274E+01  0.262577845986E+01  0.318781610103E+01
 -0.353627630624E+01  0.285224038727E+01  0.344454300954E+01
 -0.221828287162E+01  0.296428746507E+01  0.355596380051E+01
 -0.850083513349E+00  0.296933480683E+01  0.353132333526E+01
  0.610765709310E+00  0.286019252639E+01  0.335970296335E+01
  0.173653946191E+01  0.234223739483E+01  0.296567953014E+01
  0.301887668409E+01  0.182538753753E+01  0.196309457069E+01
 -0.733663792789E+01  0.249476364033E+01  0.194048176676E+01
 -0.608513786093E+01  0.340368179318E+01  0.262456445930E+01
 -0.480629225889E+01  0.395816386703E+01  0.303620033159E+01
 -0.350974570426E+01  0.429526006549E+01  0.328436473606E+01
 -0.219620550438E+01  0.446258123806E+01  0.339701030781E+01
 -0.848630941762E+00  0.446809661782E+01  0.337692062134E+01
  0.577058317888E+00  0.430466202692E+01  0.320640799369E+01
  0.158673464561E+01  0.378319725918E+01  0.283805736555E+01
  0.275381933546E+01  0.332412694773E+01  0.193778898732E+01
 -0.734488486036E+01  0.333267472120E+01  0.179856581332E+01
 -0.607332682666E+01  0.452240919387E+01  0.242763442482E+01
 -0.476390647549E+01  0.525586473946E+01  0.281001295365E+01
 -0.345199715995E+01  0.570440459144E+01  0.304709323396E+01
 -0.213761163681E+01  0.592957076582E+01  0.316368769659E+01
 -0.814385216710E+00  0.594238421776E+01  0.316533484450E+01
  0.545130193959E+00  0.574333108974E+01  0.300654072865E+01
  0.139172566316E+01  0.521209423995E+01  0.264764397099E+01
  0.238884028054E+01  0.481598797649E+01  0.180552438860E+01
 -0.735456496685E+01  0.414518374779E+01  0.161490633634E+01
 -0.602545703857E+01  0.560820737210E+01  0.217488896320E+01
 -0.469416343557E+01  0.651270633030E+01  0.252065752195E+01
 -0.336176769007E+01  0.706922861566E+01  0.273372599273E+01
 -0.203065178403E+01  0.735340132973E+01  0.284360153746E+01
 -0.703786427822E+00  0.738112027626E+01  0.285916882340E+01
  0.617870877580E+00  0.715719231513E+01  0.276240979197E+01
  0.126456282835E+01  0.664413958269E+01  0.239305613923E+01
  0.199630000000E+01  0.628446000000E+01  0.155276000000E+01
 -0.730223903805E+01 -0.409450468166E+01  0.236961229347E+01
 -0.593774849422E+01 -0.545136008192E+01  0.318113727700E+01
 -0.457341714750E+01 -0.628484785111E+01  0.368041051065E+01
 -0.321181142572E+01 -0.679451964398E+01  0.398847659472E+01
 -0.184961716806E+01 -0.704631440780E+01  0.414807744930E+01
 -0.490051329808E+00 -0.705582301217E+01  0.416988734845E+01
  0.876836732022E+00 -0.683492399563E+01  0.405510885240E+01
  0.174759372855E+01 -0.637886507714E+01  0.355254816558E+01
  0.262348000000E+01 -0.606170000000E+01  0.196500000000E+01
 -0.730324061750E+01 -0.335559133686E+01  0.265631261606E+01
 -0.598793300667E+01 -0.446346377709E+01  0.357102760509E+01
 -0.463685381024E+01 -0.514241855517E+01  0.412923407411E+01
 -0.328736961884E+01 -0.555420389772E+01  0.447522006293E+01
 -0.193852002752E+01 -0.575413951633E+01  0.464810317091E+01
 -0.581750070237E+00 -0.575379139675E+01  0.466269712672E+01
  0.784629654168E+00 -0.556494231916E+01  0.449418181773E+01
  0.173713711898E+01 -0.528342058801E+01  0.393318554546E+01
  0.282319243287E+01 -0.512975485435E+01  0.222456213494E+01
 -0.730472367930E+01 -0.257733595577E+01  0.288152835845E+01
 -0.601280439496E+01 -0.342607172294E+01  0.388002374836E+01
 -0.468632375500E+01 -0.393943748434E+01  0.448504487455E+01
 -0.334871074223E+01 -0.424849785426E+01  0.485527170373E+01
 -0.200458719565E+01 -0.439535106358E+01  0.503383337296E+01
 -0.644365639638E+00 -0.438834028867E+01  0.503306779457E+01
  0.747911331410E+00 -0.423028142470E+01  0.484021052128E+01
  0.179804789140E+01 -0.414778940771E+01  0.424237063969E+01
  0.298388854492E+01 -0.416837255934E+01  0.241927435725E+01
 -0.730976573013E+01 -0.177126409811E+01  0.304084884007E+01
 -0.603043507533E+01 -0.234432841379E+01  0.409577288892E+01
 -0.472154446692E+01 -0.268806648546E+01  0.473257950220E+01
 -0.339544920928E+01 -0.289271787379E+01  0.511967955862E+01
 -0.205339203143E+01 -0.298638059356E+01  0.530083848780E+01
 -0.683337509744E+00 -0.297506655396E+01  0.529296814980E+01
  0.735149378533E+00 -0.285869049686E+01  0.508982607281E+01
  0.186091095919E+01 -0.298302208586E+01  0.445449638188E+01
  0.312315733944E+01 -0.317121337041E+01  0.252239215166E+01
 -0.731472290746E+01 -0.945266031705E+00  0.312510060218E+01
 -0.604453822181E+01 -0.123252060690E+01  0.421231391470E+01
 -0.474768276244E+01 -0.140256501822E+01  0.486574184187E+01
 -0.342982451601E+01 -0.150213803044E+01  0.526138083291E+01
 -0.208921829462E+01 -0.154483311720E+01  0.544365854053E+01
 -0.709578508826E+00 -0.153225901230E+01  0.543345331019E+01
  0.728647018813E+00 -0.146342378606E+01  0.522315333632E+01
  0.192297733066E+01 -0.179612647844E+01  0.456327231178E+01
  0.324106876584E+01 -0.214999198129E+01  0.253361877803E+01
 -0.731998175574E+01 -0.108643908655E+00  0.313330688261E+01
 -0.605604056797E+01 -0.105322367544E+00  0.422513368368E+01
 -0.476646449518E+01 -0.992080526152E-01  0.488038879700E+01
 -0.345492209498E+01 -0.935062008900E-01  0.527611054056E+01
 -0.211818158350E+01 -0.863415381350E-01  0.545645550765E+01
 -0.739503399236E+00 -0.748050083072E-01  0.544166906911E+01
  0.703042234801E+00 -0.561224530495E-01  0.523185178142E+01
  0.197075321711E+01 -0.588842134432E+00  0.452544685680E+01
  0.333333000000E+01 -0.112691000000E+01  0.250000000000E+01
 -0.732532785402E+01  0.727918130718E+00  0.312566171625E+01
 -0.606238537029E+01  0.102221022355E+01  0.421611248779E+01
 -0.477298948016E+01  0.120463324185E+01  0.487132710508E+01
 -0.346321055280E+01  0.131583397735E+01  0.526619435542E+01
 -0.213094506239E+01  0.137281302490E+01  0.544333270036E+01
 -0.760135505143E+00  0.138360688750E+01  0.542152165250E+01
  0.673746066658E+00  0.134998132401E+01  0.519339838137E+01
  0.185150888086E+01  0.836351773665E+00  0.457587536208E+01
  0.317189737017E+01  0.270410412624E+00  0.281123972464E+01
 -0.733026786918E+01  0.155379676051E+01  0.304202738946E+01
 -0.606543931205E+01  0.213486944380E+01  0.410335466410E+01
 -0.477153458213E+01  0.249171254214E+01  0.474382942110E+01
 -0.346009962594E+01  0.270802072125E+01  0.513004658670E+01
 -0.213304028948E+01  0.281655962223E+01  0.530222695020E+01
 -0.774704435770E+00  0.282768725400E+01  0.527756706181E+01
  0.642251701658E+00  0.274226280223E+01  0.503858660732E+01
  0.172091006987E+01  0.224566507061E+01  0.448407666407E+01
  0.295963276383E+01  0.174291510626E+01  0.296148956462E+01
 -0.733451506064E+01  0.235977945346E+01  0.288322792764E+01
 -0.606567330722E+01  0.321802295367E+01  0.389084516040E+01
 -0.476114787410E+01  0.374496285206E+01  0.450144817251E+01
 -0.344403926517E+01  0.406595827568E+01  0.487214345233E+01
 -0.211906266390E+01  0.422804688560E+01  0.504246618167E+01
 -0.775842676188E+00  0.424270917169E+01  0.502368323404E+01
  0.612008560930E+00  0.410892552906E+01  0.478599635180E+01
  0.157904699776E+01  0.362750342863E+01  0.427055523052E+01
  0.270462696668E+01  0.320191461726E+01  0.291510044570E+01
 -0.734270891037E+01  0.313799207189E+01  0.265896930229E+01
 -0.605669597556E+01  0.425672200065E+01  0.358439316144E+01
 -0.473245365848E+01  0.494950355667E+01  0.415040183564E+01
 -0.340745645844E+01  0.537235537919E+01  0.449948362802E+01
 -0.208036349808E+01  0.558764205693E+01  0.467000478485E+01
 -0.744351228186E+00  0.560683645694E+01  0.467421131676E+01
  0.610602757599E+00  0.543592707648E+01  0.445502008344E+01
  0.143030365439E+01  0.496116822014E+01  0.395784741186E+01
  0.239145793200E+01  0.462570005009E+01  0.268885792935E+01
 -0.735164091790E+01  0.387674910388E+01  0.237316046060E+01
 -0.601955924942E+01  0.524591979656E+01  0.319467117317E+01
 -0.468487949317E+01  0.609293304822E+01  0.370193028688E+01
 -0.334759766683E+01  0.661323227077E+01  0.401423497842E+01
 -0.200944139881E+01  0.687897516919E+01  0.417451286577E+01
 -0.671174653457E+00  0.690590889856E+01  0.419356308573E+01
  0.669151690649E+00  0.669717903290E+01  0.404193119172E+01
  0.134486441436E+01  0.624919070680E+01  0.351393670909E+01
  0.204947000000E+01  0.598972000000E+01  0.228122000000E+01
 -0.730108275458E+01 -0.372692401146E+01  0.306753021821E+01
 -0.593464334342E+01 -0.495864517751E+01  0.411839622742E+01
 -0.456610280105E+01 -0.571411553478E+01  0.476358023658E+01
 -0.319968330033E+01 -0.617506899101E+01  0.516097831401E+01
 -0.182940554984E+01 -0.640220618817E+01  0.536442187845E+01
 -0.459031518812E+00 -0.640988002987E+01  0.538508844474E+01
  0.924260551700E+00 -0.620595639055E+01  0.522089377864E+01
  0.183018638088E+01 -0.586284068075E+01  0.457574226673E+01
  0.267357000000E+01 -0.571343000000E+01  0.254410000000E+01
 -0.730080270503E+01 -0.308022017171E+01  0.346898570062E+01
 -0.596620839881E+01 -0.409343223444E+01  0.465918705469E+01
 -0.459703092328E+01 -0.471411300551E+01  0.538882115683E+01
 -0.323421272085E+01 -0.509021705003E+01  0.583864176844E+01
 -0.186871144891E+01 -0.527500580786E+01  0.606061118706E+01
 -0.494905487363E+00 -0.527145715611E+01  0.607563958728E+01
  0.896167279420E+00 -0.511041158316E+01  0.586136734937E+01
  0.183392542998E+01 -0.491942946679E+01  0.516179147093E+01
  0.283363106061E+01 -0.488347580776E+01  0.293864292795E+01
 -0.730416808747E+01 -0.238422228219E+01  0.379044385314E+01
 -0.598366383872E+01 -0.316092592270E+01  0.509047432200E+01
 -0.462434464771E+01 -0.363352175207E+01  0.588715387091E+01
 -0.326416995555E+01 -0.391959204314E+01  0.637466580286E+01
 -0.189874543936E+01 -0.405818225399E+01  0.660933288820E+01
 -0.523418079402E+00 -0.404802612099E+01  0.661358787155E+01
  0.878711643728E+00 -0.392380225575E+01  0.636946226541E+01
  0.188506748056E+01 -0.390046871418E+01  0.562461638148E+01
  0.297377749308E+01 -0.399013243722E+01  0.322595297406E+01
 -0.730776620669E+01 -0.164857563410E+01  0.401894713524E+01
 -0.599711714389E+01 -0.217386817837E+01  0.539981324637E+01
 -0.464698206279E+01 -0.249126692770E+01  0.624251818264E+01
 -0.329082895268E+01 -0.268236673161E+01  0.675718605810E+01
 -0.192656860045E+01 -0.277344839041E+01  0.699957284807E+01
 -0.544110188927E+00 -0.275885219480E+01  0.699649492245E+01
  0.877825226760E+00 -0.266998681449E+01  0.673789960575E+01
  0.194611224089E+01 -0.282698116593E+01  0.594344810235E+01
  0.310610177181E+01 -0.305102389740E+01  0.338217600044E+01
 -0.731148737630E+01 -0.885115957506E+00  0.414953035951E+01
 -0.600831574747E+01 -0.114943048347E+01  0.557769715039E+01
 -0.466565716909E+01 -0.130626480204E+01  0.644710753062E+01
 -0.331470335949E+01 -0.140014466697E+01  0.697593101097E+01
 -0.195080823782E+01 -0.144254242910E+01  0.722313262742E+01
 -0.563730104273E+00 -0.142903001091E+01  0.721402730106E+01
  0.882847117655E+00 -0.137602023024E+01  0.694220229315E+01
  0.201897482120E+01 -0.171849192593E+01  0.611071779980E+01
  0.323229739378E+01 -0.209309257161E+01  0.339749748538E+01
 -0.731635445714E+01 -0.108273490931E+00  0.417832998140E+01
 -0.601842242282E+01 -0.104841456683E+00  0.561892938224E+01
 -0.468164800304E+01 -0.997517560865E-01  0.649440766490E+01
 -0.333542999624E+01 -0.938817387416E-01  0.702650121133E+01
 -0.197610967233E+01 -0.886453549309E-01  0.727316023019E+01
 -0.592377572186E+00 -0.766947176272E-01  0.725961742598E+01
  0.850499562403E+00 -0.644841915098E-01  0.698684156242E+01
  0.206118779324E+01 -0.590493967204E+00  0.607620713233E+01
  0.333333000000E+01 -0.112691000000E+01  0.333333000000E+01
 -0.732181616728E+01  0.668661322586E+00  0.415059215481E+01
 -0.602515072590E+01  0.939546280517E+00  0.558243800077E+01
 -0.468907099502E+01  0.110753275690E+01  0.645395605188E+01
 -0.334473831824E+01  0.121240618657E+01  0.698350163751E+01
 -0.199065392236E+01  0.126698238302E+01  0.722689302601E+01
 -0.617985593145E+00  0.127722693314E+01  0.720973177254E+01
  0.803851836327E+00  0.125116334182E+01  0.692461801566E+01
  0.190560923042E+01  0.763270338600E+00  0.616192310678E+01
  0.314626392162E+01  0.203607840244E+00  0.376490508344E+01
 -0.732784371429E+01  0.143190370085E+01  0.402110523969E+01
 -0.603059406070E+01  0.196470810927E+01  0.540859018863E+01
 -0.469280368972E+01  0.229326509268E+01  0.625675706153E+01
 -0.335050565272E+01  0.249632967386E+01  0.677145644248E+01
 -0.200027624722E+01  0.260011043680E+01  0.700791617574E+01
 -0.641692624489E+00  0.261136355260E+01  0.698973699147E+01
  0.758502885550E+00  0.255153643491E+01  0.669776923311E+01
  0.174696101058E+01  0.209789721449E+01  0.603492569583E+01
  0.291584672646E+01  0.160628372817E+01  0.396955693446E+01
 -0.733320429920E+01  0.216750701541E+01  0.379324429032E+01
 -0.603287346284E+01  0.295259019407E+01  0.510342020614E+01
 -0.469310225698E+01  0.343766664311E+01  0.590637604770E+01
 -0.335075530954E+01  0.373483803268E+01  0.639605925198E+01
 -0.200477792784E+01  0.388847523803E+01  0.662279192633E+01
 -0.653024246819E+00  0.390167659895E+01  0.661205351058E+01
  0.722652658263E+00  0.380862858872E+01  0.632409469322E+01
  0.160788771202E+01  0.338902679979E+01  0.570622483637E+01
  0.266594065448E+01  0.300844786089E+01  0.389279616180E+01
 -0.733845362973E+01  0.286367534980E+01  0.347218796037E+01
 -0.603288370662E+01  0.388673881194E+01  0.467397334516E+01
 -0.468945705739E+01  0.452044511097E+01  0.541296017827E+01
 -0.335059283282E+01  0.490761760697E+01  0.586663110407E+01
 -0.200559532690E+01  0.510921577919E+01  0.608473502238E+01
 -0.656056577049E+00  0.512576408521E+01  0.609091214299E+01
  0.714513233227E+00  0.499683007348E+01  0.582220993086E+01
  0.148965810392E+01  0.460943618614E+01  0.523048037481E+01
  0.240557464618E+01  0.435012480650E+01  0.354524446289E+01
 -0.734696853897E+01  0.351004028044E+01  0.307177932354E+01
 -0.601253484379E+01  0.475201145654E+01  0.413661485402E+01
 -0.467324411100E+01  0.552046088257E+01  0.479178971932E+01
 -0.332999308834E+01  0.599182932752E+01  0.519510830792E+01
 -0.198310596383E+01  0.623285785934E+01  0.540221995084E+01
 -0.632790496290E+00  0.625834205586E+01  0.541968484565E+01
  0.728638205611E+00  0.607191271827E+01  0.521977114369E+01
  0.145073904198E+01  0.571690068349E+01  0.455678409907E+01
  0.212207000000E+01  0.558730000000E+01  0.295352000000E+01
 -0.729952768519E+01 -0.326924244226E+01  0.368985011590E+01
 -0.593165315970E+01 -0.434693470930E+01  0.495408508741E+01
 -0.455881375248E+01 -0.500526640469E+01  0.572873203928E+01
 -0.318650324745E+01 -0.540628607442E+01  0.620543695792E+01
 -0.180955580171E+01 -0.560276206451E+01  0.644492383403E+01
 -0.425228500793E+00 -0.560789328900E+01  0.645966510447E+01
  0.974317990279E+00 -0.542744152624E+01  0.624971720795E+01
  0.192164407920E+01 -0.522273953777E+01  0.548068384364E+01
  0.273585000000E+01 -0.528053000000E+01  0.306056000000E+01
 -0.730129919251E+01 -0.273621764650E+01  0.422400121740E+01
 -0.592911094924E+01 -0.363047067529E+01  0.566708307191E+01
 -0.455209714705E+01 -0.417632370315E+01  0.655303507943E+01
 -0.317536574972E+01 -0.450745482331E+01  0.709676579635E+01
 -0.179110466575E+01 -0.466826119475E+01  0.736314828158E+01
 -0.398380105457E+00 -0.467015392862E+01  0.737310380001E+01
  0.101593210652E+01 -0.451801373813E+01  0.711730083330E+01
  0.202044653041E+01 -0.444626426690E+01  0.627426088982E+01
  0.283639000000E+01 -0.458160000000E+01  0.363581000000E+01
 -0.730309115600E+01 -0.213840056790E+01  0.465271007884E+01
 -0.592774098586E+01 -0.282731219129E+01  0.624199269584E+01
 -0.454861012804E+01 -0.324782065937E+01  0.721581841027E+01
 -0.316598039694E+01 -0.350110539682E+01  0.781390742656E+01
 -0.177899900924E+01 -0.362206953600E+01  0.809941503199E+01
 -0.376209074449E+00 -0.362129291097E+01  0.810610416674E+01
  0.104134116182E+01 -0.349821198218E+01  0.781135511536E+01
  0.211512222979E+01 -0.357316831223E+01  0.689589121032E+01
  0.295176000000E+01 -0.377956000000E+01  0.404840000000E+01
 -0.730453377477E+01 -0.148955304233E+01  0.496633437478E+01
 -0.592931470259E+01 -0.195815297725E+01  0.666287958591E+01
 -0.454723021468E+01 -0.224183983077E+01  0.770333218948E+01
 -0.316329996014E+01 -0.241266471492E+01  0.833778746523E+01
 -0.177094116614E+01 -0.249035544900E+01  0.864003002941E+01
 -0.368181054794E+00 -0.248681050279E+01  0.864095543919E+01
  0.106120480799E+01 -0.239576548049E+01  0.831789889014E+01
  0.219731945987E+01 -0.262065768382E+01  0.733502118063E+01
  0.307680000000E+01 -0.291030000000E+01  0.427989000000E+01
 -0.730719640452E+01 -0.807506108455E+00  0.515744509668E+01
 -0.593279124634E+01 -0.104253510075E+01  0.692129156765E+01
 -0.455119653873E+01 -0.118492710768E+01  0.800121058447E+01
 -0.316488816396E+01 -0.126661826474E+01  0.866045493518E+01
 -0.177379775275E+01 -0.130300394967E+01  0.896804157326E+01
 -0.366529409960E+00 -0.129231460438E+01  0.897173974747E+01
  0.105099551998E+01 -0.123752361857E+01  0.861752813815E+01
  0.227253041517E+01 -0.161725139209E+01  0.757572128053E+01
  0.320592000000E+01 -0.201270000000E+01  0.431991000000E+01
 -0.731131207090E+01 -0.107572944967E+00  0.522236485076E+01
 -0.593931563871E+01 -0.105408078661E+00  0.700956528599E+01
 -0.455917683621E+01 -0.997128868853E-01  0.810450555820E+01
 -0.317425457876E+01 -0.946036378668E-01  0.877107424938E+01
 -0.178351887271E+01 -0.837226769494E-01  0.908240959652E+01
 -0.379139461476E+00 -0.731629315076E-01  0.908017972086E+01
  0.104051659047E+01 -0.461049271263E-01  0.872632981770E+01
  0.229688405602E+01 -0.587075149724E+00  0.757654249819E+01
  0.333333000000E+01 -0.112691000000E+01  0.416667000000E+01
 -0.731668559863E+01  0.591262202441E+00  0.515927355224E+01
 -0.594869665991E+01  0.833289216844E+00  0.692608610123E+01
 -0.457163155496E+01  0.983409946668E+00  0.800976592528E+01
 -0.319059522764E+01  0.108017097312E+01  0.866880556966E+01
 -0.180119053878E+01  0.113107450744E+01  0.897680112346E+01
 -0.401002591686E+00  0.115076593432E+01  0.897281575306E+01
  0.101171867542E+01  0.113409420596E+01  0.861210162741E+01
  0.217187838752E+01  0.660887604839E+00  0.767762499934E+01
  0.311477000000E+01  0.846185000000E-01  0.477384000000E+01
 -0.732316848257E+01  0.127379068232E+01  0.496910845374E+01
 -0.595985439723E+01  0.174758952265E+01  0.667347431591E+01
 -0.458937813997E+01  0.204189841758E+01  0.771793450065E+01
 -0.321117169493E+01  0.222405604986E+01  0.835726003164E+01
 -0.183098009985E+01  0.231942479966E+01  0.865127702566E+01
 -0.430992714977E+00  0.233948395046E+01  0.865055377152E+01
  0.966844543301E+00  0.228799045024E+01  0.828639860780E+01
  0.203459516575E+01  0.187952130210E+01  0.749491923385E+01
  0.287533000000E+01  0.141185000000E+01  0.502046000000E+01
 -0.732976358766E+01  0.192195050085E+01  0.465682048317E+01
 -0.597354376185E+01  0.261712968678E+01  0.625592491043E+01
 -0.460897420544E+01  0.304731549687E+01  0.723842577505E+01
 -0.324077951756E+01  0.331291808794E+01  0.783920262514E+01
 -0.186454645960E+01  0.344841676918E+01  0.811991802068E+01
 -0.477360777044E+00  0.347065575357E+01  0.811854566530E+01
  0.918810701178E+00  0.338158071587E+01  0.778063690580E+01
  0.187258915732E+01  0.304398306467E+01  0.704366189456E+01
  0.263311000000E+01  0.275453000000E+01  0.488788000000E+01
 -0.733517798858E+01  0.251985502667E+01  0.422796900289E+01
 -0.598741314574E+01  0.341974344384E+01  0.568482648476E+01
 -0.463285321705E+01  0.397625357948E+01  0.657928436954E+01
 -0.327213853886E+01  0.431830218603E+01  0.712858828938E+01
 -0.190872448438E+01  0.449106051419E+01  0.739009837325E+01
 -0.530562801512E+00  0.451513441818E+01  0.739400522363E+01
  0.851559201136E+00  0.438571316734E+01  0.709348046114E+01
  0.171569434390E+01  0.410853317448E+01  0.636745810509E+01
  0.240640000000E+01  0.401125000000E+01  0.438612000000E+01
 -0.733999587032E+01  0.305309410011E+01  0.369374567427E+01
 -0.600441500518E+01  0.414156179271E+01  0.496934074610E+01
 -0.465906798996E+01  0.481058386483E+01  0.575638005066E+01
 -0.331080574212E+01  0.522185493246E+01  0.623970904331E+01
 -0.195730004160E+01  0.543130782178E+01  0.648065312392E+01
 -0.595219583158E+00  0.545427007177E+01  0.649355706226E+01
  0.775734328050E+00  0.529508605118E+01  0.624169729883E+01
  0.155477938797E+01  0.504391464651E+01  0.550536762902E+01
  0.221231000000E+01  0.508710000000E+01  0.355309000000E+01
  0.500000000000E+01 -0.169037000000E+01  0.489859000002E-15
  0.527591000000E+01 -0.788220000000E+00  0.391887000001E-15
  0.575887000000E+01 -0.658810000000E+00  0.391887000000E-15
  0.624183000000E+01 -0.529401000000E+00  0.391887000000E-15
  0.672480000000E+01 -0.399991000000E+00  0.391887000000E-15
  0.720776000000E+01 -0.270582000000E+00  0.391887000000E-15
  0.769072000000E+01 -0.141172000000E+00  0.391887000000E-15
  0.817369000000E+01 -0.117629000000E-01  0.391887000000E-15
  0.865665000000E+01  0.117647000000E+00  0.391887000000E-15
  0.913961000000E+01  0.247056000000E+00  0.391887000000E-15
  0.962257000000E+01  0.376466000000E+00  0.391887000000E-15
  0.467964420919E+01 -0.160999201610E+00  0.391887000000E-15
  0.508426762004E+01  0.473859862661E+00  0.313510000000E-15
  0.556885117149E+01  0.580424204357E+00  0.313510000000E-15
  0.603932739417E+01  0.710849881642E+00  0.313510000000E-15
  0.650596085686E+01  0.839502286472E+00  0.313510000000E-15
  0.697098913400E+01  0.966571423511E+00  0.313510000000E-15
  0.743566161742E+01  0.109251510692E+01  0.313510000000E-15
  0.790038933701E+01  0.121790744937E+01  0.313510000000E-15
  0.836530933212E+01  0.134339091486E+01  0.313510000000E-15
  0.883048625436E+01  0.146926015670E+01  0.313510000000E-15
  0.929129000000E+01  0.161285000000E+01  0.313510000000E-15
  0.445391521355E+01  0.137663982048E+01  0.293915000000E-15
  0.490122808850E+01  0.171415127400E+01  0.235132000000E-15
  0.537179831177E+01  0.184711630793E+01  0.235132000000E-15
  0.582056136275E+01  0.197984167582E+01  0.235132000000E-15
  0.626438141251E+01  0.210721687947E+01  0.235132000000E-15
  0.670853141007E+01  0.223030457241E+01  0.235132000000E-15
  0.715399192422E+01  0.235180940911E+01  0.235132000000E-15
  0.760099606664E+01  0.247272399662E+01  0.235132000000E-15
  0.804986146238E+01  0.259351596040E+01  0.235132000000E-15
  0.850141498723E+01  0.271679966775E+01  0.235132000000E-15
  0.896000000000E+01  0.284924000000E+01  0.235132000000E-15
  0.410028095346E+01  0.289008039409E+01  0.195943000000E-15
  0.460355802164E+01  0.292771205419E+01  0.156755000000E-15
  0.505182996323E+01  0.310815568699E+01  0.156755000000E-15
  0.549071935766E+01  0.324775536662E+01  0.156755000000E-15
  0.593100757128E+01  0.337253106874E+01  0.156755000000E-15
  0.637321634298E+01  0.349382099533E+01  0.156755000000E-15
  0.681774854684E+01  0.361377273796E+01  0.156755000000E-15
  0.726431825722E+01  0.373347735528E+01  0.156755000000E-15
  0.771293854881E+01  0.385344492322E+01  0.156755000000E-15
  0.816539342389E+01  0.397204791844E+01  0.156755000000E-15
  0.862871000000E+01  0.408562000000E+01  0.156755000000E-15
  0.351757941706E+01  0.445270672753E+01  0.979717000000E-16
  0.414641517971E+01  0.413943990846E+01  0.783774000000E-16
  0.457841431850E+01  0.433824017538E+01  0.783774000000E-16
  0.503566940374E+01  0.446798113499E+01  0.783774000000E-16
  0.549721967709E+01  0.459495637583E+01  0.783774000000E-16
  0.596126376560E+01  0.471966769346E+01  0.783774000000E-16
  0.642653435209E+01  0.484411567496E+01  0.783774000000E-16
  0.689246744387E+01  0.496854559244E+01  0.783774000000E-16
  0.735892293615E+01  0.509270567243E+01  0.783774000000E-16
  0.782577304870E+01  0.521643335368E+01  0.783774000000E-16
  0.829742000000E+01  0.532201000000E+01  0.783774000003E-16
  0.292945000000E+01  0.603704000000E+01  0.120659602894E-26
  0.361947000000E+01  0.539371000000E+01  0.648427195108E-27
  0.410243000000E+01  0.552311000000E+01  0.197038825643E-27
  0.458539000000E+01  0.565252000000E+01  0.283787521060E-27
  0.506835000000E+01  0.578193000000E+01  0.291030761127E-27
  0.555132000000E+01  0.591134000000E+01  0.290672321075E-27
  0.603428000000E+01  0.604075000000E+01  0.287285949364E-27
  0.651724000000E+01  0.617016000000E+01  0.283279892345E-27
  0.700021000000E+01  0.629957000000E+01  0.278419700978E-27
  0.748317000000E+01  0.642898000000E+01  0.252247586327E-27
  0.796613000000E+01  0.655839000000E+01  0.900748564688E-28
  0.498725000000E+01 -0.164280000000E+01  0.625738000000E+00
  0.526571000000E+01 -0.750165000000E+00  0.500590000000E+00
  0.574867000000E+01 -0.620756000000E+00  0.500590000000E+00
  0.623164000000E+01 -0.491346000000E+00  0.500590000000E+00
  0.671460000000E+01 -0.361937000000E+00  0.500590000000E+00
  0.719756000000E+01 -0.232527000000E+00  0.500590000000E+00
  0.768053000000E+01 -0.103118000000E+00  0.500590000000E+00
  0.816349000000E+01  0.262920000000E-01  0.500590000000E+00
  0.864645000000E+01  0.155702000000E+00  0.500590000000E+00
  0.912941000000E+01  0.285111000000E+00  0.500590000000E+00
  0.961238000000E+01  0.414521000000E+00  0.500590000000E+00
  0.466901281173E+01 -0.155284405193E+00  0.767305062545E+00
  0.507430258914E+01  0.476215810390E+00  0.607107906471E+00
  0.555754126563E+01  0.583773179896E+00  0.620813490509E+00
  0.602859731872E+01  0.714520134900E+00  0.624496224164E+00
  0.649657715097E+01  0.843391020556E+00  0.625542106833E+00
  0.696317814278E+01  0.970791899150E+00  0.625669931845E+00
  0.742943867923E+01  0.109710372678E+01  0.625507817593E+00
  0.789567134308E+01  0.122284624213E+01  0.625254435823E+00
  0.836201832357E+01  0.134862150344E+01  0.624795323455E+00
  0.882841208650E+01  0.147456240676E+01  0.623601687932E+00
  0.929009000000E+01  0.161731000000E+01  0.618286000000E+00
  0.443394734725E+01  0.137522390443E+01  0.824286598313E+00
  0.488604926803E+01  0.171034613337E+01  0.666677834676E+00
  0.535622163156E+01  0.184302939046E+01  0.686295835689E+00
  0.580625019995E+01  0.197557499309E+01  0.694574442285E+00
  0.625236346359E+01  0.210319053218E+01  0.697117805676E+00
  0.669917414887E+01  0.222681122268E+01  0.697031197979E+00
  0.714731655530E+01  0.234894666262E+01  0.696133171363E+00
  0.759684313653E+01  0.247046579725E+01  0.694883780872E+00
  0.804789899568E+01  0.259177506861E+01  0.692787173398E+00
  0.850107705386E+01  0.271532068588E+01  0.688545323578E+00
  0.896044000000E+01  0.284757000000E+01  0.680162000000E+00
  0.407670886546E+01  0.289481146382E+01  0.820369862912E+00
  0.458656177769E+01  0.292845310306E+01  0.668473282534E+00
  0.503507873659E+01  0.310676276128E+01  0.686988803970E+00
  0.547552385202E+01  0.324562291920E+01  0.696123286019E+00
  0.591822984621E+01  0.337058812076E+01  0.698365567265E+00
  0.636320963717E+01  0.349240595299E+01  0.697857337241E+00
  0.681047967886E+01  0.361301714677E+01  0.696628454876E+00
  0.725957748782E+01  0.373338492152E+01  0.695174036207E+00
  0.771037890331E+01  0.385396986355E+01  0.692969096933E+00
  0.816436162601E+01  0.397315065464E+01  0.688663757908E+00
  0.862826000000E+01  0.408729000000E+01  0.680162000000E+00
  0.350301309472E+01  0.445132174455E+01  0.762115214466E+00
  0.413490918455E+01  0.413564871035E+01  0.610967831171E+00
  0.456819550759E+01  0.433047820559E+01  0.625891220103E+00
  0.502728866314E+01  0.445979003395E+01  0.627280859944E+00
  0.549076628259E+01  0.458709450570E+01  0.626689870385E+00
  0.595661473899E+01  0.471223581970E+01  0.625822064817E+00
  0.642354573147E+01  0.483713053335E+01  0.625178409201E+00
  0.689097189470E+01  0.496198491672E+01  0.624742221563E+00
  0.735875536929E+01  0.508657347795E+01  0.624269800965E+00
  0.782663795788E+01  0.521082147175E+01  0.623211943550E+00
  0.829861000000E+01  0.531755000000E+01  0.618286000000E+00
  0.294219000000E+01  0.598947000000E+01  0.625738000000E+00
  0.362966000000E+01  0.535565000000E+01  0.500590000000E+00
  0.411263000000E+01  0.548506000000E+01  0.500590000000E+00
  0.459559000000E+01  0.561447000000E+01  0.500590000000E+00
  0.507855000000E+01  0.574388000000E+01  0.500590000000E+00
  0.556151000000E+01  0.587329000000E+01  0.500590000000E+00
  0.604448000000E+01  0.600270000000E+01  0.500590000000E+00
  0.652744000000E+01  0.613211000000E+01  0.500590000000E+00
  0.701040000000E+01  0.626152000000E+01  0.500590000000E+00
  0.749337000000E+01  0.639093000000E+01  0.500590000000E+00
  0.797633000000E+01  0.652034000000E+01  0.500590000000E+00
  0.494933000000E+01 -0.150127000000E+01  0.123607000000E+01
  0.523537000000E+01 -0.636938000000E+00  0.988854000000E+00
  0.571833000000E+01 -0.507528000000E+00  0.988854000000E+00
  0.620130000000E+01 -0.378118000000E+00  0.988854000000E+00
  0.668426000000E+01 -0.248709000000E+00  0.988854000000E+00
  0.716722000000E+01 -0.119299000000E+00  0.988854000000E+00
  0.765019000000E+01  0.101101000000E-01  0.988854000000E+00
  0.813315000000E+01  0.139520000000E+00  0.988854000000E+00
  0.861611000000E+01  0.268929000000E+00  0.988854000000E+00
  0.909907000000E+01  0.398339000000E+00  0.988854000000E+00
  0.958204000000E+01  0.527748000000E+00  0.988854000000E+00
  0.463045627960E+01 -0.945212907711E-01  0.152461290901E+01
  0.503852623712E+01  0.519722958383E+00  0.120669203102E+01
  0.551830090171E+01  0.630497995629E+00  0.122927357608E+01
  0.599122131805E+01  0.762010130975E+00  0.123462573822E+01
  0.646285923483E+01  0.891572922455E+00  0.123599385872E+01
  0.693349671761E+01  0.101993312792E+01  0.123611204885E+01
  0.740372814408E+01  0.114714122491E+01  0.123585774826E+01
  0.787378563048E+01  0.127371393844E+01  0.123552347469E+01
  0.834361269886E+01  0.140029129248E+01  0.123491086349E+01
  0.881305390118E+01  0.152644421315E+01  0.123320746845E+01
  0.927681000000E+01  0.166687000000E+01  0.122425000000E+01
  0.437328407359E+01  0.139348126262E+01  0.164582203243E+01
  0.483844469988E+01  0.171694874462E+01  0.132448197421E+01
  0.530690283236E+01  0.184937983541E+01  0.135970214148E+01
  0.576073653987E+01  0.198152494344E+01  0.137282002827E+01
  0.621354326883E+01  0.210999607378E+01  0.137620562373E+01
  0.666797832508E+01  0.223525924138E+01  0.137567437126E+01
  0.712367851435E+01  0.235913794776E+01  0.137414559326E+01
  0.758025427051E+01  0.248233072379E+01  0.137226211852E+01
  0.803743995448E+01  0.260509998702E+01  0.136913925802E+01
  0.849527381433E+01  0.272942235884E+01  0.136244144003E+01
  0.895686000000E+01  0.286093000000E+01  0.134800000000E+01
  0.401705854060E+01  0.288671790650E+01  0.163777505251E+01
  0.454296344978E+01  0.291296632693E+01  0.132723479006E+01
  0.499193088637E+01  0.308440219907E+01  0.136131358132E+01
  0.543709379072E+01  0.322117195297E+01  0.137583506028E+01
  0.588699569375E+01  0.334671965903E+01  0.137846663524E+01
  0.633997349472E+01  0.347008397098E+01  0.137712607700E+01
  0.679497795054E+01  0.359255666421E+01  0.137501386532E+01
  0.725116223355E+01  0.371482566314E+01  0.137278398916E+01
  0.770803145731E+01  0.383713802746E+01  0.136948146359E+01
  0.816642165288E+01  0.395797255141E+01  0.136267621556E+01
  0.863184000000E+01  0.407393000000E+01  0.134800000000E+01
  0.347916952121E+01  0.439992461860E+01  0.151708832482E+01
  0.411547937310E+01  0.408857865338E+01  0.121246279930E+01
  0.455272203710E+01  0.427213575728E+01  0.123748974982E+01
  0.501669613990E+01  0.440090972828E+01  0.123899598499E+01
  0.548522768278E+01  0.452908878625E+01  0.123767836606E+01
  0.595576789651E+01  0.465526590082E+01  0.123620704573E+01
  0.642676825431E+01  0.478126665902E+01  0.123523481231E+01
  0.689785139512E+01  0.490722007500E+01  0.123463678980E+01
  0.736888038955E+01  0.503276901046E+01  0.123401896855E+01
  0.783934452830E+01  0.515828199059E+01  0.123253925518E+01
  0.831189000000E+01  0.526799000000E+01  0.122425000000E+01
  0.298012000000E+01  0.584793000000E+01  0.123607000000E+01
  0.366000000000E+01  0.524242000000E+01  0.988854000000E+00
  0.414296000000E+01  0.537183000000E+01  0.988854000000E+00
  0.462593000000E+01  0.550124000000E+01  0.988854000000E+00
  0.510889000000E+01  0.563065000000E+01  0.988854000000E+00
  0.559185000000E+01  0.576006000000E+01  0.988854000000E+00
  0.607482000000E+01  0.588947000000E+01  0.988854000000E+00
  0.655778000000E+01  0.601888000000E+01  0.988854000000E+00
  0.704074000000E+01  0.614829000000E+01  0.988854000000E+00
  0.752371000000E+01  0.627770000000E+01  0.988854000000E+00
  0.800667000000E+01  0.640711000000E+01  0.988854000000E+00
  0.488716000000E+01 -0.126925000000E+01  0.181596000000E+01
  0.518564000000E+01 -0.451325000000E+00  0.145277000000E+01
  0.566860000000E+01 -0.321916000000E+00  0.145277000000E+01
  0.615156000000E+01 -0.192506000000E+00  0.145277000000E+01
  0.663453000000E+01 -0.630967000000E-01  0.145277000000E+01
  0.711749000000E+01  0.663128000000E-01  0.145277000000E+01
  0.760045000000E+01  0.195722000000E+00  0.145277000000E+01
  0.808341000000E+01  0.325132000000E+00  0.145277000000E+01
  0.856638000000E+01  0.454541000000E+00  0.145277000000E+01
  0.904934000000E+01  0.583951000000E+00  0.145277000000E+01
  0.953230000000E+01  0.713360000000E+00  0.145277000000E+01
  0.456793089352E+01  0.195217193670E-01  0.226204665046E+01
  0.498003635614E+01  0.603481799523E+00  0.178946909221E+01
  0.545558016774E+01  0.719882445732E+00  0.181266458003E+01
  0.593235667370E+01  0.852363510939E+00  0.181662734610E+01
  0.640945327038E+01  0.983247841434E+00  0.181762468409E+01
  0.688555275984E+01  0.111253972221E+01  0.181771316847E+01
  0.736108142958E+01  0.124080090850E+01  0.181749047707E+01
  0.783625168042E+01  0.136848526931E+01  0.181721229591E+01
  0.831118503878E+01  0.149592329217E+01  0.181687260723E+01
  0.878483407955E+01  0.162280575067E+01  0.181572669791E+01
  0.925190000000E+01  0.175986000000E+01  0.180586000000E+01
  0.428205233988E+01  0.142883574183E+01  0.246068597705E+01
  0.476263441037E+01  0.173391332483E+01  0.196584841829E+01
  0.522800708666E+01  0.186612395804E+01  0.200708419177E+01
  0.568920626973E+01  0.199789480470E+01  0.201830257262E+01
  0.615334963210E+01  0.212833907136E+01  0.202034015644E+01
  0.661948830202E+01  0.225584171236E+01  0.201937818477E+01
  0.708627891225E+01  0.238215187130E+01  0.201783458529E+01
  0.755311480161E+01  0.250774091874E+01  0.201621107951E+01
  0.801953535663E+01  0.263258967618E+01  0.201378023365E+01
  0.848418987964E+01  0.275827453835E+01  0.200776228710E+01
  0.894940000000E+01  0.288877000000E+01  0.199149000000E+01
  0.392932912110E+01  0.286467588887E+01  0.245029043107E+01
  0.447549626440E+01  0.288153861820E+01  0.196821973382E+01
  0.492511911469E+01  0.304168907557E+01  0.200976032179E+01
  0.537933937461E+01  0.317586612910E+01  0.202208263782E+01
  0.584195111239E+01  0.330279116467E+01  0.202284399326E+01
  0.630737689675E+01  0.342869687566E+01  0.202094165528E+01
  0.677379225751E+01  0.355401225333E+01  0.201878405060E+01
  0.724032614285E+01  0.367909174915E+01  0.201680870770E+01
  0.770632769928E+01  0.380416350238E+01  0.201420450252E+01
  0.817130328999E+01  0.392728239181E+01  0.200808210394E+01
  0.863930000000E+01  0.404608000000E+01  0.199149000000E+01
  0.345722197329E+01  0.429510767745E+01  0.225404035789E+01
  0.409370333046E+01  0.399964874034E+01  0.179412526345E+01
  0.453701760183E+01  0.416665924325E+01  0.182135819010E+01
  0.500846882110E+01  0.429512867174E+01  0.182078426184E+01
  0.548467749829E+01  0.442407000051E+01  0.181894429672E+01
  0.596126163705E+01  0.455178259471E+01  0.181757800036E+01
  0.643752029591E+01  0.467926477597E+01  0.181672127366E+01
  0.691338672048E+01  0.480663059828E+01  0.181623902901E+01
  0.738898428353E+01  0.493387340411E+01  0.181591013645E+01
  0.786320748405E+01  0.506078046778E+01  0.181498551033E+01
  0.833681000000E+01  0.517500000000E+01  0.180586000000E+01
  0.304229000000E+01  0.561592000000E+01  0.181596000000E+01
  0.370974000000E+01  0.505681000000E+01  0.145277000000E+01
  0.419270000000E+01  0.518622000000E+01  0.145277000000E+01
  0.467566000000E+01  0.531563000000E+01  0.145277000000E+01
  0.515863000000E+01  0.544504000000E+01  0.145277000000E+01
  0.564159000000E+01  0.557445000000E+01  0.145277000000E+01
  0.612455000000E+01  0.570386000000E+01  0.145277000000E+01
  0.660751000000E+01  0.583327000000E+01  0.145277000000E+01
  0.709048000000E+01  0.596268000000E+01  0.145277000000E+01
  0.757344000000E+01  0.609209000000E+01  0.145277000000E+01
  0.805640000000E+01  0.622150000000E+01  0.145277000000E+01
  0.480228000000E+01 -0.952469000000E+00  0.235114000000E+01
  0.511773000000E+01 -0.197899000000E+00  0.188091000000E+01
  0.560069000000E+01 -0.684892000000E-01  0.188091000000E+01
  0.608366000000E+01  0.609204000000E-01  0.188091000000E+01
  0.656662000000E+01  0.190330000000E+00  0.188091000000E+01
  0.704958000000E+01  0.319739000000E+00  0.188091000000E+01
  0.753255000000E+01  0.449149000000E+00  0.188091000000E+01
  0.801551000000E+01  0.578558000000E+00  0.188091000000E+01
  0.849847000000E+01  0.707968000000E+00  0.188091000000E+01
  0.898143000000E+01  0.837378000000E+00  0.188091000000E+01
  0.946440000000E+01  0.966787000000E+00  0.188091000000E+01
  0.448474841291E+01  0.176562420372E+00  0.296948782936E+01
  0.490060069054E+01  0.729588314243E+00  0.234419206422E+01
  0.537645088737E+01  0.852243572712E+00  0.235707844292E+01
  0.585985567622E+01  0.986532355128E+00  0.235846544601E+01
  0.634264852221E+01  0.111669116230E+01  0.235902093759E+01
  0.682409039817E+01  0.124632189594E+01  0.235906212366E+01
  0.730479585131E+01  0.137532813622E+01  0.235895077869E+01
  0.778507367594E+01  0.150405884610E+01  0.235886544618E+01
  0.826510922491E+01  0.163298953057E+01  0.235860252222E+01
  0.874541968536E+01  0.176028125103E+01  0.235895467083E+01
  0.921608000000E+01  0.189354000000E+01  0.235170000000E+01
  0.416965733128E+01  0.148207685387E+01  0.326477532054E+01
  0.466329053118E+01  0.176263245825E+01  0.258383560789E+01
  0.512854196959E+01  0.189546619634E+01  0.261260398348E+01
  0.560434528153E+01  0.202869723612E+01  0.261560244892E+01
  0.608304000008E+01  0.215999443266E+01  0.261649252592E+01
  0.656203548591E+01  0.228928822712E+01  0.261581176636E+01
  0.704032678311E+01  0.241788192465E+01  0.261509109132E+01
  0.751790163223E+01  0.254603509988E+01  0.261444807503E+01
  0.799472120325E+01  0.267354604309E+01  0.261334158600E+01
  0.846934758285E+01  0.280082391939E+01  0.261177492949E+01
  0.893831000000E+01  0.293018000000E+01  0.259920000000E+01
  0.382072186228E+01  0.283267240196E+01  0.325878062187E+01
  0.438700384266E+01  0.283430334112E+01  0.258548837372E+01
  0.484145187776E+01  0.298012531756E+01  0.261543811142E+01
  0.531461226043E+01  0.311279611506E+01  0.261797447954E+01
  0.579375902597E+01  0.324235200964E+01  0.261790192949E+01
  0.627287262188E+01  0.337146840942E+01  0.261671068586E+01
  0.675121025983E+01  0.349986753923E+01  0.261566544386E+01
  0.722873752930E+01  0.362786293311E+01  0.261484601687E+01
  0.770527822155E+01  0.375582072014E+01  0.261364952351E+01
  0.817978517098E+01  0.388269293032E+01  0.261206290752E+01
  0.865040000000E+01  0.400468000000E+01  0.259920000000E+01
  0.343912586622E+01  0.414518559091E+01  0.296180207966E+01
  0.407246106607E+01  0.386859741644E+01  0.234654832870E+01
  0.452598734292E+01  0.401714447518E+01  0.236327335696E+01
  0.501069299306E+01  0.414519812267E+01  0.236020036772E+01
  0.549376949308E+01  0.427637691276E+01  0.235947841733E+01
  0.597591490087E+01  0.440578135320E+01  0.235870614558E+01
  0.645705060534E+01  0.453485671730E+01  0.235832753752E+01
  0.693762699557E+01  0.466367057094E+01  0.235816328536E+01
  0.741806892248E+01  0.479206413484E+01  0.235793113740E+01
  0.789793480971E+01  0.492195858998E+01  0.235837471877E+01
  0.837263000000E+01  0.504132000000E+01  0.235170000000E+01
  0.312717000000E+01  0.529913000000E+01  0.235114000000E+01
  0.377764000000E+01  0.480338000000E+01  0.188091000000E+01
  0.426060000000E+01  0.493279000000E+01  0.188091000000E+01
  0.474357000000E+01  0.506220000000E+01  0.188091000000E+01
  0.522653000000E+01  0.519161000000E+01  0.188091000000E+01
  0.570949000000E+01  0.532102000000E+01  0.188091000000E+01
  0.619246000000E+01  0.545043000000E+01  0.188091000000E+01
  0.667542000000E+01  0.557984000000E+01  0.188091000000E+01
  0.715838000000E+01  0.570925000000E+01  0.188091000000E+01
  0.764135000000E+01  0.583866000000E+01  0.188091000000E+01
  0.812431000000E+01  0.596807000000E+01  0.188091000000E+01
  0.469677000000E+01 -0.558718000000E+00  0.282843000000E+01
  0.503333000000E+01  0.117102000000E+00  0.226274000000E+01
  0.551629000000E+01  0.246512000000E+00  0.226274000000E+01
  0.599925000000E+01  0.375921000000E+00  0.226274000000E+01
  0.648222000000E+01  0.505331000000E+00  0.226274000000E+01
  0.696518000000E+01  0.634740000000E+00  0.226274000000E+01
  0.744814000000E+01  0.764150000000E+00  0.226274000000E+01
  0.793110000000E+01  0.893559000000E+00  0.226274000000E+01
  0.841407000000E+01  0.102297000000E+01  0.226274000000E+01
  0.889703000000E+01  0.115238000000E+01  0.226274000000E+01
  0.937999000000E+01  0.128179000000E+01  0.226274000000E+01
  0.443473000000E+01  0.419249000000E+00  0.356403000000E+01
  0.482369000000E+01  0.899475000000E+00  0.285122000000E+01
  0.530665000000E+01  0.102888000000E+01  0.285122000000E+01
  0.578962000000E+01  0.115829000000E+01  0.285122000000E+01
  0.627258000000E+01  0.128770000000E+01  0.285122000000E+01
  0.675554000000E+01  0.141711000000E+01  0.285122000000E+01
  0.723851000000E+01  0.154652000000E+01  0.285122000000E+01
  0.772147000000E+01  0.167593000000E+01  0.285122000000E+01
  0.820443000000E+01  0.180534000000E+01  0.285122000000E+01
  0.868739000000E+01  0.193475000000E+01  0.285122000000E+01
  0.917036000000E+01  0.206416000000E+01  0.285122000000E+01
  0.412668000000E+01  0.156892000000E+01  0.395075000000E+01
  0.457725000000E+01  0.181921000000E+01  0.316060000000E+01
  0.506021000000E+01  0.194862000000E+01  0.316060000000E+01
  0.554317000000E+01  0.207803000000E+01  0.316060000000E+01
  0.602614000000E+01  0.220744000000E+01  0.316060000000E+01
  0.650910000000E+01  0.233685000000E+01  0.316060000000E+01
  0.699206000000E+01  0.246626000000E+01  0.316060000000E+01
  0.747503000000E+01  0.259567000000E+01  0.316060000000E+01
  0.795799000000E+01  0.272508000000E+01  0.316060000000E+01
  0.844095000000E+01  0.285449000000E+01  0.316060000000E+01
  0.892392000000E+01  0.298390000000E+01  0.316060000000E+01
  0.380277000000E+01  0.277775000000E+01  0.395075000000E+01
  0.431812000000E+01  0.278628000000E+01  0.316060000000E+01
  0.480109000000E+01  0.291569000000E+01  0.316060000000E+01
  0.528405000000E+01  0.304509000000E+01  0.316060000000E+01
  0.576701000000E+01  0.317450000000E+01  0.316060000000E+01
  0.624998000000E+01  0.330391000000E+01  0.316060000000E+01
  0.673294000000E+01  0.343332000000E+01  0.316060000000E+01
  0.721590000000E+01  0.356273000000E+01  0.316060000000E+01
  0.769886000000E+01  0.369214000000E+01  0.316060000000E+01
  0.818183000000E+01  0.382155000000E+01  0.316060000000E+01
  0.866479000000E+01  0.395096000000E+01  0.316060000000E+01
  0.349472000000E+01  0.392742000000E+01  0.356403000000E+01
  0.407168000000E+01  0.370601000000E+01  0.285122000000E+01
  0.455465000000E+01  0.383542000000E+01  0.285122000000E+01
  0.503761000000E+01  0.396483000000E+01  0.285122000000E+01
  0.552057000000E+01  0.409424000000E+01  0.285122000000E+01
  0.600353000000E+01  0.422365000000E+01  0.285122000000E+01
  0.648650000000E+01  0.435306000000E+01  0.285122000000E+01
  0.696946000000E+01  0.448247000000E+01  0.285122000000E+01
  0.745242000000E+01  0.461188000000E+01  0.285122000000E+01
  0.793539000000E+01  0.474129000000E+01  0.285122000000E+01
  0.841835000000E+01  0.487070000000E+01  0.285122000000E+01
  0.323267000000E+01  0.490538000000E+01  0.282843000000E+01
  0.386205000000E+01  0.448838000000E+01  0.226274000000E+01
  0.434501000000E+01  0.461779000000E+01  0.226274000000E+01
  0.482797000000E+01  0.474720000000E+01  0.226274000000E+01
  0.531093000000E+01  0.487661000000E+01  0.226274000000E+01
  0.579390000000E+01  0.500602000000E+01  0.226274000000E+01
  0.627686000000E+01  0.513543000000E+01  0.226274000000E+01
  0.675982000000E+01  0.526484000000E+01  0.226274000000E+01
  0.724279000000E+01  0.539425000000E+01  0.226274000000E+01
  0.772575000000E+01  0.552366000000E+01  0.226274000000E+01
  0.820871000000E+01  0.565307000000E+01  0.226274000000E+01
  0.560370000000E+01 -0.185213000000E+01  0.275546000000E-15
  0.620741000000E+01 -0.201389000000E+01  0.275546000000E-15
  0.681111000000E+01 -0.217566000000E+01  0.275546000000E-15
  0.741481000000E+01 -0.233742000000E+01  0.275546000000E-15
  0.801852000000E+01 -0.249918000000E+01  0.275546000000E-15
  0.862222000000E+01 -0.266094000000E+01  0.275546000000E-15
  0.922593000000E+01 -0.282270000000E+01  0.275546000000E-15
  0.982963000000E+01 -0.298447000000E+01  0.275546000000E-15
  0.494767850865E+01 -0.258734007337E+01  0.220436000000E-15
  0.553952281429E+01 -0.275430233657E+01  0.220436000000E-15
  0.611003539183E+01 -0.290844047510E+01  0.220436000000E-15
  0.668162897358E+01 -0.306283198752E+01  0.220436000000E-15
  0.725876404689E+01 -0.321792901245E+01  0.220436000000E-15
  0.784031336240E+01 -0.337399857747E+01  0.220436000000E-15
  0.842465388632E+01 -0.353085488059E+01  0.220436000000E-15
  0.901103340320E+01 -0.368747323693E+01  0.220436000000E-15
  0.959669000000E+01 -0.385380000000E+01  0.220436000000E-15
  0.478332650451E+01 -0.346307590556E+01  0.165327000000E-15
  0.536998667738E+01 -0.364465331073E+01  0.165327000000E-15
  0.593140979678E+01 -0.380129955246E+01  0.165327000000E-15
  0.649213786779E+01 -0.395216145143E+01  0.165327000000E-15
  0.705789611433E+01 -0.410315537845E+01  0.165327000000E-15
  0.762848684238E+01 -0.425540535682E+01  0.165327000000E-15
  0.820261023524E+01 -0.440861624130E+01  0.165327000000E-15
  0.877973548498E+01 -0.456313570371E+01  0.165327000000E-15
  0.936375000000E+01 -0.472313000000E+01  0.165327000000E-15
  0.454017570601E+01 -0.432456346870E+01  0.110218000000E-15
  0.511866877535E+01 -0.452139848541E+01  0.110218000000E-15
  0.568142919959E+01 -0.467975874337E+01  0.110218000000E-15
  0.624637289745E+01 -0.483075573538E+01  0.110218000000E-15
  0.681591212359E+01 -0.498178387048E+01  0.110218000000E-15
  0.738934420996E+01 -0.513394557068E+01  0.110218000000E-15
  0.796535740141E+01 -0.528731087576E+01  0.110218000000E-15
  0.854396575158E+01 -0.544105104324E+01  0.110218000000E-15
  0.913082000000E+01 -0.559247000000E+01  0.110218000000E-15
  0.421708288092E+01 -0.518424823806E+01  0.551091000000E-16
  0.478998423850E+01 -0.537391404893E+01  0.551091000000E-16
  0.537074174987E+01 -0.553094160939E+01  0.551091000000E-16
  0.595463300252E+01 -0.568696733181E+01  0.551091000000E-16
  0.654110219652E+01 -0.584269052210E+01  0.551091000000E-16
  0.712888105488E+01 -0.599912935755E+01  0.551091000000E-16
  0.771739556126E+01 -0.615589413267E+01  0.551091000000E-16
  0.830616671036E+01 -0.631358610791E+01  0.551091000000E-16
  0.889788000000E+01 -0.646180000000E+01  0.551091000003E-16
  0.383531000000E+01 -0.603704000000E+01  0.957087644984E-27
  0.443902000000E+01 -0.619880000000E+01  0.206955562719E-27
  0.504272000000E+01 -0.636056000000E+01  0.247704855037E-27
  0.564643000000E+01 -0.652232000000E+01  0.238023783226E-27
  0.625013000000E+01 -0.668408000000E+01  0.228288015570E-27
  0.685383000000E+01 -0.684585000000E+01  0.218662621221E-27
  0.745754000000E+01 -0.700761000000E+01  0.211632300227E-27
  0.806124000000E+01 -0.716937000000E+01  0.194759420065E-27
  0.866494000000E+01 -0.733113000000E+01  0.706000183197E-28
  0.499283000000E+01 -0.171713000000E+01  0.351978000000E+00
  0.559653000000E+01 -0.187889000000E+01  0.351978000000E+00
  0.620024000000E+01 -0.204065000000E+01  0.351978000000E+00
  0.680394000000E+01 -0.220241000000E+01  0.351978000000E+00
  0.740764000000E+01 -0.236418000000E+01  0.351978000000E+00
  0.801135000000E+01 -0.252594000000E+01  0.351978000000E+00
  0.861505000000E+01 -0.268770000000E+01  0.351978000000E+00
  0.921876000000E+01 -0.284946000000E+01  0.351978000000E+00
  0.982246000000E+01 -0.301122000000E+01  0.351978000000E+00
  0.492777944512E+01 -0.258865855753E+01  0.419648561446E+00
  0.551832827544E+01 -0.275310165742E+01  0.443631579603E+00
  0.609403491692E+01 -0.290920691792E+01  0.446104195867E+00
  0.667076619198E+01 -0.306455674365E+01  0.443614534376E+00
  0.725155276052E+01 -0.322040522439E+01  0.441168281163E+00
  0.783558856931E+01 -0.337695792725E+01  0.439649087687E+00
  0.842172205516E+01 -0.353416431194E+01  0.438789675953E+00
  0.900939697247E+01 -0.369102785097E+01  0.438037081373E+00
  0.959585000000E+01 -0.385693000000E+01  0.434732000000E+00
  0.476152904444E+01 -0.346047524934E+01  0.455700004391E+00
  0.534712051850E+01 -0.363828660895E+01  0.486617263284E+00
  0.591340597933E+01 -0.379551768162E+01  0.492019386907E+00
  0.647959410981E+01 -0.394782024094E+01  0.490769330982E+00
  0.704987773056E+01 -0.410003970545E+01  0.488167811017E+00
  0.762386419043E+01 -0.425318805273E+01  0.486210500570E+00
  0.820046217887E+01 -0.440704710380E+01  0.484768388171E+00
  0.877929055468E+01 -0.456199226949E+01  0.482683859083E+00
  0.936407000000E+01 -0.472196000000E+01  0.478239000000E+00
  0.451978365053E+01 -0.432534972822E+01  0.455906247027E+00
  0.509782106468E+01 -0.451721682859E+01  0.485285883573E+00
  0.566512976899E+01 -0.467557620633E+01  0.491129667684E+00
  0.623482370170E+01 -0.482793303378E+01  0.489579491241E+00
  0.680827396643E+01 -0.498024481290E+01  0.487281853106E+00
  0.738465854296E+01 -0.513340434970E+01  0.485604554297E+00
  0.796291047138E+01 -0.528751474505E+01  0.484381882740E+00
  0.854306047960E+01 -0.544177748359E+01  0.482468906367E+00
  0.913050000000E+01 -0.559364000000E+01  0.478239000000E+00
  0.420450027916E+01 -0.518154772452E+01  0.423281096018E+00
  0.477843363400E+01 -0.536648933025E+01  0.440618247354E+00
  0.536247722135E+01 -0.552382413955E+01  0.441705301232E+00
  0.594912692610E+01 -0.568077356119E+01  0.440341926508E+00
  0.653766081774E+01 -0.583731638514E+01  0.439118117442E+00
  0.712700707465E+01 -0.599437963699E+01  0.438422210962E+00
  0.771680211760E+01 -0.615163090080E+01  0.438046665639E+00
  0.830660850415E+01 -0.630969421669E+01  0.437626919563E+00
  0.889872000000E+01 -0.645867000000E+01  0.434732000000E+00
  0.384248000000E+01 -0.601028000000E+01  0.351978000000E+00
  0.444619000000E+01 -0.617204000000E+01  0.351978000000E+00
  0.504989000000E+01 -0.633380000000E+01  0.351978000000E+00
  0.565359000000E+01 -0.649556000000E+01  0.351978000000E+00
  0.625730000000E+01 -0.665733000000E+01  0.351978000000E+00
  0.686100000000E+01 -0.681909000000E+01  0.351978000000E+00
  0.746471000000E+01 -0.698085000000E+01  0.351978000000E+00
  0.806841000000E+01 -0.714261000000E+01  0.351978000000E+00
  0.867211000000E+01 -0.730437000000E+01  0.351978000000E+00
  0.497150000000E+01 -0.179674000000E+01  0.695288000000E+00
  0.557520000000E+01 -0.195850000000E+01  0.695288000000E+00
  0.617891000000E+01 -0.212026000000E+01  0.695288000000E+00
  0.678261000000E+01 -0.228203000000E+01  0.695288000000E+00
  0.738631000000E+01 -0.244379000000E+01  0.695288000000E+00
  0.799002000000E+01 -0.260555000000E+01  0.695288000000E+00
  0.859372000000E+01 -0.276731000000E+01  0.695288000000E+00
  0.919742000000E+01 -0.292907000000E+01  0.695288000000E+00
  0.980113000000E+01 -0.309084000000E+01  0.695288000000E+00
  0.487465257300E+01 -0.261892037390E+01  0.841803556386E+00
  0.546210277798E+01 -0.277806916052E+01  0.874219062973E+00
  0.604983623213E+01 -0.293847917023E+01  0.877682878455E+00
  0.663835399860E+01 -0.309627242032E+01  0.874094705192E+00
  0.722737615433E+01 -0.325384363824E+01  0.870649248317E+00
  0.781711139447E+01 -0.341145657230E+01  0.868522077060E+00
  0.840740183776E+01 -0.356951365018E+01  0.867344450172E+00
  0.899821714607E+01 -0.372705820328E+01  0.866325544910E+00
  0.958652000000E+01 -0.389178000000E+01  0.860798000000E+00
  0.470435275703E+01 -0.346646549077E+01  0.915780404684E+00
  0.528702868203E+01 -0.363458957494E+01  0.961254677489E+00
  0.586482337220E+01 -0.379324770651E+01  0.969199068640E+00
  0.644443368305E+01 -0.394927838543E+01  0.967047002508E+00
  0.702591881935E+01 -0.410456263076E+01  0.963213301562E+00
  0.760840179010E+01 -0.425996660798E+01  0.960457818174E+00
  0.819137591233E+01 -0.441548632537E+01  0.958484457977E+00
  0.877472109676E+01 -0.457155713324E+01  0.955363822534E+00
  0.936155000000E+01 -0.473135000000E+01  0.947812000000E+00
  0.447284630107E+01 -0.431544626866E+01  0.914479779904E+00
  0.504956101013E+01 -0.449448399642E+01  0.959478404652E+00
  0.562750917196E+01 -0.465272641178E+01  0.967922511075E+00
  0.620887088683E+01 -0.480837951313E+01  0.965337854998E+00
  0.679197909857E+01 -0.496382843490E+01  0.961915661062E+00
  0.737580786494E+01 -0.511948437196E+01  0.959550433968E+00
  0.795977223990E+01 -0.527545250462E+01  0.957888769152E+00
  0.854405470636E+01 -0.543107601708E+01  0.955023663005E+00
  0.913302000000E+01 -0.558424000000E+01  0.947812000000E+00
  0.418238138547E+01 -0.514775715238E+01  0.844420762992E+00
  0.475925686893E+01 -0.532171671933E+01  0.870020307925E+00
  0.535069539354E+01 -0.547995883524E+01  0.871375709178E+00
  0.594376098977E+01 -0.563880744095E+01  0.869366646434E+00
  0.653696962022E+01 -0.579717304764E+01  0.867617811474E+00
  0.712994172000E+01 -0.595566755644E+01  0.866658815373E+00
  0.772276469861E+01 -0.611401976156E+01  0.866178960354E+00
  0.831510304080E+01 -0.627296098904E+01  0.865661548438E+00
  0.890806000000E+01 -0.642382000000E+01  0.860798000000E+00
  0.386382000000E+01 -0.593067000000E+01  0.695288000000E+00
  0.446752000000E+01 -0.609243000000E+01  0.695288000000E+00
  0.507122000000E+01 -0.625419000000E+01  0.695288000000E+00
  0.567493000000E+01 -0.641595000000E+01  0.695288000000E+00
  0.627863000000E+01 -0.657771000000E+01  0.695288000000E+00
  0.688233000000E+01 -0.673948000000E+01  0.695288000000E+00
  0.748604000000E+01 -0.690124000000E+01  0.695288000000E+00
  0.808974000000E+01 -0.706300000000E+01  0.695288000000E+00
  0.869345000000E+01 -0.722476000000E+01  0.695288000000E+00
  0.493653000000E+01 -0.192725000000E+01  0.102148000000E+01
  0.554023000000E+01 -0.208901000000E+01  0.102148000000E+01
  0.614394000000E+01 -0.225077000000E+01  0.102148000000E+01
  0.674764000000E+01 -0.241254000000E+01  0.102148000000E+01
  0.735134000000E+01 -0.257430000000E+01  0.102148000000E+01
  0.795505000000E+01 -0.273606000000E+01  0.102148000000E+01
  0.855875000000E+01 -0.289782000000E+01  0.102148000000E+01
  0.916245000000E+01 -0.305958000000E+01  0.102148000000E+01
  0.976616000000E+01 -0.322134000000E+01  0.102148000000E+01
  0.480824614464E+01 -0.267720221067E+01  0.125915541819E+01
  0.539395667365E+01 -0.283342139077E+01  0.128188475392E+01
  0.599439060838E+01 -0.299739685176E+01  0.128445933324E+01
  0.659421617393E+01 -0.315785443537E+01  0.128167503951E+01
  0.719149415296E+01 -0.331713705970E+01  0.127896704750E+01
  0.778737638280E+01 -0.347612465676E+01  0.127726150840E+01
  0.838292393368E+01 -0.363525735122E+01  0.127637766376E+01
  0.897794148139E+01 -0.379395003367E+01  0.127576316381E+01
  0.956900000000E+01 -0.395716000000E+01  0.126974000000E+01
  0.463256547610E+01 -0.348023087813E+01  0.137548290740E+01
  0.521279227086E+01 -0.363813808152E+01  0.141402982127E+01
  0.580452961706E+01 -0.379886559181E+01  0.142001334684E+01
  0.639953978351E+01 -0.395927831403E+01  0.141781555386E+01
  0.699358095584E+01 -0.411784898486E+01  0.141468338284E+01
  0.758594968774E+01 -0.427592091079E+01  0.141255764123E+01
  0.817709220651E+01 -0.443355556150E+01  0.141118798669E+01
  0.876645686528E+01 -0.459126509528E+01  0.140864540660E+01
  0.935631000000E+01 -0.475093000000E+01  0.140026000000E+01
  0.441614685054E+01 -0.429416108268E+01  0.137132161755E+01
  0.499247658277E+01 -0.445779425963E+01  0.141301713041E+01
  0.558345778427E+01 -0.461675526563E+01  0.141900308742E+01
  0.617863702680E+01 -0.477638006847E+01  0.141643789217E+01
  0.677286540426E+01 -0.493538485852E+01  0.141358453552E+01
  0.736559175196E+01 -0.509387566025E+01  0.141175816185E+01
  0.795704533013E+01 -0.525225018417E+01  0.141063530112E+01
  0.854695581788E+01 -0.540962806476E+01  0.140831511641E+01
  0.913827000000E+01 -0.556467000000E+01  0.140026000000E+01
  0.416198425874E+01 -0.508200678862E+01  0.125606150793E+01
  0.474362075600E+01 -0.524452086335E+01  0.127894667865E+01
  0.534317067923E+01 -0.540391895497E+01  0.127933538464E+01
  0.594293954434E+01 -0.556476055649E+01  0.127769889206E+01
  0.654115953359E+01 -0.572509297095E+01  0.127629512032E+01
  0.713837911413E+01 -0.588509053390E+01  0.127552961996E+01
  0.773524971387E+01 -0.604493571794E+01  0.127523512472E+01
  0.833121170795E+01 -0.620487984984E+01  0.127507242327E+01
  0.892558000000E+01 -0.635843000000E+01  0.126974000000E+01
  0.389879000000E+01 -0.580016000000E+01  0.102148000000E+01
  0.450249000000E+01 -0.596192000000E+01  0.102148000000E+01
  0.510619000000E+01 -0.612368000000E+01  0.102148000000E+01
  0.570990000000E+01 -0.628544000000E+01  0.102148000000E+01
  0.631360000000E+01 -0.644720000000E+01  0.102148000000E+01
  0.691730000000E+01 -0.660897000000E+01  0.102148000000E+01
  0.752101000000E+01 -0.677073000000E+01  0.102148000000E+01
  0.812471000000E+01 -0.693249000000E+01  0.102148000000E+01
  0.872841000000E+01 -0.709425000000E+01  0.102148000000E+01
  0.488878000000E+01 -0.210544000000E+01  0.132252000000E+01
  0.549249000000E+01 -0.226720000000E+01  0.132252000000E+01
  0.609619000000E+01 -0.242896000000E+01  0.132252000000E+01
  0.669989000000E+01 -0.259073000000E+01  0.132252000000E+01
  0.730360000000E+01 -0.275249000000E+01  0.132252000000E+01
  0.790730000000E+01 -0.291425000000E+01  0.132252000000E+01
  0.851100000000E+01 -0.307601000000E+01  0.132252000000E+01
  0.911471000000E+01 -0.323777000000E+01  0.132252000000E+01
  0.971841000000E+01 -0.339954000000E+01  0.132252000000E+01
  0.474321982406E+01 -0.276392200555E+01  0.165499843196E+01
  0.533452233891E+01 -0.292150853976E+01  0.165982362372E+01
  0.594083003969E+01 -0.308610033040E+01  0.166137149081E+01
  0.654565277464E+01 -0.324749385199E+01  0.166010622516E+01
  0.714776621096E+01 -0.340811266946E+01  0.165895370114E+01
  0.774835514450E+01 -0.356849633093E+01  0.165818760387E+01
  0.834849922875E+01 -0.372920194107E+01  0.165770301157E+01
  0.894944363021E+01 -0.388933284838E+01  0.165787351848E+01
  0.954381000000E+01 -0.405116000000E+01  0.165354000000E+01
  0.456265955491E+01 -0.350364126257E+01  0.182048159167E+01
  0.514788346500E+01 -0.365280130727E+01  0.183627404140E+01
  0.575160384747E+01 -0.381729985327E+01  0.183802851327E+01
  0.635677440164E+01 -0.397942236209E+01  0.183705421356E+01
  0.695904673915E+01 -0.414027795114E+01  0.183578177824E+01
  0.755897788721E+01 -0.430056947932E+01  0.183498526496E+01
  0.815780713547E+01 -0.446052707851E+01  0.183439008800E+01
  0.875527240050E+01 -0.462032135846E+01  0.183388377424E+01
  0.934851000000E+01 -0.478004000000E+01  0.182756000000E+01
  0.436272015747E+01 -0.426175361954E+01  0.181535127522E+01
  0.494599942850E+01 -0.441127295375E+01  0.183646927090E+01
  0.554911410648E+01 -0.457368751815E+01  0.183751720477E+01
  0.615385586233E+01 -0.473599496721E+01  0.183642080733E+01
  0.675578539028E+01 -0.489741427306E+01  0.183523241381E+01
  0.735566490305E+01 -0.505800781211E+01  0.183456362062E+01
  0.795448715120E+01 -0.521842376348E+01  0.183407857926E+01
  0.855208722341E+01 -0.537833295309E+01  0.183368603586E+01
  0.914607000000E+01 -0.553555000000E+01  0.182756000000E+01
  0.415048809221E+01 -0.498526673074E+01  0.164724145734E+01
  0.474134427841E+01 -0.513899543537E+01  0.165947240466E+01
  0.534634482833E+01 -0.530061327427E+01  0.165878392760E+01
  0.594972516369E+01 -0.546276641821E+01  0.165813425970E+01
  0.655159516538E+01 -0.562428902940E+01  0.165747908048E+01
  0.715253455688E+01 -0.578541582210E+01  0.165716955477E+01
  0.775335911186E+01 -0.594616473022E+01  0.165698918852E+01
  0.835452068815E+01 -0.610784471290E+01  0.165739791758E+01
  0.895076000000E+01 -0.626444000000E+01  0.165354000000E+01
  0.394653000000E+01 -0.562197000000E+01  0.132252000000E+01
  0.455024000000E+01 -0.578373000000E+01  0.132252000000E+01
  0.515394000000E+01 -0.594549000000E+01  0.132252000000E+01
  0.575764000000E+01 -0.610725000000E+01  0.132252000000E+01
  0.636135000000E+01 -0.626901000000E+01  0.132252000000E+01
  0.696505000000E+01 -0.643078000000E+01  0.132252000000E+01
  0.756875000000E+01 -0.659254000000E+01  0.132252000000E+01
  0.817246000000E+01 -0.675430000000E+01  0.132252000000E+01
  0.877616000000E+01 -0.691606000000E+01  0.132252000000E+01
  0.482944000000E+01 -0.232692000000E+01  0.159099000000E+01
  0.543314000000E+01 -0.248869000000E+01  0.159099000000E+01
  0.603684000000E+01 -0.265045000000E+01  0.159099000000E+01
  0.664055000000E+01 -0.281221000000E+01  0.159099000000E+01
  0.724425000000E+01 -0.297397000000E+01  0.159099000000E+01
  0.784795000000E+01 -0.313573000000E+01  0.159099000000E+01
  0.845166000000E+01 -0.329750000000E+01  0.159099000000E+01
  0.905536000000E+01 -0.345926000000E+01  0.159099000000E+01
  0.965906000000E+01 -0.362102000000E+01  0.159099000000E+01
  0.468204000000E+01 -0.287703000000E+01  0.200476000000E+01
  0.528574000000E+01 -0.303879000000E+01  0.200476000000E+01
  0.588944000000E+01 -0.320055000000E+01  0.200476000000E+01
  0.649315000000E+01 -0.336232000000E+01  0.200476000000E+01
  0.709685000000E+01 -0.352408000000E+01  0.200476000000E+01
  0.770055000000E+01 -0.368584000000E+01  0.200476000000E+01
  0.830426000000E+01 -0.384760000000E+01  0.200476000000E+01
  0.890796000000E+01 -0.400936000000E+01  0.200476000000E+01
  0.951166000000E+01 -0.417113000000E+01  0.200476000000E+01
  0.450876000000E+01 -0.352372000000E+01  0.222230000000E+01
  0.511246000000E+01 -0.368548000000E+01  0.222230000000E+01
  0.571616000000E+01 -0.384724000000E+01  0.222230000000E+01
  0.631987000000E+01 -0.400900000000E+01  0.222230000000E+01
  0.692357000000E+01 -0.417077000000E+01  0.222230000000E+01
  0.752727000000E+01 -0.433253000000E+01  0.222230000000E+01
  0.813098000000E+01 -0.449429000000E+01  0.222230000000E+01
  0.873468000000E+01 -0.465605000000E+01  0.222230000000E+01
  0.933838000000E+01 -0.481781000000E+01  0.222230000000E+01
  0.432656000000E+01 -0.420369000000E+01  0.222230000000E+01
  0.493026000000E+01 -0.436545000000E+01  0.222230000000E+01
  0.553397000000E+01 -0.452721000000E+01  0.222230000000E+01
  0.613767000000E+01 -0.468897000000E+01  0.222230000000E+01
  0.674137000000E+01 -0.485074000000E+01  0.222230000000E+01
  0.734508000000E+01 -0.501250000000E+01  0.222230000000E+01
  0.794878000000E+01 -0.517426000000E+01  0.222230000000E+01
  0.855248000000E+01 -0.533602000000E+01  0.222230000000E+01
  0.915619000000E+01 -0.549778000000E+01  0.222230000000E+01
  0.415328000000E+01 -0.485038000000E+01  0.200476000000E+01
  0.475698000000E+01 -0.501214000000E+01  0.200476000000E+01
  0.536069000000E+01 -0.517390000000E+01  0.200476000000E+01
  0.596439000000E+01 -0.533566000000E+01  0.200476000000E+01
  0.656809000000E+01 -0.549742000000E+01  0.200476000000E+01
  0.717180000000E+01 -0.565919000000E+01  0.200476000000E+01
  0.777550000000E+01 -0.582095000000E+01  0.200476000000E+01
  0.837920000000E+01 -0.598271000000E+01  0.200476000000E+01
  0.898291000000E+01 -0.614447000000E+01  0.200476000000E+01
  0.400588000000E+01 -0.540048000000E+01  0.159099000000E+01
  0.460958000000E+01 -0.556224000000E+01  0.159099000000E+01
  0.521329000000E+01 -0.572401000000E+01  0.159099000000E+01
  0.581699000000E+01 -0.588577000000E+01  0.159099000000E+01
  0.642069000000E+01 -0.604753000000E+01  0.159099000000E+01
  0.702440000000E+01 -0.620929000000E+01  0.159099000000E+01
  0.762810000000E+01 -0.637105000000E+01  0.159099000000E+01
  0.823180000000E+01 -0.653282000000E+01  0.159099000000E+01
  0.883551000000E+01 -0.669458000000E+01  0.159099000000E+01
 -0.833178723921E+01 -0.443359858915E+01  0.000000000000E+00
 -0.730281163565E+01 -0.674288172231E+01  0.000000000000E+00
 -0.594455613347E+01 -0.827175252436E+01  0.000000000000E+00
 -0.459020989070E+01 -0.921981023153E+01  0.000000000000E+00
 -0.323751832135E+01 -0.980506878970E+01  0.000000000000E+00
 -0.188379937743E+01 -0.100990480115E+02  0.000000000000E+00
 -0.534095257977E+00 -0.101379086130E+02  0.000000000000E+00
  0.824047353984E+00 -0.988745860024E+01  0.000000000000E+00
  0.169742653216E+01 -0.939954799116E+01  0.000000000000E+00
  0.264934000000E+01 -0.852255000000E+01  0.000000000000E+00
 -0.833138072411E+01 -0.437991941573E+01  0.788964301661E+00
 -0.730191609210E+01 -0.666026772444E+01  0.121158829573E+01
 -0.594343883535E+01 -0.817075955519E+01  0.149077412593E+01
 -0.458861771993E+01 -0.910685887532E+01  0.166622680764E+01
 -0.323509988157E+01 -0.968450567891E+01  0.177518117946E+01
 -0.188077686564E+01 -0.997474152391E+01  0.183324528043E+01
 -0.529533296246E+00 -0.100128240896E+02  0.184805926921E+01
  0.829765379092E+00 -0.976616561325E+01  0.182143216488E+01
  0.170852699210E+01 -0.929353175703E+01  0.167145282606E+01
  0.265940000000E+01 -0.845929000000E+01  0.112654438453E+01
 -0.833074217741E+01 -0.422098867428E+01  0.155738212160E+01
 -0.730026191336E+01 -0.641603006590E+01  0.239130624425E+01
 -0.594052138981E+01 -0.787077754042E+01  0.294530459657E+01
 -0.458380437836E+01 -0.877094493329E+01  0.329005523621E+01
 -0.322810708497E+01 -0.932599841832E+01  0.350477654370E+01
 -0.187124190333E+01 -0.960477168233E+01  0.361895521602E+01
 -0.516102893748E+00 -0.964037532381E+01  0.364678482073E+01
  0.850404646177E+00 -0.940402237080E+01  0.359308941182E+01
  0.174832587502E+01 -0.898016005609E+01  0.328722002307E+01
  0.268944000000E+01 -0.827083000000E+01  0.220738353186E+01
 -0.833036702620E+01 -0.396082805929E+01  0.228864571659E+01
 -0.729821775042E+01 -0.601657565312E+01  0.351294193654E+01
 -0.593595473114E+01 -0.737916013832E+01  0.432628298814E+01
 -0.457620840658E+01 -0.822077922088E+01  0.483095204485E+01
 -0.321693163671E+01 -0.873890262971E+01  0.514471997359E+01
 -0.185527235467E+01 -0.899840752268E+01  0.531024871927E+01
 -0.491518683320E+00 -0.902945252641E+01  0.534960467198E+01
  0.886038744753E+00 -0.881057321901E+01  0.525905872943E+01
  0.181177426814E+01 -0.846800690458E+01  0.479107271295E+01
  0.273896000000E+01 -0.796106000000E+01  0.321022068314E+01
 -0.832949865227E+01 -0.360537559052E+01  0.296379448591E+01
 -0.729612190777E+01 -0.547140377773E+01  0.454837719795E+01
 -0.593046364466E+01 -0.670828952883E+01  0.559919669522E+01
 -0.456643064241E+01 -0.747044691921E+01  0.625068039193E+01
 -0.320269380575E+01 -0.793812921926E+01  0.665402805259E+01
 -0.183416631161E+01 -0.817211490196E+01  0.686354501820E+01
 -0.461392343661E+00 -0.819665497944E+01  0.690931611895E+01
  0.924675727274E+00 -0.800039058118E+01  0.677169909332E+01
  0.188711092221E+01 -0.777004773983E+01  0.614387521893E+01
  0.280715000000E+01 -0.753640000000E+01  0.410587421406E+01
 -0.832880110544E+01 -0.316459016791E+01  0.356534090498E+01
 -0.729467074665E+01 -0.479595864755E+01  0.547043187524E+01
 -0.592443823663E+01 -0.587461040635E+01  0.673339120131E+01
 -0.455617193927E+01 -0.653915870890E+01  0.751482481931E+01
 -0.318652089255E+01 -0.694457500543E+01  0.799584802347E+01
 -0.181253977510E+01 -0.714744947734E+01  0.824288638072E+01
 -0.431512288460E+00 -0.716496789393E+01  0.828386023273E+01
  0.958981772472E+00 -0.699306092290E+01  0.810003519630E+01
  0.196728549746E+01 -0.690953912728E+01  0.731764882758E+01
  0.289295000000E+01 -0.700555000000E+01  0.488048782237E+01
 -0.833045152377E+01 -0.264991438971E+01  0.407995870291E+01
 -0.729260286202E+01 -0.400442301554E+01  0.625783877927E+01
 -0.591960826170E+01 -0.489973644506E+01  0.770143447569E+01
 -0.454611419880E+01 -0.545000113789E+01  0.859293924893E+01
 -0.317211971381E+01 -0.578430946080E+01  0.914067701119E+01
 -0.179126114300E+01 -0.595035243239E+01  0.941454287304E+01
 -0.404100836479E+00 -0.596023565594E+01  0.944316104293E+01
  0.992227179932E+00 -0.581756090212E+01  0.921694040612E+01
  0.205147304483E+01 -0.586752775278E+01  0.832725276029E+01
  0.303424000000E+01 -0.614055000000E+01  0.572814229924E+01
 -0.833270342326E+01 -0.207073645098E+01  0.449569107263E+01
 -0.729278787532E+01 -0.311719674897E+01  0.689254963395E+01
 -0.591591654811E+01 -0.380686659524E+01  0.848015937955E+01
 -0.453972632612E+01 -0.423090830527E+01  0.946080521650E+01
 -0.315959685164E+01 -0.448576061203E+01  0.100601277731E+02
 -0.177602357714E+01 -0.461132513066E+01  0.103549298100E+02
 -0.379065971489E+00 -0.461409214920E+01  0.103652841656E+02
  0.101823572363E+01 -0.450172620365E+01  0.101073579888E+02
  0.213445266534E+01 -0.470372604384E+01  0.911848269908E+01
  0.320142000000E+01 -0.513372000000E+01  0.633189839011E+01
 -0.833488494481E+01 -0.144459429668E+01  0.479889775607E+01
 -0.729440279744E+01 -0.215482742632E+01  0.735812650164E+01
 -0.591607945024E+01 -0.262454331341E+01  0.905149813991E+01
 -0.453633427962E+01 -0.291018750928E+01  0.100978745571E+02
 -0.315447847501E+01 -0.308215216984E+01  0.107338129447E+02
 -0.176568352814E+01 -0.316289970234E+01  0.110434065043E+02
 -0.367704187950E+00 -0.316118438406E+01  0.110431439959E+02
  0.103348680612E+01 -0.307933078035E+01  0.107542815826E+02
  0.220526244409E+01 -0.344953484370E+01  0.968932874240E+01
  0.339046000000E+01 -0.402099000000E+01  0.668753298462E+01
 -0.833733879300E+01 -0.783802422966E+00  0.498414727448E+01
 -0.729829614447E+01 -0.114432473143E+01  0.764236959146E+01
 -0.591947704385E+01 -0.137898890147E+01  0.940200488696E+01
 -0.453961692238E+01 -0.152261155664E+01  0.104889987941E+02
 -0.315516498000E+01 -0.160473183531E+01  0.111464648551E+02
 -0.176734479295E+01 -0.164313173444E+01  0.114665474319E+02
 -0.364796463357E+00 -0.163310762349E+01  0.114592107818E+02
  0.101935259126E+01 -0.158612626897E+01  0.111610702155E+02
  0.225890839256E+01 -0.213413269510E+01  0.100201360211E+02
  0.359729000000E+01 -0.284101000000E+01  0.680396436005E+01
 -0.834095298160E+01 -0.108763197901E+00  0.504664540781E+01
 -0.730428560209E+01 -0.106109620236E+00  0.773971884438E+01
 -0.592752075016E+01 -0.104039323023E+00  0.952312672406E+01
 -0.454864836853E+01 -0.981987729116E-01  0.106246371650E+02
 -0.316527255104E+01 -0.932153580863E-01  0.112901469982E+02
 -0.177766229777E+01 -0.827636518398E-01  0.116128716330E+02
 -0.378293502078E+00 -0.726075048121E-01  0.116038552699E+02
  0.101328387875E+01 -0.509472592500E-01  0.113000354826E+02
  0.227900655219E+01 -0.786080811115E+00  0.101152219732E+02
  0.381812000000E+01 -0.163350000000E+01  0.664258381807E+01
 -0.834548663096E+01  0.568560286620E+00  0.498523707405E+01
 -0.731258713000E+01  0.929768004891E+00  0.764749586635E+01
 -0.594000623928E+01  0.117319800842E+01  0.941197142539E+01
 -0.456393006691E+01  0.132442882728E+01  0.105015365093E+02
 -0.318418740198E+01  0.142145966802E+01  0.111609114933E+02
 -0.179812097370E+01  0.147368846133E+01  0.114805457838E+02
 -0.402437438910E+00  0.149388282920E+01  0.114699881411E+02
  0.985357681075E+00  0.147339918079E+01  0.111672532639E+02
  0.217612823465E+01  0.853401000988E+00  0.101952412483E+02
  0.346924000000E+01  0.119503000000E+00  0.755773629292E+01
 -0.835035928593E+01  0.122708648731E+01  0.480133460317E+01
 -0.732322215286E+01  0.194232182292E+01  0.736768136211E+01
 -0.595573170195E+01  0.241784761035E+01  0.907064907403E+01
 -0.458621218925E+01  0.271492114045E+01  0.101227868803E+02
 -0.320986663512E+01  0.289763687578E+01  0.107608628048E+02
 -0.183265565214E+01  0.299702548106E+01  0.110731107287E+02
 -0.438787046347E+00  0.301688438162E+01  0.110605288174E+02
  0.942945722236E+00  0.296985867057E+01  0.107740997752E+02
  0.203743223135E+01  0.245763177142E+01  0.993966382124E+01
  0.311159000000E+01  0.194949000000E+01  0.781154537342E+01
 -0.835547797115E+01  0.185424949985E+01  0.449841812876E+01
 -0.733439967982E+01  0.290298990215E+01  0.690664492587E+01
 -0.597548903479E+01  0.360261875458E+01  0.850756196977E+01
 -0.461232747573E+01  0.403625205700E+01  0.949557333816E+01
 -0.324611950658E+01  0.430406401099E+01  0.100998169274E+02
 -0.187231246507E+01  0.444501238262E+01  0.103974006623E+02
 -0.490359900750E+00  0.446945975178E+01  0.104009142935E+02
  0.891630759630E+00  0.439187163474E+01  0.101309936699E+02
  0.187823642180E+01  0.399389634336E+01  0.939074680960E+01
  0.276762000000E+01  0.373421000000E+01  0.756559646360E+01
 -0.835944533681E+01  0.243150407271E+01  0.408415204969E+01
 -0.734706914854E+01  0.379000396294E+01  0.627581170738E+01
 -0.599647692422E+01  0.469623439434E+01  0.773544331214E+01
 -0.464362075011E+01  0.525777181345E+01  0.863667070665E+01
 -0.328351064147E+01  0.560365388191E+01  0.919082857138E+01
 -0.191842593242E+01  0.578443389213E+01  0.947550164664E+01
 -0.540917514436E+00  0.581330211725E+01  0.949363654911E+01
  0.837078686561E+00  0.570487618992E+01  0.926157552483E+01
  0.172384475232E+01  0.541705063879E+01  0.856107868060E+01
  0.245735000000E+01  0.536055000000E+01  0.685356631370E+01
 -0.836381476541E+01  0.294539078809E+01  0.356803854751E+01
 -0.735791148654E+01  0.457894686284E+01  0.549040902665E+01
 -0.601554890019E+01  0.566952814306E+01  0.677254220350E+01
 -0.466994510581E+01  0.634499077872E+01  0.756257046594E+01
 -0.331958301483E+01  0.676169434466E+01  0.805041681266E+01
 -0.196312680738E+01  0.697821215596E+01  0.830407859767E+01
 -0.597427027069E+00  0.701082170829E+01  0.833789528849E+01
  0.776665755145E+00  0.686946198404E+01  0.813680711482E+01
  0.156157814370E+01  0.666921131954E+01  0.741930373857E+01
  0.219858000000E+01  0.672672000000E+01  0.564719879986E+01
 -0.836876372082E+01  0.338438803241E+01  0.296670772681E+01
 -0.736346629237E+01  0.525592869252E+01  0.456347278134E+01
 -0.602716446268E+01  0.650766567429E+01  0.562820923439E+01
 -0.468627317246E+01  0.727996350745E+01  0.628716767223E+01
 -0.334165249604E+01  0.775799174049E+01  0.669584023324E+01
 -0.199055913137E+01  0.800483899362E+01  0.690679015264E+01
 -0.633528807243E+00  0.804400725242E+01  0.694576583968E+01
  0.736766624010E+00  0.786912180772E+01  0.679219333245E+01
  0.145827389620E+01  0.756598743334E+01  0.623030819063E+01
  0.208004000000E+01  0.735507000000E+01  0.473431486201E+01
 -0.837376527335E+01  0.374017783694E+01  0.229068909070E+01
 -0.737031352783E+01  0.580311310503E+01  0.352428709120E+01
 -0.603775955608E+01  0.718146074423E+01  0.434941946836E+01
 -0.470130326654E+01  0.803365951570E+01  0.485987558795E+01
 -0.336224040182E+01  0.856242956037E+01  0.517795243319E+01
 -0.201910011136E+01  0.883690051937E+01  0.534483744877E+01
 -0.671118921274E+00  0.888234424596E+01  0.537826117607E+01
  0.690051592288E+00  0.868391333359E+01  0.528546038549E+01
  0.135588432329E+01  0.831725381987E+01  0.486396929754E+01
  0.198540000000E+01  0.785780000000E+01  0.368610783040E+01
 -0.837683303577E+01  0.400016614344E+01  0.155882925485E+01
 -0.737585979263E+01  0.620341209820E+01  0.239960736942E+01
 -0.604590098009E+01  0.767515129525E+01  0.296149447830E+01
 -0.471286520877E+01  0.858593787691E+01  0.331009632095E+01
 -0.337807675815E+01  0.915224494642E+01  0.352771094339E+01
 -0.204171403317E+01  0.944761778179E+01  0.364312101194E+01
 -0.705015101882E+00  0.949765880026E+01  0.366851286901E+01
  0.644054215036E+00  0.928327975107E+01  0.361721363302E+01
  0.127476881384E+01  0.886661979506E+01  0.333817337202E+01
  0.191647000000E+01  0.822453000000E+01  0.252618770057E+01
 -0.837915097015E+01  0.415889503716E+01  0.789732510074E+00
 -0.737919343116E+01  0.644772187857E+01  0.121598360962E+01
 -0.605113594202E+01  0.797645622894E+01  0.149938775775E+01
 -0.472018678511E+01  0.892326625999E+01  0.167636035041E+01
 -0.338797188045E+01  0.951276480317E+01  0.178698669253E+01
 -0.205487902099E+01  0.982042908961E+01  0.184567192311E+01
 -0.724029564728E+00  0.987445555479E+01  0.185923208964E+01
  0.617207098657E+00  0.964988281865E+01  0.183593389095E+01
  0.122897342049E+01  0.920538879378E+01  0.169686752771E+01
  0.187456000000E+01  0.844766000000E+01  0.128455976180E+01
 -0.838020651336E+01  0.421257365388E+01  0.000000000000E+00
 -0.738024314416E+01  0.652994014954E+01  0.000000000000E+00
 -0.605298473463E+01  0.807770885113E+01  0.000000000000E+00
 -0.472261345303E+01  0.903667795374E+01  0.000000000000E+00
 -0.339141000012E+01  0.963410198108E+01  0.000000000000E+00
 -0.205902621023E+01  0.994564576155E+01  0.000000000000E+00
 -0.730299103394E+00  0.100010466714E+02  0.000000000000E+00
  0.611069174082E+00  0.977375859397E+01  0.000000000000E+00
  0.121756839737E+01  0.932154646920E+01  0.000000000000E+00
  0.186051000000E+01  0.852255000000E+01  0.000000000000E+00
 -0.859217738229E+01 -0.226875138890E+01  0.000000000000E+00
 -0.862039499902E+01 -0.183689841781E+01  0.000000000000E+00
 -0.864259332070E+01 -0.140563532560E+01  0.000000000000E+00
 -0.865873454211E+01 -0.973703125592E+00  0.000000000000E+00
 -0.866940105881E+01 -0.541843670719E+00  0.000000000000E+00
 -0.867456292806E+01 -0.109926332550E+00  0.000000000000E+00
 -0.867397179772E+01  0.321955336943E+00  0.000000000000E+00
 -0.866746304419E+01  0.753657155668E+00  0.000000000000E+00
 -0.865485574125E+01  0.118552008560E+01  0.000000000000E+00
 -0.863579047761E+01  0.161667971750E+01  0.000000000000E+00
 -0.861100090781E+01  0.204853475485E+01  0.000000000000E+00
 -0.859204393837E+01 -0.224221692190E+01  0.391329150397E+00
 -0.861894917867E+01 -0.182546510525E+01  0.434013870947E+00
 -0.864019153513E+01 -0.140241840177E+01  0.466975449825E+00
 -0.865614765494E+01 -0.974418366582E+00  0.489406968491E+00
 -0.866670418606E+01 -0.542804587522E+00  0.500066920456E+00
 -0.867188522500E+01 -0.109838833507E+00  0.498781935007E+00
 -0.867124001974E+01  0.323020044041E+00  0.499562062193E+00
 -0.866485022448E+01  0.754510504904E+00  0.488306862804E+00
 -0.865239748229E+01  0.118239668554E+01  0.465394994650E+00
 -0.863429862133E+01  0.160540277233E+01  0.432427259249E+00
 -0.861071615747E+01  0.202213510296E+01  0.390281502658E+00
 -0.859202528012E+01 -0.216328612877E+01  0.775428686069E+00
 -0.861532068133E+01 -0.177194478197E+01  0.864675193051E+00
 -0.863429270881E+01 -0.136780495007E+01  0.933743197462E+00
 -0.864878431511E+01 -0.953577981292E+00  0.980987241071E+00
 -0.865871293110E+01 -0.533306434731E+00  0.100511319810E+01
 -0.866367678688E+01 -0.109651988865E+00  0.100378957715E+01
 -0.866309831700E+01  0.313964613636E+00  0.100452110619E+01
 -0.865720526854E+01  0.734081329175E+00  0.979723206034E+00
 -0.864615610542E+01  0.114825917699E+01  0.931931046697E+00
 -0.863025960480E+01  0.155234143655E+01  0.862813299982E+00
 -0.861014533303E+01  0.194357881550E+01  0.773953107574E+00
 -0.859218656116E+01 -0.203363921196E+01  0.114097826521E+01
 -0.860969099390E+01 -0.167747949688E+01  0.127996635249E+01
 -0.862450401613E+01 -0.130204612632E+01  0.138928300045E+01
 -0.863675888496E+01 -0.912804515036E+00  0.146626223400E+01
 -0.864518018266E+01 -0.513737396398E+00  0.150656556675E+01
 -0.864986545991E+01 -0.109394924688E+00  0.151003813222E+01
 -0.864936211511E+01  0.294955312850E+00  0.150586960795E+01
 -0.864484397802E+01  0.694010447687E+00  0.146487206757E+01
 -0.863585322293E+01  0.108327180769E+01  0.138720403190E+01
 -0.862389151875E+01  0.145871228215E+01  0.127770167308E+01
 -0.860931109384E+01  0.181456897414E+01  0.113926875607E+01
 -0.859221882850E+01 -0.185606276282E+01  0.147819067124E+01
 -0.860218189803E+01 -0.154438408561E+01  0.167297664145E+01
 -0.861199612506E+01 -0.120849945818E+01  0.182879006788E+01
 -0.862011383190E+01 -0.853402956370E+00  0.193958763260E+01
 -0.862624242292E+01 -0.484719498313E+00  0.200258555301E+01
 -0.862985506352E+01 -0.109145323373E+00  0.201608196892E+01
 -0.863017091577E+01  0.266323490202E+00  0.200189713333E+01
 -0.862772437365E+01  0.635115975612E+00  0.193818543837E+01
 -0.862282388098E+01  0.990359243714E+00  0.182669549768E+01
 -0.861558259077E+01  0.132640565725E+01  0.167042530332E+01
 -0.860803228605E+01  0.163789983095E+01  0.147594842712E+01
 -0.859250652677E+01 -0.163520882392E+01  0.177928189341E+01
 -0.859431421295E+01 -0.137791640343E+01  0.203767942326E+01
 -0.859664119601E+01 -0.108950688548E+01  0.224582321246E+01
 -0.859905015362E+01 -0.776838387868E+00  0.239794520319E+01
 -0.860132080777E+01 -0.446888863333E+00  0.249109275568E+01
 -0.860329000186E+01 -0.109291085021E+00  0.252213937054E+01
 -0.860487978840E+01  0.229233491014E+00  0.249044015749E+01
 -0.860588858697E+01  0.558495796082E+00  0.239712957221E+01
 -0.860655479439E+01  0.871563222614E+00  0.224417362847E+01
 -0.860674364512E+01  0.116011747741E+01  0.203551863784E+01
 -0.860683800200E+01  0.141747413504E+01  0.177687239997E+01
CELLS       1130     10170
8      0      9     10      1     99    108    109    100
8     99    108    109    100    198    207    208    199
8    198    207    208    199    297    306    307    298
8    297    306    307    298    396    405    406    397
8    396    405    406    397    495    504    505    496
8      9     18     19     10    108    117    118    109
8    108    117    118    109    207    216    217    208
8    207    216    217    208    306    315    316    307
8    306    315    316    307    405    414    415    406
8    405    414    415    406    504    513    514    505
8     18     27     28     19    117    126    127    118
8    117    126    127    118    216    225    226    217
8    216    225    226    217    315    324    325    316
8    315    324    325    316    414    423    424    415
8    414    423    424    415    513    522    523    514
8     27     36     37     28    126    135    136    127
8    126    135    136    127    225    234    235    226
8    225    234    235    226    324    333    334    325
8    324    333    334    325    423    432    433    424
8    423    432    433    424    522    531    532    523
8     36     45     46     37    135    144    145    136
8    135    144    145    136    234    243    244    235
8    234    243    244    235    333    342    343    334
8    333    342    343    334    432    441    442    433
8    432    441    442    433    531    540    541    532
8     45     54     55     46    144    153    154    145
8    144    153    154    145    243    252    253    244
8    243    252    253    244    342    351    352    343
8    342    351    352    343    441    450    451    442
8    441    450    451    442    540    549    550    541
8     54     63     64     55    153    162    163    154
8    153    162    163    154    252    261    262    253
8    252    261    262    253    351    360    361    352
8    351    360    361    352    450    459    460    451
8    450    459    460    451    549    558    559    550
8     63     72     73     64    162    171    172    163
8    162    171    172    163    261    270    271    262
8    261    270    271    262    360    369    370    361
8    360    369    370    361    459    468    469    460
8    459    468    469    460    558    567    568    559
8     72     81     82     73    171    180    181    172
8    171    180    181    172    270    279    280    271
8    270    279    280    271    369    378    379    370
8    369    378    379    370    468    477    478    469
8    468    477    478    469    567    576    577    568
8     81     90     91     82    180    189    190    181
8    180    189    190    181    279    288    289    280
8    279    288    289    280    378    387    388    379
8    378    387    388    379    477    486    487    478
8    477    486    487    478    576    585    586    577
8      1     10     11      2    100    109    110    101
8    100    109    110    101    199    208    209    200
8    199    208    209    200    298    307    308    299
8    298    307    308    299    397    406    407    398
8    397    406    407    398    496    505    506    497
8     10     19     20     11    109    118    119    110
8    109    118    119    110    208    217    218    209
8    208    217    218    209    307    316    317    308
8    307    316    317    308    406    415    416    407
8    406    415    416    407    505    514    515    506
8     19     28     29     20    118    127    128    119
8    118    127    128    119    217    226    227    218
8    217    226    227    218    316    325    326    317
8    316    325    326    317    415    424    425    416
8    415    424    425    416    514    523    524    515
8     28     37     38     29    127    136    137    128
8    127    136    137    128    226    235    236    227
8    226    235    236    227    325    334    335    326
8    325    334    335    326    424    433    434    425
8    424    433    434    425    523    532    533    524
8     37     46     47     38    136    145    146    137
8    136    145    146    137    235    244    245    236
8    235    244    245    236    334    343    344    335
8    334    343    344    335    433    442    443    434
8    433    442    443    434    532    541    542    533
8     46     55     56     47    145    154    155    146
8    145    154    155    146    244    253    254    245
8    244    253    254    245    343    352    353    344
8    343    352    353    344    442    451    452    443
8    442    451    452    443    541    550    551    542
8     55     64     65     56    154    163    164    155
8    154    163    164    155    253    262    263    254
8    253    262    263    254    352    361    362    353
8    352    361    362    353    451    460    461    452
8    451    460    461    452    550    559    560    551
8     64     73     74     65    163    172    173    164
8    163    172    173    164    262    271    272    263
8    262    271    272    263    361    370    371    362
8    361    370    371    362    460    469    470    461
8    460    469    470    461    559    568    569    560
8     73     82     83     74    172    181    182    173
8    172    181    182    173    271    280    281    272
8    271    280    281    272    370    379    380    371
8    370    379    380    371    469    478    479    470
8    469    478    479    470    568    577    578    569
8     82     91     92     83    181    190    191    182
8    181    190    191    182    280    289    290    281
8    280    289    290    281    379    388    389    380
8    379    388    389    380    478    487    488    479
8    478    487    488    479    577    586    587    578
8      2     11     12      3    101    110    111    102
8    101    110    111    102    200    209    210    201
8    200    209    210    201    299    308    309    300
8    299    308    309    300    398    407    408    399
8    398    407    408    399    497    506    507    498
8     11     20     21     12    110    119    120    111
8    110    119    120    111    209    218    219    210
8    209    218    219    210    308    317    318    309
8    308    317    318    309    407    416    417    408
8    407    416    417    408    506    515    516    507
8     20     29     30     21    119    128    129    120
8    119    128    129    120    218    227    228    219
8    218    227    228    219    317    326    327    318
8    317    326    327    318    416    425    426    417
8    416    425    426    417    515    524    525    516
8     29     38     39     30    128    137    138    129
8    128    137    138    129    227    236    237    228
8    227    236    237    228    326    335    336    327
8    326    335    336    327    425    434    435    426
8    425    434    435    426    524    533    534    525
8     38     47     48     39    137    146    147    138
8    137    146    147    138    236    245    246    237
8    236    245    246    237    335    344    345    336
8    335    344    345    336    434    443    444    435
8    434    443    444    435    533    542    543    534
8     47     56     57     48    146    155    156    147
8    146    155    156    147    245    254    255    246
8    245    254    255    246    344    353    354    345
8    344    353    354    345    443    452    453    444
8    443    452    453    444    542    551    552    543
8     56     65     66     57    155    164    165    156
8    155    164    165    156    254    263    264    255
8    254    263    264    255    353    362    363    354
8    353    362    363    354    452    461    462    453
8    452    461    462    453    551    560    561    552
8     65     74     75     66    164    173    174    165
8    164    173    174    165    263    272    273    264
8    263    272    273    264    362    371    372    363
8    362    371    372    363    461    470    471    462
8    461    470    471    462    560    569    570    561
8     74     83     84     75    173    182    183    174
8    173    182    183    174    272    281    282    273
8    272    281    282    273    371    380    381    372
8    371    380    381    372    470    479    480    471
8    470    479    480    471    569    578    579    570
8     83     92     93     84    182    191    192    183
8    182    191    192    183    281    290    291    282
8    281    290    291    282    380    389    390    381
8    380    389    390    381    479    488    489    480
8    479    488    489    480    578    587    588    579
8      3     12     13      4    102    111    112    103
8    102    111    112    103    201    210    211    202
8    201    210    211    202    300    309    310    301
8    300    309    310    301    399    408    409    400
8    399    408    409    400    498    507    508    499
8     12     21     22     13    111    120    121    112
8    111    120    121    112    210    219    220    211
8    210    219    220    211    309    318    319    310
8    309    318    319    310    408    417    418    409
8    408    417    418    409    507    516    517    508
8     21     30     31     22    120    129    130    121
8    120    129    130    121    219    228    229    220
8    219    228    229    220    318    327    328    319
8    318    327    328    319    417    426    427    418
8    417    426    427    418    516    525    526    517
8     30     39     40     31    129    138    139    130
8    129    138    139    130    228    237    238    229
8    228    237    238    229    327    336    337    328
8    327    336    337    328    426    435    436    427
8    426    435    436    427    525    534    535    526
8     39     48     49     40    138    147    148    139
8    138    147    148    139    237    246    247    238
8    237    246    247    238    336    345    346    337
8    336    345    346    337    435    444    445    436
8    435    444    445    436    534    543    544    535
8     48     57     58     49    147    156    157    148
8    147    156    157    148    246    255    256    247
8    246    255    256    247    345    354    355    346
8    345    354    355    346    444    453    454    445
8    444    453    454    445    543    552    553    544
8     57     66     67     58    156    165    166    157
8    156    165    166    157    255    264    265    256
8    255    264    265    256    354    363    364    355
8    354    363    364    355    453    462    463    454
8    453    462    463    454    552    561    562    553
8     66     75     76     67    165    174    175    166
8    165    174    175    166    264    273    274    265
8    264    273    274    265    363    372    373    364
8    363    372    373    364    462    471    472    463
8    462    471    472    463    561    570    571    562
8     75     84     85     76    174    183    184    175
8    174    183    184    175    273    282    283    274
8    273    282    283    274    372    381    382    373
8    372    381    382    373    471    480    481    472
8    471    480    481    472    570    579    580    571
8     84     93     94     85    183    192    193    184
8    183    192    193    184    282    291    292    283
8    282    291    292    283    381    390    391    382
8    381    390    391    382    480    489    490    481
8    480    489    490    481    579    588    589    580
8      4     13     14      5    103    112    113    104
8    103    112    113    104    202    211    212    203
8    202    211    212    203    301    310    311    302
8    301    310    311    302    400    409    410    401
8    400    409    410    401    499    508    509    500
8     13     22     23     14    112    121    122    113
8    112    121    122    113    211    220    221    212
8    211    220    221    212    310    319    320    311
8    310    319    320    311    409    418    419    410
8    409    418    419    410    508    517    518    509
8     22     31     32     23    121    130    131    122
8    121    130    131    122    220    229    230    221
8    220    229    230    221    319    328    329    320
8    319    328    329    320    418    427    428    419
8    418    427    428    419    517    526    527    518
8     31     40     41     32    130    139    140    131
8    130    139    140    131    229    238    239    230
8    229    238    239    230    328    337    338    329
8    328    337    338    329    427    436    437    428
8    427    436    437    428    526    535    536    527
8     40     49     50     41    139    148    149    140
8    139    148    149    140    238    247    248    239
8    238    247    248    239    337    346    347    338
8    337    346    347    338    436    445    446    437
8    436    445    446    437    535    544    545    536
8     49     58     59     50    148    157    158    149
8    148    157    158    149    247    256    257    248
8    247    256    257    248    346    355    356    347
8    346    355    356    347    445    454    455    446
8    445    454    455    446    544    553    554    545
8     58     67     68     59    157    166    167    158
8    157    166    167    158    256    265    266    257
8    256    265    266    257    355    364    365    356
8    355    364    365    356    454    463    464    455
8    454    463    464    455    553    562    563    554
8     67     76     77     68    166    175    176    167
8    166    175    176    167    265    274    275    266
8    265    274    275    266    364    373    374    365
8    364    373    374    365    463    472    473    464
8    463    472    473    464    562    571    572    563
8     76     85     86     77    175    184    185    176
8    175    184    185    176    274    283    284    275
8    274    283    284    275    373    382    383    374
8    373    382    383    374    472    481    482    473
8    472    481    482    473    571    580    581    572
8     85     94     95     86    184    193    194    185
8    184    193    194    185    283    292    293    284
8    283    292    293    284    382    391    392    383
8    382    391    392    383    481    490    491    482
8    481    490    491    482    580    589    590    581
8      5     14     15      6    104    113    114    105
8    104    113    114    105    203    212    213    204
8    203    212    213    204    302    311    312    303
8    302    311    312    303    401    410    411    402
8    401    410    411    402    500    509    510    501
8     14     23     24     15    113    122    123    114
8    113    122    123    114    212    221    222    213
8    212    221    222    213    311    320    321    312
8    311    320    321    312    410    419    420    411
8    410    419    420    411    509    518    519    510
8     23     32     33     24    122    131    132    123
8    122    131    132    123    221    230    231    222
8    221    230    231    222    320    329    330    321
8    320    329    330    321    419    428    429    420
8    419    428    429    420    518    527    528    519
8     32     41     42     33    131    140    141    132
8    131    140    141    132    230    239    240    231
8    230    239    240    231    329    338    339    330
8    329    338    339    330    428    437    438    429
8    428    437    438    429    527    536    537    528
8     41     50     51     42    140    149    150    141
8    140    149    150    141    239    248    249    240
8    239    248    249    240    338    347    348    339
8    338    347    348    339    437    446    447    438
8    437    446    447    438    536    545    546    537
8     50     59     60     51    149    158    159    150
8    149    158    159    150    248    257    258    249
8    248    257    258    249    347    356    357    348
8    347    356    357    348    446    455    456    447
8    446    455    456    447    545    554    555    546
8     59     68     69     60    158    167    168    159
8    158    167    168    159    257    266    267    258
8    257    266    267    258    356    365    366    357
8    356    365    366    357    455    464    465    456
8    455    464    465    456    554    563    564    555
8     68     77     78     69    167    176    177    168
8    167    176    177    168    266    275    276    267
8    266    275    276    267    365    374    375    366
8    365    374    375    366    464    473    474    465
8    464    473    474    465    563    572    573    564
8     77     86     87     78    176    185    186    177
8    176    185    186    177    275    284    285    276
8    275    284    285    276    374    383    384    375
8    374    383    384    375    473    482    483    474
8    473    482    483    474    572    581    582    573
8     86     95     96     87    185    194    195    186
8    185    194    195    186    284    293    294    285
8    284    293    294    285    383    392    393    384
8    383    392    393    384    482    491    492    483
8    482    491    492    483    581    590    591    582
8      6     15     16      7    105    114    115    106
8    105    114    115    106    204    213    214    205
8    204    213    214    205    303    312    313    304
8    303    312    313    304    402    411    412    403
8    402    411    412    403    501    510    511    502
8     15     24     25     16    114    123    124    115
8    114    123    124    115    213    222    223    214
8    213    222    223    214    312    321    322    313
8    312    321    322    313    411    420    421    412
8    411    420    421    412    510    519    520    511
8     24     33     34     25    123    132    133    124
8    123    132    133    124    222    231    232    223
8    222    231    232    223    321    330    331    322
8    321    330    331    322    420    429    430    421
8    420    429    430    421    519    528    529    520
8     33     42     43     34    132    141    142    133
8    132    141    142    133    231    240    241    232
8    231    240    241    232    330    339    340    331
8    330    339    340    331    429    438    439    430
8    429    438    439    430    528    537    538    529
8     42     51     52     43    141    150    151    142
8    141    150    151    142    240    249    250    241
8    240    249    250    241    339    348    349    340
8    339    348    349    340    438    447    448    439
8    438    447    448    439    537    546    547    538
8     51     60     61     52    150    159    160    151
8    150    159    160    151    249    258    259    250
8    249    258    259    250    348    357    358    349
8    348    357    358    349    447    456    457    448
8    447    456    457    448    546    555    556    547
8     60     69     70     61    159    168    169    160
8    159    168    169    160    258    267    268    259
8    258    267    268    259    357    366    367    358
8    357    366    367    358    456    465    466    457
8    456    465    466    457    555    564    565    556
8     69     78     79     70    168    177    178    169
8    168    177    178    169    267    276    277    268
8    267    276    277    268    366    375    376    367
8    366    375    376    367    465    474    475    466
8    465    474    475    466    564    573    574    565
8     78     87     88     79    177    186    187    178
8    177    186    187    178    276    285    286    277
8    276    285    286    277    375    384    385    376
8    375    384    385    376    474    483    484    475
8    474    483    484    475    573    582    583    574
8     87     96     97     88    186    195    196    187
8    186    195    196    187    285    294    295    286
8    285    294    295    286    384    393    394    385
8    384    393    394    385    483    492    493    484
8    483    492    493    484    582    591    592    583
8      7     16     17      8    106    115    116    107
8    106    115    116    107    205    214    215    206
8    205    214    215    206    304    313    314    305
8    304    313    314    305    403    412    413    404
8    403    412    413    404    502    511    512    503
8     16     25     26     17    115    124    125    116
8    115    124    125    116    214    223    224    215
8    214    223    224    215    313    322    323    314
8    313    322    323    314    412    421    422    413
8    412    421    422    413    511    520    521    512
8     25     34     35     26    124    133    134    125
8    124    133    134    125    223    232    233    224
8    223    232    233    224    322    331    332    323
8    322    331    332    323    421    430    431    422
8    421    430    431    422    520    529    530    521
8     34     43     44     35    133    142    143    134
8    133    142    143    134    232    241    242    233
8    232    241    242    233    331    340    341    332
8    331    340    341    332    430    439    440    431
8    430    439    440    431    529    538    539    530
8     43     52     53     44    142    151    152    143
8    142    151    152    143    241    250    251    242
8    241    250    251    242    340    349    350    341
8    340    349    350    341    439    448    449    440
8    439    448    449    440    538    547    548    539
8     52     61     62     53    151    160    161    152
8    151    160    161    152    250    259    260    251
8    250    259    260    251    349    358    359    350
8    349    358    359    350    448    457    458    449
8    448    457    458    449    547    556    557    548
8     61     70     71     62    160    169    170    161
8    160    169    170    161    259    268    269    260
8    259    268    269    260    358    367    368    359
8    358    367    368    359    457    466    467    458
8    457    466    467    458    556    565    566    557
8     70     79     80     71    169    178    179    170
8    169    178    179    170    268    277    278    269
8    268    277    278    269    367    376    377    368
8    367    376    377    368    466    475    476    467
8    466    475    476    467    565    574    575    566
8     79     88     89     80    178    187    188    179
8    178    187    188    179    277    286    287    278
8    277    286    287    278    376    385    386    377
8    376    385    386    377    475    484    485    476
8    475    484    485    476    574    583    584    575
8     88     97     98     89    187    196    197    188
8    187    196    197    188    286    295    296    287
8    286    295    296    287    385    394    395    386
8    385    394    395    386    484    493    494    485
8    484    493    494    485    583    592    593    584
8     53     62    605    594    152    161    671    660
8    152    161    671    660    251    260    737    726
8    251    260    737    726    350    359    803    792
8    350    359    803    792    449    458    869    858
8    449    458    869    858    548    557    935    924
8     62     71    616    605    161    170    682    671
8    161    170    682    671    260    269    748    737
8    260    269    748    737    359    368    814    803
8    359    368    814    803    458    467    880    869
8    458    467    880    869    557    566    946    935
8     71     80    627    616    170    179    693    682
8    170    179    693    682    269    278    759    748
8    269    278    759    748    368    377    825    814
8    368    377    825    814    467    476    891    880
8    467    476    891    880    566    575    957    946
8     80     89    638    627    179    188    704    693
8    179    188    704    693    278    287    770    759
8    278    287    770    759    377    386    836    825
8    377    386    836    825    476    485    902    891
8    476    485    902    891    575    584    968    957
8     89     98    649    638    188    197    715    704
8    188    197    715    704    287    296    781    770
8    287    296    781    770    386    395    847    836
8    386    395    847    836    485    494    913    902
8    485    494    913    902    584    593    979    968
8      8     17   1025   1034    107    116   1079   1088
8    107    116   1079   1088    206    215   1133   1142
8    206    215   1133   1142    305    314   1187   1196
8    305    314   1187   1196    404    413   1241   1250
8    404    413   1241   1250    503    512   1295   1304
8     17     26   1016   1025    116    125   1070   1079
8    116    125   1070   1079    215    224   1124   1133
8    215    224   1124   1133    314    323   1178   1187
8    314    323   1178   1187    413    422   1232   1241
8    413    422   1232   1241    512    521   1286   1295
8     26     35   1007   1016    125    134   1061   1070
8    125    134   1061   1070    224    233   1115   1124
8    224    233   1115   1124    323    332   1169   1178
8    323    332   1169   1178    422    431   1223   1232
8    422    431   1223   1232    521    530   1277   1286
8     35     44    998   1007    134    143   1052   1061
8    134    143   1052   1061    233    242   1106   1115
8    233    242   1106   1115    332    341   1160   1169
8    332    341   1160   1169    431    440   1214   1223
8    431    440   1214   1223    530    539   1268   1277
8     44     53    594    998    143    152   1043   1052
8    143    152   1043   1052    242    251   1097   1106
8    242    251   1097   1106    341    350   1151   1160
8    341    350   1151   1160    440    449   1205   1214
8    440    449   1205   1214    539    548   1259   1268
8    594    605    606    595    660    671    672    661
8    660    671    672    661    726    737    738    727
8    726    737    738    727    792    803    804    793
8    792    803    804    793    858    869    870    859
8    858    869    870    859    924    935    936    925
8    605    616    617    606    671    682    683    672
8    671    682    683    672    737    748    749    738
8    737    748    749    738    803    814    815    804
8    803    814    815    804    869    880    881    870
8    869    880    881    870    935    946    947    936
8    616    627    628    617    682    693    694    683
8    682    693    694    683    748    759    760    749
8    748    759    760    749    814    825    826    815
8    814    825    826    815    880    891    892    881
8    880    891    892    881    946    957    958    947
8    627    638    639    628    693    704    705    694
8    693    704    705    694    759    770    771    760
8    759    770    771    760    825    836    837    826
8    825    836    837    826    891    902    903    892
8    891    902    903    892    957    968    969    958
8    638    649    650    639    704    715    716    705
8    704    715    716    705    770    781    782    771
8    770    781    782    771    836    847    848    837
8    836    847    848    837    902    913    914    903
8    902    913    914    903    968    979    980    969
8    595    606    607    596    661    672    673    662
8    661    672    673    662    727    738    739    728
8    727    738    739    728    793    804    805    794
8    793    804    805    794    859    870    871    860
8    859    870    871    860    925    936    937    926
8    606    617    618    607    672    683    684    673
8    672    683    684    673    738    749    750    739
8    738    749    750    739    804    815    816    805
8    804    815    816    805    870    881    882    871
8    870    881    882    871    936    947    948    937
8    617    628    629    618    683    694    695    684
8    683    694    695    684    749    760    761    750
8    749    760    761    750    815    826    827    816
8    815    826    827    816    881    892    893    882
8    881    892    893    882    947    958    959    948
8    628    639    640    629    694    705    706    695
8    694    705    706    695    760    771    772    761
8    760    771    772    761    826    837    838    827
8    826    837    838    827    892    903    904    893
8    892    903    904    893    958    969    970    959
8    639    650    651    640    705    716    717    706
8    705    716    717    706    771    782    783    772
8    771    782    783    772    837    848    849    838
8    837    848    849    838    903    914    915    904
8    903    914    915    904    969    980    981    970
8    596    607    608    597    662    673    674    663
8    662    673    674    663    728    739    740    729
8    728    739    740    729    794    805    806    795
8    794    805    806    795    860    871    872    861
8    860    871    872    861    926    937    938    927
8    607    618    619    608    673    684    685    674
8    673    684    685    674    739    750    751    740
8    739    750    751    740    805    816    817    806
8    805    816    817    806    871    882    883    872
8    871    882    883    872    937    948    949    938
8    618    629    630    619    684    695    696    685
8    684    695    696    685    750    761    762    751
8    750    761    762    751    816    827    828    817
8    816    827    828    817    882    893    894    883
8    882    893    894    883    948    959    960    949
8    629    640    641    630    695    706    707    696
8    695    706    707    696    761    772    773    762
8    761    772    773    762    827    838    839    828
8    827    838    839    828    893    904    905    894
8    893    904    905    894    959    970    971    960
8    640    651    652    641    706    717    718    707
8    706    717    718    707    772    783    784    773
8    772    783    784    773    838    849    850    839
8    838    849    850    839    904    915    916    905
8    904    915    916    905    970    981    982    971
8    597    608    609    598    663    674    675    664
8    663    674    675    664    729    740    741    730
8    729    740    741    730    795    806    807    796
8    795    806    807    796    861    872    873    862
8    861    872    873    862    927    938    939    928
8    608    619    620    609    674    685    686    675
8    674    685    686    675    740    751    752    741
8    740    751    752    741    806    817    818    807
8    806    817    818    807    872    883    884    873
8    872    883    884    873    938    949    950    939
8    619    630    631    620    685    696    697    686
8    685    696    697    686    751    762    763    752
8    751    762    763    752    817    828    829    818
8    817    828    829    818    883    894    895    884
8    883    894    895    884    949    960    961    950
8    630    641    642    631    696    707    708    697
8    696    707    708    697    762    773    774    763
8    762    773    774    763    828    839    840    829
8    828    839    840    829    894    905    906    895
8    894    905    906    895    960    971    972    961
8    641    652    653    642    707    718    719    708
8    707    718    719    708    773    784    785    774
8    773    784    785    774    839    850    851    840
8    839    850    851    840    905    916    917    906
8    905    916    917    906    971    982    983    972
8    598    609    610    599    664    675    676    665
8    664    675    676    665    730    741    742    731
8    730    741    742    731    796    807    808    797
8    796    807    808    797    862    873    874    863
8    862    873    874    863    928    939    940    929
8    609    620    621    610    675    686    687    676
8    675    686    687    676    741    752    753    742
8    741    752    753    742    807    818    819    808
8    807    818    819    808    873    884    885    874
8    873    884    885    874    939    950    951    940
8    620    631    632    621    686    697    698    687
8    686    697    698    687    752    763    764    753
8    752    763    764    753    818    829    830    819
8    818    829    830    819    884    895    896    885
8    884    895    896    885    950    961    962    951
8    631    642    643    632    697    708    709    698
8    697    708    709    698    763    774    775    764
8    763    774    775    764    829    840    841    830
8    829    840    841    830    895    906    907    896
8    895    906    907    896    961    972    973    962
8    642    653    654    643    708    719    720    709
8    708    719    720    709    774    785    786    775
8    774    785    786    775    840    851    852    841
8    840    851    852    841    906    917    918    907
8    906    917    918    907    972    983    984    973
8    599    610    611    600    665    676    677    666
8    665    676    677    666    731    742    743    732
8    731    742    743    732    797    808    809    798
8    797    808    809    798    863    874    875    864
8    863    874    875    864    929    940    941    930
8    610    621    622    611    676    687    688    677
8    676    687    688    677    742    753    754    743
8    742    753    754    743    808    819    820    809
8    808    819    820    809    874    885    886    875
8    874    885    886    875    940    951    952    941
8    621    632    633    622    687    698    699    688
8    687    698    699    688    753    764    765    754
8    753    764    765    754    819    830    831    820
8    819    830    831    820    885    896    897    886
8    885    896    897    886    951    962    963    952
8    632    643    644    633    698    709    710    699
8    698    709    710    699    764    775    776    765
8    764    775    776    765    830    841    842    831
8    830    841    842    831    896    907    908    897
8    896    907    908    897    962    973    974    963
8    643    654    655    644    709    720    721    710
8    709    720    721    710    775    786    787    776
8    775    786    787    776    841    852    853    842
8    841    852    853    842    907    918    919    908
8    907    918    919    908    973    984    985    974
8    600    611    612    601    666    677    678    667
8    666    677    678    667    732    743    744    733
8    732    743    744    733    798    809    810    799
8    798    809    810    799    864    875    876    865
8    864    875    876    865    930    941    942    931
8    611    622    623    612    677    688    689    678
8    677    688    689    678    743    754    755    744
8    743    754    755    744    809    820    821    810
8    809    820    821    810    875    886    887    876
8    875    886    887    876    941    952    953    942
8    622    633    634    623    688    699    700    689
8    688    699    700    689    754    765    766    755
8    754    765    766    755    820    831    832    821
8    820    831    832    821    886    897    898    887
8    886    897    898    887    952    963    964    953
8    633    644    645    634    699    710    711    700
8    699    710    711    700    765    776    777    766
8    765    776    777    766    831    842    843    832
8    831    842    843    832    897    908    909    898
8    897    908    909    898    963    974    975    964
8    644    655    656    645    710    721    722    711
8    710    721    722    711    776    787    788    777
8    776    787    788    777    842    853    854    843
8    842    853    854    843    908    919    920    909
8    908    919    920    909    974    985    986    975
8    601    612    613    602    667    678    679    668
8    667    678    679    668    733    744    745    734
8    733    744    745    734    799    810    811    800
8    799    810    811    800    865    876    877    866
8    865    876    877    866    931    942    943    932
8    612    623    624    613    678    689    690    679
8    678    689    690    679    744    755    756    745
8    744    755    756    745    810    821    822    811
8    810    821    822    811    876    887    888    877
8    876    887    888    877    942    953    954    943
8    623    634    635    624    689    700    701    690
8    689    700    701    690    755    766    767    756
8    755    766    767    756    821    832    833    822
8    821    832    833    822    887    898    899    888
8    887    898    899    888    953    964    965    954
8    634    645    646    635    700    711    712    701
8    700    711    712    701    766    777    778    767
8    766    777    778    767    832    843    844    833
8    832    843    844    833    898    909    910    899
8    898    909    910    899    964    975    976    965
8    645    656    657    646    711    722    723    712
8    711    722    723    712    777    788    789    778
8    777    788    789    778    843    854    855    844
8    843    854    855    844    909    920    921    910
8    909    920    921    910    975    986    987    976
8    602    613    614    603    668    679    680    669
8    668    679    680    669    734    745    746    735
8    734    745    746    735    800    811    812    801
8    800    811    812    801    866    877    878    867
8    866    877    878    867    932    943    944    933
8    613    624    625    614    679    690    691    680
8    679    690    691    680    745    756    757    746
8    745    756    757    746    811    822    823    812
8    811    822    823    812    877    888    889    878
8    877    888    889    878    943    954    955    944
8    624    635    636    625    690    701    702    691
8    690    701    702    691    756    767    768    757
8    756    767    768    757    822    833    834    823
8    822    833    834    823    888    899    900    889
8    888    899    900    889    954    965    966    955
8    635    646    647    636    701    712    713    702
8    701    712    713    702    767    778    779    768
8    767    778    779    768    833    844    845    834
8    833    844    845    834    899    910    911    900
8    899    910    911    900    965    976    977    966
8    646    657    658    647    712    723    724    713
8    712    723    724    713    778    789    790    779
8    778    789    790    779    844    855    856    845
8    844    855    856    845    910    921    922    911
8    910    921    922    911    976    987    988    977
8    603    614    615    604    669    680    681    670
8    669    680    681    670    735    746    747    736
8    735    746    747    736    801    812    813    802
8    801    812    813    802    867    878    879    868
8    867    878    879    868    933    944    945    934
8    614    625    626    615    680    691    692    681
8    680    691    692    681    746    757    758    747
8    746    757    758    747    812    823    824    813
8    812    823    824    813    878    889    890    879
8    878    889    890    879    944    955    956    945
8    625    636    637    626    691    702    703    692
8    691    702    703    692    757    768    769    758
8    757    768    769    758    823    834    835    824
8    823    834    835    824    889    900    901    890
8    889    900    901    890    955    966    967    956
8    636    647    648    637    702    713    714    703
8    702    713    714    703    768    779    780    769
8    768    779    780    769    834    845    846    835
8    834    845    846    835    900    911    912    901
8    900    911    912    901    966    977    978    967
8    647    658    659    648    713    724    725    714
8    713    724    725    714    779    790    791    780
8    779    790    791    780    845    856    857    846
8    845    856    857    846    911    922    923    912
8    911    922    923    912    977    988    989    978
8    998    594    990    999   1052   1043   1044   1053
8   1052   1043   1044   1053   1106   1097   1098   1107
8   1106   1097   1098   1107   1160   1151   1152   1161
8   1160   1151   1152   1161   1214   1205   1206   1215
8   1214   1205   1206   1215   1268   1259   1260   1269
8   1007    998    999   1008   1061   1052   1053   1062
8   1061   1052   1053   1062   1115   1106   1107   1116
8   1115   1106   1107   1116   1169   1160   1161   1170
8   1169   1160   1161   1170   1223   1214   1215   1224
8   1223   1214   1215   1224   1277   1268   1269   1278
8   1016   1007   1008   1017   1070   1061   1062   1071
8   1070   1061   1062   1071   1124   1115   1116   1125
8   1124   1115   1116   1125   1178   1169   1170   1179
8   1178   1169   1170   1179   1232   1223   1224   1233
8   1232   1223   1224   1233   1286   1277   1278   1287
8   1025   1016   1017   1026   1079   1070   1071   1080
8   1079   1070   1071   1080   1133   1124   1125   1134
8   1133   1124   1125   1134   1187   1178   1179   1188
8   1187   1178   1179   1188   1241   1232   1233   1242
8   1241   1232   1233   1242   1295   1286   1287   1296
8   1034   1025   1026   1035   1088   1079   1080   1089
8   1088   1079   1080   1089   1142   1133   1134   1143
8   1142   1133   1134   1143   1196   1187   1188   1197
8   1196   1187   1188   1197   1250   1241   1242   1251
8   1250   1241   1242   1251   1304   1295   1296   1305
8    999    990    991   1000   1053   1044   1045   1054
8   1053   1044   1045   1054   1107   1098   1099   1108
8   1107   1098   1099   1108   1161   1152   1153   1162
8   1161   1152   1153   1162   1215   1206   1207   1216
8   1215   1206   1207   1216   1269   1260   1261   1270
8   1008    999   1000   1009   1062   1053   1054   1063
8   1062   1053   1054   1063   1116   1107   1108   1117
8   1116   1107   1108   1117   1170   1161   1162   1171
8   1170   1161   1162   1171   1224   1215   1216   1225
8   1224   1215   1216   1225   1278   1269   1270   1279
8   1017   1008   1009   1018   1071   1062   1063   1072
8   1071   1062   1063   1072   1125   1116   1117   1126
8   1125   1116   1117   1126   1179   1170   1171   1180
8   1179   1170   1171   1180   1233   1224   1225   1234
8   1233   1224   1225   1234   1287   1278   1279   1288
8   1026   1017   1018   1027   1080   1071   1072   1081
8   1080   1071   1072   1081   1134   1125   1126   1135
8   1134   1125   1126   1135   1188   1179   1180   1189
8   1188   1179   1180   1189   1242   1233   1234   1243
8   1242   1233   1234   1243   1296   1287   1288   1297
8   1035   1026   1027   1036   1089   1080   1081   1090
8   1089   1080   1081   1090   1143   1134   1135   1144
8   1143   1134   1135   1144   1197   1188   1189   1198
8   1197   1188   1189   1198   1251   1242   1243   1252
8   1251   1242   1243   1252   1305   1296   1297   1306
8   1000    991    992   1001   1054   1045   1046   1055
8   1054   1045   1046   1055   1108   1099   1100   1109
8   1108   1099   1100   1109   1162   1153   1154   1163
8   1162   1153   1154   1163   1216   1207   1208   1217
8   1216   1207   1208   1217   1270   1261   1262   1271
8   1009   1000   1001   1010   1063   1054   1055   1064
8   1063   1054   1055   1064   1117   1108   1109   1118
8   1117   1108   1109   1118   1171   1162   1163   1172
8   1171   1162   1163   1172   1225   1216   1217   1226
8   1225   1216   1217   1226   1279   1270   1271   1280
8   1018   1009   1010   1019   1072   1063   1064   1073
8   1072   1063   1064   1073   1126   1117   1118   1127
8   1126   1117   1118   1127   1180   1171   1172   1181
8   1180   1171   1172   1181   1234   1225   1226   1235
8   1234   1225   1226   1235   1288   1279   1280   1289
8   1027   1018   1019   1028   1081   1072   1073   1082
8   1081   1072   1073   1082   1135   1126   1127   1136
8   1135   1126   1127   1136   1189   1180   1181   1190
8   1189   1180   1181   1190   1243   1234   1235   1244
8   1243   1234   1235   1244   1297   1288   1289   1298
8   1036   1027   1028   1037   1090   1081   1082   1091
8   1090   1081   1082   1091   1144   1135   1136   1145
8   1144   1135   1136   1145   1198   1189   1190   1199
8   1198   1189   1190   1199   1252   1243   1244   1253
8   1252   1243   1244   1253   1306   1297   1298   1307
8   1001    992    993   1002   1055   1046   1047   1056
8   1055   1046   1047   1056   1109   1100   1101   1110
8   1109   1100   1101   1110   1163   1154   1155   1164
8   1163   1154   1155   1164   1217   1208   1209   1218
8   1217   1208   1209   1218   1271   1262   1263   1272
8   1010   1001   1002   1011   1064   1055   1056   1065
8   1064   1055   1056   1065   1118   1109   1110   1119
8   1118   1109   1110   1119   1172   1163   1164   1173
8   1172   1163   1164   1173   1226   1217   1218   1227
8   1226   1217   1218   1227   1280   1271   1272   1281
8   1019   1010   1011   1020   1073   1064   1065   1074
8   1073   1064   1065   1074   1127   1118   1119   1128
8   1127   1118   1119   1128   1181   1172   1173   1182
8   1181   1172   1173   1182   1235   1226   1227   1236
8   1235   1226   1227   1236   1289   1280   1281   1290
8   1028   1019   1020   1029   1082   1073   1074   1083
8   1082   1073   1074   1083   1136   1127   1128   1137
8   1136   1127   1128   1137   1190   1181   1182   1191
8   1190   1181   1182   1191   1244   1235   1236   1245
8   1244   1235   1236   1245   1298   1289   1290   1299
8   1037   1028   1029   1038   1091   1082   1083   1092
8   1091   1082   1083   1092   1145   1136   1137   1146
8   1145   1136   1137   1146   1199   1190   1191   1200
8   1199   1190   1191   1200   1253   1244   1245   1254
8   1253   1244   1245   1254   1307   1298   1299   1308
8   1002    993    994   1003   1056   1047   1048   1057
8   1056   1047   1048   1057   1110   1101   1102   1111
8   1110   1101   1102   1111   1164   1155   1156   1165
8   1164   1155   1156   1165   1218   1209   1210   1219
8   1218   1209   1210   1219   1272   1263   1264   1273
8   1011   1002   1003   1012   1065   1056   1057   1066
8   1065   1056   1057   1066   1119   1110   1111   1120
8   1119   1110   1111   1120   1173   1164   1165   1174
8   1173   1164   1165   1174   1227   1218   1219   1228
8   1227   1218   1219   1228   1281   1272   1273   1282
8   1020   1011   1012   1021   1074   1065   1066   1075
8   1074   1065   1066   1075   1128   1119   1120   1129
8   1128   1119   1120   1129   1182   1173   1174   1183
8   1182   1173   1174   1183   1236   1227   1228   1237
8   1236   1227   1228   1237   1290   1281   1282   1291
8   1029   1020   1021   1030   1083   1074   1075   1084
8   1083   1074   1075   1084   1137   1128   1129   1138
8   1137   1128   1129   1138   1191   1182   1183   1192
8   1191   1182   1183   1192   1245   1236   1237   1246
8   1245   1236   1237   1246   1299   1290   1291   1300
8   1038   1029   1030   1039   1092   1083   1084   1093
8   1092   1083   1084   1093   1146   1137   1138   1147
8   1146   1137   1138   1147   1200   1191   1192   1201
8   1200   1191   1192   1201   1254   1245   1246   1255
8   1254   1245   1246   1255   1308   1299   1300   1309
8   1003    994    995   1004   1057   1048   1049   1058
8   1057   1048   1049   1058   1111   1102   1103   1112
8   1111   1102   1103   1112   1165   1156   1157   1166
8   1165   1156   1157   1166   1219   1210   1211   1220
8   1219   1210   1211   1220   1273   1264   1265   1274
8   1012   1003   1004   1013   1066   1057   1058   1067
8   1066   1057   1058   1067   1120   1111   1112   1121
8   1120   1111   1112   1121   1174   1165   1166   1175
8   1174   1165   1166   1175   1228   1219   1220   1229
8   1228   1219   1220   1229   1282   1273   1274   1283
8   1021   1012   1013   1022   1075   1066   1067   1076
8   1075   1066   1067   1076   1129   1120   1121   1130
8   1129   1120   1121   1130   1183   1174   1175   1184
8   1183   1174   1175   1184   1237   1228   1229   1238
8   1237   1228   1229   1238   1291   1282   1283   1292
8   1030   1021   1022   1031   1084   1075   1076   1085
8   1084   1075   1076   1085   1138   1129   1130   1139
8   1138   1129   1130   1139   1192   1183   1184   1193
8   1192   1183   1184   1193   1246   1237   1238   1247
8   1246   1237   1238   1247   1300   1291   1292   1301
8   1039   1030   1031   1040   1093   1084   1085   1094
8   1093   1084   1085   1094   1147   1138   1139   1148
8   1147   1138   1139   1148   1201   1192   1193   1202
8   1201   1192   1193   1202   1255   1246   1247   1256
8   1255   1246   1247   1256   1309   1300   1301   1310
8   1004    995    996   1005   1058   1049   1050   1059
8   1058   1049   1050   1059   1112   1103   1104   1113
8   1112   1103   1104   1113   1166   1157   1158   1167
8   1166   1157   1158   1167   1220   1211   1212   1221
8   1220   1211   1212   1221   1274   1265   1266   1275
8   1013   1004   1005   1014   1067   1058   1059   1068
8   1067   1058   1059   1068   1121   1112   1113   1122
8   1121   1112   1113   1122   1175   1166   1167   1176
8   1175   1166   1167   1176   1229   1220   1221   1230
8   1229   1220   1221   1230   1283   1274   1275   1284
8   1022   1013   1014   1023   1076   1067   1068   1077
8   1076   1067   1068   1077   1130   1121   1122   1131
8   1130   1121   1122   1131   1184   1175   1176   1185
8   1184   1175   1176   1185   1238   1229   1230   1239
8   1238   1229   1230   1239   1292   1283   1284   1293
8   1031   1022   1023   1032   1085   1076   1077   1086
8   1085   1076   1077   1086   1139   1130   1131   1140
8   1139   1130   1131   1140   1193   1184   1185   1194
8   1193   1184   1185   1194   1247   1238   1239   1248
8   1247   1238   1239   1248   1301   1292   1293   1302
8   1040   1031   1032   1041   1094   1085   1086   1095
8   1094   1085   1086   1095   1148   1139   1140   1149
8   1148   1139   1140   1149   1202   1193   1194   1203
8   1202   1193   1194   1203   1256   1247   1248   1257
8   1256   1247   1248   1257   1310   1301   1302   1311
8   1005    996    997   1006   1059   1050   1051   1060
8   1059   1050   1051   1060   1113   1104   1105   1114
8   1113   1104   1105   1114   1167   1158   1159   1168
8   1167   1158   1159   1168   1221   1212   1213   1222
8   1221   1212   1213   1222   1275   1266   1267   1276
8   1014   1005   1006   1015   1068   1059   1060   1069
8   1068   1059   1060   1069   1122   1113   1114   1123
8   1122   1113   1114   1123   1176   1167   1168   1177
8   1176   1167   1168   1177   1230   1221   1222   1231
8   1230   1221   1222   1231   1284   1275   1276   1285
8   1023   1014   1015   1024   1077   1068   1069   1078
8   1077   1068   1069   1078   1131   1122   1123   1132
8   1131   1122   1123   1132   1185   1176   1177   1186
8   1185   1176   1177   1186   1239   1230   1231   1240
8   1239   1230   1231   1240   1293   1284   1285   1294
8   1032   1023   1024   1033   1086   1077   1078   1087
8   1086   1077   1078   1087   1140   1131   1132   1141
8   1140   1131   1132   1141   1194   1185   1186   1195
8   1194   1185   1186   1195   1248   1239   1240   1249
8   1248   1239   1240   1249   1302   1293   1294   1303
8   1041   1032   1033   1042   1095   1086   1087   1096
8   1095   1086   1087   1096   1149   1140   1141   1150
8   1149   1140   1141   1150   1203   1194   1195   1204
8   1203   1194   1195   1204   1257   1248   1249   1258
8   1257   1248   1249   1258   1311   1302   1303   1312
8      0   1314   1324     99      1   1315   1325    100
8     99   1324   1334    198    100   1325   1335    199
8    198   1334   1344    297    199   1335   1345    298
8    297   1344   1354    396    298   1345   1355    397
8    396   1354   1364    495    397   1355   1365    496
8    495   1364   1374    504    496   1365   1375    505
8    504   1374   1384    513    505   1375   1385    514
8    513   1384   1394    522    514   1385   1395    523
8    522   1394   1404    531    523   1395   1405    532
8    531   1404   1414    540    532   1405   1415    541
8    540   1414   1424    549    541   1415   1425    550
8    549   1424   1434    558    550   1425   1435    559
8    558   1434   1444    567    559   1435   1445    568
8    567   1444   1454    576    568   1445   1455    577
8    576   1454   1464    585    577   1455   1465    586
8     90    189   1504   1514     91    190   1505   1515
8    189    288   1494   1504    190    289   1495   1505
8    288    387   1484   1494    289    388   1485   1495
8    387    486   1474   1484    388    487   1475   1485
8    486    585   1464   1474    487    586   1465   1475
8      1   1315   1325    100      2   1316   1326    101
8    100   1325   1335    199    101   1326   1336    200
8    199   1335   1345    298    200   1336   1346    299
8    298   1345   1355    397    299   1346   1356    398
8    397   1355   1365    496    398   1356   1366    497
8    496   1365   1375    505    497   1366   1376    506
8    505   1375   1385    514    506   1376   1386    515
8    514   1385   1395    523    515   1386   1396    524
8    523   1395   1405    532    524   1396   1406    533
8    532   1405   1415    541    533   1406   1416    542
8    541   1415   1425    550    542   1416   1426    551
8    550   1425   1435    559    551   1426   1436    560
8    559   1435   1445    568    560   1436   1446    569
8    568   1445   1455    577    569   1446   1456    578
8    577   1455   1465    586    578   1456   1466    587
8     91    190   1505   1515     92    191   1506   1516
8    190    289   1495   1505    191    290   1496   1506
8    289    388   1485   1495    290    389   1486   1496
8    388    487   1475   1485    389    488   1476   1486
8    487    586   1465   1475    488    587   1466   1476
8      2   1316   1326    101      3   1317   1327    102
8    101   1326   1336    200    102   1327   1337    201
8    200   1336   1346    299    201   1337   1347    300
8    299   1346   1356    398    300   1347   1357    399
8    398   1356   1366    497    399   1357   1367    498
8    497   1366   1376    506    498   1367   1377    507
8    506   1376   1386    515    507   1377   1387    516
8    515   1386   1396    524    516   1387   1397    525
8    524   1396   1406    533    525   1397   1407    534
8    533   1406   1416    542    534   1407   1417    543
8    542   1416   1426    551    543   1417   1427    552
8    551   1426   1436    560    552   1427   1437    561
8    560   1436   1446    569    561   1437   1447    570
8    569   1446   1456    578    570   1447   1457    579
8    578   1456   1466    587    579   1457   1467    588
8     92    191   1506   1516     93    192   1507   1517
8    191    290   1496   1506    192    291   1497   1507
8    290    389   1486   1496    291    390   1487   1497
8    389    488   1476   1486    390    489   1477   1487
8    488    587   1466   1476    489    588   1467   1477
8      3   1317   1327    102      4   1318   1328    103
8    102   1327   1337    201    103   1328   1338    202
8    201   1337   1347    300    202   1338   1348    301
8    300   1347   1357    399    301   1348   1358    400
8    399   1357   1367    498    400   1358   1368    499
8    498   1367   1377    507    499   1368   1378    508
8    507   1377   1387    516    508   1378   1388    517
8    516   1387   1397    525    517   1388   1398    526
8    525   1397   1407    534    526   1398   1408    535
8    534   1407   1417    543    535   1408   1418    544
8    543   1417   1427    552    544   1418   1428    553
8    552   1427   1437    561    553   1428   1438    562
8    561   1437   1447    570    562   1438   1448    571
8    570   1447   1457    579    571   1448   1458    580
8    579   1457   1467    588    580   1458   1468    589
8     93    192   1507   1517     94    193   1508   1518
8    192    291   1497   1507    193    292   1498   1508
8    291    390   1487   1497    292    391   1488   1498
8    390    489   1477   1487    391    490   1478   1488
8    489    588   1467   1477    490    589   1468   1478
8      4   1318   1328    103      5   1319   1329    104
8    103   1328   1338    202    104   1329   1339    203
8    202   1338   1348    301    203   1339   1349    302
8    301   1348   1358    400    302   1349   1359    401
8    400   1358   1368    499    401   1359   1369    500
8    499   1368   1378    508    500   1369   1379    509
8    508   1378   1388    517    509   1379   1389    518
8    517   1388   1398    526    518   1389   1399    527
8    526   1398   1408    535    527   1399   1409    536
8    535   1408   1418    544    536   1409   1419    545
8    544   1418   1428    553    545   1419   1429    554
8    553   1428   1438    562    554   1429   1439    563
8    562   1438   1448    571    563   1439   1449    572
8    571   1448   1458    580    572   1449   1459    581
8    580   1458   1468    589    581   1459   1469    590
8     94    193   1508   1518     95    194   1509   1519
8    193    292   1498   1508    194    293   1499   1509
8    292    391   1488   1498    293    392   1489   1499
8    391    490   1478   1488    392    491   1479   1489
8    490    589   1468   1478    491    590   1469   1479
8      5   1319   1329    104      6   1320   1330    105
8    104   1329   1339    203    105   1330   1340    204
8    203   1339   1349    302    204   1340   1350    303
8    302   1349   1359    401    303   1350   1360    402
8    401   1359   1369    500    402   1360   1370    501
8    500   1369   1379    509    501   1370   1380    510
8    509   1379   1389    518    510   1380   1390    519
8    518   1389   1399    527    519   1390   1400    528
8    527   1399   1409    536    528   1400   1410    537
8    536   1409   1419    545    537   1410   1420    546
8    545   1419   1429    554    546   1420   1430    555
8    554   1429   1439    563    555   1430   1440    564
8    563   1439   1449    572    564   1440   1450    573
8    572   1449   1459    581    573   1450   1460    582
8    581   1459   1469    590    582   1460   1470    591
8     95    194   1509   1519     96    195   1510   1520
8    194    293   1499   1509    195    294   1500   1510
8    293    392   1489   1499    294    393   1490   1500
8    392    491   1479   1489    393    492   1480   1490
8    491    590   1469   1479    492    591   1470   1480
8      6   1320   1330    105      7   1321   1331    106
8    105   1330   1340    204    106   1331   1341    205
8    204   1340   1350    303    205   1341   1351    304
8    303   1350   1360    402    304   1351   1361    403
8    402   1360   1370    501    403   1361   1371    502
8    501   1370   1380    510    502   1371   1381    511
8    510   1380   1390    519    511   1381   1391    520
8    519   1390   1400    528    520   1391   1401    529
8    528   1400   1410    537    529   1401   1411    538
8    537   1410   1420    546    538   1411   1421    547
8    546   1420   1430    555    547   1421   1431    556
8    555   1430   1440    564    556   1431   1441    565
8    564   1440   1450    573    565   1441   1451    574
8    573   1450   1460    582    574   1451   1461    583
8    582   1460   1470    591    583   1461   1471    592
8     96    195   1510   1520     97    196   1511   1521
8    195    294   1500   1510    196    295   1501   1511
8    294    393   1490   1500    295    394   1491   1501
8    393    492   1480   1490    394    493   1481   1491
8    492    591   1470   1480    493    592   1471   1481
8      7   1321   1331    106      8   1322   1332    107
8    106   1331   1341    205    107   1332   1342    206
8    205   1341   1351    304    206   1342   1352    305
8    304   1351   1361    403    305   1352   1362    404
8    403   1361   1371    502    404   1362   1372    503
8    502   1371   1381    511    503   1372   1382    512
8    511   1381   1391    520    512   1382   1392    521
8    520   1391   1401    529    521   1392   1402    530
8    529   1401   1411    538    530   1402   1412    539
8    538   1411   1421    547    539   1412   1422    548
8    547   1421   1431    556    548   1422   1432    557
8    556   1431   1441    565    557   1432   1442    566
8    565   1441   1451    574    566   1442   1452    575
8    574   1451   1461    583    575   1452   1462    584
8    583   1461   1471    592    584   1462   1472    593
8     97    196   1511   1521     98    197   1512   1522
8    196    295   1501   1511    197    296   1502   1512
8    295    394   1491   1501    296    395   1492   1502
8    394    493   1481   1491    395    494   1482   1492
8    493    592   1471   1481    494    593   1472   1482
8   1523   1524      9      0   1534   1535    108     99
8   1534   1535    108     99   1545   1546    207    198
8   1545   1546    207    198   1556   1557    306    297
8   1556   1557    306    297   1567   1568    405    396
8   1567   1568    405    396   1578   1579    504    495
8   1524   1525     18      9   1535   1536    117    108
8   1535   1536    117    108   1546   1547    216    207
8   1546   1547    216    207   1557   1558    315    306
8   1557   1558    315    306   1568   1569    414    405
8   1568   1569    414    405   1579   1580    513    504
8   1525   1526     27     18   1536   1537    126    117
8   1536   1537    126    117   1547   1548    225    216
8   1547   1548    225    216   1558   1559    324    315
8   1558   1559    324    315   1569   1570    423    414
8   1569   1570    423    414   1580   1581    522    513
8   1526   1527     36     27   1537   1538    135    126
8   1537   1538    135    126   1548   1549    234    225
8   1548   1549    234    225   1559   1560    333    324
8   1559   1560    333    324   1570   1571    432    423
8   1570   1571    432    423   1581   1582    531    522
8   1527   1528     45     36   1538   1539    144    135
8   1538   1539    144    135   1549   1550    243    234
8   1549   1550    243    234   1560   1561    342    333
8   1560   1561    342    333   1571   1572    441    432
8   1571   1572    441    432   1582   1583    540    531
8   1528   1529     54     45   1539   1540    153    144
8   1539   1540    153    144   1550   1551    252    243
8   1550   1551    252    243   1561   1562    351    342
8   1561   1562    351    342   1572   1573    450    441
8   1572   1573    450    441   1583   1584    549    540
8   1529   1530     63     54   1540   1541    162    153
8   1540   1541    162    153   1551   1552    261    252
8   1551   1552    261    252   1562   1563    360    351
8   1562   1563    360    351   1573   1574    459    450
8   1573   1574    459    450   1584   1585    558    549
8   1530   1531     72     63   1541   1542    171    162
8   1541   1542    171    162   1552   1553    270    261
8   1552   1553    270    261   1563   1564    369    360
8   1563   1564    369    360   1574   1575    468    459
8   1574   1575    468    459   1585   1586    567    558
8   1531   1532     81     72   1542   1543    180    171
8   1542   1543    180    171   1553   1554    279    270
8   1553   1554    279    270   1564   1565    378    369
8   1564   1565    378    369   1575   1576    477    468
8   1575   1576    477    468   1586   1587    576    567
8   1532   1533     90     81   1543   1544    189    180
8   1543   1544    189    180   1554   1555    288    279
8   1554   1555    288    279   1565   1566    387    378
8   1565   1566    387    378   1576   1577    486    477
8   1576   1577    486    477   1587   1588    585    576
8   1523   1313   1323   1534      0   1314   1324     99
8   1534   1323   1333   1545     99   1324   1334    198
8   1545   1333   1343   1556    198   1334   1344    297
8   1556   1343   1353   1567    297   1344   1354    396
8   1567   1353   1363   1578    396   1354   1364    495
8   1578   1363   1373   1579    495   1364   1374    504
8   1579   1373   1383   1580    504   1374   1384    513
8   1580   1383   1393   1581    513   1384   1394    522
8   1581   1393   1403   1582    522   1394   1404    531
8   1582   1403   1413   1583    531   1404   1414    540
8   1583   1413   1423   1584    540   1414   1424    549
8   1584   1423   1433   1585    549   1424   1434    558
8   1585   1433   1443   1586    558   1434   1444    567
8   1586   1443   1453   1587    567   1444   1454    576
8   1587   1453   1463   1588    576   1454   1464    585
8   1533   1544   1503   1513     90    189   1504   1514
8   1544   1555   1493   1503    189    288   1494   1504
8   1555   1566   1483   1493    288    387   1484   1494
8   1566   1577   1473   1483    387    486   1474   1484
8   1577   1588   1463   1473    486    585   1464   1474
CELL_TYPES  1130
12
12
12
12
12
12
12
12
12
12
12
12
12
12
12
12
12
12
12
12
12
12
12
12
12
12
12
12
12
12
12
12
12
12
12
12
12
12
12
12
12
12
12
12
12
12
12
12
12
12
12
12
12
12
12
12
12
12
12
12
12
12
12
12
12
12
12
12
12
12
12
12
12
12
12
12
12
12
12
12
12
12
12
12
12
12
12
12
12
12
12
12
12
12
12
12
12
12
12
12
12
12
12
12
12
12
12
12
12
12
12
12
12
12
12
12
12
12
12
12
12
12
12
12
12
12
12
12
12
12
12
12
12
12
12
12
12
12
12
12
12
12
12
12
12
12
12
12
12
12
12
12
12
12
12
12
12
12
12
12
12
12
12
12
12
12
12
12
12
12
12
12
12
12
12
12
12
12
12
12
12
12
12
12
12
12
12
12
12
12
12
12
12
12
12
12
12
12
12
12
12
12
12
12
12
12
12
12
12
12
12
12
12
12
12
12
12
12
12
12
12
12
12
12
12
12
12
12
12
12
12
12
12
12
12
12
12
12
12
12
12
12
12
12
12
12
12
12
12
12
12
12
12
12
12
12
12
12
12
12
12
12
12
12
12
12
12
12
12
12
12
12
12
12
12
12
12
12
12
12
12
12
12
12
12
12
12
12
12
12
12
12
12
12
12
12
12
12
12
12
12
12
12
12
12
12
12
12
12
12
12
12
12
12
12
12
12
12
12
12
12
12
12
12
12
12
12
12
12
12
12
12
12
12
12
12
12
12
12
12
12
12
12
12
12
12
12
12
12
12
12
12
12
12
12
12
12
12
12
12
12
12
12
12
12
12
12
12
12
12
12
12
12
12
12
12
12
12
12
12
12
12
12
12
12
12
12
12
12
12
12
12
12
12
12
12
12
12
12
12
12
12
12
12
12
12
12
12
12
12
12
12
12
12
12
12
12
12
12
12
12
12
12
12
12
12
12
12
12
12
12
12
12
12
12
12
12
12
12
12
12
12
12
12
12
12
12
12
12
12
12
12
12
12
12
12
12
12
12
12
12
12
12
12
12
12
12
12
12
12
12
12
12
12
12
12
12
12
12
12
12
12
12
12
12
12
12
12
12
12
12
12
12
12
12
12
12
12
12
12
12
12
12
12
12
12
12
12
12
12
12
12
12
12
12
12
12
12
12
12
12
12
12
12
12
12
12
12
12
12
12
12
12
12
12
12
12
12
12
12
12
12
12
12
12
12
12
12
12
12
12
12
12
12
12
12
12
12
12
12
12
12
12
12
12
12
12
12
12
12
12
12
12
12
12
12
12
12
12
12
12
12
12
12
12
12
12
12
12
12
12
12
12
12
12
12
12
12
12
12
12
12
12
12
12
12
12
12
12
12
12
12
12
12
12
12
12
12
12
12
12
12
12
12
12
12
12
12
12
12
12
12
12
12
12
12
12
12
12
12
12
12
12
12
12
12
12
12
12
12
12
12
12
12
12
12
12
12
12
12
12
12
12
12
12
12
12
12
12
12
12
12
12
12
12
12
12
12
12
12
12
12
12
12
12
12
12
12
12
12
12
12
12
12
12
12
12
12
12
12
12
12
12
12
12
12
12
12
12
12
12
12
12
12
12
12
12
12
12
12
12
12
12
12
12
12
12
12
12
12
12
12
12
12
12
12
12
12
12
12
12
12
12
12
12
12
12
12
12
12
12
12
12
12
12
12
12
12
12
12
12
12
12
12
12
12
12
12
12
12
12
12
12
12
12
12
12
12
12
12
12
12
12
12
12
12
12
12
12
12
12
12
12
12
12
12
12
12
12
12
12
12
12
12
12
12
12
12
12
12
12
12
12
12
12
12
12
12
12
12
12
12
12
12
12
12
12
12
12
12
12
12
12
12
12
12
12
12
12
12
12
12
12
12
12
12
12
12
12
12
12
12
12
12
12
12
12
12
12
12
12
12
12
12
12
12
12
12
12
12
12
12
12
12
12
12
12
12
12
12
12
12
12
12
12
12
12
12
12
12
12
12
12
12
12
12
12
12
12
12
12
12
12
12
12
12
12
12
12
12
12
12
12
12
12
12
12
12
12
12
12
12
12
12
12
12
12
12
12
12
12
12
12
12
12
12
12
12
12
12
12
12
12
12
12
12
12
12
12
12
12
12
12
12
12
12
12
12
12
12
12
12
12
12
12
12
12
12
12
12
12
12
12
12
12
12
12
12
12
12
12
12
12
12
12
12
12
12
12
12
12
12
12
12
12
12
12
12
12
12
12
12
12
12
12
12
12
12
12
12
12
12
12
12
12
12
12
12
12
12
12
12
12
12
12
12
12
12
12
12
12
12
12
12
12
12
12
12
12
12
12
12
12
12
12
12
12
12
12
12
12
12
12
12
12
12
12
12
12
12
12
12
12
12
12
12
12
12
12
12
12
12
12
12
12
12
12
12
12
12
12
12
12
12
12
12
12
12
12
12
12
12
12
12
12
12
12
12
12
12
12
12
12
12
12
12
12
12
12
12
12
12
12
12
12
12
12
12
12
12
12
12
12
12
12
12
12
12
12
12
POINT_DATA      1589
VECTORS Velocities float 
     0.00000000     0.00000000     0.00000000
     0.00000000     0.00000000     0.00000000
     0.00000000     0.00000000     0.00000000
     0.00000000     0.00000000     0.00000000
     0.00000000     0.00000000     0.00000000
     0.00000000     0.00000000     0.00000000
     0.00000000     0.00000000     0.00000000
     0.00000000     0.00000000     0.00000000
     0.00000000     0.00000000     0.00000000
     0.00000000     0.00000000     0.00000000
   -36.61142020    49.04438586     0.00000000
   -72.33354411    33.64214186     0.00000000
   -91.65210423    26.84761608     0.00000000
  -105.37330839     4.76780272     0.00000000
  -109.69541816   -10.36769518     0.00000000
   -86.93903612   -42.37437988     0.00000000
   -62.03312854   -58.60053128     0.00000000
   -43.83103512     4.93069375     0.00000000
     0.00000000     0.00000000     0.00000000
   -38.31293437    71.42917682     0.00000000
   -64.77789523    34.85161218     0.00000000
   -78.10181445    12.56114222     0.00000000
   -82.22921834    -6.68430993     0.00000000
   -72.87947155   -12.68101934     0.00000000
   -70.38786962   -17.37157127     0.00000000
   -45.12388036   -25.76352920     0.00000000
     9.51822922    16.53876361     0.00000000
     0.00000000     0.00000000     0.00000000
   -15.47712087    43.84274470     0.00000000
   -17.77129420    29.21320129     0.00000000
   -17.47293010     5.28197876     0.00000000
   -14.86716149   -23.61066016     0.00000000
   -12.73570885   -28.54557766     0.00000000
   -20.89849619   -12.11243198     0.00000000
   -29.71223661    16.90151564     0.00000000
     7.00484894     9.00605283     0.00000000
     0.00000000     0.00000000     0.00000000
     9.56642782   -26.01254866     0.00000000
    39.62880645    -0.19535754     0.00000000
    59.17350201    11.25488046     0.00000000
    31.49550157     7.70498787     0.00000000
    -5.67120365   -36.60054802     0.00000000
   -52.83512490    -6.99945472     0.00000000
   -26.98091178    20.04270601     0.00000000
    -3.06800592    28.86283913     0.00000000
     0.00000000     0.00000000     0.00000000
     1.40056075   -72.74964671     0.00000000
    33.05226719   -37.13083444     0.00000000
    51.58035091    19.56779603     0.00000000
    33.56874378    46.62708655     0.00000000
   -43.45217293     8.07097356     0.00000000
   -69.61812166     5.62673073     0.00000000
   -49.20954898    43.98303793     0.00000000
     0.00000000     0.00000000     0.00000000
     0.00000000     0.00000000     0.00000000
    -8.32278588   -94.83054996     0.00000000
    -1.96309922   -54.73918348     0.00000000
     6.17268239    23.11040283     0.00000000
   -10.64280316    49.07645378     0.00000000
   -29.83013637    31.10522330     0.00000000
   -48.63204769    10.84757530     0.00000000
     9.45105509   -36.32390980     0.00000000
    11.58154719    27.34338791     0.00000000
     0.00000000     0.00000000     0.00000000
   -26.84312639  -102.30462258     0.00000000
   -37.62472613   -60.20538432     0.00000000
   -32.40440367    -0.52445805     0.00000000
   -22.30656653    29.47925665     0.00000000
   -17.81117439    14.16825971     0.00000000
   -14.73109043    21.46087118     0.00000000
   -36.15106507   -44.62671982     0.00000000
     4.39433245    38.65067287     0.00000000
     0.00000000     0.00000000     0.00000000
   -36.81949407   -84.92513643     0.00000000
   -63.50759532   -58.22478355     0.00000000
   -69.24584505   -37.82942853     0.00000000
   -56.92571605    -8.10740057     0.00000000
   -35.44400373     9.85277527     0.00000000
   -27.76221904    28.47313423     0.00000000
   -12.71154365    21.47627013     0.00000000
    -3.72003365    -0.61576223     0.00000000
     0.00000000     0.00000000     0.00000000
   -32.28020914   -51.50414629     0.00000000
   -64.32172823   -39.95388871     0.00000000
   -81.59833521   -38.95081511     0.00000000
   -95.01783963   -16.60227030     0.00000000
   -92.77421256     6.89764223     0.00000000
   -66.09750514    46.94802878     0.00000000
   -58.49414906    64.09763271     0.00000000
   -39.01284045    19.08390222     0.00000000
     0.00000000     0.00000000     0.00000000
     0.00000000     0.00000000     0.00000000
     0.00000000     0.00000000     0.00000000
     0.00000000     0.00000000     0.00000000
     0.00000000     0.00000000     0.00000000
     0.00000000     0.00000000     0.00000000
     0.00000000     0.00000000     0.00000000
     0.00000000     0.00000000     0.00000000
     0.00000000     0.00000000     0.00000000
     0.00000000     0.00000000     0.00000000
     0.00000000     0.00000000     0.00000000
     0.00000000     0.00000000     0.00000000
     0.00000000     0.00000000     0.00000000
     0.00000000     0.00000000     0.00000000
     0.00000000     0.00000000     0.00000000
     0.00000000     0.00000000     0.00000000
     0.00000000     0.00000000     0.00000000
     0.00000000     0.00000000     0.00000000
     0.00000000     0.00000000     0.00000000
   -23.42693938    36.80833219    28.98892160
   -57.88762946    33.68821429    19.34758167
   -72.38233331    21.32916126    29.04544081
   -77.05954254     6.29208698    10.00316517
   -78.59327801    -2.32900719    -0.06621685
   -68.56801908   -23.87013048   -22.74931583
   -57.78176193   -54.61110437   -15.36712314
   -58.14467613     4.49027614     7.26158829
     0.00000000     0.00000000     0.00000000
   -23.24764377    59.68933275    32.81543060
   -57.32860002    45.14273566     4.41043337
   -65.74863826    16.19720890    22.89877037
   -56.95672012    -3.76218688    -0.61133735
   -31.51895252   -17.85079683     2.07083672
    -7.90227487   -25.69452065   -26.55508435
   -23.77818237   -32.51673398   -55.26539791
    -1.61335166    -3.41356372   -34.06848593
     0.00000000     0.00000000     0.00000000
     6.93158321    43.35112416    48.70824247
    20.29036853     8.42398117     3.80293490
    21.37778025     2.50844143     6.69606244
    16.70357826   -18.57491478     2.66929875
     8.36363184   -14.68953958    15.22429860
    18.58850722   -39.53378892    19.64057455
    21.02401451    -5.64119272   -21.91591577
    12.65551075   -19.07565210   -41.18098399
     0.00000000     0.00000000     0.00000000
    32.32550569    -4.18297167    38.50792901
    64.21814150   -35.77239616     8.98118877
    77.00325841   -19.45141779     6.37032319
    69.41344373    -6.47936134    -5.47909002
    54.88261026     3.06748281    11.88040309
    38.84030116   -16.58618138   -15.64439523
    16.69537857   -14.28538876   -24.22686197
    11.82896473    20.34707843   -32.08235525
     0.00000000     0.00000000     0.00000000
    27.34911179   -55.17867358    15.64593168
    47.51426001   -58.98752580   -12.19459528
    35.55686321    -7.00753309    -8.42077266
    32.61155728    17.04710674    -8.32161349
    36.70165425    30.46247791    17.03765772
    18.38345412     3.01321855   -15.72232136
   -17.54577056    20.55958736   -25.89054474
     0.00000000     0.00000000     0.00000000
     0.00000000     0.00000000     0.00000000
    10.28356095   -86.14707764    20.02485165
     6.45803011   -65.51297656    -6.67249007
    -3.09348457    20.75189546     0.11078039
    -5.60536039    37.87695203     4.18695932
    15.58518641    40.24473726    19.88663460
    -4.96912652    44.36115022   -18.51112702
    11.50871952    12.23057337   -21.77127431
     4.70783692    17.72710917    -6.92800643
     0.00000000     0.00000000     0.00000000
    -8.55766444   -91.25473899    17.96715379
   -29.38839689   -64.47376129     0.84763170
   -22.88666202     0.32785675    30.73364200
     0.23552747    33.80048771    20.68981640
   -11.29696126    28.94168250    22.36039002
     8.40485852    58.32202706    -7.52960418
    14.02304124    -4.21968722   -38.23568231
    23.83105389    42.11865334   -13.59422557
     0.00000000     0.00000000     0.00000000
   -21.55909222   -73.16869419    20.92344781
   -57.13570591   -60.82077904    -0.04824146
   -60.82707665   -33.26976166    13.15358895
   -47.26813967    -1.92140321     1.27592892
   -25.11193107    26.88568408    -4.18862489
   -19.65876672    46.48271088   -36.56066110
     2.59651116    29.86158780   -38.76102968
    14.09564292    11.89530851   -46.61687574
     0.00000000     0.00000000     0.00000000
   -22.25319443   -39.04256917    14.91002420
   -57.35554200   -41.66093462     2.87945729
   -80.02676019   -37.02515615     4.36182043
   -90.84506861   -14.50913034    -4.40187209
   -90.60977411    10.82946765    -3.92492358
   -62.26331875    47.94058204    -2.22479963
   -59.82044243    68.29365867     7.65790722
   -43.26342207    15.24063570    12.51965463
     0.00000000     0.00000000     0.00000000
     0.00000000     0.00000000     0.00000000
     0.00000000     0.00000000     0.00000000
     0.00000000     0.00000000     0.00000000
     0.00000000     0.00000000     0.00000000
     0.00000000     0.00000000     0.00000000
     0.00000000     0.00000000     0.00000000
     0.00000000     0.00000000     0.00000000
     0.00000000     0.00000000     0.00000000
     0.00000000     0.00000000     0.00000000
     0.00000000     0.00000000     0.00000000
     0.00000000     0.00000000     0.00000000
     0.00000000     0.00000000     0.00000000
     0.00000000     0.00000000     0.00000000
     0.00000000     0.00000000     0.00000000
     0.00000000     0.00000000     0.00000000
     0.00000000     0.00000000     0.00000000
     0.00000000     0.00000000     0.00000000
     0.00000000     0.00000000     0.00000000
   -12.86414281    34.05528673    41.35885923
   -31.14300285    32.67285187    36.01332333
   -34.76324101    23.18819309    37.92048326
   -29.32935830     8.76078073     9.80139416
   -17.06500331    -5.58457821   -18.13962397
   -19.71684266    -4.42423617   -32.12745212
   -14.35441585   -45.81182616   -35.00492135
   -52.23229419    11.07800612    10.27322641
     0.00000000     0.00000000     0.00000000
   -10.12981564    49.40848124    44.93181444
   -25.76836159    41.05813687    23.83371382
   -33.59809800    25.93171827    19.62783245
   -23.44681720    -2.03783590     4.18869240
    -4.55046129    -2.78110775   -13.46034330
    30.37873731   -14.14454461   -13.32733616
     7.67035243   -26.73416206   -37.45259135
   -16.68783609     6.28097364   -34.13221648
     0.00000000     0.00000000     0.00000000
     8.08801000    38.65823435    53.92496526
    30.98782777     2.33046836    35.01280400
    47.20419806     4.43365205    23.99833513
    49.35207915   -19.56974772    16.81974055
    48.83241333     0.91270005     2.67601192
    39.30016119   -22.60439925    -2.15961792
    36.40448543     0.67625736   -33.90110300
    16.35365707   -19.47775399   -49.71107296
     0.00000000     0.00000000     0.00000000
    27.25920938    -2.90586430    39.49527643
    57.18920551   -39.75987267    22.43511582
    71.40447275   -20.62016156    16.88765313
    71.29130461   -19.53619381    -0.86507882
    67.14097943     4.78733279     4.74908533
    47.19208653     5.59325029   -12.90219047
    44.02309623    -7.47101684   -27.24161298
    18.88624897     9.92961080   -49.74238763
     0.00000000     0.00000000     0.00000000
    18.75253536   -47.09511374    16.78092198
    37.01554581   -56.63767273    -0.72647128
    31.51181032   -28.81632099   -17.56051538
    24.79888014   -17.93332345   -26.21004348
    27.50967516    15.30862906   -23.23211720
    43.29644304    13.35166135    -9.89218358
    20.68242473    34.57105662   -51.09073447
     0.00000000     0.00000000     0.00000000
     0.00000000     0.00000000     0.00000000
     1.84859933   -75.25300116    17.91467920
     2.97138777   -65.11526235     3.89097634
     1.65378257   -28.26974234    -2.07458920
    -7.45931455    -3.35231420   -18.97824347
     7.82050524     7.97030728    -3.38956163
    14.36303362    37.92688336   -25.58354668
    24.06552454    39.23766309   -44.84463716
     4.67927272    23.19653748    -5.80456225
     0.00000000     0.00000000     0.00000000
   -12.78068542   -81.30752649    20.21003700
   -23.34141818   -64.46152562    11.30927956
   -17.00384876   -26.72585915    18.77028600
     2.52645929     9.87772940    26.41147024
    -2.71682426    15.52339770    32.71178622
     2.31108750    47.48577887   -26.47205896
    19.53847025    20.22501456   -49.30236320
    28.97971895    53.42573079   -31.48817820
     0.00000000     0.00000000     0.00000000
   -22.06756394   -68.09683264    23.55191509
   -48.50143015   -56.68448482    13.09801189
   -54.17319962   -33.67739897    10.12843582
   -43.03005001    -1.94838888    11.03697096
   -28.13457247    27.17828216    -3.57566563
   -33.00050451    47.43142371   -38.69566233
   -24.29022415    45.40331485   -54.16266484
     9.44758254    30.86798250   -46.36795836
     0.00000000     0.00000000     0.00000000
   -20.77091496   -41.33288632    22.52550329
   -50.94806265   -38.21638908    12.64952742
   -72.01585860   -34.57678544     7.29937169
   -87.84371232    -9.52614007     4.06466843
   -91.79498282    12.54280348    -3.02180165
   -67.61404395    46.73925997     1.54533491
   -61.47138596    62.16515897    14.93161022
   -50.24197725     5.01564607    26.16969522
     0.00000000     0.00000000     0.00000000
     0.00000000     0.00000000     0.00000000
     0.00000000     0.00000000     0.00000000
     0.00000000     0.00000000     0.00000000
     0.00000000     0.00000000     0.00000000
     0.00000000     0.00000000     0.00000000
     0.00000000     0.00000000     0.00000000
     0.00000000     0.00000000     0.00000000
     0.00000000     0.00000000     0.00000000
     0.00000000     0.00000000     0.00000000
     0.00000000     0.00000000     0.00000000
     0.00000000     0.00000000     0.00000000
     0.00000000     0.00000000     0.00000000
     0.00000000     0.00000000     0.00000000
     0.00000000     0.00000000     0.00000000
     0.00000000     0.00000000     0.00000000
     0.00000000     0.00000000     0.00000000
     0.00000000     0.00000000     0.00000000
     0.00000000     0.00000000     0.00000000
    -2.32204046    25.47238235    37.73374664
    -3.62891810    22.07484191    32.32790699
     5.96556272    14.37376517    26.31007337
     7.96171794     8.52048662    -0.52541037
     2.18428240   -12.85184461   -24.06506407
   -14.05806429    -5.16256234   -27.66230298
    12.58328871   -47.70568640   -44.12021582
   -22.31854089    23.09670250    -3.83792253
     0.00000000     0.00000000     0.00000000
     3.14334109    35.01754207    46.05110835
    10.45855679    20.46946667    35.47256841
    14.63145634    19.94738682    22.71640289
    29.85515091     1.43244475    10.19346304
    19.05786233    -0.75304286   -16.84784412
    34.09734104   -10.55174339   -19.13257976
    28.68864645   -31.87128747   -33.25000466
     7.59274018    26.29969805   -29.70405600
     0.00000000     0.00000000     0.00000000
    11.29560128    29.09774687    50.89710640
    34.52139230    -0.59747435    46.62159475
    53.69104662    10.69138185    34.02078896
    57.25497350    -7.96369296    23.30121815
    60.05889398     7.83966747     3.78932641
    43.79630215    -5.86658385    -9.40387965
    28.91484851     2.25649358   -41.64317031
    30.27456961    -7.48383106   -45.49189157
     0.00000000     0.00000000     0.00000000
    24.06643628    -1.12165597    42.92488620
    49.96426895   -26.33126042    29.03869717
    63.42634478   -12.32696774    23.82970727
    73.78386156   -12.08399709     8.74498493
    62.73957108     9.39244195    -2.73750089
    61.66731220    17.54427019    -9.66361964
    36.33288974     9.97036859   -27.01571379
    26.19412382     1.84820906   -47.31383340
     0.00000000     0.00000000     0.00000000
    18.19601411   -38.11525878    24.64839361
    33.25157952   -46.66581355     9.85625741
    41.80616663   -38.60366558    -0.19083364
    45.77137795   -24.78273212   -17.59663642
    45.03410327    11.25002464   -26.72031686
    39.78496013    16.63707814   -22.64370347
    17.02080854    49.73163734   -38.06285731
     0.00000000     0.00000000     0.00000000
     0.00000000     0.00000000     0.00000000
     4.95368558   -60.58200954    26.59977049
     7.38934121   -59.18553754     7.48904529
     9.33089108   -50.30114968    -5.87279735
     9.01846984   -26.49348280   -29.34383225
    20.67032356    -4.88098063   -28.37958120
    13.50810880    39.80401850   -32.12390371
    16.36208995    55.61266204   -42.29971069
     7.89112581    33.06576685    -0.92535267
     0.00000000     0.00000000     0.00000000
    -2.37174440   -64.36851461    29.13559654
   -12.69824156   -61.16035867    10.74508528
   -20.54060087   -45.39188027     2.33478213
   -14.59437595   -22.45008870    -0.11173700
    -6.14397257     7.43914812     7.07792248
   -13.66806291    57.93265632   -29.75894657
    -2.12181598    40.45336823   -43.64814571
    23.20030962    51.44614394   -37.76576098
     0.00000000     0.00000000     0.00000000
   -10.61818264   -56.90688984    32.50202925
   -32.72928196   -53.19892166    16.00340179
   -42.37908887   -40.51927168    13.16810641
   -40.45590140   -16.02616492     6.30372393
   -16.90941581    19.69506811    -3.99733858
    -6.10878121    54.53447145   -34.33271707
   -32.49524742    44.46694641   -38.16090376
   -11.36947286    18.77181411   -18.13729719
     0.00000000     0.00000000     0.00000000
   -12.88077180   -35.62849149    26.71856693
   -32.18236779   -34.13213466    19.57868118
   -50.12450544   -32.59827219    16.38149507
   -58.79885111   -14.17986970    13.08646935
   -65.37357456     3.77300994     9.15119518
   -47.88017768    35.84903840    -3.56196601
   -40.93157305    68.04672349     5.21994718
   -56.22920749    -7.36952485    38.65553146
     0.00000000     0.00000000     0.00000000
     0.00000000     0.00000000     0.00000000
     0.00000000     0.00000000     0.00000000
     0.00000000     0.00000000     0.00000000
     0.00000000     0.00000000     0.00000000
     0.00000000     0.00000000     0.00000000
     0.00000000     0.00000000     0.00000000
     0.00000000     0.00000000     0.00000000
     0.00000000     0.00000000     0.00000000
     0.00000000     0.00000000     0.00000000
     0.00000000     0.00000000     0.00000000
     0.00000000     0.00000000     0.00000000
     0.00000000     0.00000000     0.00000000
     0.00000000     0.00000000     0.00000000
     0.00000000     0.00000000     0.00000000
     0.00000000     0.00000000     0.00000000
     0.00000000     0.00000000     0.00000000
     0.00000000     0.00000000     0.00000000
     0.00000000     0.00000000     0.00000000
     3.00317342    13.49241171    22.13242561
    12.67739740     1.96299619    16.13635825
    18.54624811    -1.93247903     7.49991643
    10.61816347    -4.48232349    -6.70122699
    10.19152281   -15.18312051   -16.07857677
   -11.56794277    -2.68199283   -10.00453813
    -4.87101188   -38.77181957   -22.09824756
     5.29120720    17.13035576    -9.15824881
     0.00000000     0.00000000     0.00000000
     8.56396622    18.48394594    29.90520704
    28.21798567    -0.71541222    27.53419576
    33.27708616     2.57396051    16.27892831
    36.81855455    -4.61689938     6.38706031
    26.66832671    -3.67536570    -4.46829912
    14.93564677    -1.85627192   -15.83179387
     0.87630792   -32.87102834   -14.09253616
    23.65953650    23.49890288   -27.85815220
     0.00000000     0.00000000     0.00000000
    14.49967639    18.32387330    36.19104054
    37.36123195    -1.01162558    34.01792000
    48.53852519     7.92643830    26.65731959
    47.51469929     3.67461076    14.58028900
    46.77632703    11.74546759     3.11864126
    25.23173832    13.83536709    -4.85986315
    -2.26664555   -12.59743369   -13.58801089
    28.96043845     4.77259105   -38.99624193
     0.00000000     0.00000000     0.00000000
    22.53561802     5.34971220    35.50302446
    46.41021620    -2.83774951    28.96331820
    53.52590854     8.66617017    26.41498590
    57.75452713    12.79252355     9.46221383
    48.28571812    23.80874427     3.19816127
    36.92542836    33.17764857   -13.94971813
    24.67188115    13.44050146    -2.50344550
     6.69671071     4.36189388   -44.27995697
     0.00000000     0.00000000     0.00000000
    20.28158211   -15.53325849    27.69838487
    42.15065027    -8.37483797    22.92521922
    53.29207526    -2.72608836    14.24423076
    53.53903074    11.77104013    -4.33199265
    45.36195926    32.67079765   -12.00960357
    27.50392429    41.17047454   -15.58997501
     7.66866390    57.83336573   -19.29796965
     0.00000000     0.00000000     0.00000000
     0.00000000     0.00000000     0.00000000
    12.73740584   -31.39385038    25.74249134
    30.41761628   -20.41932087    18.45365483
    34.65221147   -21.34133361     4.32722629
    32.98784669    -2.25427798   -14.68392109
    25.59164506    25.12367137   -22.01308262
    18.26941513    47.09258218   -23.37155081
    -2.95826277    76.43474088   -25.09533013
    10.19762280     8.56706065    -5.88691063
     0.00000000     0.00000000     0.00000000
     7.74293750   -37.54728870    27.20512113
    14.75904810   -30.93492749    18.77483244
    11.67320464   -34.11961075     8.16797100
     0.49418394   -20.52139775    -7.00085741
    -0.52399046     6.46820312   -14.04044285
   -14.26866109    56.84951632   -19.13663008
   -12.67502281    71.68568675   -27.14309390
    12.39970129     5.69189542   -18.96882145
     0.00000000     0.00000000     0.00000000
     0.67562835   -36.31698334    26.46841002
     1.31683413   -31.15581273    21.66761058
    -6.83878266   -34.91898773    16.20716640
   -14.28276618   -28.06076556    10.72704525
   -27.94902227    -2.90617123     0.05338594
     1.39259380    34.42691958   -15.58479308
    -6.90141636    60.93563734   -36.89844090
   -18.78621929    -4.29753861    10.41577944
     0.00000000     0.00000000     0.00000000
    -2.27136352   -23.20696059    21.91219872
    -7.40584223   -21.62987821    17.20732518
   -10.26973117   -22.00408334    19.49763149
   -23.81903661   -20.46981194    13.44151091
   -23.26004825    -1.77522250    11.30856130
   -25.41630109     5.56541312     1.26478314
     3.65911855    55.11608923   -32.85448340
   -38.27267043    -5.53952414    29.10037704
     0.00000000     0.00000000     0.00000000
     0.00000000     0.00000000     0.00000000
     0.00000000     0.00000000     0.00000000
     0.00000000     0.00000000     0.00000000
     0.00000000     0.00000000     0.00000000
     0.00000000     0.00000000     0.00000000
     0.00000000     0.00000000     0.00000000
     0.00000000     0.00000000     0.00000000
     0.00000000     0.00000000     0.00000000
     0.00000000     0.00000000     0.00000000
     0.00000000     0.00000000     0.00000000
     0.00000000     0.00000000     0.00000000
     0.00000000     0.00000000     0.00000000
     0.00000000     0.00000000     0.00000000
     0.00000000     0.00000000     0.00000000
     0.00000000     0.00000000     0.00000000
     0.00000000     0.00000000     0.00000000
     0.00000000     0.00000000     0.00000000
     0.00000000     0.00000000     0.00000000
     0.00000000     0.00000000     0.00000000
     0.00000000     0.00000000     0.00000000
     0.00000000     0.00000000     0.00000000
     0.00000000     0.00000000     0.00000000
     0.00000000     0.00000000     0.00000000
     0.00000000     0.00000000     0.00000000
     0.00000000     0.00000000     0.00000000
     0.00000000     0.00000000     0.00000000
     0.00000000     0.00000000     0.00000000
     0.00000000     0.00000000     0.00000000
     0.00000000     0.00000000     0.00000000
     0.00000000     0.00000000     0.00000000
     0.00000000     0.00000000     0.00000000
     0.00000000     0.00000000     0.00000000
     0.00000000     0.00000000     0.00000000
     0.00000000     0.00000000     0.00000000
     0.00000000     0.00000000     0.00000000
     0.00000000     0.00000000     0.00000000
     0.00000000     0.00000000     0.00000000
     0.00000000     0.00000000     0.00000000
     0.00000000     0.00000000     0.00000000
     0.00000000     0.00000000     0.00000000
     0.00000000     0.00000000     0.00000000
     0.00000000     0.00000000     0.00000000
     0.00000000     0.00000000     0.00000000
     0.00000000     0.00000000     0.00000000
     0.00000000     0.00000000     0.00000000
     0.00000000     0.00000000     0.00000000
     0.00000000     0.00000000     0.00000000
     0.00000000     0.00000000     0.00000000
     0.00000000     0.00000000     0.00000000
     0.00000000     0.00000000     0.00000000
     0.00000000     0.00000000     0.00000000
     0.00000000     0.00000000     0.00000000
     0.00000000     0.00000000     0.00000000
     0.00000000     0.00000000     0.00000000
     0.00000000     0.00000000     0.00000000
     0.00000000     0.00000000     0.00000000
     0.00000000     0.00000000     0.00000000
     0.00000000     0.00000000     0.00000000
     0.00000000     0.00000000     0.00000000
     0.00000000     0.00000000     0.00000000
     0.00000000     0.00000000     0.00000000
     0.00000000     0.00000000     0.00000000
     0.00000000     0.00000000     0.00000000
     0.00000000     0.00000000     0.00000000
     0.00000000     0.00000000     0.00000000
     0.00000000     0.00000000     0.00000000
     0.00000000     0.00000000     0.00000000
     0.00000000     0.00000000     0.00000000
     0.00000000     0.00000000     0.00000000
     0.00000000     0.00000000     0.00000000
     0.00000000     0.00000000     0.00000000
     0.00000000     0.00000000     0.00000000
     0.00000000     0.00000000     0.00000000
     0.00000000     0.00000000     0.00000000
     0.00000000     0.00000000     0.00000000
     0.00000000     0.00000000     0.00000000
     0.00000000     0.00000000     0.00000000
     0.00000000     0.00000000     0.00000000
     0.00000000     0.00000000     0.00000000
     0.00000000     0.00000000     0.00000000
     0.00000000     0.00000000     0.00000000
     0.00000000     0.00000000     0.00000000
     0.00000000     0.00000000     0.00000000
     0.00000000     0.00000000     0.00000000
     0.00000000     0.00000000     0.00000000
     0.00000000     0.00000000     0.00000000
     0.00000000     0.00000000     0.00000000
     0.00000000     0.00000000     0.00000000
     0.00000000     0.00000000     0.00000000
     0.00000000     0.00000000     0.00000000
     0.00000000     0.00000000     0.00000000
     0.00000000     0.00000000     0.00000000
     0.00000000     0.00000000     0.00000000
     0.00000000     0.00000000     0.00000000
     0.00000000     0.00000000     0.00000000
     0.00000000     0.00000000     0.00000000
     0.00000000     0.00000000     0.00000000
     0.00000000     0.00000000     0.00000000
     0.00000000     0.00000000     0.00000000
     0.00000000     0.00000000     0.00000000
     0.00000000     0.00000000     0.00000000
     0.00000000     0.00000000     0.00000000
     0.00000000     0.00000000     0.00000000
     0.00000000     0.00000000     0.00000000
     0.00000000     0.00000000     0.00000000
     0.00000000     0.00000000     0.00000000
     0.00000000     0.00000000     0.00000000
     0.00000000     0.00000000     0.00000000
     0.00000000     0.00000000     0.00000000
     0.00000000     0.00000000     0.00000000
     0.00000000     0.00000000     0.00000000
     0.00000000     0.00000000     0.00000000
     0.00000000     0.00000000     0.00000000
     0.00000000     0.00000000     0.00000000
     0.00000000     0.00000000     0.00000000
     0.00000000     0.00000000     0.00000000
     0.00000000     0.00000000     0.00000000
     0.00000000     0.00000000     0.00000000
    -4.41683121    -1.60887427     0.00000000
   -34.92979523     5.53771412     0.00000000
   -46.53421823    -5.84277438     0.00000000
   -50.96428522    -9.22778348     0.00000000
   -50.16338974   -20.43694960     0.00000000
   -41.87100680   -23.70075554     0.00000000
   -32.56366569   -25.36702968     0.00000000
   -18.76804792   -24.44381719     0.00000000
    -8.70190206   -16.87877415     0.00000000
    -0.96770086    -7.51421806     0.00000000
     0.00000000     0.00000000     0.00000000
   -33.88974884    51.05083611     0.00000000
   -51.69098088    18.33697405     0.00000000
   -42.72679709     2.46600847     0.00000000
   -37.36604865    -1.12032285     0.00000000
   -32.22462272   -14.35010248     0.00000000
   -28.16122723   -29.98435664     0.00000000
   -19.50148303   -45.95366619     0.00000000
   -10.45419088   -53.56199240     0.00000000
    -2.53614058   -49.37017757     0.00000000
     3.40068210   -32.51650047     0.00000000
     0.00000000     0.00000000     0.00000000
    43.06695446    79.82214228     0.00000000
    42.42359865    88.68343211     0.00000000
    14.64943710    65.32367979     0.00000000
    -2.85162025    37.82737755     0.00000000
    -3.61760276    12.13023502     0.00000000
    12.91697799   -14.02323494     0.00000000
    26.38888239   -34.84235227     0.00000000
    32.97231780   -46.57937130     0.00000000
    28.20456111   -51.04100365     0.00000000
    16.59644075   -41.14011465     0.00000000
     0.00000000     0.00000000     0.00000000
   -33.79270526    52.49157115     0.00000000
    -3.83442261    58.36072362     0.00000000
    31.94594673    64.68156070     0.00000000
    65.21277597    53.87749099     0.00000000
    85.53452093    36.65728515     0.00000000
    89.64951451    18.65491009     0.00000000
    80.77977797     5.36676593     0.00000000
    63.11998861    -5.59377154     0.00000000
    40.79426316   -12.36527148     0.00000000
    15.83978374   -14.23985786     0.00000000
     0.00000000     0.00000000     0.00000000
     0.00000000     0.00000000     0.00000000
     0.00000000     0.00000000     0.00000000
     0.00000000     0.00000000     0.00000000
     0.00000000     0.00000000     0.00000000
     0.00000000     0.00000000     0.00000000
     0.00000000     0.00000000     0.00000000
     0.00000000     0.00000000     0.00000000
     0.00000000     0.00000000     0.00000000
     0.00000000     0.00000000     0.00000000
     0.00000000     0.00000000     0.00000000
     0.00000000     0.00000000     0.00000000
     0.00000000     0.00000000     0.00000000
     0.00000000     0.00000000     0.00000000
     0.00000000     0.00000000     0.00000000
     0.00000000     0.00000000     0.00000000
     0.00000000     0.00000000     0.00000000
     0.00000000     0.00000000     0.00000000
     0.00000000     0.00000000     0.00000000
     0.00000000     0.00000000     0.00000000
     0.00000000     0.00000000     0.00000000
     0.00000000     0.00000000     0.00000000
     0.00000000     0.00000000     0.00000000
    -4.96210804    -6.77712904     3.99902048
   -33.52364131     4.15533265    10.70777391
   -44.66274513    -5.49842395     2.27294022
   -51.14360182   -10.01803549     2.24535939
   -48.52172074   -19.81654670     1.47850155
   -43.07199421   -23.23634177     1.51709348
   -31.63920246   -24.45422313     1.06947602
   -19.91493635   -23.83690420     1.10888103
    -7.93408317   -16.32966400    -0.50911883
    -1.75574610    -7.57668859    -1.18149762
     0.00000000     0.00000000     0.00000000
   -41.09100487    48.88087348    27.00511442
   -52.16956545    15.93294615    -4.75522065
   -46.96552628     2.47153556    -8.14511132
   -39.81001493    -0.54019334    -7.45778311
   -34.15736569   -13.37569589    -7.99400634
   -28.14552676   -29.35295710    -6.26248207
   -19.17040351   -44.52826687    -2.20477647
    -9.84607017   -52.71616310     2.06493433
    -2.38911981   -48.25008125     5.23459810
     3.24656731   -31.30955156     4.41659207
     0.00000000     0.00000000     0.00000000
    42.93294628    78.73695781    -3.74712363
    41.52526187    87.66991830     3.94306804
    15.31199192    65.12571806     0.22045908
    -0.06138600    37.81043473    -9.31604930
     6.13937597    12.82299194   -15.78494426
    19.75327982   -13.27340114   -16.23064793
    33.13035737   -33.40249760   -12.18234390
    35.73945788   -45.36045843    -4.12854373
    30.53038730   -49.48683968     4.48234565
    16.01570296   -39.52290497     8.51929577
     0.00000000     0.00000000     0.00000000
   -40.69465652    52.37140922     4.74060483
    -5.63112889    54.09010290     4.60472519
    31.38188833    59.43894395     5.19928513
    66.89905501    48.09836379     3.54643777
    86.45828338    32.41512079     3.64797163
    90.30725323    15.66699157     3.61832696
    80.56672021     3.37085516     4.23379787
    63.84708415    -6.70266313     5.04100601
    41.16754596   -12.95264964     7.68872357
    16.46629868   -14.11981198    11.14766830
     0.00000000     0.00000000     0.00000000
     0.00000000     0.00000000     0.00000000
     0.00000000     0.00000000     0.00000000
     0.00000000     0.00000000     0.00000000
     0.00000000     0.00000000     0.00000000
     0.00000000     0.00000000     0.00000000
     0.00000000     0.00000000     0.00000000
     0.00000000     0.00000000     0.00000000
     0.00000000     0.00000000     0.00000000
     0.00000000     0.00000000     0.00000000
     0.00000000     0.00000000     0.00000000
     0.00000000     0.00000000     0.00000000
     0.00000000     0.00000000     0.00000000
     0.00000000     0.00000000     0.00000000
     0.00000000     0.00000000     0.00000000
     0.00000000     0.00000000     0.00000000
     0.00000000     0.00000000     0.00000000
     0.00000000     0.00000000     0.00000000
     0.00000000     0.00000000     0.00000000
     0.00000000     0.00000000     0.00000000
     0.00000000     0.00000000     0.00000000
     0.00000000     0.00000000     0.00000000
     0.00000000     0.00000000     0.00000000
    -4.73645506   -16.47507055     8.90908216
   -32.87190764     5.14275017    16.56027798
   -40.47648992    -4.15390936     6.39284868
   -47.10467752    -7.57689543     5.29866380
   -48.71775591   -15.85542217     3.60168778
   -41.85259869   -19.31892758     2.76051588
   -33.17763466   -21.64847445     2.47152231
   -19.28014453   -21.34008379     1.76142036
    -8.67618319   -15.44261097    -0.39766210
    -0.96978472    -7.39441187    -2.18868079
     0.00000000     0.00000000     0.00000000
   -37.35936362    45.88943758    39.48214796
   -55.95657454    15.26075869    -6.58413850
   -52.84515744     3.05316853   -17.39827667
   -48.06081620    -2.17939871   -16.29730123
   -40.18295249   -16.39230374   -16.64457251
   -32.41779041   -30.02156972   -12.51715560
   -22.31459156   -42.65613791    -4.12623418
   -12.83395889   -48.22792823     3.35737776
    -4.45753494   -42.85421554     8.68915348
     1.96901145   -26.83785593     7.06086807
     0.00000000     0.00000000     0.00000000
    34.63849544    81.63737450    -0.26581112
    37.14022119    85.25698233    11.51725627
    14.82649103    59.95724275    -0.40932326
     9.89539322    30.83085914   -18.97171594
    15.66026145     4.73832536   -27.55757161
    28.83196567   -18.75375809   -25.64521684
    34.59805906   -36.20881730   -16.05118124
    33.91615725   -45.85150595    -1.69432392
    25.03555530   -47.28175625    12.13937327
    13.42825010   -34.44651745    16.28169123
     0.00000000     0.00000000     0.00000000
   -49.92270458    61.86547013     6.89891392
    -9.91663169    48.61724518     6.94957946
    34.69577203    51.15563347     3.53050820
    72.66135611    40.04849287     3.43697000
    90.65143363    25.18015005     5.08671185
    91.86002273     9.87392823     4.53527450
    81.61597043    -1.17511708     5.61560031
    62.91201675    -9.71998485     8.33512495
    38.42731542   -14.75362356    16.03148124
    13.74238311   -14.60324417    20.66999212
     0.00000000     0.00000000     0.00000000
     0.00000000     0.00000000     0.00000000
     0.00000000     0.00000000     0.00000000
     0.00000000     0.00000000     0.00000000
     0.00000000     0.00000000     0.00000000
     0.00000000     0.00000000     0.00000000
     0.00000000     0.00000000     0.00000000
     0.00000000     0.00000000     0.00000000
     0.00000000     0.00000000     0.00000000
     0.00000000     0.00000000     0.00000000
     0.00000000     0.00000000     0.00000000
     0.00000000     0.00000000     0.00000000
     0.00000000     0.00000000     0.00000000
     0.00000000     0.00000000     0.00000000
     0.00000000     0.00000000     0.00000000
     0.00000000     0.00000000     0.00000000
     0.00000000     0.00000000     0.00000000
     0.00000000     0.00000000     0.00000000
     0.00000000     0.00000000     0.00000000
     0.00000000     0.00000000     0.00000000
     0.00000000     0.00000000     0.00000000
     0.00000000     0.00000000     0.00000000
     0.00000000     0.00000000     0.00000000
     1.07026723   -13.27156231     5.01669448
   -23.99211437    15.38598441    11.91205996
   -30.52958310     3.27760523    15.10946137
   -42.24742319     0.46334773     7.00154974
   -42.65334324    -6.80703110     5.15282742
   -41.06950669   -12.13757632     4.19663574
   -31.56887439   -14.07434686     2.36617820
   -19.96446574   -14.93618720     2.40212844
    -7.77901763   -10.52993129    -0.38652785
    -1.38726544    -5.92507233    -2.25109289
     0.00000000     0.00000000     0.00000000
   -24.57454764    37.55919888    37.39493113
   -45.89719187    19.65421084    -3.51269952
   -51.00698836     5.42705479   -15.24555432
   -52.52876932    -5.04472263   -18.77135333
   -47.63614666   -17.70763629   -16.81684501
   -41.47143538   -29.27053767   -13.16628498
   -31.92896306   -36.47435003    -4.69869010
   -20.60355490   -38.42748131     2.47372983
    -9.72878204   -31.94295335     7.43310445
    -0.59977938   -18.52140838     5.82965110
     0.00000000     0.00000000     0.00000000
    11.38161890    77.62399930     1.37259569
    27.63521147    77.70610493    12.72753912
    16.92903200    50.22701603    -2.47603885
    12.80727972    18.51917561   -23.34281280
    14.58458408    -7.09414023   -30.26832029
    13.32253896   -28.51789464   -22.19824665
    11.91727090   -41.45154659   -10.42196040
     7.77142246   -45.09611923     5.12969199
     6.28027348   -40.23497468    15.47728237
     4.05964030   -24.49455813    15.23524333
     0.00000000     0.00000000     0.00000000
   -54.21827049    65.36309557     4.77105661
    -3.58836546    46.57358814     1.56118612
    48.44697126    41.99250963    -1.75300979
    79.58418355    30.76497924     3.02537381
    90.57798454    16.70931385     4.11362871
    85.67015369     3.47728107     4.32322455
    66.70787086    -6.44089696     6.43062181
    41.39718809   -14.81566546    12.73648069
    17.29027076   -19.19315413    21.01643572
     5.42367011   -14.90056185    20.62060060
     0.00000000     0.00000000     0.00000000
     0.00000000     0.00000000     0.00000000
     0.00000000     0.00000000     0.00000000
     0.00000000     0.00000000     0.00000000
     0.00000000     0.00000000     0.00000000
     0.00000000     0.00000000     0.00000000
     0.00000000     0.00000000     0.00000000
     0.00000000     0.00000000     0.00000000
     0.00000000     0.00000000     0.00000000
     0.00000000     0.00000000     0.00000000
     0.00000000     0.00000000     0.00000000
     0.00000000     0.00000000     0.00000000
     0.00000000     0.00000000     0.00000000
     0.00000000     0.00000000     0.00000000
     0.00000000     0.00000000     0.00000000
     0.00000000     0.00000000     0.00000000
     0.00000000     0.00000000     0.00000000
     0.00000000     0.00000000     0.00000000
     0.00000000     0.00000000     0.00000000
     0.00000000     0.00000000     0.00000000
     0.00000000     0.00000000     0.00000000
     0.00000000     0.00000000     0.00000000
     0.00000000     0.00000000     0.00000000
    11.48018979     0.25148772    -7.49507663
   -13.07969149    14.56727246     5.98034678
   -21.41633723     7.01511199    15.11077679
   -22.33741697     6.09757291     4.78161205
   -30.83439787    -1.41862305     6.37995277
   -29.68799091    -4.38020316     2.35780542
   -25.62165885    -6.81789446     2.13231781
   -15.80897987    -6.27570532     0.52129625
    -6.17331074    -4.89032739    -0.55371246
    -0.58633419    -2.53944906    -1.41237583
     0.00000000     0.00000000     0.00000000
    -1.77986886    20.81059905    15.64302046
   -24.57786644    23.17552384    -0.10997353
   -27.69007890    14.16896585    -0.97492813
   -37.92523720     2.70181408    -8.92866367
   -39.77802163    -7.72435429    -5.51166647
   -39.43193546   -15.99840966    -6.55259981
   -33.76827851   -20.52700700    -2.45832371
   -24.03816745   -21.17945509    -0.52966730
   -12.07341975   -16.68544569     2.11560350
    -2.49067349    -8.22576293     1.57553476
     0.00000000     0.00000000     0.00000000
   -15.51047117    40.12690437     3.63642611
    13.85163929    51.76699308     0.82472130
    14.78596741    28.53727551    -1.02826662
    14.65377431     6.80593144   -14.29778610
    -2.67044156   -12.03822605   -12.18011499
   -13.55426146   -26.09811766    -9.11048862
   -19.37574256   -32.46478960    -1.30578648
   -16.65662453   -31.22237706     4.00676038
    -9.14534671   -25.13051717     7.82079792
    -0.97004690   -13.87517220     5.52962702
     0.00000000     0.00000000     0.00000000
   -42.07052400    32.52417149    11.93065785
     2.47439517    31.89423143    -9.46019693
    50.00254329    18.14864185    -0.62033041
    64.19787927    15.16789560     4.01796789
    62.81380989     6.00053448     4.89952847
    43.64729734    -2.01739322     6.14058745
    20.12245443   -10.19195894     6.93165823
     2.25503862   -15.59906434    10.98903631
    -2.63766776   -16.44064453    13.16879783
    -0.29372963   -11.16881787    10.58386165
     0.00000000     0.00000000     0.00000000
     0.00000000     0.00000000     0.00000000
     0.00000000     0.00000000     0.00000000
     0.00000000     0.00000000     0.00000000
     0.00000000     0.00000000     0.00000000
     0.00000000     0.00000000     0.00000000
     0.00000000     0.00000000     0.00000000
     0.00000000     0.00000000     0.00000000
     0.00000000     0.00000000     0.00000000
     0.00000000     0.00000000     0.00000000
     0.00000000     0.00000000     0.00000000
     0.00000000     0.00000000     0.00000000
     0.00000000     0.00000000     0.00000000
     0.00000000     0.00000000     0.00000000
     0.00000000     0.00000000     0.00000000
     0.00000000     0.00000000     0.00000000
     0.00000000     0.00000000     0.00000000
     0.00000000     0.00000000     0.00000000
     0.00000000     0.00000000     0.00000000
     0.00000000     0.00000000     0.00000000
     0.00000000     0.00000000     0.00000000
     0.00000000     0.00000000     0.00000000
     0.00000000     0.00000000     0.00000000
     0.00000000     0.00000000     0.00000000
     0.00000000     0.00000000     0.00000000
     0.00000000     0.00000000     0.00000000
     0.00000000     0.00000000     0.00000000
     0.00000000     0.00000000     0.00000000
     0.00000000     0.00000000     0.00000000
     0.00000000     0.00000000     0.00000000
     0.00000000     0.00000000     0.00000000
     0.00000000     0.00000000     0.00000000
     0.00000000     0.00000000     0.00000000
     0.00000000     0.00000000     0.00000000
     0.00000000     0.00000000     0.00000000
     0.00000000     0.00000000     0.00000000
     0.00000000     0.00000000     0.00000000
     0.00000000     0.00000000     0.00000000
     0.00000000     0.00000000     0.00000000
     0.00000000     0.00000000     0.00000000
     0.00000000     0.00000000     0.00000000
     0.00000000     0.00000000     0.00000000
     0.00000000     0.00000000     0.00000000
     0.00000000     0.00000000     0.00000000
     0.00000000     0.00000000     0.00000000
     0.00000000     0.00000000     0.00000000
     0.00000000     0.00000000     0.00000000
     0.00000000     0.00000000     0.00000000
     0.00000000     0.00000000     0.00000000
     0.00000000     0.00000000     0.00000000
     0.00000000     0.00000000     0.00000000
     0.00000000     0.00000000     0.00000000
     0.00000000     0.00000000     0.00000000
     0.00000000     0.00000000     0.00000000
     0.00000000     0.00000000     0.00000000
     0.00000000     0.00000000     0.00000000
     0.00000000     0.00000000     0.00000000
     0.00000000     0.00000000     0.00000000
     0.00000000     0.00000000     0.00000000
     0.00000000     0.00000000     0.00000000
     0.00000000     0.00000000     0.00000000
     0.00000000     0.00000000     0.00000000
     0.00000000     0.00000000     0.00000000
     0.00000000     0.00000000     0.00000000
     0.00000000     0.00000000     0.00000000
     0.00000000     0.00000000     0.00000000
     0.00000000     0.00000000     0.00000000
     0.00000000     0.00000000     0.00000000
     0.00000000     0.00000000     0.00000000
     0.00000000     0.00000000     0.00000000
     0.00000000     0.00000000     0.00000000
     0.00000000     0.00000000     0.00000000
     0.00000000     0.00000000     0.00000000
     0.00000000     0.00000000     0.00000000
     0.00000000     0.00000000     0.00000000
     0.00000000     0.00000000     0.00000000
     0.00000000     0.00000000     0.00000000
     0.00000000     0.00000000     0.00000000
     0.00000000     0.00000000     0.00000000
     0.00000000     0.00000000     0.00000000
     0.00000000     0.00000000     0.00000000
     0.00000000     0.00000000     0.00000000
     0.00000000     0.00000000     0.00000000
     0.00000000     0.00000000     0.00000000
     0.00000000     0.00000000     0.00000000
     0.00000000     0.00000000     0.00000000
    21.85272675   -38.01621694     0.00000000
   -24.63857927   -13.10483246     0.00000000
   -45.86837405     5.14701215     0.00000000
   -57.81769579    13.26506894     0.00000000
   -57.40502696    21.54953955     0.00000000
   -48.75597091    30.85598147     0.00000000
   -25.34649893    34.42392631     0.00000000
    -4.82683882    27.77389653     0.00000000
     0.30909650    -0.08282200     0.00000000
     9.82707866   -34.80716558     0.00000000
    -8.32428497   -72.60632639     0.00000000
   -36.30253990   -29.95519113     0.00000000
   -37.51861962   -11.73477380     0.00000000
   -15.91791498    14.35329822     0.00000000
    17.51160956    30.48870891     0.00000000
    27.15747996    43.82169102     0.00000000
    24.02890254    50.02117398     0.00000000
     0.46364450    -0.12423300     0.00000000
    21.51737867   -65.97806639     0.00000000
   -45.80395964   -92.87806846     0.00000000
   -46.49012481   -57.26848176     0.00000000
   -21.35998249   -20.43451363     0.00000000
    20.74194649     6.44406935     0.00000000
    49.29854878    20.54591644     0.00000000
    58.20561988    26.88272886     0.00000000
    35.11383450    33.15244682     0.00000000
     0.46364450    -0.12423300     0.00000000
   -38.43910531   -49.57362341     0.00000000
    32.60268010   -62.40312892     0.00000000
    74.35527155   -58.35061798     0.00000000
   103.09279558   -38.24813311     0.00000000
    95.93379597   -18.89692373     0.00000000
    85.89087257    -9.46701669     0.00000000
    56.59182480     2.87842362     0.00000000
    26.95030335     3.22635297     0.00000000
     0.30909650    -0.08282200     0.00000000
     0.00000000     0.00000000     0.00000000
     0.00000000     0.00000000     0.00000000
     0.00000000     0.00000000     0.00000000
     0.00000000     0.00000000     0.00000000
     0.00000000     0.00000000     0.00000000
     0.00000000     0.00000000     0.00000000
     0.00000000     0.00000000     0.00000000
     0.00000000     0.00000000     0.00000000
     0.00000000     0.00000000     0.00000000
     0.00000000     0.00000000     0.00000000
     0.00000000     0.00000000     0.00000000
     0.00000000     0.00000000     0.00000000
     0.00000000     0.00000000     0.00000000
     0.00000000     0.00000000     0.00000000
     0.00000000     0.00000000     0.00000000
     0.00000000     0.00000000     0.00000000
     0.00000000     0.00000000     0.00000000
     0.00000000     0.00000000     0.00000000
    18.91365599   -38.10394816     4.85961954
   -18.88035521   -13.49699665     8.99045005
   -45.63278698     4.31586466     2.73690407
   -56.18993494    10.90921924     4.26326950
   -61.74691140    18.71433801     2.42713207
   -48.87613239    29.16845171     5.74748993
   -30.26723507    31.56045933     6.35343809
    -4.58081523    24.13500281     6.93489811
     0.29190100    -0.07821450     0.00000000
     0.65948681   -32.46782932     9.92860229
   -18.72570219   -69.17422071     5.10545289
   -44.13243218   -29.10439364    -7.66165022
   -44.43721263    -3.54986384   -18.75170293
   -15.97416996    15.22215011   -18.68592633
     9.38302351    35.64425811   -11.69966723
    25.03529843    43.41375085     0.20810770
    16.65433786    47.99521751    15.14040960
     0.44172050    -0.11835850     0.00000000
    11.37179182   -69.67475378    11.49013584
   -54.56717023   -89.47816925    11.97070621
   -35.77846702   -53.40331173    -6.75623623
     1.97835059   -16.63736987   -18.16242684
    38.82085279     9.33064819   -19.54698884
    56.34349570    22.18036618   -12.41554661
    57.18368679    29.60560032    -3.87239099
    31.42359407    32.26251712    17.73071207
     0.44172050    -0.11835850     0.00000000
   -42.47407938   -56.51331891     1.46470224
    29.23163849   -54.55769460     7.79956373
    81.24901616   -52.75291358    10.76700722
    99.14495170   -30.81469940     6.22659358
   100.47100254   -17.38044589     3.30979950
    77.31576548    -4.92013541     1.40590751
    58.51131387     2.39089245     3.27375960
    17.52750133     7.11423759    15.85339517
     0.29190100    -0.07821450     0.00000000
     0.00000000     0.00000000     0.00000000
     0.00000000     0.00000000     0.00000000
     0.00000000     0.00000000     0.00000000
     0.00000000     0.00000000     0.00000000
     0.00000000     0.00000000     0.00000000
     0.00000000     0.00000000     0.00000000
     0.00000000     0.00000000     0.00000000
     0.00000000     0.00000000     0.00000000
     0.00000000     0.00000000     0.00000000
     0.00000000     0.00000000     0.00000000
     0.00000000     0.00000000     0.00000000
     0.00000000     0.00000000     0.00000000
     0.00000000     0.00000000     0.00000000
     0.00000000     0.00000000     0.00000000
     0.00000000     0.00000000     0.00000000
     0.00000000     0.00000000     0.00000000
     0.00000000     0.00000000     0.00000000
     0.00000000     0.00000000     0.00000000
    18.94766077   -32.15426076    -1.54533213
    -9.87323439   -16.97479578    17.44567065
   -39.96469772    -3.02383876     9.81631102
   -57.71545179     8.72103897     4.90922682
   -63.51907655    10.62555831     6.06948686
   -56.12891877    26.03231208     7.26195247
   -33.08183703    20.78248936    11.83601830
   -11.25921592    18.88120032     9.78914749
     0.24838800    -0.06655550     0.00000000
   -19.31704017   -22.90890973     9.30823865
   -34.34475107   -65.44897900    11.49723699
   -60.42620212   -25.62451053   -16.40215479
   -51.46879047     7.20378664   -27.54699573
   -35.68515481    20.16873136   -25.53511244
    -8.38597391    38.02590481   -15.60280343
    -1.03423542    41.48313644     4.09307598
     9.70015234    37.13173790    22.99222321
     0.37866600    -0.10146350     0.00000000
   -28.00469453   -73.58223367    16.61070055
   -63.38153972   -68.71108736    14.27180022
    -9.36255557   -40.27447533   -21.57752820
    32.21969580    -5.51849215   -30.50983606
    47.38010752    16.99522525   -28.04226341
    48.56985344    27.98760114   -17.56543315
    36.85307750    35.55133338    -1.07762345
    16.86247170    31.11188875    26.19629879
     0.37866600    -0.10146350     0.00000000
   -50.46090030   -64.00073007     8.51802289
    39.16319508   -39.62037390    11.77419902
    81.66590672   -31.42971466    13.65605798
   104.13927971   -22.33754809    10.18735562
    89.79951002    -7.78105913     3.98605360
    73.70694829    -1.77167503     2.63455174
    36.84065698     8.77361852     7.94146080
    16.49579734    10.39011738    24.24112980
     0.24838800    -0.06655550     0.00000000
     0.00000000     0.00000000     0.00000000
     0.00000000     0.00000000     0.00000000
     0.00000000     0.00000000     0.00000000
     0.00000000     0.00000000     0.00000000
     0.00000000     0.00000000     0.00000000
     0.00000000     0.00000000     0.00000000
     0.00000000     0.00000000     0.00000000
     0.00000000     0.00000000     0.00000000
     0.00000000     0.00000000     0.00000000
     0.00000000     0.00000000     0.00000000
     0.00000000     0.00000000     0.00000000
     0.00000000     0.00000000     0.00000000
     0.00000000     0.00000000     0.00000000
     0.00000000     0.00000000     0.00000000
     0.00000000     0.00000000     0.00000000
     0.00000000     0.00000000     0.00000000
     0.00000000     0.00000000     0.00000000
     0.00000000     0.00000000     0.00000000
    23.16178488   -19.63468405   -22.63758936
     1.84917310   -20.35052148    28.90320354
   -34.30259581   -17.99543100    12.54443767
   -48.46065570     7.12992484     7.59485774
   -63.81354558     4.84186937     4.94809217
   -53.58575171    17.35771220     7.33278982
   -40.56332939     8.57071839    11.85816441
   -11.26756882     9.70536461     8.31258453
     0.18175900    -0.04870200     0.00000000
   -19.85301957    -7.88515317    14.38899020
   -42.89032241   -59.35587323     3.58085661
   -54.95845131   -22.35196479    -9.96820113
   -59.30721639    13.17119740   -25.35094950
   -50.98759352    16.48428199   -16.50699747
   -41.71889621    33.01251867   -12.47646992
   -24.55868383    24.78493252     7.50806866
    -6.59159383    22.76414831    18.75274018
     0.27898200    -0.07475300     0.00000000
   -52.81424631   -59.21993071    20.24430598
   -51.82982524   -42.49463597    -4.00786510
    21.07971648   -23.79429157   -25.29127310
    26.26467594     1.97734193   -25.88126355
    20.53213064    22.48889390   -23.35139285
     4.25111638    29.37270710   -10.67999069
    -5.01043689    34.54978222     0.76748527
    -1.13171871    22.42868374    19.96347606
     0.27898200    -0.07475300     0.00000000
   -46.81050844   -55.32453874    27.80923611
    52.30534253    -8.27489415    -1.97539522
    86.83684751   -23.28157321    17.20394890
    85.57553834    -7.99316408     5.47752305
    77.07251708    -5.16751638     5.44472148
    39.53588713     6.45348573     3.73024733
    17.55737131    12.78819773    11.14110972
    -1.47411138    15.40120615    20.80205385
     0.18175900    -0.04870200     0.00000000
     0.00000000     0.00000000     0.00000000
     0.00000000     0.00000000     0.00000000
     0.00000000     0.00000000     0.00000000
     0.00000000     0.00000000     0.00000000
     0.00000000     0.00000000     0.00000000
     0.00000000     0.00000000     0.00000000
     0.00000000     0.00000000     0.00000000
     0.00000000     0.00000000     0.00000000
     0.00000000     0.00000000     0.00000000
     0.00000000     0.00000000     0.00000000
     0.00000000     0.00000000     0.00000000
     0.00000000     0.00000000     0.00000000
     0.00000000     0.00000000     0.00000000
     0.00000000     0.00000000     0.00000000
     0.00000000     0.00000000     0.00000000
     0.00000000     0.00000000     0.00000000
     0.00000000     0.00000000     0.00000000
     0.00000000     0.00000000     0.00000000
    34.50043446    -9.24655657   -18.12997151
    -2.66320313   -13.18584147    20.96978080
   -13.86973024   -25.48570191    12.49555477
   -32.83674149     7.65347437     5.88992570
   -39.47105664    -0.77222926     3.27989947
   -43.73440332    11.71911822     4.28887663
   -28.47697740     0.46295401     6.06870426
   -13.12656536     2.85984807     3.97924334
     0.09690100    -0.02596450     0.00000000
    -0.69333190     3.52541427    11.89786083
   -18.98361686   -51.11571066    -0.12959720
   -41.25870393   -13.98232884     0.91494796
   -33.33075181     2.17955243   -11.75788116
   -49.55260433    11.55410215    -3.39674324
   -40.08901948    14.38646320    -5.73231316
   -37.62546572     9.31329983     4.78427316
    -8.19197489     4.30104902     6.66613155
     0.14973700    -0.04012200     0.00000000
   -31.59575215   -27.44415580    19.17982372
   -13.44728255   -21.04204917   -20.51640253
    22.03581671   -13.38225354    -4.38027686
     1.70593467     6.60308582   -14.42402878
    -9.95321639    16.01882027    -4.71633162
   -27.76160490    20.12770374    -4.60963503
   -22.50835161    17.61991353     0.78902024
   -11.70601404    10.07623290     5.55305948
     0.14973700    -0.04012200     0.00000000
   -21.16157912   -19.33437908    20.10347056
    69.98127784    -2.70733186    -7.18223484
    43.66561622   -13.47259082    13.54741193
    60.71471384    -2.97096119    -0.74162903
    25.44087168    -1.35186029     7.58985350
    11.71870570     7.00736572     1.35123139
   -11.04412105    11.93731958     8.58141853
    -2.11101648     9.43618918     8.48251521
     0.09690100    -0.02596450     0.00000000
     0.00000000     0.00000000     0.00000000
     0.00000000     0.00000000     0.00000000
     0.00000000     0.00000000     0.00000000
     0.00000000     0.00000000     0.00000000
     0.00000000     0.00000000     0.00000000
     0.00000000     0.00000000     0.00000000
     0.00000000     0.00000000     0.00000000
     0.00000000     0.00000000     0.00000000
     0.00000000     0.00000000     0.00000000
     0.00000000     0.00000000     0.00000000
     0.00000000     0.00000000     0.00000000
     0.00000000     0.00000000     0.00000000
     0.00000000     0.00000000     0.00000000
     0.00000000     0.00000000     0.00000000
     0.00000000     0.00000000     0.00000000
     0.00000000     0.00000000     0.00000000
     0.00000000     0.00000000     0.00000000
     0.00000000     0.00000000     0.00000000
     0.00000000     0.00000000     0.00000000
     0.00000000     0.00000000     0.00000000
     0.00000000     0.00000000     0.00000000
     0.00000000     0.00000000     0.00000000
     0.00000000     0.00000000     0.00000000
     0.00000000     0.00000000     0.00000000
     0.00000000     0.00000000     0.00000000
     0.00000000     0.00000000     0.00000000
     0.00000000     0.00000000     0.00000000
     0.00000000     0.00000000     0.00000000
     0.00000000     0.00000000     0.00000000
     0.00000000     0.00000000     0.00000000
     0.00000000     0.00000000     0.00000000
     0.00000000     0.00000000     0.00000000
     0.00000000     0.00000000     0.00000000
     0.00000000     0.00000000     0.00000000
     0.00000000     0.00000000     0.00000000
     0.00000000     0.00000000     0.00000000
     0.00000000     0.00000000     0.00000000
     0.00000000     0.00000000     0.00000000
     0.00000000     0.00000000     0.00000000
     0.00000000     0.00000000     0.00000000
     0.00000000     0.00000000     0.00000000
     0.00000000     0.00000000     0.00000000
     0.00000000     0.00000000     0.00000000
     0.00000000     0.00000000     0.00000000
     0.00000000     0.00000000     0.00000000
     0.00000000     0.00000000     0.00000000
     0.00000000     0.00000000     0.00000000
     0.00000000     0.00000000     0.00000000
     0.00000000     0.00000000     0.00000000
     0.00000000     0.00000000     0.00000000
     0.00000000     0.00000000     0.00000000
     0.00000000     0.00000000     0.00000000
     0.00000000     0.00000000     0.00000000
     0.00000000     0.00000000     0.00000000
     0.00000000     0.00000000     0.00000000
     0.00000000     0.00000000     0.00000000
     0.00000000     0.00000000     0.00000000
     0.00000000     0.00000000     0.00000000
     0.00000000     0.00000000     0.00000000
     0.00000000     0.00000000     0.00000000
     0.00000000     0.00000000     0.00000000
     0.00000000     0.00000000     0.00000000
     0.00000000     0.00000000     0.00000000
     0.00000000     0.00000000     0.00000000
     0.00000000     0.00000000     0.00000000
     0.00000000     0.00000000     0.00000000
     0.00000000     0.00000000     0.00000000
     0.00000000     0.00000000     0.00000000
     0.00000000     0.00000000     0.00000000
     0.00000000     0.00000000     0.00000000
     0.00000000     0.00000000     0.00000000
     0.00000000     0.00000000     0.00000000
     0.00000000     0.00000000     0.00000000
     0.00000000     0.00000000     0.00000000
     0.00000000     0.00000000     0.00000000
     0.00000000     0.00000000     0.00000000
     0.00000000     0.00000000     0.00000000
     0.00000000     0.00000000     0.00000000
     0.00000000     0.00000000     0.00000000
     0.00000000     0.00000000     0.00000000
     0.00000000     0.00000000     0.00000000
     0.00000000     0.00000000     0.00000000
     0.00000000     0.00000000     0.00000000
     0.00000000     0.00000000     0.00000000
     0.00000000     0.00000000     0.00000000
     0.00000000     0.00000000     0.00000000
     0.00000000     0.00000000     0.00000000
     0.00000000     0.00000000     0.00000000
     0.00000000     0.00000000     0.00000000
     0.00000000     0.00000000     0.00000000
     0.00000000     0.00000000     0.00000000
     0.00000000     0.00000000     0.00000000
     0.00000000     0.00000000     0.00000000
     0.00000000     0.00000000     0.00000000
     0.00000000     0.00000000     0.00000000
     0.00000000     0.00000000     0.00000000
     0.00000000     0.00000000     0.00000000
     0.00000000     0.00000000     0.00000000
     0.00000000     0.00000000     0.00000000
     0.00000000     0.00000000     0.00000000
     0.00000000     0.00000000     0.00000000
     0.00000000     0.00000000     0.00000000
     0.00000000     0.00000000     0.00000000
     0.00000000     0.00000000     0.00000000
     0.00000000     0.00000000     0.00000000
     0.00000000     0.00000000     0.00000000
     0.00000000     0.00000000     0.00000000
     0.00000000     0.00000000     0.00000000
     0.00000000     0.00000000     0.00000000
     0.00000000     0.00000000     0.00000000
     0.00000000     0.00000000     0.00000000
     0.00000000     0.00000000     0.00000000
     0.00000000     0.00000000     0.00000000
     0.00000000     0.00000000     0.00000000
     0.00000000     0.00000000     0.00000000
     0.00000000     0.00000000     0.00000000
     0.00000000     0.00000000     0.00000000
     0.00000000     0.00000000     0.00000000
     0.00000000     0.00000000     0.00000000
     0.00000000     0.00000000     0.00000000
     0.00000000     0.00000000     0.00000000
     0.00000000     0.00000000     0.00000000
     0.00000000     0.00000000     0.00000000
     0.00000000     0.00000000     0.00000000
     0.00000000     0.00000000     0.00000000
     0.00000000     0.00000000     0.00000000
     0.00000000     0.00000000     0.00000000
     0.00000000     0.00000000     0.00000000
     0.00000000     0.00000000     0.00000000
     0.00000000     0.00000000     0.00000000
     0.00000000     0.00000000     0.00000000
     0.00000000     0.00000000     0.00000000
     0.00000000     0.00000000     0.00000000
     0.00000000     0.00000000     0.00000000
     0.00000000     0.00000000     0.00000000
     0.00000000     0.00000000     0.00000000
     0.00000000     0.00000000     0.00000000
     0.00000000     0.00000000     0.00000000
     0.00000000     0.00000000     0.00000000
     0.00000000     0.00000000     0.00000000
     0.00000000     0.00000000     0.00000000
     0.00000000     0.00000000     0.00000000
     0.00000000     0.00000000     0.00000000
     0.00000000     0.00000000     0.00000000
     0.00000000     0.00000000     0.00000000
     0.00000000     0.00000000     0.00000000
     0.00000000     0.00000000     0.00000000
     0.00000000     0.00000000     0.00000000
     0.00000000     0.00000000     0.00000000
     0.00000000     0.00000000     0.00000000
     0.00000000     0.00000000     0.00000000
     0.00000000     0.00000000     0.00000000
     0.00000000     0.00000000     0.00000000
     0.00000000     0.00000000     0.00000000
     0.00000000     0.00000000     0.00000000
     0.00000000     0.00000000     0.00000000
     0.00000000     0.00000000     0.00000000
     0.00000000     0.00000000     0.00000000
     0.00000000     0.00000000     0.00000000
     0.00000000     0.00000000     0.00000000
     0.00000000     0.00000000     0.00000000
     0.00000000     0.00000000     0.00000000
     0.00000000     0.00000000     0.00000000
     0.00000000     0.00000000     0.00000000
     0.00000000     0.00000000     0.00000000
     0.00000000     0.00000000     0.00000000
     0.00000000     0.00000000     0.00000000
     0.00000000     0.00000000     0.00000000
     0.00000000     0.00000000     0.00000000
     0.00000000     0.00000000     0.00000000
     0.00000000     0.00000000     0.00000000
     0.00000000     0.00000000     0.00000000
     0.00000000     0.00000000     0.00000000
     0.00000000     0.00000000     0.00000000
     0.00000000     0.00000000     0.00000000
     0.00000000     0.00000000     0.00000000
     0.00000000     0.00000000     0.00000000
     0.00000000     0.00000000     0.00000000
     0.00000000     0.00000000     0.00000000
     0.00000000     0.00000000     0.00000000
     0.00000000     0.00000000     0.00000000
     0.00000000     0.00000000     0.00000000
     0.00000000     0.00000000     0.00000000
     0.00000000     0.00000000     0.00000000
     0.00000000     0.00000000     0.00000000
     0.00000000     0.00000000     0.00000000
     0.00000000     0.00000000     0.00000000
     0.00000000     0.00000000     0.00000000
     0.00000000     0.00000000     0.00000000
     0.00000000     0.00000000     0.00000000
     0.00000000     0.00000000     0.00000000
     0.00000000     0.00000000     0.00000000
     0.00000000     0.00000000     0.00000000
     0.00000000     0.00000000     0.00000000
     0.00000000     0.00000000     0.00000000
     0.00000000     0.00000000     0.00000000
     0.00000000     0.00000000     0.00000000
     0.00000000     0.00000000     0.00000000
     0.00000000     0.00000000     0.00000000
     0.00000000     0.00000000     0.00000000
     0.00000000     0.00000000     0.00000000
     0.00000000     0.00000000     0.00000000
     0.00000000     0.00000000     0.00000000
     0.00000000     0.00000000     0.00000000
     0.00000000     0.00000000     0.00000000
     0.00000000     0.00000000     0.00000000
     0.00000000     0.00000000     0.00000000
     0.00000000     0.00000000     0.00000000
     0.00000000     0.00000000     0.00000000
     0.00000000     0.00000000     0.00000000
     0.00000000     0.00000000     0.00000000
     0.00000000     0.00000000     0.00000000
     0.00000000     0.00000000     0.00000000
     0.00000000     0.00000000     0.00000000
     0.00000000     0.00000000     0.00000000
     0.00000000     0.00000000     0.00000000
     0.00000000     0.00000000     0.00000000
     0.00000000     0.00000000     0.00000000
     0.00000000     0.00000000     0.00000000
     0.00000000     0.00000000     0.00000000
     0.00000000     0.00000000     0.00000000
     0.00000000     0.00000000     0.00000000
     0.00000000     0.00000000     0.00000000
     0.00000000     0.00000000     0.00000000
     0.00000000     0.00000000     0.00000000
     0.00000000     0.00000000     0.00000000
     0.00000000     0.00000000     0.00000000
     0.00000000     0.00000000     0.00000000
     0.00000000     0.00000000     0.00000000
     0.00000000     0.00000000     0.00000000
     0.00000000     0.00000000     0.00000000
     0.00000000     0.00000000     0.00000000
     0.00000000     0.00000000     0.00000000
     0.00000000     0.00000000     0.00000000
     0.00000000     0.00000000     0.00000000
     0.00000000     0.00000000     0.00000000
     0.00000000     0.00000000     0.00000000
     0.00000000     0.00000000     0.00000000
     0.00000000     0.00000000     0.00000000
     0.00000000     0.00000000     0.00000000
     0.00000000     0.00000000     0.00000000
     0.00000000     0.00000000     0.00000000
     0.00000000     0.00000000     0.00000000
     0.00000000     0.00000000     0.00000000
     0.00000000     0.00000000     0.00000000
     0.00000000     0.00000000     0.00000000
     0.00000000     0.00000000     0.00000000
     0.00000000     0.00000000     0.00000000
     0.00000000     0.00000000     0.00000000
     0.00000000     0.00000000     0.00000000
     0.00000000     0.00000000     0.00000000
     0.00000000     0.00000000     0.00000000
     0.00000000     0.00000000     0.00000000
     0.00000000     0.00000000     0.00000000
     0.00000000     0.00000000     0.00000000
     0.00000000     0.00000000     0.00000000
     0.00000000     0.00000000     0.00000000
     0.00000000     0.00000000     0.00000000
     0.00000000     0.00000000     0.00000000
     0.00000000     0.00000000     0.00000000
     0.00000000     0.00000000     0.00000000
     0.00000000     0.00000000     0.00000000
     0.00000000     0.00000000     0.00000000
     0.00000000     0.00000000     0.00000000
     0.00000000     0.00000000     0.00000000
     0.00000000     0.00000000     0.00000000
     0.00000000     0.00000000     0.00000000
     0.00000000     0.00000000     0.00000000
     0.00000000     0.00000000     0.00000000
     0.00000000     0.00000000     0.00000000
     0.00000000     0.00000000     0.00000000
     0.00000000     0.00000000     0.00000000
     0.00000000     0.00000000     0.00000000
     0.00000000     0.00000000     0.00000000
     0.00000000     0.00000000     0.00000000
     0.00000000     0.00000000     0.00000000
     0.00000000     0.00000000     0.00000000
     0.00000000     0.00000000     0.00000000
     0.00000000     0.00000000     0.00000000
     0.00000000     0.00000000     0.00000000
     0.00000000     0.00000000     0.00000000
     0.00000000     0.00000000     0.00000000
     0.00000000     0.00000000     0.00000000
     0.00000000     0.00000000     0.00000000
     0.00000000     0.00000000     0.00000000
     0.00000000     0.00000000     0.00000000
     0.00000000     0.00000000     0.00000000
     0.00000000     0.00000000     0.00000000
     0.00000000     0.00000000     0.00000000
     0.00000000     0.00000000     0.00000000
     0.00000000     0.00000000     0.00000000
     0.00000000     0.00000000     0.00000000
     0.00000000     0.00000000     0.00000000
     0.00000000     0.00000000     0.00000000
     0.00000000     0.00000000     0.00000000
     0.00000000     0.00000000     0.00000000
     0.00000000     0.00000000     0.00000000
     0.00000000     0.00000000     0.00000000
     0.00000000     0.00000000     0.00000000
     0.00000000     0.00000000     0.00000000
     0.00000000     0.00000000     0.00000000
     0.00000000     0.00000000     0.00000000
     0.00000000     0.00000000     0.00000000
     0.00000000     0.00000000     0.00000000
     0.00000000     0.00000000     0.00000000
     0.00000000     0.00000000     0.00000000
     0.00000000     0.00000000     0.00000000
     0.00000000     0.00000000     0.00000000
     0.00000000     0.00000000     0.00000000
     0.00000000     0.00000000     0.00000000
     0.00000000     0.00000000     0.00000000
     0.00000000     0.00000000     0.00000000
     0.00000000     0.00000000     0.00000000
     0.00000000     0.00000000     0.00000000
     0.00000000     0.00000000     0.00000000
     0.00000000     0.00000000     0.00000000
     0.00000000     0.00000000     0.00000000
     0.00000000     0.00000000     0.00000000
     0.00000000     0.00000000     0.00000000
     0.00000000     0.00000000     0.00000000
     0.00000000     0.00000000     0.00000000
     0.00000000     0.00000000     0.00000000
     0.00000000     0.00000000     0.00000000
     0.00000000     0.00000000     0.00000000
     0.00000000     0.00000000     0.00000000
     0.00000000     0.00000000     0.00000000
     0.00000000     0.00000000     0.00000000
     0.00000000     0.00000000     0.00000000
     0.00000000     0.00000000     0.00000000
     0.00000000     0.00000000     0.00000000
     0.00000000     0.00000000     0.00000000
     0.00000000     0.00000000     0.00000000
     0.00000000     0.00000000     0.00000000
     0.00000000     0.00000000     0.00000000
     0.00000000     0.00000000     0.00000000
     0.00000000     0.00000000     0.00000000
     0.00000000     0.00000000     0.00000000
     0.00000000     0.00000000     0.00000000
     0.00000000     0.00000000     0.00000000
SCALARS Temperatures float
LOOKUP_TABLE default
     0.00000000
     0.00000000
     0.00000000
     0.00000000
     0.00000000
     0.00000000
     0.00000000
     0.00000000
     0.00000000
     0.00000000
     0.00000000
     0.00000000
     0.00000000
     0.00000000
     0.00000000
     0.00000000
     0.00000000
     0.00000000
     0.00000000
     0.00000000
     0.00000000
     0.00000000
     0.00000000
     0.00000000
     0.00000000
     0.00000000
     0.00000000
     0.00000000
     0.00000000
     0.00000000
     0.00000000
     0.00000000
     0.00000000
     0.00000000
     0.00000000
     0.00000000
     0.00000000
     0.00000000
     0.00000000
     0.00000000
     0.00000000
     0.00000000
     0.00000000
     0.00000000
     0.00000000
     0.00000000
     0.00000000
     0.00000000
     0.00000000
     0.00000000
     0.00000000
     0.00000000
     0.00000000
     0.00000000
     0.00000000
     0.00000000
     0.00000000
     0.00000000
     0.00000000
     0.00000000
     0.00000000
     0.00000000
     0.00000000
     0.00000000
     0.00000000
     0.00000000
     0.00000000
     0.00000000
     0.00000000
     0.00000000
     0.00000000
     0.00000000
     0.00000000
     0.00000000
     0.00000000
     0.00000000
     0.00000000
     0.00000000
     0.00000000
     0.00000000
     0.00000000
     0.00000000
     0.00000000
     0.00000000
     0.00000000
     0.00000000
     0.00000000
     0.00000000
     0.00000000
     0.00000000
     0.00000000
     0.00000000
     0.00000000
     0.00000000
     0.00000000
     0.00000000
     0.00000000
     0.00000000
     0.00000000
     0.00000000
     0.00000000
     0.00000000
     0.00000000
     0.00000000
     0.00000000
     0.00000000
     0.00000000
     0.00000000
     0.00000000
     0.00000000
     0.00000000
     0.00000000
     0.00000000
     0.00000000
     0.00000000
     0.00000000
     0.00000000
     0.00000000
     0.00000000
     0.00000000
     0.00000000
     0.00000000
     0.00000000
     0.00000000
     0.00000000
     0.00000000
     0.00000000
     0.00000000
     0.00000000
     0.00000000
     0.00000000
     0.00000000
     0.00000000
     0.00000000
     0.00000000
     0.00000000
     0.00000000
     0.00000000
     0.00000000
     0.00000000
     0.00000000
     0.00000000
     0.00000000
     0.00000000
     0.00000000
     0.00000000
     0.00000000
     0.00000000
     0.00000000
     0.00000000
     0.00000000
     0.00000000
     0.00000000
     0.00000000
     0.00000000
     0.00000000
     0.00000000
     0.00000000
     0.00000000
     0.00000000
     0.00000000
     0.00000000
     0.00000000
     0.00000000
     0.00000000
     0.00000000
     0.00000000
     0.00000000
     0.00000000
     0.00000000
     0.00000000
     0.00000000
     0.00000000
     0.00000000
     0.00000000
     0.00000000
     0.00000000
     0.00000000
     0.00000000
     0.00000000
     0.00000000
     0.00000000
     0.00000000
     0.00000000
     0.00000000
     0.00000000
     0.00000000
     0.00000000
     0.00000000
     0.00000000
     0.00000000
     0.00000000
     0.00000000
     0.00000000
     0.00000000
     0.00000000
     0.00000000
     0.00000000
     0.00000000
     0.00000000
     0.00000000
     0.00000000
     0.00000000
     0.00000000
     0.00000000
     0.00000000
     0.00000000
     0.00000000
     0.00000000
     0.00000000
     0.00000000
     0.00000000
     0.00000000
     0.00000000
     0.00000000
     0.00000000
     0.00000000
     0.00000000
     0.00000000
     0.00000000
     0.00000000
     0.00000000
     0.00000000
     0.00000000
     0.00000000
     0.00000000
     0.00000000
     0.00000000
     0.00000000
     0.00000000
     0.00000000
     0.00000000
     0.00000000
     0.00000000
     0.00000000
     0.00000000
     0.00000000
     0.00000000
     0.00000000
     0.00000000
     0.00000000
     0.00000000
     0.00000000
     0.00000000
     0.00000000
     0.00000000
     0.00000000
     0.00000000
     0.00000000
     0.00000000
     0.00000000
     0.00000000
     0.00000000
     0.00000000
     0.00000000
     0.00000000
     0.00000000
     0.00000000
     0.00000000
     0.00000000
     0.00000000
     0.00000000
     0.00000000
     0.00000000
     0.00000000
     0.00000000
     0.00000000
     0.00000000
     0.00000000
     0.00000000
     0.00000000
     0.00000000
     0.00000000
     0.00000000
     0.00000000
     0.00000000
     0.00000000
     0.00000000
     0.00000000
     0.00000000
     0.00000000
     0.00000000
     0.00000000
     0.00000000
     0.00000000
     0.00000000
     0.00000000
     0.00000000
     0.00000000
     0.00000000
     0.00000000
     0.00000000
     0.00000000
     0.00000000
     0.00000000
     0.00000000
     0.00000000
     0.00000000
     0.00000000
     0.00000000
     0.00000000
     0.00000000
     0.00000000
     0.00000000
     0.00000000
     0.00000000
     0.00000000
     0.00000000
     0.00000000
     0.00000000
     0.00000000
     0.00000000
     0.00000000
     0.00000000
     0.00000000
     0.00000000
     0.00000000
     0.00000000
     0.00000000
     0.00000000
     0.00000000
     0.00000000
     0.00000000
     0.00000000
     0.00000000
     0.00000000
     0.00000000
     0.00000000
     0.00000000
     0.00000000
     0.00000000
     0.00000000
     0.00000000
     0.00000000
     0.00000000
     0.00000000
     0.00000000
     0.00000000
     0.00000000
     0.00000000
     0.00000000
     0.00000000
     0.00000000
     0.00000000
     0.00000000
     0.00000000
     0.00000000
     0.00000000
     0.00000000
     0.00000000
     0.00000000
     0.00000000
     0.00000000
     0.00000000
     0.00000000
     0.00000000
     0.00000000
     0.00000000
     0.00000000
     0.00000000
     0.00000000
     0.00000000
     0.00000000
     0.00000000
     0.00000000
     0.00000000
     0.00000000
     0.00000000
     0.00000000
     0.00000000
     0.00000000
     0.00000000
     0.00000000
     0.00000000
     0.00000000
     0.00000000
     0.00000000
     0.00000000
     0.00000000
     0.00000000
     0.00000000
     0.00000000
     0.00000000
     0.00000000
     0.00000000
     0.00000000
     0.00000000
     0.00000000
     0.00000000
     0.00000000
     0.00000000
     0.00000000
     0.00000000
     0.00000000
     0.00000000
     0.00000000
     0.00000000
     0.00000000
     0.00000000
     0.00000000
     0.00000000
     0.00000000
     0.00000000
     0.00000000
     0.00000000
     0.00000000
     0.00000000
     0.00000000
     0.00000000
     0.00000000
     0.00000000
     0.00000000
     0.00000000
     0.00000000
     0.00000000
     0.00000000
     0.00000000
     0.00000000
     0.00000000
     0.00000000
     0.00000000
     0.00000000
     0.00000000
     0.00000000
     0.00000000
     0.00000000
     0.00000000
     0.00000000
     0.00000000
     0.00000000
     0.00000000
     0.00000000
     0.00000000
     0.00000000
     0.00000000
     0.00000000
     0.00000000
     0.00000000
     0.00000000
     0.00000000
     0.00000000
     0.00000000
     0.00000000
     0.00000000
     0.00000000
     0.00000000
     0.00000000
     0.00000000
     0.00000000
     0.00000000
     0.00000000
     0.00000000
     0.00000000
     0.00000000
     0.00000000
     0.00000000
     0.00000000
     0.00000000
     0.00000000
     0.00000000
     0.00000000
     0.00000000
     0.00000000
     0.00000000
     0.00000000
     0.00000000
     0.00000000
     0.00000000
     0.00000000
     0.00000000
     0.00000000
     0.00000000
     0.00000000
     0.00000000
     0.00000000
     0.00000000
     0.00000000
     0.00000000
     0.00000000
     0.00000000
     0.00000000
     0.00000000
     0.00000000
     0.00000000
     0.00000000
     0.00000000
     0.00000000
     0.00000000
     0.00000000
     0.00000000
     0.00000000
     0.00000000
     0.00000000
     0.00000000
     0.00000000
     0.00000000
     0.00000000
     0.00000000
     0.00000000
     0.00000000
     0.00000000
     0.00000000
     0.00000000
     0.00000000
     0.00000000
     0.00000000
     0.00000000
     0.00000000
     0.00000000
     0.00000000
     0.00000000
     0.00000000
     0.00000000
     0.00000000
     0.00000000
     0.00000000
     0.00000000
     0.00000000
     0.00000000
     0.00000000
     0.00000000
     0.00000000
     0.00000000
     0.00000000
     0.00000000
     0.00000000
     0.00000000
     0.00000000
     0.00000000
     0.00000000
     0.00000000
     0.00000000
     0.00000000
     0.00000000
     0.00000000
     0.00000000
     0.00000000
     0.00000000
     0.00000000
     0.00000000
     0.00000000
     0.00000000
     0.00000000
     0.00000000
     0.00000000
     0.00000000
     0.00000000
     0.00000000
     0.00000000
     0.00000000
     0.00000000
     0.00000000
     0.00000000
     0.00000000
     0.00000000
     0.00000000
     0.00000000
     0.00000000
     0.00000000
     0.00000000
     0.00000000
     0.00000000
     0.00000000
     0.00000000
     0.00000000
     0.00000000
     0.00000000
     0.00000000
     0.00000000
     0.00000000
     0.00000000
     0.00000000
     0.00000000
     0.00000000
     0.00000000
     0.00000000
     0.00000000
     0.00000000
     0.00000000
     0.00000000
     0.00000000
     0.00000000
     0.00000000
     0.00000000
     0.00000000
     0.00000000
     0.00000000
     0.00000000
     0.00000000
     0.00000000
     0.00000000
     0.00000000
     0.00000000
     0.00000000
     0.00000000
     0.00000000
     0.00000000
     0.00000000
     0.00000000
     0.00000000
     0.00000000
     0.00000000
     0.00000000
     0.00000000
     0.00000000
     0.00000000
     0.00000000
     0.00000000
     0.00000000
     0.00000000
     0.00000000
     0.00000000
     0.00000000
     0.00000000
     0.00000000
     0.00000000
     0.00000000
     0.00000000
     0.00000000
     0.00000000
     0.00000000
     0.00000000
     0.00000000
     0.00000000
     0.00000000
     0.00000000
     0.00000000
     0.00000000
     0.00000000
     0.00000000
     0.00000000
     0.00000000
     0.00000000
     0.00000000
     0.00000000
     0.00000000
     0.00000000
     0.00000000
     0.00000000
     0.00000000
     0.00000000
     0.00000000
     0.00000000
     0.00000000
     0.00000000
     0.00000000
     0.00000000
     0.00000000
     0.00000000
     0.00000000
     0.00000000
     0.00000000
     0.00000000
     0.00000000
     0.00000000
     0.00000000
     0.00000000
     0.00000000
     0.00000000
     0.00000000
     0.00000000
     0.00000000
     0.00000000
     0.00000000
     0.00000000
     0.00000000
     0.00000000
     0.00000000
     0.00000000
     0.00000000
     0.00000000
     0.00000000
     0.00000000
     0.00000000
     0.00000000
     0.00000000
     0.00000000
     0.00000000
     0.00000000
     0.00000000
     0.00000000
     0.00000000
     0.00000000
     0.00000000
     0.00000000
     0.00000000
     0.00000000
     0.00000000
     0.00000000
     0.00000000
     0.00000000
     0.00000000
     0.00000000
     0.00000000
     0.00000000
     0.00000000
     0.00000000
     0.00000000
     0.00000000
     0.00000000
     0.00000000
     0.00000000
     0.00000000
     0.00000000
     0.00000000
     0.00000000
     0.00000000
     0.00000000
     0.00000000
     0.00000000
     0.00000000
     0.00000000
     0.00000000
     0.00000000
     0.00000000
     0.00000000
     0.00000000
     0.00000000
     0.00000000
     0.00000000
     0.00000000
     0.00000000
     0.00000000
     0.00000000
     0.00000000
     0.00000000
     0.00000000
     0.00000000
     0.00000000
     0.00000000
     0.00000000
     0.00000000
     0.00000000
     0.00000000
     0.00000000
     0.00000000
     0.00000000
     0.00000000
     0.00000000
     0.00000000
     0.00000000
     0.00000000
     0.00000000
     0.00000000
     0.00000000
     0.00000000
     0.00000000
     0.00000000
     0.00000000
     0.00000000
     0.00000000
     0.00000000
     0.00000000
     0.00000000
     0.00000000
     0.00000000
     0.00000000
     0.00000000
     0.00000000
     0.00000000
     0.00000000
     0.00000000
     0.00000000
     0.00000000
     0.00000000
     0.00000000
     0.00000000
     0.00000000
     0.00000000
     0.00000000
     0.00000000
     0.00000000
     0.00000000
     0.00000000
     0.00000000
     0.00000000
     0.00000000
     0.00000000
     0.00000000
     0.00000000
     0.00000000
     0.00000000
     0.00000000
     0.00000000
     0.00000000
     0.00000000
     0.00000000
     0.00000000
     0.00000000
     0.00000000
     0.00000000
     0.00000000
     0.00000000
     0.00000000
     0.00000000
     0.00000000
     0.00000000
     0.00000000
     0.00000000
     0.00000000
     0.00000000
     0.00000000
     0.00000000
     0.00000000
     0.00000000
     0.00000000
     0.00000000
     0.00000000
     0.00000000
     0.00000000
     0.00000000
     0.00000000
     0.00000000
     0.00000000
     0.00000000
     0.00000000
     0.00000000
     0.00000000
     0.00000000
     0.00000000
     0.00000000
     0.00000000
     0.00000000
     0.00000000
     0.00000000
     0.00000000
     0.00000000
     0.00000000
     0.00000000
     0.00000000
     0.00000000
     0.00000000
     0.00000000
     0.00000000
     0.00000000
     0.00000000
     0.00000000
     0.00000000
     0.00000000
     0.00000000
     0.00000000
     0.00000000
     0.00000000
     0.00000000
     0.00000000
     0.00000000
     0.00000000
     0.00000000
     0.00000000
     0.00000000
     0.00000000
     0.00000000
     0.00000000
     0.00000000
     0.00000000
     0.00000000
     0.00000000
     0.00000000
     0.00000000
     0.00000000
     0.00000000
     0.00000000
     0.00000000
     0.00000000
     0.00000000
     0.00000000
     0.00000000
     0.00000000
     0.00000000
     0.00000000
     0.00000000
     0.00000000
     0.00000000
     0.00000000
     0.00000000
     0.00000000
     0.00000000
     0.00000000
     0.00000000
     0.00000000
     0.00000000
     0.00000000
     0.00000000
     0.00000000
     0.00000000
     0.00000000
     0.00000000
     0.00000000
     0.00000000
     0.00000000
     0.00000000
     0.00000000
     0.00000000
     0.00000000
     0.00000000
     0.00000000
     0.00000000
     0.00000000
     0.00000000
     0.00000000
     0.00000000
     0.00000000
     0.00000000
     0.00000000
     0.00000000
     0.00000000
     0.00000000
     0.00000000
     0.00000000
     0.00000000
     0.00000000
     0.00000000
     0.00000000
     0.00000000
     0.00000000
     0.00000000
     0.00000000
     0.00000000
     0.00000000
     0.00000000
     0.00000000
     0.00000000
     0.00000000
     0.00000000
     0.00000000
     0.00000000
     0.00000000
     0.00000000
     0.00000000
     0.00000000
     0.00000000
     0.00000000
     0.00000000
     0.00000000
     0.00000000
     0.00000000
     0.00000000
     0.00000000
     0.00000000
     0.00000000
     0.00000000
     0.00000000
     0.00000000
     0.00000000
     0.00000000
     0.00000000
     0.00000000
     0.00000000
     0.00000000
     0.00000000
     0.00000000
     0.00000000
     0.00000000
     0.00000000
     0.00000000
     0.00000000
     0.00000000
     0.00000000
     0.00000000
     0.00000000
     0.00000000
     0.00000000
     0.00000000
     0.00000000
     0.00000000
     0.00000000
     0.00000000
     0.00000000
     0.00000000
     0.00000000
     0.00000000
     0.00000000
     0.00000000
     0.00000000
     0.00000000
     0.00000000
     0.00000000
     0.00000000
     0.00000000
     0.00000000
     0.00000000
     0.00000000
     0.00000000
     0.00000000
     0.00000000
     0.00000000
     0.00000000
     0.00000000
     0.00000000
     0.00000000
     0.00000000
     0.00000000
     0.00000000
     0.00000000
     0.00000000
     0.00000000
     0.00000000
     0.00000000
     0.00000000
     0.00000000
     0.00000000
     0.00000000
     0.00000000
     0.00000000
     0.00000000
     0.00000000
     0.00000000
     0.00000000
     0.00000000
     0.00000000
     0.00000000
     0.00000000
     0.00000000
     0.00000000
     0.00000000
     0.00000000
     0.00000000
     0.00000000
     0.00000000
     0.00000000
     0.00000000
     0.00000000
     0.00000000
     0.00000000
     0.00000000
     0.00000000
     0.00000000
     0.00000000
     0.00000000
     0.00000000
     0.00000000
     0.00000000
     0.00000000
     0.00000000
     0.00000000
     0.00000000
     0.00000000
     0.00000000
     0.00000000
     0.00000000
     0.00000000
     0.00000000
     0.00000000
     0.00000000
     0.00000000
     0.00000000
     0.00000000
     0.00000000
     0.00000000
     0.00000000
     0.00000000
     0.00000000
     0.00000000
     0.00000000
     0.00000000
     0.00000000
     0.00000000
     0.00000000
     0.00000000
     0.00000000
     0.00000000
     0.00000000
     0.00000000
     0.00000000
     0.00000000
     0.00000000
     0.00000000
     0.00000000
     0.00000000
     0.00000000
     0.00000000
     0.00000000
     0.00000000
     0.00000000
     0.00000000
     0.00000000
     0.00000000
     0.00000000
     0.00000000
     0.00000000
     0.00000000
     0.00000000
     0.00000000
     0.00000000
     0.00000000
     0.00000000
     0.00000000
     0.00000000
     0.00000000
     0.00000000
     0.00000000
     0.00000000
     0.00000000
     0.00000000
     0.00000000
     0.00000000
     0.00000000
     0.00000000
     0.00000000
     0.00000000
     0.00000000
     0.00000000
     0.00000000
     0.00000000
     0.00000000
     0.00000000
     0.00000000
     0.00000000
     0.00000000
     0.00000000
     0.00000000
     0.00000000
     0.00000000
     0.00000000
     0.00000000
     0.00000000
     0.00000000
     0.00000000
     0.00000000
     0.00000000
     0.00000000
     0.00000000
     0.00000000
     0.00000000
     0.00000000
     0.00000000
     0.00000000
     0.00000000
     0.00000000
     0.00000000
     0.00000000
     0.00000000
     0.00000000
     0.00000000
     0.00000000
     0.00000000
     0.00000000
     0.00000000
     0.00000000
     0.00000000
     0.00000000
     0.00000000
     0.00000000
     0.00000000
     0.00000000
     0.00000000
     0.00000000
     0.00000000
     0.00000000
     0.00000000
     0.00000000
     0.00000000
     0.00000000
     0.00000000
     0.00000000
     0.00000000
     0.00000000
     0.00000000
     0.00000000
     0.00000000
     0.00000000
     0.00000000
     0.00000000
     0.00000000
     0.00000000
     0.00000000
     0.00000000
     0.00000000
     0.00000000
     0.00000000
     0.00000000
     0.00000000
     0.00000000
     0.00000000
     0.00000000
     0.00000000
     0.00000000
     0.00000000
     0.00000000
     0.00000000
     0.00000000
     0.00000000
     0.00000000
     0.00000000
     0.00000000
     0.00000000
     0.00000000
     0.00000000
     0.00000000
     0.00000000
     0.00000000
     0.00000000
     0.00000000
     0.00000000
     0.00000000
     0.00000000
     0.00000000
     0.00000000
     0.00000000
     0.00000000
     0.00000000
     0.00000000
     0.00000000
     0.00000000
     0.00000000
     0.00000000
     0.00000000
     0.00000000
     0.00000000
     0.00000000
     0.00000000
     0.00000000
     0.00000000
     0.00000000
     0.00000000
     0.00000000
     0.00000000
     0.00000000
     0.00000000
     0.00000000
     0.00000000
     0.00000000
     0.00000000
     0.00000000
     0.00000000
     0.00000000
     0.00000000
     0.00000000
     0.00000000
     0.00000000
     0.00000000
     0.00000000
     0.00000000
     0.00000000
     0.00000000
     0.00000000
     0.00000000
     0.00000000
     0.00000000
     0.00000000
     0.00000000
     0.00000000
     0.00000000
     0.00000000
     0.00000000
     0.00000000
     0.00000000
     0.00000000
     0.00000000
     0.00000000
     0.00000000
     0.00000000
     0.00000000
     0.00000000
     0.00000000
     0.00000000
     0.00000000
     0.00000000
     0.00000000
     0.00000000
     0.00000000
     0.00000000
     0.00000000
     0.00000000
     0.00000000
     0.00000000
     0.00000000
     0.00000000
     0.00000000
     0.00000000
     0.00000000
     0.00000000
     0.00000000
     0.00000000
     0.00000000
     0.00000000
     0.00000000
     0.00000000
     0.00000000
     0.00000000
     0.00000000
     0.00000000
     0.00000000
     0.00000000
     0.00000000
     0.00000000
     0.00000000
     0.00000000
     0.00000000
     0.00000000
     0.00000000
     0.00000000
     0.00000000
     0.00000000
     0.00000000
     0.00000000
     0.00000000
     0.00000000
     0.00000000
     0.00000000
     0.00000000
     0.00000000
     0.00000000
     0.00000000
     0.00000000
     0.00000000
     0.00000000
     0.00000000
     0.00000000
     0.00000000
     0.00000000
     0.00000000
     0.00000000
     0.00000000
     0.00000000
     0.00000000
     0.00000000
     0.00000000
     0.00000000
     0.00000000
     0.00000000
     0.00000000
     0.00000000
     0.00000000
     0.00000000
     0.00000000
     0.00000000
     0.00000000
     0.00000000
     0.00000000
     0.00000000
     0.00000000
     0.00000000
     0.00000000
     0.00000000
     0.00000000
     0.00000000
     0.00000000
     0.00000000
     0.00000000
     0.00000000
     0.00000000
     0.00000000
     0.00000000
     0.00000000
     0.00000000
     0.00000000
     0.00000000
     0.00000000
     0.00000000
     0.00000000
     0.00000000
     0.00000000
     0.00000000
     0.00000000
     0.00000000
     0.00000000
     0.00000000
     0.00000000
     0.00000000
     0.00000000
     0.00000000
     0.00000000
     0.00000000
     0.00000000
     0.00000000
     0.00000000
     0.00000000
     0.00000000
     0.00000000
     0.00000000
     0.00000000
     0.00000000
     0.00000000
     0.00000000
     0.00000000
     0.00000000
     0.00000000
     0.00000000
     0.00000000
     0.00000000
     0.00000000
     0.00000000
     0.00000000
     0.00000000
     0.00000000
     0.00000000
     0.00000000
     0.00000000
     0.00000000
     0.00000000
     0.00000000
     0.00000000
     0.00000000
     0.00000000
     0.00000000
     0.00000000
     0.00000000
     0.00000000
     0.00000000
     0.00000000
     0.00000000
     0.00000000
     0.00000000
     0.00000000
     0.00000000
     0.00000000
     0.00000000
     0.00000000
     0.00000000
     0.00000000
     0.00000000
     0.00000000
     0.00000000
     0.00000000
     0.00000000
     0.00000000
     0.00000000
     0.00000000
     0.00000000
     0.00000000
     0.00000000
     0.00000000
     0.00000000
     0.00000000
     0.00000000
     0.00000000
     0.00000000
     0.00000000
     0.00000000
     0.00000000
     0.00000000
     0.00000000
     0.00000000
     0.00000000
     0.00000000
     0.00000000
     0.00000000
     0.00000000
     0.00000000
     0.00000000
     0.00000000
     0.00000000
     0.00000000
     0.00000000
     0.00000000
     0.00000000
     0.00000000
     0.00000000
     0.00000000
     0.00000000
     0.00000000
     0.00000000
     0.00000000
     0.00000000
     0.00000000
     0.00000000
     0.00000000
     0.00000000
     0.00000000
     0.00000000
     0.00000000
     0.00000000
     0.00000000
     0.00000000
     0.00000000
     0.00000000
     0.00000000
     0.00000000
     0.00000000
     0.00000000
     0.00000000
     0.00000000
     0.00000000
     0.00000000
     0.00000000
     0.00000000
     0.00000000
     0.00000000
     0.00000000
     0.00000000
     0.00000000
     0.00000000
     0.00000000
     0.00000000
     0.00000000
     0.00000000
     0.00000000
     0.00000000
     0.00000000
     0.00000000
     0.00000000
     0.00000000
     0.00000000
     0.00000000
     0.00000000
     0.00000000
     0.00000000
     0.00000000
     0.00000000
     0.00000000
     0.00000000
     0.00000000
     0.00000000
     0.00000000
     0.00000000
     0.00000000
     0.00000000
     0.00000000
     0.00000000
     0.00000000
     0.00000000
     0.00000000
     0.00000000
     0.00000000
     0.00000000
     0.00000000
     0.00000000
     0.00000000
     0.00000000
     0.00000000
     0.00000000
     0.00000000
     0.00000000
     0.00000000
     0.00000000
     0.00000000
     0.00000000
     0.00000000
     0.00000000
     0.00000000
     0.00000000
     0.00000000
     0.00000000
     0.00000000
     0.00000000
     0.00000000
     0.00000000
     0.00000000
     0.00000000
     0.00000000
     0.00000000
     0.00000000
     0.00000000
     0.00000000
     0.00000000
     0.00000000
     0.00000000
     0.00000000
     0.00000000
     0.00000000
     0.00000000
     0.00000000
     0.00000000
     0.00000000
     0.00000000
     0.00000000
     0.00000000
     0.00000000
     0.00000000
     0.00000000
     0.00000000
     0.00000000
     0.00000000
     0.00000000
     0.00000000
     0.00000000
     0.00000000
     0.00000000
     0.00000000
     0.00000000
     0.00000000
     0.00000000
     0.00000000
     0.00000000
     0.00000000
     0.00000000
     0.00000000
     0.00000000
     0.00000000
     0.00000000
     0.00000000
     0.00000000
     0.00000000
     0.00000000
     0.00000000
     0.00000000
     0.00000000
     0.00000000
VECTORS ShearStress float 
    -0.00433972     0.00769647     0.00106856
    -0.04232890     0.04005281     0.00635064
    -0.05272301     0.03090176     0.00349978
    -0.05699823     0.01921942     0.00351523
    -0.05843082     0.00645116     0.00120474
    -0.05775643    -0.00630452    -0.00015011
    -0.05030156    -0.02526921    -0.00264532
    -0.05209462    -0.03860344    -0.00248020
    -0.06597021    -0.03432567     0.00293109
    -0.00029099     0.03199055     0.00401263
     0.00000000     0.00000000     0.00000000
     0.00000000     0.00000000     0.00000000
     0.00000000     0.00000000     0.00000000
     0.00000000     0.00000000     0.00000000
     0.00000000     0.00000000     0.00000000
     0.00000000     0.00000000     0.00000000
     0.00000000     0.00000000     0.00000000
     0.00000000     0.00000000     0.00000000
    -0.00036287     0.04735402     0.00529571
     0.00000000     0.00000000     0.00000000
     0.00000000     0.00000000     0.00000000
     0.00000000     0.00000000     0.00000000
     0.00000000     0.00000000     0.00000000
     0.00000000     0.00000000     0.00000000
     0.00000000     0.00000000     0.00000000
     0.00000000     0.00000000     0.00000000
     0.00000000     0.00000000     0.00000000
    -0.00018717     0.02957653     0.00725579
     0.00000000     0.00000000     0.00000000
     0.00000000     0.00000000     0.00000000
     0.00000000     0.00000000     0.00000000
     0.00000000     0.00000000     0.00000000
     0.00000000     0.00000000     0.00000000
     0.00000000     0.00000000     0.00000000
     0.00000000     0.00000000     0.00000000
     0.00000000     0.00000000     0.00000000
     0.00008306    -0.01484339     0.00593158
     0.00000000     0.00000000     0.00000000
     0.00000000     0.00000000     0.00000000
     0.00000000     0.00000000     0.00000000
     0.00000000     0.00000000     0.00000000
     0.00000000     0.00000000     0.00000000
     0.00000000     0.00000000     0.00000000
     0.00000000     0.00000000     0.00000000
     0.00000000     0.00000000     0.00000000
     0.00021522    -0.05046769     0.00296475
     0.00000000     0.00000000     0.00000000
     0.00000000     0.00000000     0.00000000
     0.00000000     0.00000000     0.00000000
     0.00000000     0.00000000     0.00000000
     0.00000000     0.00000000     0.00000000
     0.00000000     0.00000000     0.00000000
     0.00000000     0.00000000     0.00000000
     0.00081269    -0.00020317    -0.01046863
     0.00020639    -0.06912280     0.00309433
     0.00000000     0.00000000     0.00000000
     0.00000000     0.00000000     0.00000000
     0.00000000     0.00000000     0.00000000
     0.00000000     0.00000000     0.00000000
     0.00000000     0.00000000     0.00000000
     0.00000000     0.00000000     0.00000000
     0.00000000     0.00000000     0.00000000
     0.00000000     0.00000000     0.00000000
     0.00018503    -0.07343932     0.00293620
     0.00000000     0.00000000     0.00000000
     0.00000000     0.00000000     0.00000000
     0.00000000     0.00000000     0.00000000
     0.00000000     0.00000000     0.00000000
     0.00000000     0.00000000     0.00000000
     0.00000000     0.00000000     0.00000000
     0.00000000     0.00000000     0.00000000
     0.00000000     0.00000000     0.00000000
     0.00016970    -0.06017654     0.00313194
     0.00000000     0.00000000     0.00000000
     0.00000000     0.00000000     0.00000000
     0.00000000     0.00000000     0.00000000
     0.00000000     0.00000000     0.00000000
     0.00000000     0.00000000     0.00000000
     0.00000000     0.00000000     0.00000000
     0.00000000     0.00000000     0.00000000
     0.00000000     0.00000000     0.00000000
     0.00013072    -0.03445091     0.00215372
     0.00000000     0.00000000     0.00000000
     0.00000000     0.00000000     0.00000000
     0.00000000     0.00000000     0.00000000
     0.00000000     0.00000000     0.00000000
     0.00000000     0.00000000     0.00000000
     0.00000000     0.00000000     0.00000000
     0.00000000     0.00000000     0.00000000
     0.00000000     0.00000000     0.00000000
    -0.00419119    -0.00775179     0.00057627
    -0.04096488    -0.03951474     0.00346842
    -0.05064075    -0.03043651     0.00095195
    -0.05507657    -0.01916084     0.00081908
    -0.05519888    -0.00683180    -0.00023946
    -0.05124478     0.00499367    -0.00048548
    -0.04410342     0.02661634    -0.00045715
    -0.04903264     0.03972497     0.00082150
    -0.05266205     0.02943083     0.00265811
    -0.00327751     0.00647378     0.00490268
    -0.03271443     0.03517690     0.02893132
    -0.04568942     0.02959713     0.01787734
    -0.04774418     0.01863395     0.01683825
    -0.04660675     0.00609111     0.00601545
    -0.04457578    -0.00510917    -0.00144894
    -0.03992115    -0.02160262    -0.01222238
    -0.04825040    -0.03810981    -0.01226147
    -0.07847576    -0.04166579     0.01083687
    -0.00020614     0.02621262     0.01781029
     0.00000000     0.00000000     0.00000000
     0.00000000     0.00000000     0.00000000
     0.00000000     0.00000000     0.00000000
     0.00000000     0.00000000     0.00000000
     0.00000000     0.00000000     0.00000000
     0.00000000     0.00000000     0.00000000
     0.00000000     0.00000000     0.00000000
     0.00000000     0.00000000     0.00000000
    -0.00026146     0.04111583     0.02328543
     0.00000000     0.00000000     0.00000000
     0.00000000     0.00000000     0.00000000
     0.00000000     0.00000000     0.00000000
     0.00000000     0.00000000     0.00000000
     0.00000000     0.00000000     0.00000000
     0.00000000     0.00000000     0.00000000
     0.00000000     0.00000000     0.00000000
     0.00000000     0.00000000     0.00000000
    -0.00013253     0.02940256     0.03106427
     0.00000000     0.00000000     0.00000000
     0.00000000     0.00000000     0.00000000
     0.00000000     0.00000000     0.00000000
     0.00000000     0.00000000     0.00000000
     0.00000000     0.00000000     0.00000000
     0.00000000     0.00000000     0.00000000
     0.00000000     0.00000000     0.00000000
     0.00000000     0.00000000     0.00000000
     0.00005738    -0.00494953     0.02510734
     0.00000000     0.00000000     0.00000000
     0.00000000     0.00000000     0.00000000
     0.00000000     0.00000000     0.00000000
     0.00000000     0.00000000     0.00000000
     0.00000000     0.00000000     0.00000000
     0.00000000     0.00000000     0.00000000
     0.00000000     0.00000000     0.00000000
     0.00000000     0.00000000     0.00000000
     0.00018602    -0.04085712     0.01255537
     0.00000000     0.00000000     0.00000000
     0.00000000     0.00000000     0.00000000
     0.00000000     0.00000000     0.00000000
     0.00000000     0.00000000     0.00000000
     0.00000000     0.00000000     0.00000000
     0.00000000     0.00000000     0.00000000
     0.00000000     0.00000000     0.00000000
     0.01489063    -0.00487343    -0.04773037
     0.00018078    -0.06291736     0.01294598
     0.00000000     0.00000000     0.00000000
     0.00000000     0.00000000     0.00000000
     0.00000000     0.00000000     0.00000000
     0.00000000     0.00000000     0.00000000
     0.00000000     0.00000000     0.00000000
     0.00000000     0.00000000     0.00000000
     0.00000000     0.00000000     0.00000000
     0.00000000     0.00000000     0.00000000
     0.00017116    -0.06681338     0.01255944
     0.00000000     0.00000000     0.00000000
     0.00000000     0.00000000     0.00000000
     0.00000000     0.00000000     0.00000000
     0.00000000     0.00000000     0.00000000
     0.00000000     0.00000000     0.00000000
     0.00000000     0.00000000     0.00000000
     0.00000000     0.00000000     0.00000000
     0.00000000     0.00000000     0.00000000
     0.00017750    -0.05360642     0.01349707
     0.00000000     0.00000000     0.00000000
     0.00000000     0.00000000     0.00000000
     0.00000000     0.00000000     0.00000000
     0.00000000     0.00000000     0.00000000
     0.00000000     0.00000000     0.00000000
     0.00000000     0.00000000     0.00000000
     0.00000000     0.00000000     0.00000000
     0.00000000     0.00000000     0.00000000
     0.00012398    -0.02894047     0.00956958
     0.00000000     0.00000000     0.00000000
     0.00000000     0.00000000     0.00000000
     0.00000000     0.00000000     0.00000000
     0.00000000     0.00000000     0.00000000
     0.00000000     0.00000000     0.00000000
     0.00000000     0.00000000     0.00000000
     0.00000000     0.00000000     0.00000000
     0.00000000     0.00000000     0.00000000
    -0.00344338    -0.00669508     0.00258098
    -0.03463811    -0.03567188     0.01486351
    -0.04962551    -0.03078405     0.00476557
    -0.05622469    -0.02018379     0.00302952
    -0.05645152    -0.00694107    -0.00119334
    -0.05329587     0.00551843    -0.00217183
    -0.04580211     0.02788063    -0.00115478
    -0.05282163     0.04323610     0.00525019
    -0.05846024     0.03261534     0.01512466
    -0.00227427     0.00627669     0.00796078
    -0.02243242     0.03628182     0.04986926
    -0.03013045     0.02871476     0.03544275
    -0.02724991     0.01741998     0.02713195
    -0.02165238     0.00466938     0.00707594
    -0.01542516    -0.00478163    -0.01069712
    -0.01504522    -0.01338618    -0.02185293
    -0.02658693    -0.02957295    -0.03120218
    -0.07165688    -0.03935945     0.01760440
    -0.00010101     0.02268019     0.02572064
     0.00000000     0.00000000     0.00000000
     0.00000000     0.00000000     0.00000000
     0.00000000     0.00000000     0.00000000
     0.00000000     0.00000000     0.00000000
     0.00000000     0.00000000     0.00000000
     0.00000000     0.00000000     0.00000000
     0.00000000     0.00000000     0.00000000
     0.00000000     0.00000000     0.00000000
    -0.00012298     0.03377916     0.03232476
     0.00000000     0.00000000     0.00000000
     0.00000000     0.00000000     0.00000000
     0.00000000     0.00000000     0.00000000
     0.00000000     0.00000000     0.00000000
     0.00000000     0.00000000     0.00000000
     0.00000000     0.00000000     0.00000000
     0.00000000     0.00000000     0.00000000
     0.00000000     0.00000000     0.00000000
    -0.00008436     0.02578614     0.03744056
     0.00000000     0.00000000     0.00000000
     0.00000000     0.00000000     0.00000000
     0.00000000     0.00000000     0.00000000
     0.00000000     0.00000000     0.00000000
     0.00000000     0.00000000     0.00000000
     0.00000000     0.00000000     0.00000000
     0.00000000     0.00000000     0.00000000
     0.00000000     0.00000000     0.00000000
     0.00007326    -0.00247727     0.02887185
     0.00000000     0.00000000     0.00000000
     0.00000000     0.00000000     0.00000000
     0.00000000     0.00000000     0.00000000
     0.00000000     0.00000000     0.00000000
     0.00000000     0.00000000     0.00000000
     0.00000000     0.00000000     0.00000000
     0.00000000     0.00000000     0.00000000
     0.00000000     0.00000000     0.00000000
     0.00018735    -0.03382004     0.01493168
     0.00000000     0.00000000     0.00000000
     0.00000000     0.00000000     0.00000000
     0.00000000     0.00000000     0.00000000
     0.00000000     0.00000000     0.00000000
     0.00000000     0.00000000     0.00000000
     0.00000000     0.00000000     0.00000000
     0.00000000     0.00000000     0.00000000
     0.02997364    -0.01067482    -0.07517675
     0.00015377    -0.05408128     0.01422736
     0.00000000     0.00000000     0.00000000
     0.00000000     0.00000000     0.00000000
     0.00000000     0.00000000     0.00000000
     0.00000000     0.00000000     0.00000000
     0.00000000     0.00000000     0.00000000
     0.00000000     0.00000000     0.00000000
     0.00000000     0.00000000     0.00000000
     0.00000000     0.00000000     0.00000000
     0.00012443    -0.05840380     0.01564393
     0.00000000     0.00000000     0.00000000
     0.00000000     0.00000000     0.00000000
     0.00000000     0.00000000     0.00000000
     0.00000000     0.00000000     0.00000000
     0.00000000     0.00000000     0.00000000
     0.00000000     0.00000000     0.00000000
     0.00000000     0.00000000     0.00000000
     0.00000000     0.00000000     0.00000000
     0.00018932    -0.04853535     0.01738066
     0.00000000     0.00000000     0.00000000
     0.00000000     0.00000000     0.00000000
     0.00000000     0.00000000     0.00000000
     0.00000000     0.00000000     0.00000000
     0.00000000     0.00000000     0.00000000
     0.00000000     0.00000000     0.00000000
     0.00000000     0.00000000     0.00000000
     0.00000000     0.00000000     0.00000000
     0.00014857    -0.02817774     0.01446452
     0.00000000     0.00000000     0.00000000
     0.00000000     0.00000000     0.00000000
     0.00000000     0.00000000     0.00000000
     0.00000000     0.00000000     0.00000000
     0.00000000     0.00000000     0.00000000
     0.00000000     0.00000000     0.00000000
     0.00000000     0.00000000     0.00000000
     0.00000000     0.00000000     0.00000000
    -0.00343625    -0.00752682     0.00450832
    -0.03451532    -0.04275208     0.02797781
    -0.04920399    -0.03493897     0.01385176
    -0.05765034    -0.02314449     0.00759768
    -0.06072769    -0.00869940     0.00271829
    -0.06020066     0.00636963    -0.00130072
    -0.05239497     0.03179230     0.00028121
    -0.05869629     0.05020081     0.01198310
    -0.07140522     0.03844629     0.03947167
    -0.00097089     0.00576455     0.00904903
    -0.00873515     0.03617257     0.06055318
    -0.00671050     0.02347551     0.04246006
     0.00190124     0.01124211     0.02676524
     0.00348778     0.00056085     0.00240707
     0.00004960    -0.00884900    -0.01928833
    -0.00829679    -0.01504025    -0.02590919
    -0.01182238    -0.03124329    -0.05345515
    -0.02983688    -0.01645130     0.00007419
    -0.00000866     0.01670269     0.02376288
     0.00000000     0.00000000     0.00000000
     0.00000000     0.00000000     0.00000000
     0.00000000     0.00000000     0.00000000
     0.00000000     0.00000000     0.00000000
     0.00000000     0.00000000     0.00000000
     0.00000000     0.00000000     0.00000000
     0.00000000     0.00000000     0.00000000
     0.00000000     0.00000000     0.00000000
    -0.00006067     0.02393206     0.03175307
     0.00000000     0.00000000     0.00000000
     0.00000000     0.00000000     0.00000000
     0.00000000     0.00000000     0.00000000
     0.00000000     0.00000000     0.00000000
     0.00000000     0.00000000     0.00000000
     0.00000000     0.00000000     0.00000000
     0.00000000     0.00000000     0.00000000
     0.00000000     0.00000000     0.00000000
    -0.00003985     0.01921088     0.03516825
     0.00000000     0.00000000     0.00000000
     0.00000000     0.00000000     0.00000000
     0.00000000     0.00000000     0.00000000
     0.00000000     0.00000000     0.00000000
     0.00000000     0.00000000     0.00000000
     0.00000000     0.00000000     0.00000000
     0.00000000     0.00000000     0.00000000
     0.00000000     0.00000000     0.00000000
     0.00011910    -0.00105464     0.02987051
     0.00000000     0.00000000     0.00000000
     0.00000000     0.00000000     0.00000000
     0.00000000     0.00000000     0.00000000
     0.00000000     0.00000000     0.00000000
     0.00000000     0.00000000     0.00000000
     0.00000000     0.00000000     0.00000000
     0.00000000     0.00000000     0.00000000
     0.00000000     0.00000000     0.00000000
     0.00020752    -0.02590625     0.01922407
     0.00000000     0.00000000     0.00000000
     0.00000000     0.00000000     0.00000000
     0.00000000     0.00000000     0.00000000
     0.00000000     0.00000000     0.00000000
     0.00000000     0.00000000     0.00000000
     0.00000000     0.00000000     0.00000000
     0.00000000     0.00000000     0.00000000
     0.04748650    -0.01783959    -0.08408125
     0.00019652    -0.04192270     0.01885141
     0.00000000     0.00000000     0.00000000
     0.00000000     0.00000000     0.00000000
     0.00000000     0.00000000     0.00000000
     0.00000000     0.00000000     0.00000000
     0.00000000     0.00000000     0.00000000
     0.00000000     0.00000000     0.00000000
     0.00000000     0.00000000     0.00000000
     0.00000000     0.00000000     0.00000000
     0.00010953    -0.04543175     0.02051157
     0.00000000     0.00000000     0.00000000
     0.00000000     0.00000000     0.00000000
     0.00000000     0.00000000     0.00000000
     0.00000000     0.00000000     0.00000000
     0.00000000     0.00000000     0.00000000
     0.00000000     0.00000000     0.00000000
     0.00000000     0.00000000     0.00000000
     0.00000000     0.00000000     0.00000000
     0.00014046    -0.03960189     0.02184225
     0.00000000     0.00000000     0.00000000
     0.00000000     0.00000000     0.00000000
     0.00000000     0.00000000     0.00000000
     0.00000000     0.00000000     0.00000000
     0.00000000     0.00000000     0.00000000
     0.00000000     0.00000000     0.00000000
     0.00000000     0.00000000     0.00000000
     0.00000000     0.00000000     0.00000000
     0.00015464    -0.02393470     0.01688555
     0.00000000     0.00000000     0.00000000
     0.00000000     0.00000000     0.00000000
     0.00000000     0.00000000     0.00000000
     0.00000000     0.00000000     0.00000000
     0.00000000     0.00000000     0.00000000
     0.00000000     0.00000000     0.00000000
     0.00000000     0.00000000     0.00000000
     0.00000000     0.00000000     0.00000000
    -0.00288043    -0.00809492     0.00646910
    -0.02905141    -0.05067438     0.04348199
    -0.04200726    -0.04014876     0.02676675
    -0.05155255    -0.02842722     0.01883593
    -0.05481083    -0.01316457     0.01224155
    -0.05621998     0.00310713     0.00631530
    -0.04955738     0.03232954    -0.00275616
    -0.05998216     0.06057206     0.00325380
    -0.08942335     0.04381046     0.07477998
     0.00033433     0.00477735     0.00836282
     0.00573351     0.03199101     0.06018775
     0.02095897     0.00822046     0.03644341
     0.02619087    -0.00152944     0.01507198
     0.01623533    -0.00747777    -0.00760201
     0.01008748    -0.01454003    -0.02398563
    -0.01101157    -0.01775988    -0.01843003
    -0.02078036    -0.05053651    -0.05173112
     0.01993040     0.01475559    -0.02832597
    -0.00000448     0.00873100     0.01399876
     0.00000000     0.00000000     0.00000000
     0.00000000     0.00000000     0.00000000
     0.00000000     0.00000000     0.00000000
     0.00000000     0.00000000     0.00000000
     0.00000000     0.00000000     0.00000000
     0.00000000     0.00000000     0.00000000
     0.00000000     0.00000000     0.00000000
     0.00000000     0.00000000     0.00000000
    -0.00002410     0.01248954     0.02007521
     0.00000000     0.00000000     0.00000000
     0.00000000     0.00000000     0.00000000
     0.00000000     0.00000000     0.00000000
     0.00000000     0.00000000     0.00000000
     0.00000000     0.00000000     0.00000000
     0.00000000     0.00000000     0.00000000
     0.00000000     0.00000000     0.00000000
     0.00000000     0.00000000     0.00000000
     0.00003573     0.01148000     0.02373385
     0.00000000     0.00000000     0.00000000
     0.00000000     0.00000000     0.00000000
     0.00000000     0.00000000     0.00000000
     0.00000000     0.00000000     0.00000000
     0.00000000     0.00000000     0.00000000
     0.00000000     0.00000000     0.00000000
     0.00000000     0.00000000     0.00000000
     0.00000000     0.00000000     0.00000000
     0.00012708     0.00232465     0.02288049
     0.00000000     0.00000000     0.00000000
     0.00000000     0.00000000     0.00000000
     0.00000000     0.00000000     0.00000000
     0.00000000     0.00000000     0.00000000
     0.00000000     0.00000000     0.00000000
     0.00000000     0.00000000     0.00000000
     0.00000000     0.00000000     0.00000000
     0.00000000     0.00000000     0.00000000
     0.00018091    -0.01133382     0.01813135
     0.00000000     0.00000000     0.00000000
     0.00000000     0.00000000     0.00000000
     0.00000000     0.00000000     0.00000000
     0.00000000     0.00000000     0.00000000
     0.00000000     0.00000000     0.00000000
     0.00000000     0.00000000     0.00000000
     0.00000000     0.00000000     0.00000000
     0.03539484    -0.00704633    -0.08746690
     0.00019287    -0.02166762     0.01683677
     0.00000000     0.00000000     0.00000000
     0.00000000     0.00000000     0.00000000
     0.00000000     0.00000000     0.00000000
     0.00000000     0.00000000     0.00000000
     0.00000000     0.00000000     0.00000000
     0.00000000     0.00000000     0.00000000
     0.00000000     0.00000000     0.00000000
     0.00000000     0.00000000     0.00000000
     0.00014885    -0.02556888     0.01746675
     0.00000000     0.00000000     0.00000000
     0.00000000     0.00000000     0.00000000
     0.00000000     0.00000000     0.00000000
     0.00000000     0.00000000     0.00000000
     0.00000000     0.00000000     0.00000000
     0.00000000     0.00000000     0.00000000
     0.00000000     0.00000000     0.00000000
     0.00000000     0.00000000     0.00000000
     0.00009497    -0.02392752     0.01705559
     0.00000000     0.00000000     0.00000000
     0.00000000     0.00000000     0.00000000
     0.00000000     0.00000000     0.00000000
     0.00000000     0.00000000     0.00000000
     0.00000000     0.00000000     0.00000000
     0.00000000     0.00000000     0.00000000
     0.00000000     0.00000000     0.00000000
     0.00000000     0.00000000     0.00000000
     0.00008879    -0.01492999     0.01305631
     0.00000000     0.00000000     0.00000000
     0.00000000     0.00000000     0.00000000
     0.00000000     0.00000000     0.00000000
     0.00000000     0.00000000     0.00000000
     0.00000000     0.00000000     0.00000000
     0.00000000     0.00000000     0.00000000
     0.00000000     0.00000000     0.00000000
     0.00000000     0.00000000     0.00000000
    -0.00157433    -0.00800588     0.00798833
    -0.01571072    -0.05602072     0.05861147
    -0.02215334    -0.04177497     0.03968307
    -0.02633312    -0.03255078     0.03361153
    -0.03879830    -0.02144275     0.02421137
    -0.03876640    -0.00423816     0.01397899
    -0.03643793     0.02337546    -0.00139177
    -0.03585279     0.06730428    -0.04651522
    -0.09102315     0.04455188     0.08576998
     0.00057871     0.00259187     0.00422185
     0.00534370     0.01551092     0.02599353
     0.01217963     0.00333579     0.01519753
     0.01368392    -0.00148724     0.00572769
     0.00812754    -0.00461034    -0.00376274
     0.00555478    -0.00858972    -0.01058808
    -0.00499395    -0.00923929    -0.00705834
    -0.00982336    -0.03245635    -0.02701382
     0.01492484     0.01354536    -0.01936757
     0.00151390     0.00499635     0.00750152
     0.01617978     0.03494157     0.05171359
     0.02872561     0.00807112     0.03058331
     0.02990822    -0.00206759     0.01237681
     0.01910899    -0.00934541    -0.00500425
     0.01352105    -0.01784901    -0.01719156
    -0.00554989    -0.01750601    -0.01164356
    -0.01189447    -0.06308014    -0.04743164
     0.03919784     0.04139031    -0.05690040
     0.00197313     0.00440464     0.00676316
     0.02081895     0.02766913     0.04179137
     0.03439196     0.00474204     0.02856901
     0.03303888     0.00223167     0.01526653
     0.03028980    -0.00176735     0.00318011
     0.02229478    -0.00263270    -0.00481640
     0.01275027    -0.00547680    -0.01043345
     0.00059505    -0.03317209    -0.02902944
     0.06394545     0.05409741    -0.10796599
     0.00245683     0.00335312     0.00642272
     0.02470219     0.01960417     0.03568640
     0.03498388     0.00316387     0.02570474
     0.03495457     0.00545068     0.01592639
     0.03115051     0.00434642     0.00567502
     0.02673523     0.00762213    -0.00080635
     0.01628573     0.00785579    -0.00566643
     0.00617446    -0.00975626    -0.02027941
     0.06485238     0.01967142    -0.13605322
     0.00271154     0.00080723     0.00577103
     0.02661376     0.00450632     0.03018776
     0.03329933    -0.00086213     0.02229501
     0.03310336     0.00448247     0.01350999
     0.03042217     0.00702006     0.00507889
     0.02505452     0.01271519    -0.00111937
     0.01956710     0.01807178    -0.00770580
     0.01070672     0.01820279    -0.01744762
     0.05629295     0.01688301    -0.12482046
     0.00223180    -0.00244787     0.00459015
     0.02191780    -0.01325215     0.02375427
     0.02763386    -0.00668727     0.01839148
     0.02833703    -0.00154985     0.01072297
     0.02583862     0.00577927     0.00316054
     0.02171604     0.01511047    -0.00298973
     0.01515205     0.02459996    -0.00912842
     0.00807952     0.05243464    -0.01799128
     0.01071006     0.02467450    -0.02631040
     0.00165866    -0.00518271     0.00434519
     0.01618977    -0.02916846     0.02304350
     0.02024697    -0.01622480     0.01669441
     0.01856128    -0.01078753     0.00913419
     0.01610953     0.00038706     0.00196284
     0.01373529     0.01369950    -0.00447655
     0.00949590     0.03012396    -0.01162536
     0.00192558     0.06951971    -0.02203145
     0.01271484     0.05104059    -0.03300761
     0.00117314    -0.00702254     0.00503122
     0.01112431    -0.04221995     0.02858533
     0.01148915    -0.02773562     0.01864887
     0.00645567    -0.02133074     0.01078510
     0.00089812    -0.00938069     0.00380208
    -0.00034219     0.00782857    -0.00284031
    -0.00478586     0.03690909    -0.01186920
    -0.00607703     0.07298037    -0.02806303
     0.01215192     0.04941541    -0.04753579
     0.00047063    -0.00840183     0.00600539
     0.00415407    -0.05491354     0.03767082
     0.00195702    -0.03886623     0.02466952
    -0.00585200    -0.03183456     0.01662885
    -0.01295406    -0.02056794     0.01067181
    -0.01782551     0.00074393     0.00220714
    -0.00615949     0.03068144    -0.01538634
    -0.00927237     0.07544685    -0.04068669
    -0.03144736     0.04181174     0.02182138
    -0.00005807    -0.00857747     0.00730862
    -0.00188032    -0.06247296     0.05098796
    -0.00956624    -0.04741295     0.03240993
    -0.01570501    -0.03916097     0.02622768
    -0.03061485    -0.02790054     0.01901424
    -0.03242262    -0.00604753     0.01065028
    -0.02737425     0.02259716    -0.00149848
    -0.01985048     0.09007897    -0.05486186
    -0.10356540     0.05769444     0.11755338
    -0.00043965    -0.00439809     0.00417826
    -0.00371075    -0.02748176     0.02611170
    -0.00688276    -0.02075997     0.01734085
    -0.00896385    -0.01698495     0.01483230
    -0.01614457    -0.01214395     0.01097732
    -0.01684645    -0.00308698     0.00656841
    -0.01650202     0.01115439    -0.00008996
    -0.01405615     0.04209131    -0.02941280
    -0.04712741     0.02432161     0.04994397
     0.03953845    -0.01777912     0.00602594
    -0.05393831    -0.02600600     0.01298053
    -0.12825787    -0.03407830     0.00353973
    -0.14536632    -0.03878183     0.00207159
    -0.14855635    -0.03984143    -0.00044150
    -0.13152261    -0.03538779    -0.00179533
    -0.10544931    -0.02849313    -0.00292331
    -0.06987593    -0.01900818    -0.00349826
    -0.03622162    -0.00998176    -0.00338913
    -0.01047916    -0.00298704    -0.00219866
     0.00050975    -0.00551287    -0.00043826
     0.00000000     0.00000000     0.00000000
     0.00000000     0.00000000     0.00000000
     0.00000000     0.00000000     0.00000000
     0.00000000     0.00000000     0.00000000
     0.00000000     0.00000000     0.00000000
     0.00000000     0.00000000     0.00000000
     0.00000000     0.00000000     0.00000000
     0.00000000     0.00000000     0.00000000
     0.00000000     0.00000000     0.00000000
     0.00000000     0.00000000     0.00000000
     0.01718335    -0.06412936    -0.00073156
     0.00000000     0.00000000     0.00000000
     0.00000000     0.00000000     0.00000000
     0.00000000     0.00000000     0.00000000
     0.00000000     0.00000000     0.00000000
     0.00000000     0.00000000     0.00000000
     0.00000000     0.00000000     0.00000000
     0.00000000     0.00000000     0.00000000
     0.00000000     0.00000000     0.00000000
     0.00000000     0.00000000     0.00000000
     0.00000000     0.00000000     0.00000000
     0.05947265    -0.22195427     0.00675595
     0.00000000     0.00000000     0.00000000
     0.00000000     0.00000000     0.00000000
     0.00000000     0.00000000     0.00000000
     0.00000000     0.00000000     0.00000000
     0.00000000     0.00000000     0.00000000
     0.00000000     0.00000000     0.00000000
     0.00000000     0.00000000     0.00000000
     0.00000000     0.00000000     0.00000000
     0.00000000     0.00000000     0.00000000
     0.00000000     0.00000000     0.00000000
     0.07715672    -0.28795179     0.01326851
     0.00000000     0.00000000     0.00000000
     0.00000000     0.00000000     0.00000000
     0.00000000     0.00000000     0.00000000
     0.00000000     0.00000000     0.00000000
     0.00000000     0.00000000     0.00000000
     0.00000000     0.00000000     0.00000000
     0.00000000     0.00000000     0.00000000
     0.00000000     0.00000000     0.00000000
     0.00000000     0.00000000     0.00000000
     0.00000000     0.00000000     0.00000000
     0.03612421    -0.13481734     0.01528363
    -0.17476184     0.13122148     0.00026795
    -0.06972800     0.09581204    -0.00601839
     0.13031191     0.03562267    -0.00866956
     0.21264701     0.05741896    -0.00539843
     0.25536074     0.06847880    -0.00067514
     0.25490454     0.06802385     0.00340720
     0.22184844     0.05893994     0.00619390
     0.16746922     0.04421163     0.00812219
     0.10224176     0.02659543     0.00982164
     0.03715076     0.00916784     0.00965691
     0.00710951    -0.01259637     0.00298371
    -0.00994024    -0.01756971     0.01786902
    -0.05956344    -0.02730052     0.04848647
    -0.13125640    -0.03267933     0.01304171
    -0.15211635    -0.03919130     0.00824344
    -0.15380543    -0.04083942     0.00225584
    -0.13916855    -0.03754709    -0.00077548
    -0.10974581    -0.03023528    -0.00366254
    -0.07429023    -0.02107980    -0.00534842
    -0.03689888    -0.01138927    -0.00742465
    -0.01166846    -0.00432944    -0.00615316
     0.00033157    -0.00560132    -0.00161632
     0.00000000     0.00000000     0.00000000
     0.00000000     0.00000000     0.00000000
     0.00000000     0.00000000     0.00000000
     0.00000000     0.00000000     0.00000000
     0.00000000     0.00000000     0.00000000
     0.00000000     0.00000000     0.00000000
     0.00000000     0.00000000     0.00000000
     0.00000000     0.00000000     0.00000000
     0.00000000     0.00000000     0.00000000
     0.00000000     0.00000000     0.00000000
     0.01676002    -0.06254878    -0.00350050
     0.00000000     0.00000000     0.00000000
     0.00000000     0.00000000     0.00000000
     0.00000000     0.00000000     0.00000000
     0.00000000     0.00000000     0.00000000
     0.00000000     0.00000000     0.00000000
     0.00000000     0.00000000     0.00000000
     0.00000000     0.00000000     0.00000000
     0.00000000     0.00000000     0.00000000
     0.00000000     0.00000000     0.00000000
     0.00000000     0.00000000     0.00000000
     0.05703683    -0.21286473     0.03078681
     0.00000000     0.00000000     0.00000000
     0.00000000     0.00000000     0.00000000
     0.00000000     0.00000000     0.00000000
     0.00000000     0.00000000     0.00000000
     0.00000000     0.00000000     0.00000000
     0.00000000     0.00000000     0.00000000
     0.00000000     0.00000000     0.00000000
     0.00000000     0.00000000     0.00000000
     0.00000000     0.00000000     0.00000000
     0.00000000     0.00000000     0.00000000
     0.07413991    -0.27669391     0.06197981
     0.00000000     0.00000000     0.00000000
     0.00000000     0.00000000     0.00000000
     0.00000000     0.00000000     0.00000000
     0.00000000     0.00000000     0.00000000
     0.00000000     0.00000000     0.00000000
     0.00000000     0.00000000     0.00000000
     0.00000000     0.00000000     0.00000000
     0.00000000     0.00000000     0.00000000
     0.00000000     0.00000000     0.00000000
     0.00000000     0.00000000     0.00000000
     0.03575454    -0.13343846     0.07120765
    -0.19780578     0.14814680     0.01383931
    -0.07719232     0.10161256    -0.00010419
     0.13364478     0.03813220    -0.00926070
     0.22493161     0.06126042    -0.00342982
     0.26995013     0.07130800     0.00618388
     0.26906968     0.06943947     0.01412114
     0.23359765     0.05868374     0.02038523
     0.17769707     0.04259117     0.02606475
     0.10884711     0.02262662     0.03418065
     0.04092328     0.00415842     0.03622450
     0.00752188    -0.01320983     0.01289609
    -0.01660535    -0.03392682     0.03539718
    -0.07160894    -0.02034174     0.08873500
    -0.13844081    -0.02541456     0.03264744
    -0.16362400    -0.03602173     0.02191219
    -0.17203193    -0.04258894     0.00982014
    -0.15573744    -0.04120885     0.00154064
    -0.12624757    -0.03559108    -0.00473022
    -0.08288323    -0.02583849    -0.00994814
    -0.04158456    -0.01602264    -0.01362802
    -0.01129664    -0.00738758    -0.01230869
     0.00042078    -0.00582238    -0.00306872
     0.00000000     0.00000000     0.00000000
     0.00000000     0.00000000     0.00000000
     0.00000000     0.00000000     0.00000000
     0.00000000     0.00000000     0.00000000
     0.00000000     0.00000000     0.00000000
     0.00000000     0.00000000     0.00000000
     0.00000000     0.00000000     0.00000000
     0.00000000     0.00000000     0.00000000
     0.00000000     0.00000000     0.00000000
     0.00000000     0.00000000     0.00000000
     0.01553858    -0.05799021    -0.00702680
     0.00000000     0.00000000     0.00000000
     0.00000000     0.00000000     0.00000000
     0.00000000     0.00000000     0.00000000
     0.00000000     0.00000000     0.00000000
     0.00000000     0.00000000     0.00000000
     0.00000000     0.00000000     0.00000000
     0.00000000     0.00000000     0.00000000
     0.00000000     0.00000000     0.00000000
     0.00000000     0.00000000     0.00000000
     0.00000000     0.00000000     0.00000000
     0.04849572    -0.18098832     0.04975576
     0.00000000     0.00000000     0.00000000
     0.00000000     0.00000000     0.00000000
     0.00000000     0.00000000     0.00000000
     0.00000000     0.00000000     0.00000000
     0.00000000     0.00000000     0.00000000
     0.00000000     0.00000000     0.00000000
     0.00000000     0.00000000     0.00000000
     0.00000000     0.00000000     0.00000000
     0.00000000     0.00000000     0.00000000
     0.00000000     0.00000000     0.00000000
     0.06401737    -0.23891657     0.11143884
     0.00000000     0.00000000     0.00000000
     0.00000000     0.00000000     0.00000000
     0.00000000     0.00000000     0.00000000
     0.00000000     0.00000000     0.00000000
     0.00000000     0.00000000     0.00000000
     0.00000000     0.00000000     0.00000000
     0.00000000     0.00000000     0.00000000
     0.00000000     0.00000000     0.00000000
     0.00000000     0.00000000     0.00000000
     0.00000000     0.00000000     0.00000000
     0.03393695    -0.12665386     0.12753803
    -0.26150727     0.19986189     0.02202434
    -0.09734521     0.12582052    -0.00888861
     0.15791709     0.05315609    -0.02906188
     0.27054337     0.07589477    -0.00901482
     0.31892222     0.08053765     0.01404422
     0.31131738     0.07305404     0.02908793
     0.26633279     0.05666781     0.04120408
     0.19665579     0.03316078     0.05482962
     0.11505469     0.00472958     0.07388920
     0.04173898    -0.01401144     0.07211516
     0.00747683    -0.01507696     0.02385378
    -0.00714096    -0.02382340     0.02373400
    -0.06411165     0.02857782     0.10200711
    -0.14049511     0.00130568     0.07124044
    -0.18022884    -0.02299539     0.04618967
    -0.19405015    -0.03697366     0.02724184
    -0.18711421    -0.04336987     0.01229379
    -0.15105040    -0.04085479    -0.00076634
    -0.10043669    -0.03182046    -0.00897886
    -0.04609729    -0.02093941    -0.01582515
    -0.01231697    -0.01174321    -0.01563405
     0.00002121    -0.00518573    -0.00352871
     0.00000000     0.00000000     0.00000000
     0.00000000     0.00000000     0.00000000
     0.00000000     0.00000000     0.00000000
     0.00000000     0.00000000     0.00000000
     0.00000000     0.00000000     0.00000000
     0.00000000     0.00000000     0.00000000
     0.00000000     0.00000000     0.00000000
     0.00000000     0.00000000     0.00000000
     0.00000000     0.00000000     0.00000000
     0.00000000     0.00000000     0.00000000
     0.01146950    -0.04280431    -0.00830780
     0.00000000     0.00000000     0.00000000
     0.00000000     0.00000000     0.00000000
     0.00000000     0.00000000     0.00000000
     0.00000000     0.00000000     0.00000000
     0.00000000     0.00000000     0.00000000
     0.00000000     0.00000000     0.00000000
     0.00000000     0.00000000     0.00000000
     0.00000000     0.00000000     0.00000000
     0.00000000     0.00000000     0.00000000
     0.00000000     0.00000000     0.00000000
     0.03285986    -0.12263252     0.04202306
     0.00000000     0.00000000     0.00000000
     0.00000000     0.00000000     0.00000000
     0.00000000     0.00000000     0.00000000
     0.00000000     0.00000000     0.00000000
     0.00000000     0.00000000     0.00000000
     0.00000000     0.00000000     0.00000000
     0.00000000     0.00000000     0.00000000
     0.00000000     0.00000000     0.00000000
     0.00000000     0.00000000     0.00000000
     0.00000000     0.00000000     0.00000000
     0.04447098    -0.16596750     0.10407115
     0.00000000     0.00000000     0.00000000
     0.00000000     0.00000000     0.00000000
     0.00000000     0.00000000     0.00000000
     0.00000000     0.00000000     0.00000000
     0.00000000     0.00000000     0.00000000
     0.00000000     0.00000000     0.00000000
     0.00000000     0.00000000     0.00000000
     0.00000000     0.00000000     0.00000000
     0.00000000     0.00000000     0.00000000
     0.00000000     0.00000000     0.00000000
     0.02848521    -0.10630730     0.12592358
    -0.34013610     0.27307353     0.02376095
    -0.09749103     0.17444203    -0.05364580
     0.23695329     0.09140011    -0.05109228
     0.36365120     0.10065700    -0.00620425
     0.39932568     0.09154465     0.02797550
     0.36257713     0.06969373     0.04996796
     0.27443343     0.03688219     0.06701590
     0.16695960    -0.00432466     0.09014056
     0.07328666    -0.04008018     0.11051260
     0.02356958    -0.04290278     0.09171588
     0.00529640    -0.01671866     0.02583074
     0.03287455     0.01939470    -0.03799890
    -0.05018028     0.08188348     0.08770506
    -0.14505315     0.03750757     0.09954970
    -0.16294570     0.00533017     0.06366732
    -0.21009492    -0.02023893     0.04676638
    -0.20760300    -0.03813060     0.02265012
    -0.17782665    -0.04135551     0.00805745
    -0.11475700    -0.03436214    -0.00480112
    -0.04993928    -0.02338096    -0.01313961
    -0.00994132    -0.01274107    -0.01327782
    -0.00018105    -0.00315969    -0.00262392
     0.00000000     0.00000000     0.00000000
     0.00000000     0.00000000     0.00000000
     0.00000000     0.00000000     0.00000000
     0.00000000     0.00000000     0.00000000
     0.00000000     0.00000000     0.00000000
     0.00000000     0.00000000     0.00000000
     0.00000000     0.00000000     0.00000000
     0.00000000     0.00000000     0.00000000
     0.00000000     0.00000000     0.00000000
     0.00000000     0.00000000     0.00000000
     0.00515511    -0.01923905    -0.00644915
     0.00000000     0.00000000     0.00000000
     0.00000000     0.00000000     0.00000000
     0.00000000     0.00000000     0.00000000
     0.00000000     0.00000000     0.00000000
     0.00000000     0.00000000     0.00000000
     0.00000000     0.00000000     0.00000000
     0.00000000     0.00000000     0.00000000
     0.00000000     0.00000000     0.00000000
     0.00000000     0.00000000     0.00000000
     0.00000000     0.00000000     0.00000000
     0.01471178    -0.05490432     0.01452548
     0.00000000     0.00000000     0.00000000
     0.00000000     0.00000000     0.00000000
     0.00000000     0.00000000     0.00000000
     0.00000000     0.00000000     0.00000000
     0.00000000     0.00000000     0.00000000
     0.00000000     0.00000000     0.00000000
     0.00000000     0.00000000     0.00000000
     0.00000000     0.00000000     0.00000000
     0.00000000     0.00000000     0.00000000
     0.00000000     0.00000000     0.00000000
     0.02332095    -0.08703412     0.04474770
     0.00000000     0.00000000     0.00000000
     0.00000000     0.00000000     0.00000000
     0.00000000     0.00000000     0.00000000
     0.00000000     0.00000000     0.00000000
     0.00000000     0.00000000     0.00000000
     0.00000000     0.00000000     0.00000000
     0.00000000     0.00000000     0.00000000
     0.00000000     0.00000000     0.00000000
     0.00000000     0.00000000     0.00000000
     0.00000000     0.00000000     0.00000000
     0.01794180    -0.06695911     0.06620849
    -0.35226798     0.26941001     0.08304801
    -0.06065891     0.21249585    -0.11179402
     0.32756871     0.11179888    -0.03206749
     0.44056350     0.10283607     0.01923495
     0.42934288     0.07440141     0.05247041
     0.31210908     0.02954195     0.07022684
     0.15936236    -0.02080215     0.08272117
     0.03963213    -0.06713301     0.10168074
    -0.00631030    -0.08508157     0.10951642
    -0.00250303    -0.06219258     0.08107928
     0.00187207    -0.01462292     0.01738803
     0.02041008     0.01491883    -0.02880820
    -0.03218858     0.05713091     0.04343827
    -0.08189708     0.03331782     0.04626784
    -0.08899353     0.01398323     0.03142029
    -0.11699233    -0.00422008     0.02265801
    -0.11525182    -0.01754053     0.01113538
    -0.09912714    -0.02223167     0.00370808
    -0.06325764    -0.02018149    -0.00258948
    -0.02693194    -0.01502193    -0.00642131
    -0.00473965    -0.00854205    -0.00604122
    -0.00030184    -0.00147913    -0.00110103
     0.05119918     0.05498163    -0.06556808
    -0.10435630     0.17415162     0.09842863
    -0.21410792     0.09726592     0.08143170
    -0.23836630     0.04465276     0.05708773
    -0.30286128    -0.01133088     0.03816700
    -0.29754341    -0.05145300     0.01688080
    -0.25502303    -0.06927122     0.00211238
    -0.16449944    -0.06651507    -0.00919916
    -0.07151335    -0.05128802    -0.01495495
    -0.01323887    -0.02833475    -0.01219938
    -0.00028849    -0.00497764    -0.00213492
    -0.05997642     0.17422903     0.04801775
    -0.12813530     0.24103918     0.06155928
    -0.16307157     0.09845848     0.02156335
    -0.21366585     0.01562513     0.01160108
    -0.24450663    -0.05576859     0.00293819
    -0.24841924    -0.11155919    -0.00505704
    -0.21894801    -0.13841284    -0.00996533
    -0.15744210    -0.13777436    -0.01249831
    -0.08152221    -0.10657269    -0.01109722
    -0.02091283    -0.05428111    -0.00635816
    -0.00016885    -0.01124630     0.00062106
    -0.15756852     0.31300357     0.02527344
    -0.02985584     0.40415055    -0.07266298
     0.09982607     0.17972823    -0.02298359
     0.09302254     0.06228977    -0.00589872
     0.00614100    -0.05216471     0.00851887
    -0.06902986    -0.14116325     0.01943455
    -0.11205017    -0.19076922     0.02604659
    -0.10444005    -0.19520562     0.02769186
    -0.06009679    -0.16276824     0.02501842
    -0.01165407    -0.09202611     0.01553670
     0.00177737    -0.01911910     0.00609735
    -0.41520730     0.40074225     0.14184359
    -0.04922558     0.40117466    -0.13666920
     0.43207930     0.18599367    -0.03291174
     0.57240516     0.13111314     0.01406702
     0.54100734     0.05250690     0.04886476
     0.37141852    -0.02961235     0.06645398
     0.16615946    -0.10721867     0.07744013
     0.01884507    -0.16534828     0.08795901
    -0.02143460    -0.17533090     0.08856820
    -0.00269890    -0.11883919     0.06232119
     0.00201650    -0.02061804     0.01394011
    -0.18281330     0.15093866     0.05499796
    -0.02444455     0.13582501    -0.06216866
     0.18492093     0.06694168    -0.01429680
     0.24652572     0.05393939     0.01021039
     0.23746296     0.03109105     0.02700234
     0.16685768     0.00229085     0.03517378
     0.07841861    -0.02785665     0.04054530
     0.01274663    -0.05375908     0.04763374
    -0.00759030    -0.06109204     0.04933489
    -0.00161855    -0.04281945     0.03546369
     0.00021331    -0.00755213     0.00651178
    -0.06684181     0.01684525     0.01306527
    -0.17664993     0.04687168     0.00567189
    -0.23104749     0.06157387     0.00413241
    -0.24285294     0.06501047     0.00075235
    -0.21376131     0.05732673    -0.00061832
    -0.13575795     0.03657964    -0.00250200
    -0.05071419     0.01374166    -0.00187554
    -0.00037527     0.01609609     0.00070226
     0.00000000     0.00000000     0.00000000
     0.00000000     0.00000000     0.00000000
     0.00000000     0.00000000     0.00000000
     0.00000000     0.00000000     0.00000000
     0.00000000     0.00000000     0.00000000
     0.00000000     0.00000000     0.00000000
     0.00000000     0.00000000     0.00000000
     0.00000000     0.00000000     0.00000000
     0.03873581     0.14456240     0.00886479
     0.00000000     0.00000000     0.00000000
     0.00000000     0.00000000     0.00000000
     0.00000000     0.00000000     0.00000000
     0.00000000     0.00000000     0.00000000
     0.00000000     0.00000000     0.00000000
     0.00000000     0.00000000     0.00000000
     0.00000000     0.00000000     0.00000000
     0.00000000     0.00000000     0.00000000
     0.07569047     0.28248269     0.01825301
     0.00000000     0.00000000     0.00000000
     0.00000000     0.00000000     0.00000000
     0.00000000     0.00000000     0.00000000
     0.00000000     0.00000000     0.00000000
     0.00000000     0.00000000     0.00000000
     0.00000000     0.00000000     0.00000000
     0.00000000     0.00000000     0.00000000
     0.00000000     0.00000000     0.00000000
     0.05966103     0.22266114     0.02163193
     0.00000000     0.00000000     0.00000000
     0.00000000     0.00000000     0.00000000
     0.00000000     0.00000000     0.00000000
     0.00000000     0.00000000     0.00000000
     0.00000000     0.00000000     0.00000000
     0.00000000     0.00000000     0.00000000
     0.00000000     0.00000000     0.00000000
     0.00000000     0.00000000     0.00000000
     0.01909137     0.07124909     0.01795479
    -0.13813720    -0.04102057    -0.01018627
     0.17350916    -0.04727493    -0.00961937
     0.34315542    -0.09214809    -0.00246724
     0.42060583    -0.11252040     0.00220628
     0.39186570    -0.10460019     0.00493859
     0.32771854    -0.08733440     0.00587350
     0.21624966    -0.05720148     0.00910065
     0.09591452    -0.02452861     0.01437631
     0.01189142     0.00361747     0.00387844
     0.08982948    -0.03358592     0.01578071
    -0.05652238     0.00645363     0.04591380
    -0.18121416     0.04411035     0.02282424
    -0.24050399     0.06103747     0.01846496
    -0.26392619     0.06863215     0.01128357
    -0.22968682     0.05961025     0.01215650
    -0.15290910     0.03902872     0.01236867
    -0.05434551     0.01278179     0.01172152
    -0.00108074     0.01407529     0.00544265
     0.00000000     0.00000000     0.00000000
     0.00000000     0.00000000     0.00000000
     0.00000000     0.00000000     0.00000000
     0.00000000     0.00000000     0.00000000
     0.00000000     0.00000000     0.00000000
     0.00000000     0.00000000     0.00000000
     0.00000000     0.00000000     0.00000000
     0.00000000     0.00000000     0.00000000
     0.03435917     0.12822888     0.03943026
     0.00000000     0.00000000     0.00000000
     0.00000000     0.00000000     0.00000000
     0.00000000     0.00000000     0.00000000
     0.00000000     0.00000000     0.00000000
     0.00000000     0.00000000     0.00000000
     0.00000000     0.00000000     0.00000000
     0.00000000     0.00000000     0.00000000
     0.00000000     0.00000000     0.00000000
     0.07008719     0.26156847     0.08183135
     0.00000000     0.00000000     0.00000000
     0.00000000     0.00000000     0.00000000
     0.00000000     0.00000000     0.00000000
     0.00000000     0.00000000     0.00000000
     0.00000000     0.00000000     0.00000000
     0.00000000     0.00000000     0.00000000
     0.00000000     0.00000000     0.00000000
     0.00000000     0.00000000     0.00000000
     0.05705336     0.21292729     0.09675152
     0.00000000     0.00000000     0.00000000
     0.00000000     0.00000000     0.00000000
     0.00000000     0.00000000     0.00000000
     0.00000000     0.00000000     0.00000000
     0.00000000     0.00000000     0.00000000
     0.00000000     0.00000000     0.00000000
     0.00000000     0.00000000     0.00000000
     0.00000000     0.00000000     0.00000000
     0.02024945     0.07557115     0.08063742
    -0.16611392    -0.05227379    -0.01398433
     0.17341835    -0.04709174     0.00055777
     0.36970732    -0.09566511     0.02136707
     0.43398914    -0.11220702     0.02269764
     0.41304418    -0.10696197     0.01957247
     0.32270399    -0.08296303     0.01769708
     0.21906940    -0.05289780     0.03007426
     0.07921607    -0.01034307     0.05922050
     0.00973883     0.00620017     0.01688019
     0.10681606    -0.04660145    -0.00337354
    -0.03215543    -0.02544554     0.09629505
    -0.18348809     0.02553088     0.06611049
    -0.27564556     0.06117494     0.03589426
    -0.30983504     0.07153564     0.03248462
    -0.28466709     0.06910663     0.02113802
    -0.18673731     0.03905079     0.03197257
    -0.07865050     0.01445291     0.01999865
    -0.00496620     0.01031832     0.00798040
     0.00000000     0.00000000     0.00000000
     0.00000000     0.00000000     0.00000000
     0.00000000     0.00000000     0.00000000
     0.00000000     0.00000000     0.00000000
     0.00000000     0.00000000     0.00000000
     0.00000000     0.00000000     0.00000000
     0.00000000     0.00000000     0.00000000
     0.00000000     0.00000000     0.00000000
     0.02431814     0.09075345     0.05720370
     0.00000000     0.00000000     0.00000000
     0.00000000     0.00000000     0.00000000
     0.00000000     0.00000000     0.00000000
     0.00000000     0.00000000     0.00000000
     0.00000000     0.00000000     0.00000000
     0.00000000     0.00000000     0.00000000
     0.00000000     0.00000000     0.00000000
     0.00000000     0.00000000     0.00000000
     0.05349239     0.19963204     0.12271165
     0.00000000     0.00000000     0.00000000
     0.00000000     0.00000000     0.00000000
     0.00000000     0.00000000     0.00000000
     0.00000000     0.00000000     0.00000000
     0.00000000     0.00000000     0.00000000
     0.00000000     0.00000000     0.00000000
     0.00000000     0.00000000     0.00000000
     0.00000000     0.00000000     0.00000000
     0.04887374     0.18239743     0.14293798
     0.00000000     0.00000000     0.00000000
     0.00000000     0.00000000     0.00000000
     0.00000000     0.00000000     0.00000000
     0.00000000     0.00000000     0.00000000
     0.00000000     0.00000000     0.00000000
     0.00000000     0.00000000     0.00000000
     0.00000000     0.00000000     0.00000000
     0.00000000     0.00000000     0.00000000
     0.02229163     0.08319364     0.12232731
    -0.21611363    -0.07547356    -0.01341658
     0.21457038    -0.05666043     0.00429080
     0.42041462    -0.09757967     0.04362662
     0.49419484    -0.11530361     0.04901946
     0.43249720    -0.10115064     0.04134887
     0.32785727    -0.07346557     0.04010157
     0.17451118    -0.02346528     0.06579482
     0.06986725     0.01770747     0.10504877
     0.00968479     0.01095237     0.02740609
     0.15118266    -0.05239844    -0.08044454
     0.00599226    -0.08694117     0.15760595
    -0.18381528    -0.02223351     0.13038822
    -0.31033332     0.05091129     0.05944960
    -0.38186507     0.07396066     0.05207379
    -0.35288228     0.07604049     0.03445604
    -0.25378966     0.03819937     0.05528009
    -0.09900145     0.01259453     0.02627484
    -0.00801879     0.00502488     0.00760450
     0.00000000     0.00000000     0.00000000
     0.00000000     0.00000000     0.00000000
     0.00000000     0.00000000     0.00000000
     0.00000000     0.00000000     0.00000000
     0.00000000     0.00000000     0.00000000
     0.00000000     0.00000000     0.00000000
     0.00000000     0.00000000     0.00000000
     0.00000000     0.00000000     0.00000000
     0.01125389     0.04200104     0.04858828
     0.00000000     0.00000000     0.00000000
     0.00000000     0.00000000     0.00000000
     0.00000000     0.00000000     0.00000000
     0.00000000     0.00000000     0.00000000
     0.00000000     0.00000000     0.00000000
     0.00000000     0.00000000     0.00000000
     0.00000000     0.00000000     0.00000000
     0.00000000     0.00000000     0.00000000
     0.02891893     0.10792443     0.10050808
     0.00000000     0.00000000     0.00000000
     0.00000000     0.00000000     0.00000000
     0.00000000     0.00000000     0.00000000
     0.00000000     0.00000000     0.00000000
     0.00000000     0.00000000     0.00000000
     0.00000000     0.00000000     0.00000000
     0.00000000     0.00000000     0.00000000
     0.00000000     0.00000000     0.00000000
     0.03104400     0.11585591     0.11251335
     0.00000000     0.00000000     0.00000000
     0.00000000     0.00000000     0.00000000
     0.00000000     0.00000000     0.00000000
     0.00000000     0.00000000     0.00000000
     0.00000000     0.00000000     0.00000000
     0.00000000     0.00000000     0.00000000
     0.00000000     0.00000000     0.00000000
     0.00000000     0.00000000     0.00000000
     0.02006403     0.07488098     0.10416769
    -0.23613452    -0.07955008     0.03622878
     0.31264734    -0.07897077     0.00865094
     0.53002652    -0.10332147     0.07189099
     0.53806166    -0.10863448     0.06572484
     0.44960014    -0.08518852     0.06474385
     0.25037202    -0.03217540     0.06411486
     0.09756255     0.02678181     0.09783741
     0.00640683     0.06261424     0.12044038
     0.00223049     0.01612567     0.02701019
     0.21216664    -0.06642121    -0.12280611
     0.00419604    -0.12982418     0.16891399
    -0.13572941    -0.10913702     0.18886185
    -0.32106251     0.03725565     0.06404598
    -0.39109835     0.05549958     0.06412792
    -0.41766721     0.08397609     0.03674865
    -0.28450096     0.02866794     0.06224978
    -0.13319189     0.01318292     0.02953445
    -0.01335851     0.00145631     0.00543233
     0.00000000     0.00000000     0.00000000
     0.00000000     0.00000000     0.00000000
     0.00000000     0.00000000     0.00000000
     0.00000000     0.00000000     0.00000000
     0.00000000     0.00000000     0.00000000
     0.00000000     0.00000000     0.00000000
     0.00000000     0.00000000     0.00000000
     0.00000000     0.00000000     0.00000000
     0.00080839     0.00301794     0.02322338
     0.00000000     0.00000000     0.00000000
     0.00000000     0.00000000     0.00000000
     0.00000000     0.00000000     0.00000000
     0.00000000     0.00000000     0.00000000
     0.00000000     0.00000000     0.00000000
     0.00000000     0.00000000     0.00000000
     0.00000000     0.00000000     0.00000000
     0.00000000     0.00000000     0.00000000
     0.00573852     0.02141783     0.04022502
     0.00000000     0.00000000     0.00000000
     0.00000000     0.00000000     0.00000000
     0.00000000     0.00000000     0.00000000
     0.00000000     0.00000000     0.00000000
     0.00000000     0.00000000     0.00000000
     0.00000000     0.00000000     0.00000000
     0.00000000     0.00000000     0.00000000
     0.00000000     0.00000000     0.00000000
     0.01100330     0.04106508     0.04017121
     0.00000000     0.00000000     0.00000000
     0.00000000     0.00000000     0.00000000
     0.00000000     0.00000000     0.00000000
     0.00000000     0.00000000     0.00000000
     0.00000000     0.00000000     0.00000000
     0.00000000     0.00000000     0.00000000
     0.00000000     0.00000000     0.00000000
     0.00000000     0.00000000     0.00000000
     0.01116308     0.04166114     0.04523895
    -0.13469816    -0.04783228     0.07104192
     0.53087521    -0.11979473     0.02819077
     0.50850849    -0.08211518     0.07159421
     0.54764954    -0.09853686     0.06291358
     0.30707048    -0.02822930     0.07087725
     0.12011732     0.01633042     0.06346838
    -0.05693928     0.08691231     0.09423563
    -0.02728762     0.07618484     0.09125311
    -0.00071847     0.01364865     0.01630132
     0.11276308    -0.03010347    -0.06576549
    -0.00234818    -0.08878947     0.07500329
    -0.07619460    -0.09299308     0.09418568
    -0.17715568     0.01389028     0.02819289
    -0.21570052     0.01911085     0.03204362
    -0.23374878     0.04443166     0.01540216
    -0.15880269     0.00870477     0.02834181
    -0.07610689     0.00581215     0.01237472
    -0.01032648     0.00085515     0.00193140
     0.30786031    -0.08526810    -0.21396581
    -0.03240407    -0.26402293     0.13833582
    -0.23101559    -0.26861757     0.17262022
    -0.44769652     0.03278467     0.04712700
    -0.55219941     0.04338737     0.05646712
    -0.58133460     0.11908734     0.02197633
    -0.40605548     0.02327115     0.04690212
    -0.18607283     0.01717086     0.01856632
    -0.01855088     0.00186964     0.00407661
    -0.00263217    -0.04577942    -0.01382674
    -0.16050546    -0.34981457     0.06187449
    -0.29753796    -0.15366630     0.04024852
    -0.31095684     0.03425017     0.00801931
    -0.42045453     0.10870287     0.00332877
    -0.39118276     0.13934915    -0.00382308
    -0.32785573     0.08646020     0.00393124
    -0.11033051     0.03796468     0.00124611
    -0.00886989     0.00506494     0.00397162
    -0.21569860    -0.20115917     0.05166580
    -0.04877820    -0.22127312    -0.03133882
     0.14362443    -0.12625416    -0.01039632
     0.04392566     0.02290241     0.00614255
    -0.09971877     0.12148274     0.01555856
    -0.22864632     0.16382847     0.01670390
    -0.21501566     0.15391602     0.01725943
    -0.10309163     0.09518731     0.01299704
    -0.00899605     0.01413968     0.00518541
    -0.18424200    -0.14884244     0.08171535
     0.69837555    -0.13965583     0.03120307
     0.63997774    -0.11486218     0.03599355
     0.69261888    -0.07160908     0.06019602
     0.33991247     0.01760664     0.05696396
     0.10039498     0.09032285     0.06008712
    -0.12116543     0.17232745     0.07387777
    -0.04587334     0.13663405     0.06641456
    -0.00208776     0.01990282     0.01228635
    -0.06503515    -0.03671517     0.03492484
     0.31211072    -0.05875100     0.02005703
     0.27383422    -0.04081063     0.02780547
     0.30181793    -0.04171178     0.03219232
     0.15501126    -0.00313204     0.03211340
     0.05651993     0.02267286     0.03122872
    -0.04261098     0.06175355     0.04207214
    -0.01505924     0.05019750     0.03863776
    -0.00107556     0.00830844     0.00680546
     0.00000000     0.00000000     0.00000000
     0.00000000     0.00000000     0.00000000
     0.00000000     0.00000000     0.00000000
     0.00000000     0.00000000     0.00000000
     0.00000000     0.00000000     0.00000000
     0.00000000     0.00000000     0.00000000
     0.00000000     0.00000000     0.00000000
     0.00000000     0.00000000     0.00000000
     0.00000000     0.00000000     0.00000000
     0.00000000     0.00000000     0.00000000
     0.00000000     0.00000000     0.00000000
     0.00000000     0.00000000     0.00000000
     0.00000000     0.00000000     0.00000000
     0.00000000     0.00000000     0.00000000
     0.00000000     0.00000000     0.00000000
     0.00000000     0.00000000     0.00000000
     0.00000000     0.00000000     0.00000000
     0.00000000     0.00000000     0.00000000
     0.00000000     0.00000000     0.00000000
     0.00000000     0.00000000     0.00000000
     0.00000000     0.00000000     0.00000000
     0.00000000     0.00000000     0.00000000
     0.00000000     0.00000000     0.00000000
     0.00000000     0.00000000     0.00000000
     0.00000000     0.00000000     0.00000000
     0.00000000     0.00000000     0.00000000
     0.00000000     0.00000000     0.00000000
     0.00000000     0.00000000     0.00000000
     0.00000000     0.00000000     0.00000000
     0.00000000     0.00000000     0.00000000
     0.00000000     0.00000000     0.00000000
     0.00000000     0.00000000     0.00000000
     0.00000000     0.00000000     0.00000000
     0.00000000     0.00000000     0.00000000
     0.00000000     0.00000000     0.00000000
     0.00000000     0.00000000     0.00000000
     0.00000000     0.00000000     0.00000000
     0.00000000     0.00000000     0.00000000
     0.00000000     0.00000000     0.00000000
     0.00000000     0.00000000     0.00000000
     0.00000000     0.00000000     0.00000000
     0.00000000     0.00000000     0.00000000
     0.00000000     0.00000000     0.00000000
     0.00000000     0.00000000     0.00000000
     0.00000000     0.00000000     0.00000000
     0.00000000     0.00000000     0.00000000
     0.00000000     0.00000000     0.00000000
     0.00000000     0.00000000     0.00000000
     0.00000000     0.00000000     0.00000000
     0.00000000     0.00000000     0.00000000
     0.00000000     0.00000000     0.00000000
     0.00000000     0.00000000     0.00000000
     0.00000000     0.00000000     0.00000000
     0.00000000     0.00000000     0.00000000
     0.00000000     0.00000000     0.00000000
     0.00000000     0.00000000     0.00000000
     0.00000000     0.00000000     0.00000000
     0.00000000     0.00000000     0.00000000
     0.00000000     0.00000000     0.00000000
     0.00000000     0.00000000     0.00000000
     0.00000000     0.00000000     0.00000000
     0.00000000     0.00000000     0.00000000
     0.00000000     0.00000000     0.00000000
     0.00000000     0.00000000     0.00000000
     0.00000000     0.00000000     0.00000000
     0.00000000     0.00000000     0.00000000
     0.00000000     0.00000000     0.00000000
     0.00000000     0.00000000     0.00000000
     0.00000000     0.00000000     0.00000000
     0.00000000     0.00000000     0.00000000
     0.00000000     0.00000000     0.00000000
     0.00000000     0.00000000     0.00000000
     0.00000000     0.00000000     0.00000000
     0.00000000     0.00000000     0.00000000
     0.00000000     0.00000000     0.00000000
     0.00000000     0.00000000     0.00000000
     0.00000000     0.00000000     0.00000000
     0.00000000     0.00000000     0.00000000
     0.00000000     0.00000000     0.00000000
     0.00000000     0.00000000     0.00000000
     0.00000000     0.00000000     0.00000000
     0.00000000     0.00000000     0.00000000
     0.00000000     0.00000000     0.00000000
     0.00000000     0.00000000     0.00000000
     0.00000000     0.00000000     0.00000000
     0.00000000     0.00000000     0.00000000
     0.00000000     0.00000000     0.00000000
     0.00000000     0.00000000     0.00000000
     0.00000000     0.00000000     0.00000000
     0.00000000     0.00000000     0.00000000
     0.00000000     0.00000000     0.00000000
     0.00000000     0.00000000     0.00000000
     0.00000000     0.00000000     0.00000000
     0.00000000     0.00000000     0.00000000
     0.00000000     0.00000000     0.00000000
     0.00000000     0.00000000     0.00000000
     0.00000000     0.00000000     0.00000000
     0.00000000     0.00000000     0.00000000
     0.00000000     0.00000000     0.00000000
     0.00000000     0.00000000     0.00000000
     0.00000000     0.00000000     0.00000000
     0.00000000     0.00000000     0.00000000
     0.00000000     0.00000000     0.00000000
     0.00000000     0.00000000     0.00000000
     0.00000000     0.00000000     0.00000000
     0.00000000     0.00000000     0.00000000
     0.00000000     0.00000000     0.00000000
     0.00000000     0.00000000     0.00000000
     0.00000000     0.00000000     0.00000000
     0.00000000     0.00000000     0.00000000
     0.00000000     0.00000000     0.00000000
     0.00000000     0.00000000     0.00000000
     0.00000000     0.00000000     0.00000000
     0.00000000     0.00000000     0.00000000
     0.00000000     0.00000000     0.00000000
     0.00000000     0.00000000     0.00000000
     0.00000000     0.00000000     0.00000000
     0.00000000     0.00000000     0.00000000
     0.00000000     0.00000000     0.00000000
     0.00000000     0.00000000     0.00000000
     0.00000000     0.00000000     0.00000000
     0.00000000     0.00000000     0.00000000
     0.00000000     0.00000000     0.00000000
     0.00000000     0.00000000     0.00000000
     0.00000000     0.00000000     0.00000000
     0.00000000     0.00000000     0.00000000
     0.00000000     0.00000000     0.00000000
     0.00000000     0.00000000     0.00000000
     0.00000000     0.00000000     0.00000000
     0.00000000     0.00000000     0.00000000
     0.00000000     0.00000000     0.00000000
     0.00000000     0.00000000     0.00000000
     0.00000000     0.00000000     0.00000000
     0.00000000     0.00000000     0.00000000
     0.00000000     0.00000000     0.00000000
     0.00000000     0.00000000     0.00000000
     0.00000000     0.00000000     0.00000000
     0.00000000     0.00000000     0.00000000
     0.00000000     0.00000000     0.00000000
     0.00000000     0.00000000     0.00000000
     0.00000000     0.00000000     0.00000000
     0.00000000     0.00000000     0.00000000
     0.00000000     0.00000000     0.00000000
     0.00000000     0.00000000     0.00000000
     0.00000000     0.00000000     0.00000000
     0.00000000     0.00000000     0.00000000
     0.00000000     0.00000000     0.00000000
     0.00000000     0.00000000     0.00000000
     0.00000000     0.00000000     0.00000000
     0.00000000     0.00000000     0.00000000
     0.00000000     0.00000000     0.00000000
     0.00000000     0.00000000     0.00000000
     0.00000000     0.00000000     0.00000000
     0.00000000     0.00000000     0.00000000
     0.00000000     0.00000000     0.00000000
     0.00000000     0.00000000     0.00000000
     0.00000000     0.00000000     0.00000000
     0.00000000     0.00000000     0.00000000
     0.00000000     0.00000000     0.00000000
     0.00000000     0.00000000     0.00000000
     0.00000000     0.00000000     0.00000000
     0.00000000     0.00000000     0.00000000
     0.00000000     0.00000000     0.00000000
     0.00000000     0.00000000     0.00000000
     0.00000000     0.00000000     0.00000000
     0.00000000     0.00000000     0.00000000
     0.00000000     0.00000000     0.00000000
     0.00000000     0.00000000     0.00000000
     0.00000000     0.00000000     0.00000000
     0.00000000     0.00000000     0.00000000
     0.00000000     0.00000000     0.00000000
     0.00000000     0.00000000     0.00000000
     0.00000000     0.00000000     0.00000000
     0.00000000     0.00000000     0.00000000
     0.00000000     0.00000000     0.00000000
     0.00000000     0.00000000     0.00000000
     0.00000000     0.00000000     0.00000000
     0.00000000     0.00000000     0.00000000
     0.00000000     0.00000000     0.00000000
     0.00000000     0.00000000     0.00000000
     0.00000000     0.00000000     0.00000000
     0.00000000     0.00000000     0.00000000
     0.00000000     0.00000000     0.00000000
     0.00000000     0.00000000     0.00000000
     0.00000000     0.00000000     0.00000000
     0.00000000     0.00000000     0.00000000
     0.00000000     0.00000000     0.00000000
     0.00000000     0.00000000     0.00000000
     0.00000000     0.00000000     0.00000000
     0.00000000     0.00000000     0.00000000
     0.00000000     0.00000000     0.00000000
     0.00000000     0.00000000     0.00000000
     0.00000000     0.00000000     0.00000000
     0.00000000     0.00000000     0.00000000
     0.00000000     0.00000000     0.00000000
     0.00000000     0.00000000     0.00000000
     0.00000000     0.00000000     0.00000000
     0.00000000     0.00000000     0.00000000
     0.00000000     0.00000000     0.00000000
     0.00000000     0.00000000     0.00000000
     0.00000000     0.00000000     0.00000000
     0.00000000     0.00000000     0.00000000
     0.00000000     0.00000000     0.00000000
     0.00000000     0.00000000     0.00000000
     0.00000000     0.00000000     0.00000000
     0.00000000     0.00000000     0.00000000
     0.00000000     0.00000000     0.00000000
     0.00000000     0.00000000     0.00000000
     0.00000000     0.00000000     0.00000000
     0.00000000     0.00000000     0.00000000
     0.00000000     0.00000000     0.00000000
     0.00000000     0.00000000     0.00000000
     0.00000000     0.00000000     0.00000000
     0.00000000     0.00000000     0.00000000
     0.00000000     0.00000000     0.00000000
     0.00000000     0.00000000     0.00000000
     0.00000000     0.00000000     0.00000000
     0.00000000     0.00000000     0.00000000
     0.00000000     0.00000000     0.00000000
     0.00000000     0.00000000     0.00000000
     0.00000000     0.00000000     0.00000000
     0.00000000     0.00000000     0.00000000
     0.00000000     0.00000000     0.00000000
     0.00000000     0.00000000     0.00000000
     0.00000000     0.00000000     0.00000000
     0.00000000     0.00000000     0.00000000
     0.00000000     0.00000000     0.00000000
     0.00000000     0.00000000     0.00000000
     0.00000000     0.00000000     0.00000000
     0.00000000     0.00000000     0.00000000
     0.00000000     0.00000000     0.00000000
     0.00000000     0.00000000     0.00000000
     0.00000000     0.00000000     0.00000000
     0.00000000     0.00000000     0.00000000
     0.00000000     0.00000000     0.00000000
     0.00000000     0.00000000     0.00000000
     0.00000000     0.00000000     0.00000000
     0.00000000     0.00000000     0.00000000
     0.00000000     0.00000000     0.00000000
     0.00000000     0.00000000     0.00000000
     0.00000000     0.00000000     0.00000000
     0.00000000     0.00000000     0.00000000
     0.00000000     0.00000000     0.00000000
     0.00000000     0.00000000     0.00000000
     0.00000000     0.00000000     0.00000000
     0.00000000     0.00000000     0.00000000
     0.00000000     0.00000000     0.00000000
     0.00000000     0.00000000     0.00000000
     0.00000000     0.00000000     0.00000000
     0.00000000     0.00000000     0.00000000
     0.00000000     0.00000000     0.00000000
     0.00000000     0.00000000     0.00000000
     0.00000000     0.00000000     0.00000000
     0.00000000     0.00000000     0.00000000
     0.00000000     0.00000000     0.00000000
     0.00000000     0.00000000     0.00000000
     0.00000000     0.00000000     0.00000000
     0.00000000     0.00000000     0.00000000
     0.00000000     0.00000000     0.00000000
     0.00000000     0.00000000     0.00000000
     0.00000000     0.00000000     0.00000000
     0.00000000     0.00000000     0.00000000
     0.00000000     0.00000000     0.00000000
     0.00000000     0.00000000     0.00000000
     0.00000000     0.00000000     0.00000000
     0.00000000     0.00000000     0.00000000
     0.00000000     0.00000000     0.00000000
     0.00000000     0.00000000     0.00000000
     0.00000000     0.00000000     0.00000000
     0.00000000     0.00000000     0.00000000
     0.00000000     0.00000000     0.00000000
     0.00000000     0.00000000     0.00000000
     0.00000000     0.00000000     0.00000000
     0.00000000     0.00000000     0.00000000
     0.00000000     0.00000000     0.00000000
     0.00000000     0.00000000     0.00000000
SCALARS Pressures float
LOOKUP_TABLE default
  2351.16857624
  4683.67391348
  4657.75512552
  4654.41665226
  4648.52721983
  4641.99040699
  4634.66302156
  4652.42385149
  6295.81719398
  4723.02392292
  9380.66577348
  9313.90642521
  9307.83581895
  9295.48857072
  9279.58611771
  9273.96133184
  9295.27702475
  9335.49973440
  4733.90135145
  9389.18796930
  9310.91855666
  9304.31072283
  9290.76728234
  9276.54240677
  9271.84343195
  9279.10652399
  9214.52571630
  4730.03868771
  9384.68219471
  9308.09743428
  9299.18367451
  9287.12436587
  9279.18660009
  9272.84299588
  9277.97784686
  9243.19901109
  4729.04593706
  9384.38041365
  9305.98855865
  9294.30131680
  9285.46650714
  9281.48609555
  9284.03544331
  9312.39758563
  9292.03384733
  4729.05773306
  9385.41197503
  9304.38750017
  9291.04368544
  9283.77649283
  9281.71591735
  9291.29147339
  9335.90715790
  9310.22552001
  4729.53362548
  9386.12581611
  9304.56055021
  9289.89894497
  9283.79114699
  9278.81586909
  9276.19925690
  9281.84411097
  9300.91968119
  4729.33623874
  9387.73252451
  9307.33180285
  9292.08926678
  9283.53416300
  9277.23751295
  9261.53196442
  9245.56752944
  9266.71360993
  4730.29342914
  9390.16169232
  9313.46232945
  9299.01503134
  9288.18221700
  9283.40806973
  9271.46710455
  9261.78080249
  9269.71603703
  4718.31438386
  9380.87406522
  9318.89947122
  9307.22914732
  9299.16602457
  9301.73410630
  9301.39255786
  9300.14037323
  9332.30470133
  2355.82804692
  4685.83672810
  4659.93751323
  4655.43892479
  4652.35524368
  4657.21740627
  4662.81206512
  4667.31705761
  6251.84586589
  2352.00714755
  4685.38582128
  4658.48297852
  4653.52774185
  4647.12816423
  4638.52003145
  4633.93948743
  4650.64355537
  6296.78713703
  4716.09147239
  9376.43907855
  9315.86988775
  9306.17161083
  9292.98374407
  9274.55272327
  9269.49819586
  9290.81051776
  9334.60909152
  4721.03271985
  9380.17785673
  9314.01734756
  9303.15361923
  9289.50140534
  9274.33789106
  9268.79115352
  9274.01271272
  9208.22362685
  4720.61813557
  9379.10253203
  9311.54937273
  9298.80200574
  9287.23913696
  9277.54524347
  9270.59327850
  9271.90298092
  9238.84767044
  4720.91256464
  9379.56831509
  9308.68674231
  9293.98199603
  9285.95734575
  9279.46395934
  9280.57847726
  9308.41205359
  9296.16948426
  4720.81226504
  9380.44208807
  9306.33632553
  9290.24434024
  9283.50320786
  9279.90941209
  9288.58513629
  9332.22503591
  9309.91944641
  4720.08230990
  9380.33897018
  9306.59191647
  9288.88913348
  9282.63595438
  9277.26183321
  9273.77607746
  9279.80511296
  9298.63384038
  4718.87551904
  9381.61400557
  9310.19740465
  9291.33835092
  9282.54404652
  9275.96047820
  9261.69640388
  9242.92965257
  9262.79016829
  4719.04660034
  9383.14331868
  9316.08661643
  9297.88530242
  9287.23982692
  9281.32577473
  9270.66040212
  9255.91611016
  9259.59559071
  4713.10185549
  9378.37176850
  9320.13002205
  9305.78268516
  9297.79583770
  9298.34664679
  9296.55280197
  9291.19969797
  9323.19824839
  2356.41790524
  4687.35519075
  4660.21741143
  4654.90119988
  4651.60327649
  4655.40501404
  4659.18021870
  4660.27834034
  6245.53564008
  2351.34208509
  4684.43254682
  4659.25469422
  4652.28186783
  4644.84521148
  4634.99425626
  4631.95263776
  4640.55634615
  6293.42941221
  4707.21801326
  9370.26978990
  9318.38949975
  9304.04977261
  9289.01118256
  9271.02135569
  9267.74736658
  9284.98413834
  9334.37043333
  4707.70901966
  9371.20184118
  9318.06563959
  9301.91777839
  9287.96253382
  9273.74059895
  9270.74007025
  9279.95028293
  9210.27418351
  4709.01868546
  9372.50428694
  9315.87446293
  9298.43464932
  9287.60259348
  9276.41439983
  9270.85983559
  9271.08508778
  9243.10437202
  4711.39356625
  9374.28253365
  9312.54152104
  9294.35052750
  9286.29374707
  9278.91066563
  9277.94964302
  9300.88318074
  9309.88100111
  4711.71878922
  9374.40724790
  9310.07061714
  9290.73703927
  9283.23447758
  9279.60250288
  9284.89868748
  9322.12795961
  9312.33984888
  4711.07159919
  9373.57791978
  9310.08032039
  9289.09010601
  9280.97034332
  9276.02409269
  9272.65727116
  9278.89109838
  9293.23992229
  4709.63042295
  9373.71969366
  9312.95875090
  9291.44922075
  9280.49540788
  9273.46747164
  9263.06570365
  9239.41814339
  9253.52566838
  4709.59530747
  9374.60157603
  9317.30303714
  9297.15695807
  9284.96438709
  9276.63691899
  9267.77985370
  9243.23061109
  9239.16847861
  4708.09743276
  9373.70708168
  9319.96567979
  9303.57270926
  9294.01164374
  9290.31956944
  9284.24332643
  9272.12403345
  9305.03279555
  2354.57176599
  4686.51168263
  4660.01379815
  4653.44615340
  4649.31908247
  4650.51876697
  4649.73544383
  4646.22784328
  6234.31663132
  2347.51125821
  4682.16164139
  4659.65556818
  4651.69321873
  4643.99151435
  4637.06463474
  4632.80897635
  4636.41154027
  6277.32225418
  4703.76253489
  9367.79797158
  9319.07094666
  9303.27839450
  9288.52463020
  9275.92814472
  9272.05338350
  9286.58554661
  9339.29372883
  4705.66624922
  9370.30932075
  9318.74656352
  9301.65450914
  9289.13209377
  9278.35237691
  9276.67999038
  9297.20857513
  9237.11752701
  4707.04560226
  9371.39758611
  9316.38519591
  9298.88055485
  9288.73676980
  9279.32638878
  9278.39000785
  9285.24172437
  9260.82288003
  4710.00531346
  9372.94617641
  9313.83284664
  9296.04884267
  9287.24980354
  9281.60012680
  9283.31528533
  9299.47818744
  9322.18429041
  4709.51052278
  9372.58959693
  9312.59095180
  9293.36668885
  9284.46710145
  9282.53951216
  9284.81535125
  9314.12605679
  9311.94954300
  4708.57151169
  9371.15000588
  9312.12165403
  9291.63628343
  9281.97774318
  9278.12661082
  9273.19928461
  9277.58458662
  9287.33022296
  4707.36550963
  9370.44821799
  9312.96731070
  9292.98578483
  9280.86942542
  9273.30458847
  9263.77933890
  9240.98913968
  9251.05101097
  4707.49028397
  9370.77241981
  9315.13873425
  9297.02342895
  9283.89439079
  9273.47614869
  9264.70520413
  9236.34932828
  9234.21864784
  4705.18093628
  9369.30472428
  9317.30182017
  9301.12945481
  9290.33409889
  9281.07021581
  9270.36670563
  9249.10368896
  9292.09842265
  2353.62048930
  4684.19853264
  4658.82085861
  4651.58459492
  4646.68648012
  4643.54895197
  4638.69604632
  4629.01393867
  6221.83094215
  2347.09917232
  4681.72993624
  4659.89538857
  4651.32033875
  4644.99991665
  4639.98001261
  4636.07505979
  4639.68225558
  6252.08524259
  4701.76610476
  9365.67458555
  9318.98589757
  9302.65200307
  9290.76204650
  9281.43594443
  9276.34379594
  9290.38650377
  9337.63841367
  4703.66593788
  9367.50006435
  9317.64513075
  9301.57133985
  9291.28563523
  9283.40778723
  9281.83812693
  9302.01908135
  9270.93153095
  4705.60134339
  9368.65823963
  9315.30816193
  9299.76336549
  9290.79899508
  9283.62137806
  9288.18226200
  9301.66357738
  9279.72336078
  4706.96227687
  9368.94620916
  9313.40831651
  9297.69100069
  9289.91952765
  9284.14563136
  9290.67195676
  9312.85533792
  9329.47991443
  4706.09130269
  9368.20481592
  9312.27593809
  9295.63070443
  9287.65284356
  9284.60014807
  9285.69668268
  9309.22572351
  9316.60097805
  4705.69185203
  9367.23044705
  9311.65963830
  9294.21652631
  9285.42966320
  9281.46592973
  9273.50306600
  9274.96627569
  9294.11641708
  4704.77492383
  9366.39551577
  9312.00668745
  9294.32153343
  9284.21264683
  9276.73192118
  9262.73892069
  9244.79339349
  9273.40905142
  4704.23651759
  9366.03824944
  9313.13491694
  9296.06569088
  9284.75024915
  9274.54529077
  9260.27763206
  9231.52454734
  9258.74415493
  4703.00958680
  9364.82295002
  9314.68609615
  9298.05677609
  9287.89908646
  9275.52947278
  9259.44957718
  9226.85857856
  9287.44827771
  2353.58750478
  4682.31120065
  4657.51939012
  4649.55948605
  4644.94062655
  4638.37421282
  4630.04539695
  4611.88027883
  6203.31217639
  1566.00951969
  3120.60263617
  3106.51879847
  3100.78609618
  3097.31874596
  3093.84640823
  3091.48099273
  3092.52724244
  4678.97079086
  2350.64207220
  4682.04021207
  4659.38777551
  4651.16967982
  4646.00914015
  4641.76949098
  4639.52024908
  4645.61309011
  6221.14119180
  2351.62666420
  4682.80871270
  4658.40613759
  4650.83635128
  4645.99831110
  4642.72932160
  4643.02876925
  4650.30133843
  6190.83655834
  2351.97563487
  4683.00350580
  4657.29677336
  4650.10729147
  4645.98786473
  4642.75744569
  4646.48030919
  4654.59288329
  6193.00891717
  2351.96093356
  4682.90445813
  4656.42452793
  4649.16134788
  4645.73937899
  4642.73525862
  4646.74555884
  4662.04707044
  6222.69875272
  2352.01617061
  4682.28636634
  4655.61302799
  4648.27855733
  4644.80525824
  4642.61168538
  4642.84061931
  4652.95616937
  6216.24613003
  2352.87644237
  4682.38229883
  4655.30666329
  4647.73068790
  4643.68188246
  4641.50951295
  4637.28460354
  4637.38972998
  6202.46948882
  2352.83243749
  4681.91924813
  4655.46662443
  4647.49125182
  4643.06166427
  4639.55308263
  4631.09486377
  4623.07650936
  6195.26712735
  2352.44165532
  4681.80493314
  4655.94376812
  4647.82143325
  4642.67152703
  4638.08432120
  4628.42543179
  4613.38012123
  6185.27521801
  2351.98141973
  4681.29057153
  4656.66966933
  4648.33191904
  4643.36380589
  4637.29923278
  4627.46967494
  4608.74941170
  6191.11567052
  1568.04653291
  3120.25003191
  3104.61823312
  3098.98574273
  3096.19676566
  3091.39695589
  3084.41414444
  3069.96582921
  4644.27773762
  9218.14697254
  9249.84926367
  9202.06903458
  9192.99317551
  9207.67945099
  9192.86939621
  9208.47134590
  9200.58910942
  9210.93102551
  9203.16581163
  8996.59464854
  9356.19411409
  9286.44515967
  9187.70724964
  9189.21397686
  9190.49268818
  9192.53535938
  9197.24708652
  9200.54352832
  9203.99394035
  9202.00857763
  9186.86208543
  9335.99824095
  9276.03884792
  9165.28884792
  9158.92764187
  9159.57687855
  9167.72731686
  9180.51133347
  9192.66763330
  9198.38841581
  9201.69287229
  9206.22308159
  9314.16527510
  9258.50927591
  9149.32647943
  9127.95052147
  9131.94255066
  9154.66995049
  9178.47356796
  9196.95712042
  9205.20567369
  9209.14248943
  9213.74266434
  9407.34058332
  9330.63678885
  9204.01063681
  9178.38170815
  9168.69564438
  9180.85063744
  9199.61728764
  9212.75247192
  9220.19463549
  9218.71124039
  9203.14701176
  9508.30104637
  9373.29166603
  9266.60054588
  9233.28287888
  9219.35401917
  9195.61468506
  9217.28727913
  9216.42802238
  9229.69790001
  9221.67190285
  9014.12533569
  9348.57949412
  9243.18152618
  9201.53202152
  9190.19624138
  9204.68615055
  9192.59512329
  9207.20932770
  9200.25721741
  9209.76986098
  9202.56729580
  9002.34251407
  9348.42585319
  9280.94835854
  9186.63618660
  9187.32786942
  9189.07933569
  9191.52819443
  9196.64639807
  9199.88673782
  9203.30209786
  9201.40924782
  9184.87117077
  9332.07616436
  9271.92018223
  9161.85431051
  9156.95641518
  9158.47649050
  9167.48359966
  9180.61597252
  9192.42622662
  9198.05944687
  9201.18534702
  9206.30088210
  9308.24242544
  9254.91541791
  9144.50477815
  9126.45199680
  9132.99400949
  9155.52539825
  9179.01858521
  9196.55083752
  9204.48925984
  9208.07859266
  9213.26343107
  9403.18798828
  9328.04175591
  9200.71641040
  9175.98661137
  9168.02139282
  9180.32586479
  9199.08601904
  9211.44373572
  9218.67517059
  9217.04348402
  9200.46487570
  9505.77124214
  9371.37784958
  9264.39153385
  9228.52256203
  9213.53522682
  9194.10686684
  9215.28334427
  9215.12199140
  9227.65638051
  9220.04927693
  9019.60482597
  9317.62080967
  9226.62811506
  9197.29320908
  9184.88672256
  9199.42731571
  9192.22344303
  9204.51571178
  9199.43973351
  9207.15688348
  9201.26656164
  9025.04308489
  9330.59132999
  9265.04555863
  9182.11949062
  9182.30388880
  9185.84317970
  9189.72309542
  9195.41831017
  9198.82275474
  9201.89758281
  9200.27633487
  9181.47595729
  9320.40786183
  9258.13889503
  9154.42933941
  9152.66000271
  9156.79023886
  9167.88619852
  9181.01317167
  9192.15809619
  9197.33115260
  9200.01027087
  9205.00624657
  9298.06255138
  9246.11380482
  9137.29274225
  9125.71048403
  9135.84994984
  9158.63921976
  9179.65107632
  9195.36093855
  9202.34135675
  9205.44603348
  9210.51560783
  9398.44897449
  9324.28690076
  9193.62043619
  9169.45689583
  9166.30757427
  9180.11048746
  9197.00336355
  9208.03100425
  9214.46736932
  9213.24802053
  9193.82615089
  9498.02671957
  9369.16097975
  9254.56829453
  9213.09177399
  9202.23668289
  9191.49218464
  9210.41000926
  9211.45054781
  9222.27604818
  9216.33840775
  9038.72474957
  9288.26250517
  9211.72529042
  9185.62734985
  9182.99991608
  9193.52146339
  9192.46319389
  9200.94785213
  9199.55755663
  9204.35870302
  9200.22808381
  9090.11698787
  9306.16484219
  9240.45649034
  9170.76547623
  9175.91055441
  9182.56562901
  9187.86948967
  9194.17379117
  9198.06290650
  9200.76730809
  9199.29076036
  9183.71216866
  9304.30653477
  9240.16813445
  9145.62655497
  9149.27252865
  9158.06645060
  9169.87742281
  9182.39486015
  9192.24779618
  9197.04486529
  9198.84673987
  9202.55644166
  9301.81991279
  9248.03477979
  9135.64531302
  9129.51122522
  9143.15614176
  9163.34969902
  9181.10920823
  9193.98135364
  9200.34905934
  9202.64474905
  9206.53621364
  9402.88406885
  9324.63482618
  9182.83746266
  9161.50279188
  9166.30610991
  9179.34641701
  9194.01070487
  9203.47574598
  9209.83380783
  9209.24283803
  9194.00872946
  9486.67420244
  9364.34867144
  9229.73380661
  9193.70699787
  9190.82304287
  9188.47249615
  9203.19298339
  9206.91612065
  9215.88331437
  9212.53622079
  9102.75056553
  9271.13573915
  9191.97285759
  9171.08328533
  9178.54295003
  9187.61282539
  9190.79939985
  9197.50413966
  9199.47858405
  9202.29303879
  9199.41755317
  9140.43786964
  9294.02530518
  9210.77398038
  9157.43699437
  9170.33919245
  9178.29550362
  9185.24394166
  9192.27030289
  9197.05492872
  9199.77403665
  9198.97535452
  9186.21342568
  9315.28735673
  9227.51647478
  9138.36779410
  9148.56400406
  9158.86920941
  9171.44007015
  9183.46036994
  9192.00393242
  9196.80091655
  9198.90982613
  9201.09705430
  9342.64384437
  9256.66195774
  9132.62345076
  9136.46974301
  9149.64903176
  9167.78860557
  9182.66061926
  9193.17817891
  9199.09450117
  9201.59097302
  9203.97540635
  9419.07352865
  9310.97871697
  9163.41865802
  9156.26926178
  9163.36986211
  9178.03886428
  9190.73464635
  9200.23896775
  9206.41089916
  9206.63355536
  9192.75323739
  9466.51921082
  9334.09136486
  9194.53529930
  9174.59161079
  9176.20189768
  9183.69217426
  9196.03232795
  9203.49816912
  9210.97959459
  9209.37166109
  9147.76078896
  9266.17127526
  9177.23757577
  9164.50328064
  9173.46020579
  9185.34450531
  9188.79844761
  9196.19668913
  9198.79619646
  9201.57374203
  9198.94328203
  9142.63755373
  9296.24599367
  9195.27453995
  9152.01689398
  9168.02329171
  9175.48012543
  9183.67406535
  9190.98393416
  9196.39960659
  9199.19836736
  9199.11194004
  9185.07417252
  9334.62327981
  9223.17295420
  9135.92138398
  9148.91776776
  9157.80989289
  9171.65780926
  9183.43675137
  9191.64364493
  9196.44392979
  9199.46889251
  9200.71503580
  9375.45339012
  9258.16040564
  9128.85868311
  9140.38453150
  9150.64021134
  9169.77540660
  9182.84137225
  9192.97097301
  9198.40075117
  9201.76981902
  9203.12540329
  9430.24147534
  9295.81486011
  9150.98107910
  9154.85521686
  9159.39551169
  9177.80477732
  9188.89985961
  9199.45345253
  9204.93321562
  9205.90174808
  9187.35857801
  9452.50201797
  9308.34331322
  9176.55705261
  9164.19052863
  9167.51464093
  9180.82467687
  9193.21929824
  9202.24923217
  9209.12979579
  9207.92104511
  9142.38562974
  8693.51242828
  8646.14747238
  8637.07767487
  8703.16637421
  8752.52236557
  8809.22950363
  8823.03279437
  8545.29302099
  8983.55800772
  8665.68769217
  8614.65797043
  8618.67688370
  8668.13270092
  8732.70196152
  8788.91788292
  8814.97987146
  8801.56945743
  8908.85038900
  8590.23679399
  8536.68085945
  8540.17829263
  8612.45335722
  8696.90854073
  8761.34734535
  8801.51726055
  8819.56223106
  8911.77609158
  8596.27150822
  8472.50566375
  8487.00656068
  8601.17264223
  8699.96185875
  8760.88641071
  8800.78041887
  8820.97650814
  9209.14733982
  8862.55832863
  8606.26146317
  8563.79171562
  8645.41218185
  8725.14589500
  8778.42575359
  8806.09584451
  8793.72059107
  9519.27902794
  9075.18427277
  8757.70484924
  8633.65080261
  8680.28676605
  8731.30359650
  8789.16711426
  8806.73842382
  8526.76673412
  9041.74565983
  8656.56166649
  8632.88478947
  8633.52093124
  8698.81989288
  8753.37197685
  8804.59420967
  8823.21288162
  8594.28641234
  8970.16088295
  8637.31290436
  8604.26573324
  8614.70865297
  8664.12892628
  8729.54579639
  8786.26501989
  8813.65770080
  8802.56556468
  8896.62638235
  8568.45672345
  8519.99317116
  8533.87519830
  8611.65560269
  8693.09213209
  8758.15876055
  8797.58205891
  8816.13405609
  8892.13857365
  8569.96473813
  8463.33845466
  8490.87555641
  8605.49918580
  8699.02924538
  8756.62123084
  8794.57770395
  8813.46794462
  9207.52446008
  8855.14163184
  8602.68468761
  8568.56460190
  8649.10069466
  8725.00082254
  8774.86481357
  8800.98887561
  8793.19947429
  9525.44843149
  9089.20309210
  8743.03213120
  8627.23211288
  8681.07626343
  8732.40780258
  8784.86885643
  8803.88394113
  8580.88645449
  8981.83122015
  8589.86565733
  8616.98287058
  8629.34309769
  8685.64769363
  8751.87345028
  8794.71103477
  8822.63201390
  8702.45168993
  8946.79493809
  8577.61049747
  8581.29962420
  8606.04497194
  8655.23863363
  8723.16995478
  8779.69176161
  8810.91256659
  8808.69120847
  8875.50874126
  8517.82609022
  8486.70011568
  8527.62794518
  8615.14602137
  8687.77139616
  8751.53498781
  8789.85900033
  8804.43218279
  8859.63692248
  8517.65532506
  8452.11551952
  8510.82005000
  8618.37744856
  8698.88497257
  8748.17080140
  8782.34860516
  8798.69841242
  9205.44219565
  8831.58135772
  8591.20404816
  8580.11339092
  8658.39901590
  8724.25547838
  8766.84997451
  8790.19259550
  8781.31805447
  9530.86937284
  9098.14890814
  8705.96091080
  8611.09572601
  8685.50560379
  8731.81734467
  8775.75583339
  8796.21286204
  8659.17292267
  8991.08333302
  8548.12299895
  8612.73070359
  8624.36873627
  8667.83209991
  8741.76494026
  8785.84401226
  8820.16271830
  8655.10029889
  8934.79513800
  8522.86572802
  8559.13575041
  8594.55411577
  8647.49483109
  8717.34410763
  8772.50472224
  8807.89724386
  8790.48991919
  8852.25237930
  8469.82230163
  8473.46458483
  8539.95664549
  8626.42442131
  8691.34694624
  8750.01368892
  8785.96032768
  8802.93069685
  8850.67721534
  8490.97929955
  8465.30036116
  8545.02424002
  8636.72859049
  8703.41579723
  8746.32621717
  8775.87183672
  8792.15286267
  9197.44746113
  8790.33537388
  8568.39258718
  8592.11699247
  8666.43274784
  8722.38329911
  8760.17338061
  8781.32301461
  8765.65533994
  9519.53830719
  9040.74829483
  8647.57282448
  8609.35930061
  8685.09959507
  8727.70562124
  8768.55627251
  8787.19124173
  8626.98680875
  8981.76112556
  8518.30831504
  8580.64783025
  8602.08172405
  8652.83721149
  8726.47276789
  8776.30078655
  8814.45499704
  8662.89387604
  8916.65598881
  8489.99355519
  8535.84556758
  8582.66839260
  8642.80604500
  8713.48388222
  8767.65549067
  8804.93333893
  8789.83977996
  8849.44024825
  8447.65443456
  8479.91794014
  8559.94590926
  8636.57310420
  8700.64684135
  8755.88068855
  8787.23049632
  8799.14652593
  8882.73430127
  8497.39019746
  8485.15131664
  8570.65088677
  8649.61848336
  8708.99916750
  8752.00989354
  8777.43866775
  8791.66602726
  9185.35456473
  8731.56270820
  8536.10541534
  8597.84144978
  8666.13986616
  8720.61842918
  8756.60570370
  8777.91160111
  8738.15171992
  9452.57017136
  8901.97509527
  8570.70077276
  8611.01788339
  8673.41409549
  8724.03720951
  8761.94280264
  8779.99517854
  8574.47875331
  8935.47847462
  8500.49104214
  8550.17788792
  8584.14798331
  8646.83219886
  8718.94096768
  8770.37670243
  8810.45561643
  8777.21073047
  8900.54781961
  8480.53853273
  8522.14538670
  8577.57807529
  8640.97454345
  8712.22982746
  8766.07290322
  8803.56179319
  8812.52046652
  8860.99084473
  8444.63979340
  8483.00145912
  8567.66231394
  8639.73156035
  8704.86685908
  8759.83379912
  8788.61148066
  8788.59014263
  8910.88696110
  8504.47447789
  8489.76170444
  8578.14884138
  8652.70895350
  8710.84005368
  8755.35290456
  8779.45588334
  8790.46377292
  9180.79701817
  8697.89244902
  8518.72584057
  8598.33820829
  8663.42306098
  8720.12546682
  8755.26072165
  8777.68045729
  8714.95051138
  9396.18463898
  8815.52950573
  8529.81830502
  8604.69519442
  8665.77444762
  8722.78585720
  8757.71412843
  8777.00413929
  8578.32355961
     0.00000000
     0.00000000
     0.00000000
     0.00000000
     0.00000000
     0.00000000
     0.00000000
     0.00000000
     0.00000000
     0.00000000
     0.00000000
     0.00000000
     0.00000000
     0.00000000
     0.00000000
     0.00000000
     0.00000000
     0.00000000
     0.00000000
     0.00000000
     0.00000000
     0.00000000
     0.00000000
     0.00000000
     0.00000000
     0.00000000
     0.00000000
     0.00000000
     0.00000000
     0.00000000
     0.00000000
     0.00000000
     0.00000000
     0.00000000
     0.00000000
     0.00000000
     0.00000000
     0.00000000
     0.00000000
     0.00000000
     0.00000000
     0.00000000
     0.00000000
     0.00000000
     0.00000000
     0.00000000
     0.00000000
     0.00000000
     0.00000000
     0.00000000
     0.00000000
     0.00000000
     0.00000000
     0.00000000
     0.00000000
     0.00000000
     0.00000000
     0.00000000
     0.00000000
     0.00000000
     0.00000000
     0.00000000
     0.00000000
     0.00000000
     0.00000000
     0.00000000
     0.00000000
     0.00000000
     0.00000000
     0.00000000
     0.00000000
     0.00000000
     0.00000000
     0.00000000
     0.00000000
     0.00000000
     0.00000000
     0.00000000
     0.00000000
     0.00000000
     0.00000000
     0.00000000
     0.00000000
     0.00000000
     0.00000000
     0.00000000
     0.00000000
     0.00000000
     0.00000000
     0.00000000
     0.00000000
     0.00000000
     0.00000000
     0.00000000
     0.00000000
     0.00000000
     0.00000000
     0.00000000
     0.00000000
     0.00000000
     0.00000000
     0.00000000
     0.00000000
     0.00000000
     0.00000000
     0.00000000
     0.00000000
     0.00000000
     0.00000000
     0.00000000
     0.00000000
     0.00000000
     0.00000000
     0.00000000
     0.00000000
     0.00000000
     0.00000000
     0.00000000
     0.00000000
     0.00000000
     0.00000000
     0.00000000
     0.00000000
     0.00000000
     0.00000000
     0.00000000
     0.00000000
     0.00000000
     0.00000000
     0.00000000
     0.00000000
     0.00000000
     0.00000000
     0.00000000
     0.00000000
     0.00000000
     0.00000000
     0.00000000
     0.00000000
     0.00000000
     0.00000000
     0.00000000
     0.00000000
     0.00000000
     0.00000000
     0.00000000
     0.00000000
     0.00000000
     0.00000000
     0.00000000
     0.00000000
     0.00000000
     0.00000000
     0.00000000
     0.00000000
     0.00000000
     0.00000000
     0.00000000
     0.00000000
     0.00000000
     0.00000000
     0.00000000
     0.00000000
     0.00000000
     0.00000000
     0.00000000
     0.00000000
     0.00000000
     0.00000000
     0.00000000
     0.00000000
     0.00000000
     0.00000000
     0.00000000
     0.00000000
     0.00000000
     0.00000000
     0.00000000
     0.00000000
     0.00000000
     0.00000000
     0.00000000
     0.00000000
     0.00000000
     0.00000000
     0.00000000
     0.00000000
     0.00000000
     0.00000000
     0.00000000
     0.00000000
     0.00000000
     0.00000000
     0.00000000
     0.00000000
     0.00000000
     0.00000000
     0.00000000
     0.00000000
     0.00000000
     0.00000000
     0.00000000
     0.00000000
     0.00000000
     0.00000000
     0.00000000
     0.00000000
     0.00000000
     0.00000000
     0.00000000
     0.00000000
     0.00000000
     0.00000000
     0.00000000
     0.00000000
     0.00000000
     0.00000000
     0.00000000
     0.00000000
     0.00000000
     0.00000000
     0.00000000
     0.00000000
     0.00000000
     0.00000000
     0.00000000
     0.00000000
     0.00000000
     0.00000000
     0.00000000
     0.00000000
     0.00000000
     0.00000000
     0.00000000
     0.00000000
     0.00000000
     0.00000000
     0.00000000
     0.00000000
     0.00000000
     0.00000000
     0.00000000
     0.00000000
     0.00000000
     0.00000000
     0.00000000
     0.00000000
     0.00000000
     0.00000000
     0.00000000
     0.00000000
     0.00000000
     0.00000000
     0.00000000
     0.00000000
     0.00000000
     0.00000000
     0.00000000
     0.00000000
     0.00000000
     0.00000000
     0.00000000
     0.00000000
     0.00000000
     0.00000000
     0.00000000
     0.00000000
     0.00000000
     0.00000000
     0.00000000
     0.00000000
     0.00000000
     0.00000000
     0.00000000
     0.00000000
     0.00000000
VECTORS Displacements float 
     4.69803118    -0.43716908     0.00000000
     4.05696123    -0.51434432     0.00000000
     3.41574815    -0.54937443     0.00000000
     2.76943913    -0.54787282     0.00000000
     2.12177655    -0.50962192     0.00000000
     1.46596553    -0.41700284     0.00000000
     0.80461451    -0.27765550     0.00000000
     0.34448777    -0.05827702     0.00000000
     0.00000000     0.00000000     0.00000000
     4.69494360    -0.36964102    -0.00983064
     3.97943839    -0.43929505     0.00000000
     3.30438049    -0.46350261     0.00000000
     2.62956862    -0.45928761     0.00000000
     1.95355883    -0.41944254     0.00000000
     1.28641392    -0.33277630     0.00000000
     0.64914544    -0.19232450     0.00000000
     0.29668499     0.01158592     0.00000000
     0.12909132     0.03938590     0.00000000
     4.69005215    -0.30456938    -0.01236558
     3.94635621    -0.36505766     0.00000000
     3.23093235    -0.37830106     0.00000000
     2.53099727    -0.36775654     0.00000000
     1.84855553    -0.32894983     0.00000000
     1.20171818    -0.25088957     0.00000000
     0.63031986    -0.12705609     0.00000000
     0.32242591     0.01716863     0.00000000
     0.19149420     0.02021890     0.00000000
     4.68595793    -0.23920463    -0.01469568
     3.92316425    -0.28264823     0.00000000
     3.18454310    -0.28838567     0.00000000
     2.46876801    -0.27585012     0.00000000
     1.78516431    -0.24303935     0.00000000
     1.15523256    -0.18257520     0.00000000
     0.61748835    -0.09455820     0.00000000
     0.32253686    -0.00490810     0.00000000
     0.19908678    -0.00635033     0.00000000
     4.68143594    -0.17443689    -0.01594150
     3.90795360    -0.19559960     0.00000000
     3.15505806    -0.19454885     0.00000000
     2.43021627    -0.18337371     0.00000000
     1.74536576    -0.16092360     0.00000000
     1.12151857    -0.12392882     0.00000000
     0.59229657    -0.07559538     0.00000000
     0.28190102    -0.02680684     0.00000000
     0.14220261    -0.01798099     0.00000000
     4.67683179    -0.10982084    -0.01703061
     3.89656335    -0.10591351     0.00000000
     3.13687771    -0.09836135     0.00000000
     2.40698064    -0.09042751     0.00000000
     1.72094899    -0.08051329     0.00000000
     1.09973693    -0.06921350     0.00000000
     0.57570407    -0.06046796     0.00000000
     0.22774550    -0.01930047     0.00000000
     0.00000000     0.00000000     0.00000000
     4.67214639    -0.04525531    -0.01732414
     3.89061105    -0.01552699     0.00000000
     3.12953293    -0.00171983     0.00000000
     2.39953272     0.00234168     0.00000000
     1.71599422    -0.00161084     0.00000000
     1.10494047    -0.01712194     0.00000000
     0.60966115    -0.05730065     0.00000000
     0.33670782    -0.05230964     0.00000000
     0.18918042    -0.04264140     0.00000000
     4.66759576     0.01935803    -0.01730197
     3.88854648     0.07362053     0.00000000
     3.13394899     0.09339870     0.00000000
     2.40701252     0.09437562     0.00000000
     1.72234976     0.07734533     0.00000000
     1.10869868     0.03319868     0.00000000
     0.61493863    -0.05544775     0.00000000
     0.39821676    -0.09730791     0.00000000
     0.30532819    -0.05691434     0.00000000
     4.66166897     0.08491178    -0.01541652
     3.89385130     0.15899280     0.00000000
     3.15551422     0.18508506     0.00000000
     2.43722145     0.18626530     0.00000000
     1.74489698     0.16055048     0.00000000
     1.10458451     0.09387587     0.00000000
     0.57005053    -0.03593438     0.00000000
     0.37132730    -0.13032537     0.00000000
     0.30917765    -0.07600325     0.00000000
     4.65461870     0.15025111    -0.01229516
     3.90801126     0.23603452     0.00000000
     3.20645121     0.27220318     0.00000000
     2.50684516     0.27895904     0.00000000
     1.80935076     0.25159534     0.00000000
     1.12572259     0.17568172     0.00000000
     0.49655212     0.02876159     0.00000000
     0.26688896    -0.13020967     0.00000000
     0.17800909    -0.06050102     0.00000000
     4.64318732     0.21833299     0.00000000
     3.96938067     0.31345681     0.00000000
     3.29787581     0.35990711     0.00000000
     2.62590049     0.37004571     0.00000000
     1.95232071     0.34594847     0.00000000
     1.27086133     0.26911081     0.00000000
     0.57490382     0.13789480     0.00000000
     0.21216523    -0.05000777     0.00000000
     0.00000000     0.00000000     0.00000000
     4.69787666    -0.43276592     0.16656846
     4.05749040    -0.51036385     0.22138085
     3.41700051    -0.54331090     0.25264298
     2.77172287    -0.54179001     0.26939467
     2.12500928    -0.50354298     0.27430893
     1.47107751    -0.41190801     0.26822236
     0.81123584    -0.27368602     0.25244362
     0.35252816    -0.05807167     0.19388070
     0.00000000     0.00000000     0.00000000
     4.69479735    -0.36829511     0.18459041
     3.98483018    -0.43720694     0.24870045
     3.31242394    -0.46072834     0.28136814
     2.64091348    -0.45619529     0.30028775
     1.96781468    -0.41685678     0.30391702
     1.30251079    -0.33135167     0.29114975
     0.66381296    -0.19438568     0.24854947
     0.29990894     0.00578153     0.16469805
     0.11856133     0.03725317    -0.03413163
     4.69093324    -0.30382263     0.19696269
     3.95281879    -0.36400124     0.27038954
     3.24156819    -0.37729451     0.30653416
     2.54599519    -0.36678938     0.32355970
     1.86603673    -0.32866352     0.32254197
     1.21797225    -0.25179736     0.29896236
     0.63872165    -0.13072750     0.24794765
     0.31769404     0.01376505     0.16016626
     0.17369675     0.02042948    -0.04991562
     4.68683321    -0.23927017     0.20568063
     3.93047756    -0.28232091     0.28545993
     3.19583613    -0.28834943     0.32297770
     2.48442263    -0.27600483     0.33922280
     1.80282351    -0.24360211     0.33465429
     1.17087843    -0.18366097     0.30725281
     0.62445538    -0.09607760     0.25315455
     0.31498797    -0.00452524     0.15943586
     0.17877220    -0.00382044    -0.05587287
     4.68224479    -0.17411664     0.20985781
     3.91435901    -0.19555571     0.29333083
     3.16604826    -0.19481596     0.33133672
     2.44543026    -0.18390622     0.34710109
     1.76266043    -0.16167387     0.34110961
     1.13780413    -0.12447549     0.31351395
     0.60249933    -0.07492670     0.25864319
     0.27870548    -0.02438646     0.16369716
     0.12496921    -0.01445649    -0.04768839
     4.67702200    -0.10960453     0.20951698
     3.90325772    -0.10595490     0.29329560
     3.14735069    -0.09862465     0.33151140
     2.42140749    -0.09092380     0.34675701
     1.73714132    -0.08119847     0.33978619
     1.11511807    -0.06933172     0.31072477
     0.58676107    -0.05897177     0.25854584
     0.23387107    -0.01977292     0.16147912
     0.00000000     0.00000000     0.00000000
     4.67263118    -0.04528952     0.20936050
     3.89670704    -0.01568603     0.29472214
     3.14009496    -0.00195053     0.33328050
     2.41370964     0.00199705     0.34815084
     1.73085815    -0.00197647     0.33915536
     1.11628452    -0.01661821     0.30496046
     0.61089216    -0.05345181     0.24192172
     0.32818691    -0.04919778     0.13754567
     0.17455179    -0.03765111    -0.03889833
     4.66804477     0.01973499     0.20486072
     3.89552863     0.07296342     0.28819583
     3.14453095     0.09300525     0.32702925
     2.42101441     0.09397643     0.34207429
     1.73629438     0.07739388     0.33283701
     1.11747154     0.03499396     0.29710985
     0.61094340    -0.04832452     0.22765770
     0.38134781    -0.09104439     0.12199010
     0.28352014    -0.05112164    -0.05679924
     4.66231792     0.08435081     0.19638984
     3.90029183     0.15731066     0.27418922
     3.16579087     0.18390266     0.31267565
     2.45105986     0.18512420     0.32919129
     1.75956883     0.16030159     0.32418439
     1.11530956     0.09613295     0.29176112
     0.56895269    -0.02634683     0.22235443
     0.35666680    -0.12170470     0.12157402
     0.28823185    -0.07141775    -0.05625713
     4.65444380     0.14922109     0.18502378
     3.91413114     0.23278001     0.25308444
     3.21479177     0.26944930     0.28900664
     2.51834112     0.27573504     0.30885264
     1.82362976     0.24916114     0.31154829
     1.14127194     0.17494495     0.29355374
     0.50793830     0.03621312     0.22785399
     0.26349281    -0.12070401     0.13219891
     0.16586719    -0.05817454    -0.03227175
     4.64370264     0.21422671     0.16806782
     3.97074651     0.30797175     0.22683162
     3.29987964     0.35370750     0.26013998
     2.62908337     0.36354245     0.27825634
     1.95673653     0.33937666     0.28308772
     1.27701207     0.26369811     0.27602511
     0.58349539     0.13439274     0.24515053
     0.22256744    -0.04755371     0.16154677
     0.00000000     0.00000000     0.00000000
     4.69770210    -0.42042262     0.33126816
     4.05927433    -0.49590889     0.43779065
     3.42074815    -0.52582342     0.49863089
     2.77819966    -0.52365988     0.53121488
     2.13479566    -0.48571880     0.54040377
     1.48508421    -0.39696760     0.52710564
     0.83669112    -0.26274361     0.48865184
     0.38342754    -0.05626349     0.37135776
     0.00000000     0.00000000     0.00000000
     4.69511083    -0.36022909     0.36863526
     3.99615200    -0.42575101     0.49215868
     3.33255298    -0.44846424     0.55722145
     2.66935962    -0.44301670     0.59389824
     2.00516022    -0.40520573     0.60068375
     1.34717366    -0.32267982     0.57488757
     0.70767307    -0.19752598     0.49380213
     0.31426244    -0.00752948     0.33980030
     0.09492611     0.03214109    -0.05506056
     4.69258063    -0.29843631     0.39716775
     3.96755392    -0.35496668     0.53653373
     3.26968333    -0.36842502     0.60740750
     2.58656806    -0.35834072     0.64165681
     1.91550750    -0.32264699     0.64066322
     1.26773105    -0.24998607     0.59719390
     0.67293760    -0.13802543     0.50015066
     0.31766179     0.00360068     0.33892980
     0.13328417     0.01885987    -0.08047323
     4.68899909    -0.23501187     0.41718750
     3.94648722    -0.27626640     0.56769445
     3.22737012    -0.28279231     0.64097328
     2.52943238    -0.27137884     0.67427588
     1.85585000    -0.24130623     0.66700426
     1.22153358    -0.18416613     0.61609559
     0.65708561    -0.10035179     0.51383277
     0.30998853    -0.00688077     0.34164583
     0.13169423     0.00016851    -0.08962570
     4.68325219    -0.17226325     0.42877329
     3.93107196    -0.19229067     0.58399145
     3.19836774    -0.19236567     0.65880955
     2.49117401    -0.18243658     0.69117775
     1.81648167    -0.16189094     0.68109015
     1.19053168    -0.12558625     0.62867643
     0.64249950    -0.07523489     0.52423089
     0.28480020    -0.02164643     0.34900883
     0.08692956    -0.00778151    -0.07583979
     4.67804957    -0.10916529     0.42821491
     3.91922550    -0.10578063     0.58546972
     3.17912254    -0.09902383     0.66034385
     2.46597727    -0.09210114     0.69193677
     1.78875124    -0.08345375     0.67992993
     1.16482222    -0.07058763     0.62425938
     0.62485725    -0.05706565     0.52258913
     0.25525014    -0.02208732     0.33393128
     0.00000000     0.00000000     0.00000000
     4.67300709    -0.04614527     0.42884827
     3.91316235    -0.01882878     0.58673735
     3.17222138    -0.00510823     0.66263571
     2.45795488    -0.00153535     0.69376574
     1.77919962    -0.00534096     0.67866367
     1.15561188    -0.01691673     0.61519399
     0.62400004    -0.04467971     0.49575884
     0.31113166    -0.04108412     0.30000429
     0.13706729    -0.02372713    -0.06850182
     4.66931058     0.01631964     0.41737891
     3.91103995     0.06659316     0.57318770
     3.17571176     0.08685846     0.64889610
     2.46372369     0.08821039     0.68051301
     1.78171713     0.07359747     0.66527380
     1.14991649     0.03764481     0.59963334
     0.61076571    -0.03049747     0.46901296
     0.34110946    -0.07158261     0.27370953
     0.22418668    -0.03351246    -0.09769543
     4.66336207     0.07974364     0.39781177
     3.91486214     0.14727179     0.54442446
     3.19370774     0.17455387     0.61929033
     2.49025430     0.17619007     0.65316474
     1.80379450     0.15475124     0.64524031
     1.15136906     0.09916662     0.58612062
     0.57705832    -0.00316797     0.45463799
     0.32485465    -0.09645274     0.26871737
     0.23374934    -0.05700305    -0.09627101
     4.65511514     0.14172472     0.37015581
     3.92667317     0.21973919     0.50156442
     3.23609352     0.25661474     0.57212295
     2.54800284     0.26190459     0.61078323
     1.86238836     0.23767077     0.61573770
     1.18561478     0.16974422     0.58123484
     0.54513019     0.05143109     0.45859073
     0.26004566    -0.09675576     0.28495397
     0.13718028    -0.05298202    -0.05414561
     4.64543503     0.20231375     0.33378634
     3.97454296     0.29163737     0.44742896
     3.30583656     0.33541633     0.51353752
     2.63823231     0.34423862     0.54864599
     1.96934822     0.32024133     0.55839154
     1.29621357     0.24820028     0.54153882
     0.61787088     0.12403232     0.47719979
     0.25842283    -0.04263042     0.31278614
     0.00000000     0.00000000     0.00000000
     4.69776096    -0.40058468     0.48746229
     4.06225151    -0.47048008     0.64325728
     3.42658285    -0.49758785     0.73166051
     2.78818857    -0.49414964     0.77827659
     2.15038283    -0.45723441     0.79076745
     1.50994867    -0.37327301     0.76495735
     0.87683673    -0.24584400     0.69779885
     0.42788373    -0.05205508     0.52497817
     0.00000000     0.00000000     0.00000000
     4.69675938    -0.34548134     0.54531262
     4.01206699    -0.40463378     0.72455761
     3.36314619    -0.42648856     0.82194407
     2.71263038    -0.42014390     0.87469006
     2.06147997    -0.38481952     0.88258317
     1.41824993    -0.30830140     0.84375713
     0.78462965    -0.19562232     0.72866182
     0.35327712    -0.02226059     0.52562555
     0.06912243     0.02406515    -0.05985787
     4.69527632    -0.28704596     0.59123836
     3.98719561    -0.33784172     0.79179375
     3.31367625    -0.35123748     0.89684487
     2.65128926    -0.34215785     0.94893170
     1.99541280    -0.31000106     0.94848337
     1.35563436    -0.24504029     0.88976779
     0.74791133    -0.14493142     0.75486052
     0.34655789    -0.01006941     0.54005064
     0.09031854     0.01569744    -0.08696564
     4.69023427    -0.22859410     0.62582884
     3.96956492    -0.26418841     0.83936289
     3.27845553    -0.27115649     0.94896950
     2.60455079    -0.26151787     1.00060956
     1.94660797    -0.23461059     0.99300849
     1.31666249    -0.18426655     0.92403815
     0.73514938    -0.10692050     0.78199607
     0.33913096    -0.01278209     0.55141638
     0.08428734     0.00277663    -0.09700785
     4.68527709    -0.16913803     0.64361060
     3.95546178    -0.18599061     0.86627391
     3.25231724    -0.18660502     0.97799184
     2.57017548    -0.17836803     1.02893083
     1.91078171    -0.16040312     1.01725854
     1.29042149    -0.12818901     0.94426331
     0.72864702    -0.07899379     0.79675334
     0.32916733    -0.02252648     0.55974231
     0.05445877    -0.00308198    -0.08406122
     4.68001824    -0.10864391     0.64583688
     3.94395943    -0.10532237     0.87103368
     3.23353550    -0.09920805     0.98327880
     2.54507791    -0.09350620     1.03347054
     1.88181842    -0.08634154     1.01939551
     1.26049660    -0.07480501     0.94166907
     0.70304223    -0.05612245     0.79479178
     0.30408322    -0.02538513     0.52544686
     0.00000000     0.00000000     0.00000000
     4.67467215    -0.04820987     0.64417172
     3.93761463    -0.02431978     0.87007249
     3.22701052    -0.01132676     0.98357711
     2.53678945    -0.00793602     1.03374436
     1.86905494    -0.01161698     1.01693270
     1.23986449    -0.02046311     0.93233165
     0.67374607    -0.03444868     0.76699838
     0.31522888    -0.03134023     0.50092536
     0.09194737    -0.00724159    -0.08294028
     4.66973213     0.01112676     0.62700739
     3.93456069     0.05472944     0.84694466
     3.22846542     0.07480254     0.96021942
     2.53990037     0.07682072     1.01097659
     1.86695971     0.06478962     0.99439695
     1.22529556     0.03688725     0.90863706
     0.64225170    -0.00950720     0.73075661
     0.31444007    -0.04696493     0.47179666
     0.14559276    -0.00872489    -0.11053044
     4.66548494     0.06948945     0.59293793
     3.93432669     0.12979295     0.80261516
     3.23885213     0.15676285     0.91324817
     2.55596073     0.15961828     0.96580345
     1.88093734     0.14269689     0.95711618
     1.22415732     0.09940917     0.88038323
     0.61200856     0.02357553     0.70064635
     0.29956700    -0.05895657     0.45505523
     0.15817697    -0.03297538    -0.10724955
     4.65729109     0.12788207     0.54796930
     3.94330402     0.19789200     0.73792316
     3.26754634     0.23357356     0.84311184
     2.59254354     0.23829538     0.89895363
     1.91963650     0.21832206     0.90448478
     1.25564877     0.16134646     0.85527132
     0.61060276     0.06660708     0.68950008
     0.27279365    -0.06417178     0.46515741
     0.10328793    -0.04086995    -0.06231207
     4.64835908     0.18282910     0.49101046
     3.98044075     0.26503980     0.65679117
     3.31512051     0.30567305     0.75318029
     2.65240233     0.31286227     0.80403498
     1.99055860     0.28989517     0.81720287
     1.32882535     0.22335890     0.78863309
     0.66915169     0.10809903     0.68462119
     0.30232441    -0.03811929     0.45772671
     0.00000000     0.00000000     0.00000000
     4.69891725    -0.37291401     0.63070022
     4.06535666    -0.43610518     0.83257623
     3.43389720    -0.45939553     0.94580024
     2.80031670    -0.45445899     1.00470831
     2.17059445    -0.41944619     1.01769188
     1.54096848    -0.34225003     0.97669844
     0.92426055    -0.22319639     0.87416378
     0.47943638    -0.05172068     0.65592227
     0.00000000     0.00000000     0.00000000
     4.69919729    -0.32372017     0.71248570
     4.03379160    -0.37656223     0.94231705
     3.40296908    -0.39550301     1.07021116
     2.76578728    -0.38870705     1.13713177
     2.13128855    -0.35805581     1.14366119
     1.50509451    -0.28475716     1.08893959
     0.89616728    -0.19346158     0.94441735
     0.42697543    -0.04180947     0.71192147
     0.04327106     0.01808419    -0.04652707
     4.69583191    -0.27322228     0.78033385
     4.01633616    -0.31445592     1.03164432
     3.37565535    -0.32623175     1.17122387
     2.73583004    -0.31906204     1.24060580
     2.10125456    -0.29266225     1.24001289
     1.47658192    -0.22908612     1.16809787
     0.87871164    -0.15828226     1.00014227
     0.41727748    -0.03340871     0.75834638
     0.05476749     0.01706756    -0.07015703
     4.69223379    -0.22016563     0.82799714
     4.00288286    -0.24779818     1.09714325
     3.35301794    -0.25337693     1.24326818
     2.70917105    -0.24605673     1.31468606
     2.07343140    -0.22549839     1.30767285
     1.45588981    -0.17475219     1.22385492
     0.87782523    -0.12203681     1.04599961
     0.41395224    -0.02920117     0.78611810
     0.05070177     0.00804610    -0.07999400
     4.68851262    -0.16452196     0.85541036
     3.99168425    -0.17778148     1.13591715
     3.33434283    -0.17731480     1.28621753
     2.68529664    -0.17109467     1.35747101
     2.04919176    -0.15717243     1.34720263
     1.43626990    -0.12543001     1.25474730
     0.88284712    -0.09065023     1.06627229
     0.42010482    -0.02887193     0.79605780
     0.03724739    -0.00483257    -0.07756251
     4.68364554    -0.10827349     0.86170998
     3.98157758    -0.10484146     1.14678938
     3.31835200    -0.09975176     1.29825766
     2.66457000    -0.09388174     1.36965121
     2.02389033    -0.08864535     1.35708023
     1.40762243    -0.07669472     1.25961743
     0.85049956    -0.06448419     1.07076156
     0.39451779    -0.02703697     0.74287713
     0.00000000     0.00000000     0.00000000
     4.67818383    -0.05193268     0.85647215
     3.97484927    -0.03210272     1.14065800
     3.31092900    -0.02141724     1.29306605
     2.65526168    -0.01664381     1.36504164
     2.00934608    -0.01838762     1.35096303
     1.38201441    -0.02637307     1.25045177
     0.80385184    -0.03420666     1.04868802
     0.36123923    -0.01567366     0.75226311
     0.05067392     0.01269484    -0.07637492
     4.67215629     0.00349370     0.83015524
     3.96940594     0.03863811     1.10592019
     3.30719631     0.05537509     1.25750706
     2.64949435     0.06001967     1.32895644
     1.99972375     0.05216044     1.31601618
     1.35830738     0.02726355     1.21709699
     0.75850289     0.00358643     1.00586923
     0.32413101    -0.01516279     0.73243570
     0.07468673     0.00498373    -0.09122307
     4.66679570     0.05650702     0.78313429
     3.96712654     0.10612019     1.04459021
     3.30689774     0.13037664     1.19044605
     2.64924469     0.13430803     1.26199925
     1.99522207     0.12295524     1.25347193
     1.34697575     0.08273660     1.16656351
     0.72265266     0.04310859     0.95477469
     0.30282771    -0.01668320     0.68971484
     0.08145065    -0.01559214    -0.08413384
     4.66154637     0.10717535     0.71568796
     3.96711629     0.16986881     0.95710335
     3.31054294     0.20183511     1.09435018
     2.64940717     0.20610761     1.16512110
     1.99440467     0.19226578     1.16778502
     1.34394342     0.13906409     1.10421214
     0.71451323     0.07988007     0.90525993
     0.29568810    -0.01564381     0.66800037
     0.06534465    -0.02789519    -0.05249554
     4.65303146     0.15603028     0.63494932
     3.98746516     0.22947146     0.85079485
     3.32675589     0.26574088     0.97400972
     2.67000691     0.27121933     1.03883831
     2.01689404     0.25009786     1.05548995
     1.36720950     0.19071206     1.01129485
     0.72863821     0.08915272     0.87304114
     0.35851904    -0.02500932     0.59988410
     0.00000000     0.00000000     0.00000000
     4.70047231    -0.33773244     0.75834012
     4.06834684    -0.39408471     1.00123509
     3.44118625    -0.41247640     1.13594204
     2.81349675    -0.40628607     1.20543696
     2.19044420    -0.37363206     1.21579383
     1.57477150    -0.30459329     1.15636510
     0.97431799    -0.19831153     1.02058721
     0.53230408    -0.05259954     0.76512384
     0.00000000     0.00000000     0.00000000
     4.69870081    -0.29938765     0.86999122
     4.07088905    -0.34465068     1.14454307
     3.44790285    -0.35854370     1.29831508
     2.82463425    -0.35118482     1.37615580
     2.20889533    -0.32153119     1.38038828
     1.60161989    -0.26176393     1.30547380
     1.01593211    -0.17128374     1.13454083
     0.58437653    -0.05242427     0.85931089
     0.00000000     0.00000000     0.00000000
     4.69690884    -0.25625057     0.95879008
     4.07225901    -0.28943219     1.26111270
     3.45138987    -0.29907066     1.42855841
     2.83401960    -0.29090540     1.51353743
     2.22100099    -0.26475954     1.51033503
     1.62379093    -0.21636291     1.42355417
     1.04134116    -0.14090198     1.22227512
     0.62651223    -0.05193831     0.92359121
     0.00000000     0.00000000     0.00000000
     4.69546623    -0.20843304     1.02346437
     4.07068530    -0.23069298     1.34630959
     3.45276979    -0.23471983     1.52604219
     2.83670004    -0.22758471     1.61279747
     2.22905883    -0.20514545     1.60687003
     1.63181895    -0.16918050     1.50803544
     1.06120481    -0.11055548     1.28473889
     0.65175946    -0.04545768     0.96204118
     0.00000000     0.00000000     0.00000000
     4.69280360    -0.15896311     1.06270510
     4.06720875    -0.16804010     1.39994157
     3.44880346    -0.16885711     1.58599058
     2.83511184    -0.16045826     1.67644494
     2.22620225    -0.14615395     1.66399157
     1.63347059    -0.11905460     1.56407975
     1.05099552    -0.08067362     1.31347814
     0.66710042    -0.03667139     0.96925128
     0.00000000     0.00000000     0.00000000
     4.68868793    -0.10757294     1.07658485
     4.06068436    -0.10540808     1.41939529
     3.44082316    -0.09971289     1.60931556
     2.82574542    -0.09460364     1.70000425
     2.21648113    -0.08372268     1.68730960
     1.62086054    -0.07316293     1.58017972
     1.04051659    -0.04610493     1.33122982
     0.63021406    -0.02361815     0.90987250
     0.00000000     0.00000000     0.00000000
     4.68331440    -0.05728080     1.06453355
     4.05130334    -0.04120578     1.40473610
     3.42836845    -0.03266005     1.59454593
     2.80940477    -0.02598903     1.68479557
     2.19880946    -0.02577549     1.67275112
     1.59899741    -0.02249407     1.56515575
     1.01171868    -0.02275579     1.30805163
     0.61700839    -0.00280440     0.95274500
     0.00000000     0.00000000     0.00000000
     4.67683152    -0.00732932     1.02623845
     4.04014560     0.02012952     1.35690432
     3.41062186     0.03477842     1.54064450
     2.78882831     0.03897605     1.63227003
     2.16901990     0.03421480     1.61811703
     1.56900729     0.02185395     1.51763377
     0.96684454     0.00278045     1.25323861
     0.59058517    -0.00096870     0.94118923
     0.00000000     0.00000000     0.00000000
     4.67023641     0.03980050     0.96290048
     4.02645624     0.07924969     1.27504491
     3.39102579     0.09856550     1.45116578
     2.75922048     0.10271809     1.53883263
     2.13545354     0.09110677     1.53083802
     1.52263922     0.06572575     1.43599567
     0.91881070     0.02427072     1.19155691
     0.53470916    -0.00145694     0.88460189
     0.00000000     0.00000000     0.00000000
     4.66482201     0.08302503     0.87395900
     4.01258685     0.13392344     1.16228648
     3.36714678     0.15847358     1.32456437
     2.72786146     0.16203219     1.40797829
     2.09127552     0.14433051     1.40733837
     1.46943720     0.10674442     1.32637522
     0.85155920     0.03898317     1.11072046
     0.47560434    -0.01027683     0.81312811
     0.00000000     0.00000000     0.00000000
     4.66000413     0.12158410     0.76223567
     3.99558499     0.18871179     1.01649075
     3.34093201     0.21779386     1.16359005
     2.68919426     0.22185493     1.23970904
     2.04269996     0.20217782     1.25152312
     1.40478042     0.15097007     1.19025706
     0.77573433     0.06595605     1.01256730
     0.40079939    -0.02007535     0.74520763
     0.00000000     0.00000000     0.00000000
     0.00000000     0.00000000     0.00000000
     0.00000000     0.00000000     0.00000000
     0.00000000     0.00000000     0.00000000
     0.00000000     0.00000000     0.00000000
     0.00000000     0.00000000     0.00000000
     0.00000000     0.00000000     0.00000000
     0.00000000     0.00000000     0.00000000
     0.00000000     0.00000000     0.00000000
     0.00000000     0.00000000     0.00000000
     0.00000000     0.00000000     0.00000000
     0.00000000     0.00000000     0.00000000
     0.09375421    -0.01611020     0.00000000
     0.13964762     0.02569486     0.00000000
     0.14127117     0.00284920     0.00000000
     0.12877739     0.00386588     0.00000000
     0.11245086     0.00310829     0.00000000
     0.09451913     0.00076842     0.00000000
     0.07623162    -0.00269489     0.00000000
     0.05798934    -0.00671255     0.00000000
     0.03994933    -0.01063909     0.00000000
     0.02216625    -0.01417984     0.00000000
     0.00000000     0.00000000     0.00000000
     0.28213521    -0.02395018     0.00000000
     0.28789809     0.02960127     0.00000000
     0.27550831     0.03315631     0.00000000
     0.24130136     0.03647168     0.00000000
     0.20216141     0.03443688     0.00000000
     0.16335141     0.02811457     0.00000000
     0.12584192     0.02020941     0.00000000
     0.08988607     0.01171400     0.00000000
     0.05579146     0.00309596     0.00000000
     0.02438499    -0.00303033     0.00000000
     0.00000000     0.00000000     0.00000000
     0.34261095    -0.05598961     0.00000000
     0.32151802     0.00677205     0.00000000
     0.28681996     0.05781569     0.00000000
     0.24274936     0.06800537     0.00000000
     0.20007757     0.06337107     0.00000000
     0.15932634     0.05525100     0.00000000
     0.12088855     0.04579274     0.00000000
     0.08449826     0.03608736     0.00000000
     0.05015855     0.02664492     0.00000000
     0.01964342     0.01583792     0.00000000
     0.00000000     0.00000000     0.00000000
     0.17401942    -0.03885327     0.00000000
     0.19566518    -0.01788009     0.00000000
     0.14469432     0.05151018     0.00000000
     0.11898940     0.05184113     0.00000000
     0.09757968     0.04940638     0.00000000
     0.07865377     0.04470769     0.00000000
     0.06096435     0.03974567     0.00000000
     0.04393744     0.03476559     0.00000000
     0.02743294     0.02951567     0.00000000
     0.01131305     0.02383335     0.00000000
     0.00000000     0.00000000     0.00000000
     0.00000000     0.00000000     0.00000000
     0.00000000     0.00000000     0.00000000
     0.00000000     0.00000000     0.00000000
     0.00000000     0.00000000     0.00000000
     0.00000000     0.00000000     0.00000000
     0.00000000     0.00000000     0.00000000
     0.00000000     0.00000000     0.00000000
     0.00000000     0.00000000     0.00000000
     0.00000000     0.00000000     0.00000000
     0.00000000     0.00000000     0.00000000
     0.00000000     0.00000000     0.00000000
     0.00000000     0.00000000     0.00000000
     0.00000000     0.00000000     0.00000000
     0.00000000     0.00000000     0.00000000
     0.00000000     0.00000000     0.00000000
     0.00000000     0.00000000     0.00000000
     0.00000000     0.00000000     0.00000000
     0.00000000     0.00000000     0.00000000
     0.00000000     0.00000000     0.00000000
     0.00000000     0.00000000     0.00000000
     0.00000000     0.00000000     0.00000000
     0.00000000     0.00000000     0.00000000
     0.08461281    -0.01596541    -0.00555294
     0.13087259     0.02359481    -0.01117809
     0.13115127     0.00174218     0.00252749
     0.11924732     0.00308013     0.00621022
     0.10426715     0.00254102     0.00725611
     0.08789814     0.00053290     0.00738393
     0.07119868    -0.00256627     0.00722182
     0.05447134    -0.00623376     0.00696844
     0.03784832    -0.00986850     0.00650932
     0.02128209    -0.01333759     0.00531569
     0.00000000     0.00000000     0.00000000
     0.26160735    -0.02327610    -0.02591640
     0.27226927     0.02746613    -0.01348417
     0.25948163     0.03073939     0.00613384
     0.22655020     0.03387499     0.01441244
     0.18969346     0.03208053     0.01695581
     0.15354415     0.02629122     0.01686920
     0.11872656     0.01901666     0.01597117
     0.08528314     0.01112580     0.01472178
     0.05337900     0.00302507     0.01262517
     0.02359705    -0.00283931     0.00838332
     0.00000000     0.00000000     0.00000000
     0.31959887    -0.05334854    -0.02983314
     0.30496178     0.00584310    -0.01168872
     0.27051874     0.05475276     0.00682680
     0.22800385     0.06420292     0.01596129
     0.18774985     0.05975812     0.01820357
     0.14975964     0.05216595     0.01769534
     0.11406968     0.04336715     0.01646645
     0.08020749     0.03432492     0.01501204
     0.04803890     0.02549986     0.01280710
     0.01906163     0.01527065     0.00850176
     0.00000000     0.00000000     0.00000000
     0.15796309    -0.03465826    -0.01074279
     0.18295918    -0.01721129    -0.00731817
     0.13328551     0.04820821     0.00760522
     0.10941866     0.04811003     0.00899486
     0.08992628     0.04600451     0.00840387
     0.07281474     0.04173582     0.00753606
     0.05678573     0.03722053     0.00689241
     0.04124189     0.03266492     0.00645622
     0.02606537     0.02784348     0.00598380
     0.01098796     0.02268147     0.00492594
     0.00000000     0.00000000     0.00000000
     0.00000000     0.00000000     0.00000000
     0.00000000     0.00000000     0.00000000
     0.00000000     0.00000000     0.00000000
     0.00000000     0.00000000     0.00000000
     0.00000000     0.00000000     0.00000000
     0.00000000     0.00000000     0.00000000
     0.00000000     0.00000000     0.00000000
     0.00000000     0.00000000     0.00000000
     0.00000000     0.00000000     0.00000000
     0.00000000     0.00000000     0.00000000
     0.00000000     0.00000000     0.00000000
     0.00000000     0.00000000     0.00000000
     0.00000000     0.00000000     0.00000000
     0.00000000     0.00000000     0.00000000
     0.00000000     0.00000000     0.00000000
     0.00000000     0.00000000     0.00000000
     0.00000000     0.00000000     0.00000000
     0.00000000     0.00000000     0.00000000
     0.00000000     0.00000000     0.00000000
     0.00000000     0.00000000     0.00000000
     0.00000000     0.00000000     0.00000000
     0.00000000     0.00000000     0.00000000
     0.06265628    -0.01715259    -0.00569709
     0.10837624     0.01754196    -0.01755797
     0.10519090    -0.00109300     0.00502358
     0.09515132     0.00101013     0.01037574
     0.08382923     0.00116292     0.01174386
     0.07149672     0.00011313     0.01186205
     0.05876814    -0.00208878     0.01160775
     0.04586563    -0.00492606     0.01127347
     0.03272270    -0.00775871     0.01066086
     0.01920390    -0.01101579     0.00895747
     0.00000000     0.00000000     0.00000000
     0.20542407    -0.02172874    -0.03917797
     0.22824470     0.02070874    -0.02351803
     0.21374283     0.02372984     0.01170214
     0.18461654     0.02646494     0.02482003
     0.15445327     0.02552607     0.02820562
     0.12592833     0.02137924     0.02767437
     0.09866851     0.01584795     0.02614559
     0.07228427     0.00963072     0.02426212
     0.04649995     0.00298999     0.02113926
     0.02137381    -0.00209764     0.01444144
     0.00000000     0.00000000     0.00000000
     0.25546854    -0.04474209    -0.04722495
     0.25778345     0.00372633    -0.02076521
     0.22379089     0.04575220     0.01331358
     0.18599379     0.05311195     0.02783506
     0.15293569     0.04924966     0.03046664
     0.12294349     0.04320397     0.02912608
     0.09498795     0.03626666     0.02701387
     0.06821223     0.02912566     0.02478399
     0.04211146     0.02202803     0.02148146
     0.01754165     0.01345255     0.01467622
     0.00000000     0.00000000     0.00000000
     0.11751952    -0.02410538    -0.01322168
     0.15024937    -0.01472135    -0.01178720
     0.10453204     0.03942576     0.01323975
     0.08554614     0.03878973     0.01474598
     0.07110768     0.03755879     0.01342837
     0.05868790     0.03432590     0.01195705
     0.04672825     0.03091666     0.01098481
     0.03484140     0.02746008     0.01038679
     0.02291039     0.02359901     0.00976897
     0.01041453     0.01970199     0.00828926
     0.00000000     0.00000000     0.00000000
     0.00000000     0.00000000     0.00000000
     0.00000000     0.00000000     0.00000000
     0.00000000     0.00000000     0.00000000
     0.00000000     0.00000000     0.00000000
     0.00000000     0.00000000     0.00000000
     0.00000000     0.00000000     0.00000000
     0.00000000     0.00000000     0.00000000
     0.00000000     0.00000000     0.00000000
     0.00000000     0.00000000     0.00000000
     0.00000000     0.00000000     0.00000000
     0.00000000     0.00000000     0.00000000
     0.00000000     0.00000000     0.00000000
     0.00000000     0.00000000     0.00000000
     0.00000000     0.00000000     0.00000000
     0.00000000     0.00000000     0.00000000
     0.00000000     0.00000000     0.00000000
     0.00000000     0.00000000     0.00000000
     0.00000000     0.00000000     0.00000000
     0.00000000     0.00000000     0.00000000
     0.00000000     0.00000000     0.00000000
     0.00000000     0.00000000     0.00000000
     0.00000000     0.00000000     0.00000000
     0.03128089    -0.01934798     0.00472665
     0.07480636     0.00830980    -0.01639091
     0.06739017    -0.00469855     0.00680458
     0.06120667    -0.00162749     0.01076735
     0.05533327    -0.00015216     0.01176468
     0.04847276    -0.00027028     0.01185317
     0.04104143    -0.00141909     0.01163048
     0.03324168    -0.00314473     0.01135230
     0.02521504    -0.00511671     0.01101261
     0.01590408    -0.00764425     0.00986670
     0.00000000     0.00000000     0.00000000
     0.12351234    -0.02117426    -0.02867402
     0.15989441     0.00982332    -0.02564158
     0.14230709     0.01262396     0.01559419
     0.12054627     0.01498480     0.02681257
     0.10171963     0.01602907     0.02885016
     0.08489830     0.01412171     0.02788818
     0.06872891     0.01102187     0.02634459
     0.05260480     0.00720092     0.02472108
     0.03605536     0.00263968     0.02229023
     0.01774988    -0.00108546     0.01627229
     0.00000000     0.00000000     0.00000000
     0.15841912    -0.03197411    -0.03906957
     0.18285626     0.00013862    -0.02327027
     0.14951911     0.03087908     0.01827032
     0.12077937     0.03564613     0.03059264
     0.10043111     0.03316116     0.03135399
     0.08288690     0.02965688     0.02945166
     0.06634226     0.02556225     0.02729405
     0.04991614     0.02123175     0.02531871
     0.03294770     0.01689350     0.02271450
     0.01496329     0.01060239     0.01659210
     0.00000000     0.00000000     0.00000000
     0.06442197    -0.01269232    -0.00327964
     0.10356333    -0.01066126    -0.01173474
     0.06390760     0.02693924     0.01549819
     0.05239882     0.02599867     0.01492426
     0.04564750     0.02553000     0.01308430
     0.03926164     0.02383259     0.01171800
     0.03256030     0.02190478     0.01086127
     0.02546672     0.01986060     0.01037903
     0.01810428     0.01769340     0.01005014
     0.00935748     0.01519047     0.00912551
     0.00000000     0.00000000     0.00000000
     0.00000000     0.00000000     0.00000000
     0.00000000     0.00000000     0.00000000
     0.00000000     0.00000000     0.00000000
     0.00000000     0.00000000     0.00000000
     0.00000000     0.00000000     0.00000000
     0.00000000     0.00000000     0.00000000
     0.00000000     0.00000000     0.00000000
     0.00000000     0.00000000     0.00000000
     0.00000000     0.00000000     0.00000000
     0.00000000     0.00000000     0.00000000
     0.00000000     0.00000000     0.00000000
     0.00000000     0.00000000     0.00000000
     0.00000000     0.00000000     0.00000000
     0.00000000     0.00000000     0.00000000
     0.00000000     0.00000000     0.00000000
     0.00000000     0.00000000     0.00000000
     0.00000000     0.00000000     0.00000000
     0.00000000     0.00000000     0.00000000
     0.00000000     0.00000000     0.00000000
     0.00000000     0.00000000     0.00000000
     0.00000000     0.00000000     0.00000000
     0.00000000     0.00000000     0.00000000
    -0.00713159    -0.02940658     0.02986783
     0.03119069     0.00073731    -0.00750794
     0.02408089    -0.00601743     0.00537844
     0.02451568    -0.00113764     0.00676545
     0.02434852    -0.00038884     0.00732094
     0.02283040    -0.00016810     0.00736212
     0.02057585    -0.00057186     0.00725078
     0.01788368    -0.00125115     0.00716545
     0.01495922    -0.00173047     0.00690252
     0.01230969    -0.00384875     0.00725467
     0.00000000     0.00000000     0.00000000
     0.02498733    -0.01969315     0.01577532
     0.07165053    -0.00285754    -0.01536439
     0.05393197     0.00056620     0.01340398
     0.04677528     0.00438724     0.01640245
     0.04251000     0.00627443     0.01729253
     0.03854549     0.00615823     0.01661177
     0.03386678     0.00534192     0.01589109
     0.02848163     0.00408510     0.01524808
     0.02234120     0.00218604     0.01414159
     0.01399758     0.00005392     0.01257493
     0.00000000     0.00000000     0.00000000
     0.03594186    -0.01222760     0.00978062
     0.08327384    -0.00568666    -0.01371163
     0.05476188     0.01072532     0.01623811
     0.04495226     0.01398612     0.01877448
     0.04113903     0.01413201     0.01870193
     0.03729262     0.01383841     0.01751069
     0.03267026     0.01282754     0.01646544
     0.02722753     0.01141293     0.01564602
     0.02080822     0.00996072     0.01444952
     0.01235517     0.00742293     0.01286291
     0.00000000     0.00000000     0.00000000
     0.00155587     0.00448559     0.02218208
     0.04650107    -0.00803258    -0.00515167
     0.01705734     0.01110448     0.01157336
     0.01880299     0.00974812     0.00850037
     0.01891949     0.01151691     0.00777842
     0.01809490     0.01151135     0.00700615
     0.01627061     0.01117672     0.00662754
     0.01388700     0.01058057     0.00646329
     0.01136892     0.00956413     0.00623114
     0.00826481     0.01004859     0.00667472
     0.00000000     0.00000000     0.00000000
     0.00000000     0.00000000     0.00000000
     0.00000000     0.00000000     0.00000000
     0.00000000     0.00000000     0.00000000
     0.00000000     0.00000000     0.00000000
     0.00000000     0.00000000     0.00000000
     0.00000000     0.00000000     0.00000000
     0.00000000     0.00000000     0.00000000
     0.00000000     0.00000000     0.00000000
     0.00000000     0.00000000     0.00000000
     0.00000000     0.00000000     0.00000000
     0.00000000     0.00000000     0.00000000
     0.00000000     0.00000000     0.00000000
     0.00000000     0.00000000     0.00000000
     0.00000000     0.00000000     0.00000000
     0.00000000     0.00000000     0.00000000
     0.00000000     0.00000000     0.00000000
     0.00000000     0.00000000     0.00000000
     0.00000000     0.00000000     0.00000000
     0.00000000     0.00000000     0.00000000
     0.00000000     0.00000000     0.00000000
     0.00000000     0.00000000     0.00000000
     0.00000000     0.00000000     0.00000000
     0.00000000     0.00000000     0.00000000
     0.00000000     0.00000000     0.00000000
     0.00000000     0.00000000     0.00000000
     0.00000000     0.00000000     0.00000000
     0.00000000     0.00000000     0.00000000
     0.00000000     0.00000000     0.00000000
     0.00000000     0.00000000     0.00000000
     0.00000000     0.00000000     0.00000000
     0.00000000     0.00000000     0.00000000
     0.00000000     0.00000000     0.00000000
     0.00000000     0.00000000     0.00000000
     0.00000000     0.00000000     0.00000000
     0.00000000     0.00000000     0.00000000
     0.00000000     0.00000000     0.00000000
     0.00000000     0.00000000     0.00000000
     0.00000000     0.00000000     0.00000000
     0.00000000     0.00000000     0.00000000
     0.00000000     0.00000000     0.00000000
     0.00000000     0.00000000     0.00000000
     0.00000000     0.00000000     0.00000000
     0.00000000     0.00000000     0.00000000
     0.00000000     0.00000000     0.00000000
     0.00000000     0.00000000     0.00000000
     0.00000000     0.00000000     0.00000000
     0.00000000     0.00000000     0.00000000
     0.00000000     0.00000000     0.00000000
     0.00000000     0.00000000     0.00000000
     0.00000000     0.00000000     0.00000000
     0.00000000     0.00000000     0.00000000
     0.00000000     0.00000000     0.00000000
     0.00000000     0.00000000     0.00000000
     0.00000000     0.00000000     0.00000000
     0.00000000     0.00000000     0.00000000
     0.00000000     0.00000000     0.00000000
     0.00000000     0.00000000     0.00000000
     0.00000000     0.00000000     0.00000000
     0.00000000     0.00000000     0.00000000
     0.00000000     0.00000000     0.00000000
     0.00000000     0.00000000     0.00000000
     0.00000000     0.00000000     0.00000000
     0.00000000     0.00000000     0.00000000
     0.00000000     0.00000000     0.00000000
     0.00000000     0.00000000     0.00000000
     0.00000000     0.00000000     0.00000000
     0.00000000     0.00000000     0.00000000
     0.00000000     0.00000000     0.00000000
     0.00000000     0.00000000     0.00000000
     0.00000000     0.00000000     0.00000000
     0.00000000     0.00000000     0.00000000
     0.00000000     0.00000000     0.00000000
     0.00000000     0.00000000     0.00000000
     0.00000000     0.00000000     0.00000000
     0.00000000     0.00000000     0.00000000
     0.00000000     0.00000000     0.00000000
     0.00000000     0.00000000     0.00000000
     0.00000000     0.00000000     0.00000000
     0.00000000     0.00000000     0.00000000
     0.00000000     0.00000000     0.00000000
     0.00000000     0.00000000     0.00000000
     0.00000000     0.00000000     0.00000000
     0.00000000     0.00000000     0.00000000
     0.00000000     0.00000000     0.00000000
     0.00000000     0.00000000     0.00000000
     0.18061851    -0.02764007     0.00000000
     0.16875281    -0.03283234     0.00000000
     0.13556539    -0.02521048     0.00000000
     0.10345897    -0.01784199     0.00000000
     0.07688405    -0.01117901     0.00000000
     0.05473336    -0.00548858     0.00000000
     0.03537389    -0.00058488     0.00000000
     0.01804340     0.00456676     0.00000000
     0.00000000     0.00000000     0.00000000
     0.24919650    -0.03403591     0.00000000
     0.23215668    -0.05385331     0.00000000
     0.18987980    -0.04873955     0.00000000
     0.14689787    -0.03784145     0.00000000
     0.10895611    -0.02707538     0.00000000
     0.07584684    -0.01755536     0.00000000
     0.04626024    -0.00900624     0.00000000
     0.01968548    -0.00176570     0.00000000
     0.00000000     0.00000000     0.00000000
     0.23898571    -0.02619347     0.00000000
     0.21377878    -0.06126849     0.00000000
     0.17282920    -0.05786874     0.00000000
     0.13407290    -0.04709574     0.00000000
     0.09991212    -0.03636387     0.00000000
     0.06963421    -0.02676557     0.00000000
     0.04194740    -0.01837088     0.00000000
     0.01685575    -0.01035104     0.00000000
     0.00000000     0.00000000     0.00000000
     0.14883288    -0.01654824     0.00000000
     0.11802424    -0.04444405     0.00000000
     0.09508175    -0.03971161     0.00000000
     0.07527300    -0.03397733     0.00000000
     0.05803220    -0.02794052     0.00000000
     0.04211105    -0.02261936     0.00000000
     0.02692556    -0.01762413     0.00000000
     0.01198671    -0.01354611     0.00000000
     0.00000000     0.00000000     0.00000000
     0.00000000     0.00000000     0.00000000
     0.00000000     0.00000000     0.00000000
     0.00000000     0.00000000     0.00000000
     0.00000000     0.00000000     0.00000000
     0.00000000     0.00000000     0.00000000
     0.00000000     0.00000000     0.00000000
     0.00000000     0.00000000     0.00000000
     0.00000000     0.00000000     0.00000000
     0.00000000     0.00000000     0.00000000
     0.00000000     0.00000000     0.00000000
     0.00000000     0.00000000     0.00000000
     0.00000000     0.00000000     0.00000000
     0.00000000     0.00000000     0.00000000
     0.00000000     0.00000000     0.00000000
     0.00000000     0.00000000     0.00000000
     0.00000000     0.00000000     0.00000000
     0.00000000     0.00000000     0.00000000
     0.00000000     0.00000000     0.00000000
     0.16155945    -0.02581856    -0.01508344
     0.14839828    -0.02850166     0.00889958
     0.12040492    -0.02284692     0.01137220
     0.09343619    -0.01643674     0.00888253
     0.07051276    -0.01052522     0.00643628
     0.05084857    -0.00530793     0.00491709
     0.03327206    -0.00075431     0.00405768
     0.01724697     0.00414215     0.00330508
     0.00000000     0.00000000     0.00000000
     0.22708904    -0.03261525    -0.02253900
     0.20898052    -0.04866661     0.00837826
     0.17155598    -0.04412768     0.01378039
     0.13404411    -0.03467024     0.01253033
     0.10062773    -0.02512971     0.00992881
     0.07090419    -0.01651805     0.00797150
     0.04380218    -0.00861710     0.00652939
     0.01892055    -0.00179227     0.00444486
     0.00000000     0.00000000     0.00000000
     0.21891365    -0.02580973    -0.02233275
     0.19324106    -0.05590683     0.00704688
     0.15684977    -0.05250621     0.01289067
     0.12284370    -0.04310303     0.01134049
     0.09258397    -0.03365481     0.00904285
     0.06526854    -0.02505435     0.00736555
     0.03981047    -0.01739475     0.00614288
     0.01626048    -0.00989748     0.00422991
     0.00000000     0.00000000     0.00000000
     0.13541028    -0.01697772    -0.01145090
     0.10564363    -0.04015933     0.00588625
     0.08597722    -0.03573414     0.00697330
     0.06892693    -0.03091356     0.00560993
     0.05375082    -0.02569639     0.00438612
     0.03939707    -0.02099964     0.00369021
     0.02549212    -0.01649090     0.00331467
     0.01158850    -0.01279422     0.00289492
     0.00000000     0.00000000     0.00000000
     0.00000000     0.00000000     0.00000000
     0.00000000     0.00000000     0.00000000
     0.00000000     0.00000000     0.00000000
     0.00000000     0.00000000     0.00000000
     0.00000000     0.00000000     0.00000000
     0.00000000     0.00000000     0.00000000
     0.00000000     0.00000000     0.00000000
     0.00000000     0.00000000     0.00000000
     0.00000000     0.00000000     0.00000000
     0.00000000     0.00000000     0.00000000
     0.00000000     0.00000000     0.00000000
     0.00000000     0.00000000     0.00000000
     0.00000000     0.00000000     0.00000000
     0.00000000     0.00000000     0.00000000
     0.00000000     0.00000000     0.00000000
     0.00000000     0.00000000     0.00000000
     0.00000000     0.00000000     0.00000000
     0.00000000     0.00000000     0.00000000
     0.11776257    -0.02124037    -0.01899444
     0.10151278    -0.01861916     0.01342106
     0.08554623    -0.01726917     0.01688488
     0.07035400    -0.01330242     0.01329671
     0.05567615    -0.00911364     0.00985125
     0.04171139    -0.00496657     0.00772408
     0.02829184    -0.00126365     0.00654645
     0.01540715     0.00296180     0.00552754
     0.00000000     0.00000000     0.00000000
     0.17243276    -0.02920549    -0.03203160
     0.15139868    -0.03556957     0.01344268
     0.12549337    -0.03246771     0.02138707
     0.10140368    -0.02672839     0.01923500
     0.07917882    -0.02025263     0.01540130
     0.05796179    -0.01389661     0.01264582
     0.03723591    -0.00765633     0.01067246
     0.01687110    -0.00196713     0.00755182
     0.00000000     0.00000000     0.00000000
     0.16945630    -0.02529627    -0.03333222
     0.14246101    -0.04257400     0.01166640
     0.11670917    -0.03905641     0.02011051
     0.09437089    -0.03294951     0.01752585
     0.07376910    -0.02663843     0.01410366
     0.05389786    -0.02052437     0.01173843
     0.03416224    -0.01473250     0.01007677
     0.01473471    -0.00859602     0.00721166
     0.00000000     0.00000000     0.00000000
     0.10395139    -0.01803715    -0.01637724
     0.07712687    -0.03023672     0.00922231
     0.06485539    -0.02670884     0.01057771
     0.05422099    -0.02379744     0.00856865
     0.04372962    -0.02040305     0.00681981
     0.03299172    -0.01713756     0.00586082
     0.02211470    -0.01372976     0.00538096
     0.01075304    -0.01090099     0.00486355
     0.00000000     0.00000000     0.00000000
     0.00000000     0.00000000     0.00000000
     0.00000000     0.00000000     0.00000000
     0.00000000     0.00000000     0.00000000
     0.00000000     0.00000000     0.00000000
     0.00000000     0.00000000     0.00000000
     0.00000000     0.00000000     0.00000000
     0.00000000     0.00000000     0.00000000
     0.00000000     0.00000000     0.00000000
     0.00000000     0.00000000     0.00000000
     0.00000000     0.00000000     0.00000000
     0.00000000     0.00000000     0.00000000
     0.00000000     0.00000000     0.00000000
     0.00000000     0.00000000     0.00000000
     0.00000000     0.00000000     0.00000000
     0.00000000     0.00000000     0.00000000
     0.00000000     0.00000000     0.00000000
     0.00000000     0.00000000     0.00000000
     0.00000000     0.00000000     0.00000000
     0.06887614    -0.01413221    -0.01058458
     0.05088667    -0.00859139     0.01214475
     0.04762061    -0.01080685     0.01471933
     0.04373617    -0.00950444     0.01193504
     0.03731415    -0.00701706     0.00922705
     0.02949638    -0.00424466     0.00752151
     0.02133393    -0.00161735     0.00663766
     0.01265148     0.00144997     0.00602316
     0.00000000     0.00000000     0.00000000
     0.10588548    -0.02339088    -0.02477709
     0.08241227    -0.01953808     0.01376982
     0.07044962    -0.01850559     0.01975335
     0.06174978    -0.01715831     0.01755555
     0.05209096    -0.01396898     0.01442338
     0.04074969    -0.01028091     0.01229764
     0.02819221    -0.00614556     0.01092799
     0.01385687    -0.00209510     0.00838541
     0.00000000     0.00000000     0.00000000
     0.10750685    -0.02359108    -0.02893838
     0.08013658    -0.02546426     0.01275713
     0.06741778    -0.02266527     0.01874309
     0.05888703    -0.02052007     0.01617789
     0.04941540    -0.01776486     0.01332454
     0.03843175    -0.01449566     0.01149816
     0.02618533    -0.01111018     0.01037530
     0.01239582    -0.00672806     0.00805512
     0.00000000     0.00000000     0.00000000
     0.06603426    -0.01766679    -0.01367849
     0.04397076    -0.01842086     0.00920668
     0.03981068    -0.01605895     0.00959538
     0.03587954    -0.01514056     0.00795889
     0.03039953    -0.01370297     0.00655512
     0.02390911    -0.01194053     0.00578962
     0.01707971    -0.01002572     0.00549512
     0.00934171    -0.00820985     0.00533242
     0.00000000     0.00000000     0.00000000
     0.00000000     0.00000000     0.00000000
     0.00000000     0.00000000     0.00000000
     0.00000000     0.00000000     0.00000000
     0.00000000     0.00000000     0.00000000
     0.00000000     0.00000000     0.00000000
     0.00000000     0.00000000     0.00000000
     0.00000000     0.00000000     0.00000000
     0.00000000     0.00000000     0.00000000
     0.00000000     0.00000000     0.00000000
     0.00000000     0.00000000     0.00000000
     0.00000000     0.00000000     0.00000000
     0.00000000     0.00000000     0.00000000
     0.00000000     0.00000000     0.00000000
     0.00000000     0.00000000     0.00000000
     0.00000000     0.00000000     0.00000000
     0.00000000     0.00000000     0.00000000
     0.00000000     0.00000000     0.00000000
     0.00000000     0.00000000     0.00000000
     0.02903982    -0.00686201     0.00145843
     0.01664234    -0.00268854     0.00628362
     0.01924004    -0.00552033     0.00783149
     0.02036277    -0.00514385     0.00656623
     0.01876621    -0.00400267     0.00541370
     0.01565514    -0.00262633     0.00464760
     0.01209923    -0.00157194     0.00416301
     0.00933363     0.00005715     0.00433352
     0.00000000     0.00000000     0.00000000
     0.04377955    -0.01769126    -0.00707841
     0.02530347    -0.00509131     0.00871404
     0.02532385    -0.00782985     0.01046851
     0.02678440    -0.00819236     0.00949421
     0.02535674    -0.00727795     0.00822178
     0.02158789    -0.00580948     0.00742526
     0.01670714    -0.00400708     0.00683009
     0.01047240    -0.00204136     0.00632377
     0.00000000     0.00000000     0.00000000
     0.04628016    -0.02029362    -0.01220872
     0.02585943    -0.00805295     0.00890927
     0.02526411    -0.00870752     0.00995720
     0.02630586    -0.00925497     0.00886081
     0.02453539    -0.00890427     0.00767241
     0.02070490    -0.00773781     0.00700362
     0.01582715    -0.00639376     0.00651858
     0.00972722    -0.00454295     0.00612604
     0.00000000     0.00000000     0.00000000
     0.02935809    -0.01491673    -0.00629854
     0.01650428    -0.00688544     0.00593240
     0.01780483    -0.00674327     0.00524393
     0.01748516    -0.00713642     0.00459426
     0.01564517    -0.00689903     0.00393908
     0.01288456    -0.00625582     0.00362955
     0.00999911    -0.00524473     0.00344919
     0.00746069    -0.00516471     0.00385792
     0.00000000     0.00000000     0.00000000
     0.00000000     0.00000000     0.00000000
     0.00000000     0.00000000     0.00000000
     0.00000000     0.00000000     0.00000000
     0.00000000     0.00000000     0.00000000
     0.00000000     0.00000000     0.00000000
     0.00000000     0.00000000     0.00000000
     0.00000000     0.00000000     0.00000000
     0.00000000     0.00000000     0.00000000
     0.00000000     0.00000000     0.00000000
     0.00000000     0.00000000     0.00000000
     0.00000000     0.00000000     0.00000000
     0.00000000     0.00000000     0.00000000
     0.00000000     0.00000000     0.00000000
     0.00000000     0.00000000     0.00000000
     0.00000000     0.00000000     0.00000000
     0.00000000     0.00000000     0.00000000
     0.00000000     0.00000000     0.00000000
     0.00000000     0.00000000     0.00000000
     0.00000000     0.00000000     0.00000000
     0.00000000     0.00000000     0.00000000
     0.00000000     0.00000000     0.00000000
     0.00000000     0.00000000     0.00000000
     0.00000000     0.00000000     0.00000000
     0.00000000     0.00000000     0.00000000
     0.00000000     0.00000000     0.00000000
     0.00000000     0.00000000     0.00000000
     0.00000000     0.00000000     0.00000000
     0.00000000     0.00000000     0.00000000
     0.00000000     0.00000000     0.00000000
     0.00000000     0.00000000     0.00000000
     0.00000000     0.00000000     0.00000000
     0.00000000     0.00000000     0.00000000
     0.00000000     0.00000000     0.00000000
     0.00000000     0.00000000     0.00000000
     0.00000000     0.00000000     0.00000000
     0.00000000     0.00000000     0.00000000
     0.00000000     0.00000000     0.00000000
     0.00000000     0.00000000     0.00000000
     0.00000000     0.00000000     0.00000000
     0.00000000     0.00000000     0.00000000
     0.00000000     0.00000000     0.00000000
     0.00000000     0.00000000     0.00000000
     0.00000000     0.00000000     0.00000000
     0.00000000     0.00000000     0.00000000
     0.00000000     0.00000000     0.00000000
     0.00000000     0.00000000     0.00000000
     0.00000000     0.00000000     0.00000000
     0.00000000     0.00000000     0.00000000
     0.00000000     0.00000000     0.00000000
     0.00000000     0.00000000     0.00000000
     0.00000000     0.00000000     0.00000000
     0.00000000     0.00000000     0.00000000
     0.00000000     0.00000000     0.00000000
     0.00000000     0.00000000     0.00000000
     0.00000000     0.00000000     0.00000000
     0.00000000     0.00000000     0.00000000
     0.00000000     0.00000000     0.00000000
     0.00000000     0.00000000     0.00000000
     0.00000000     0.00000000     0.00000000
     0.00000000     0.00000000     0.00000000
     0.00000000     0.00000000     0.00000000
     0.00000000     0.00000000     0.00000000
     0.00000000     0.00000000     0.00000000
     5.18661276    -0.43359859     0.00000000
     4.69718836    -0.59710172     0.00000000
     4.05544387    -0.68158252     0.00000000
     3.40979011    -0.72462023     0.00000000
     2.76248168    -0.73399879     0.00000000
     2.11620062    -0.70394801     0.00000000
     1.46590474    -0.63790861     0.00000000
     0.82404735    -0.49235860     0.00000000
     0.37593653    -0.38766799     0.00000000
     0.00000000     0.00000000     0.00000000
     5.18701928    -0.42916942     0.16322630
     4.69808391    -0.59014772     0.25017630
     4.05656116    -0.67403956     0.30341413
     3.41138228    -0.71625888     0.33728681
     2.76490012    -0.72511568     0.35615118
     2.11922313    -0.69531152     0.36352528
     1.47046670    -0.62978409     0.36192927
     0.82976538    -0.48673561     0.35171216
     0.38104699    -0.38136176     0.33078283
     0.00000000     0.00000000     0.24159738
     5.18765782    -0.41675867     0.32131212
     4.69973809    -0.57104007     0.49215624
     4.05947861    -0.65209754     0.59981460
     3.41619562    -0.69153493     0.66489524
     2.77189292    -0.69889842     0.70166654
     2.12875810    -0.66950168     0.71570522
     1.48389711    -0.60533532     0.71112482
     0.85040465    -0.46875237     0.68983941
     0.40303588    -0.36448006     0.63901002
     0.00000000     0.00000000     0.45612353
     5.18803297    -0.39679806     0.47268572
     4.70178225    -0.54064565     0.72281194
     4.06404527    -0.61627014     0.88041299
     3.42379159    -0.65150922     0.97421204
     2.78306836    -0.65652263     1.02653997
     2.14472765    -0.62730752     1.04495872
     1.50848132    -0.56489253     1.03669467
     0.88603874    -0.43947322     0.99376873
     0.43726427    -0.33779690     0.90051271
     0.00000000     0.00000000     0.62951068
     5.18890135    -0.36930559     0.61265449
     4.70387809    -0.49936378     0.93597720
     4.06953636    -0.56770953     1.13780670
     3.43356936    -0.59769692     1.25733039
     2.79730619    -0.59947922     1.32218805
     2.16583369    -0.57131490     1.34124502
     1.53860766    -0.51099498     1.32535612
     0.92467573    -0.39959058     1.24939909
     0.47268092    -0.30171774     1.10619522
     0.00000000     0.00000000     0.75003421
     5.18959889    -0.33616017     0.73691090
     4.70532925    -0.45023865     1.12471188
     4.07556176    -0.50755041     1.36633120
     3.44382806    -0.53214871     1.50781482
     2.81347911    -0.53036501     1.58163802
     2.18746022    -0.50410948     1.59954638
     1.56848771    -0.44745789     1.56635023
     0.95898177    -0.34972092     1.45669520
     0.50314550    -0.26274913     1.25527883
     0.00000000     0.00000000     0.82011782
     5.18794848    -0.29877439     0.84388870
     4.70739714    -0.39202302     1.28579878
     4.08039174    -0.43834645     1.56085448
     3.45388580    -0.45665114     1.72018925
     2.82788029    -0.45246946     1.80202701
     2.20873886    -0.42805243     1.81374287
     1.59589916    -0.37627566     1.75750104
     0.99222718    -0.29526090     1.61614041
     0.52697304    -0.21474775     1.36077276
     0.00000000     0.00000000     0.85520230
     5.18569658    -0.25477645     0.93166107
     4.70721212    -0.32706675     1.41661963
     4.08408345    -0.36099660     1.71726938
     3.46027367    -0.37416831     1.89153522
     2.84040315    -0.36758061     1.97774777
     2.22397642    -0.34603513     1.98382981
     1.62093403    -0.30118215     1.90072417
     1.01823572    -0.23643620     1.73625799
     0.54180267    -0.16809604     1.42567270
     0.00000000     0.00000000     0.83300839
     5.18351506    -0.20852430     0.99466776
     4.70559720    -0.25567743     1.51313650
     4.08392055    -0.27905331     1.83281814
     3.46366572    -0.28502751     2.01846456
     2.84552152    -0.27904217     2.10671294
     2.23431647    -0.25964970     2.10813650
     1.63229581    -0.22552438     2.00810400
     1.03348681    -0.17608078     1.81901158
     0.53827244    -0.12641484     1.46543874
     0.00000000     0.00000000     0.77425298
     5.18106121    -0.15806442     1.03339727
     4.70170386    -0.18291273     1.57224959
     4.08052296    -0.19162890     1.90528489
     3.46038308    -0.19367156     2.09839879
     2.84483502    -0.18570184     2.18707486
     2.23265521    -0.17341173     2.18711743
     1.63520354    -0.14697762     2.07617078
     1.01935259    -0.11640627     1.88164022
     0.51308839    -0.08933270     1.47335602
     0.00000000     0.00000000     0.70621436
     5.17744702    -0.10876320     1.04664541
     4.69571440    -0.10610962     1.59393884
     4.07247925    -0.10403932     1.93295672
     3.45135163    -0.09819877     2.12944716
     2.83472745    -0.09321536     2.21907700
     2.22233770    -0.08276365     2.21777163
     1.62170650    -0.07260750     2.10385527
     1.01328388    -0.05094726     1.90493548
     0.45167655    -0.05473181     1.46210197
     0.00000000     0.00000000     0.60285382
     5.17291337    -0.05717771     1.03448707
     4.68741287    -0.03164400     1.57737587
     4.05999376    -0.01416199     1.91525143
     3.43606993    -0.00451117     2.11093651
     2.81581260     0.00242967     2.20152149
     2.20187903     0.00396846     2.20111578
     1.59756256     0.00775283     2.08694814
     0.98535768     0.00367918     1.88782326
     0.49501823    -0.00632900     1.48400125
     0.00000000     0.00000000     0.81586629
     5.16804071    -0.00898351     0.99710460
     4.67677785     0.04317182     1.52269136
     4.04426830     0.07235761     1.85196907
     3.41378781     0.08976114     2.04337688
     2.79013336     0.09452688     2.13376280
     2.16734435     0.09377548     2.13784073
     1.56121295     0.08122438     2.02548882
     0.94294572     0.06660867     1.83882978
     0.50066223     0.02612177     1.46557382
     0.00000000     0.00000000     0.87925537
     5.16292203     0.03828950     0.93438813
     4.66560032     0.11285990     1.43071493
     4.02451097     0.15674875     1.74467197
     3.38767252     0.17951206     1.92630334
     2.75388049     0.18588401     2.01743693
     2.12768753     0.17972238     2.02630066
     1.50964010     0.15654975     1.93635429
     0.89163076     0.12658163     1.75989367
     0.47913642     0.06238634     1.43972681
     0.00000000     0.00000000     0.93928646
     5.15895466     0.08036407     0.84808205
     4.65293085     0.17760396     1.30377171
     4.00352308     0.23484439     1.59486331
     3.35637925     0.26442181     1.76392071
     2.71648936     0.27181388     1.85217857
     2.08157407     0.26213389     1.87470165
     1.45908249     0.22934212     1.80797655
     0.83707869     0.18257619     1.66077552
     0.45117475     0.10710064     1.40046868
     0.00000000     0.00000000     0.99204631
     5.15458523     0.11696079     0.73960855
     4.64208851     0.23322686     1.14468903
     3.98445110     0.30246814     1.40548220
     3.33005489     0.33798078     1.55556047
     2.68041699     0.34748434     1.63620681
     2.03687319     0.33487216     1.66073860
     1.40257297     0.29331171     1.62038529
     0.77666576     0.22612198     1.49346711
     0.39995814     0.14798132     1.28933374
     0.00000000     0.00000000     0.94891880
     5.14963628     0.14831803     0.61556773
     4.63653371     0.28388869     0.95107278
     3.97283554     0.36708567     1.16681923
     3.31372683     0.40721351     1.29381767
     2.65834750     0.41934174     1.36400023
     2.00944087     0.40403899     1.38449015
     1.36647119     0.35834725     1.36180584
     0.73676662     0.26832181     1.26989333
     0.37615390     0.17726743     1.13854819
     0.00000000     0.00000000     0.84633486
     5.14463473     0.17614784     0.47472909
     4.62968647     0.32718311     0.73415709
     3.96224044     0.41857074     0.90354947
     3.29869673     0.46438952     1.00313559
     2.63775960     0.48004956     1.05977243
     1.98089989     0.46580052     1.07954745
     1.32888108     0.41778425     1.06535118
     0.69005159     0.31281333     1.02017039
     0.33764432     0.23132382     0.93346930
     0.00000000     0.00000000     0.69341783
     5.14156696     0.19593614     0.32275925
     4.62414021     0.35842210     0.50045737
     3.95409902     0.45647130     0.61600448
     3.28713479     0.50652788     0.68493632
     2.62192324     0.52514495     0.72460094
     1.95828597     0.51234778     0.73987101
     1.29498490     0.46261880     0.73285287
     0.64405422     0.34800975     0.71396363
     0.30326781     0.27041980     0.66388337
     0.00000000     0.00000000     0.49408770
     5.13924903     0.20814504     0.16399451
     4.62080657     0.37760188     0.25457161
     3.94886406     0.47973623     0.31202776
     3.27981321     0.53266626     0.34742035
     2.61202812     0.55337480     0.36795669
     1.94512098     0.54099909     0.37595192
     1.27597044     0.49141555     0.37310209
     0.61720710     0.37045282     0.36621389
     0.28596742     0.29804879     0.34337753
     0.00000000     0.00000000     0.25731976
     5.13819349     0.21257365     0.00000000
     4.61975686     0.38416015     0.00000000
     3.94701527     0.48753885     0.00000000
     3.27738655     0.54148795     0.00000000
     2.60859000     0.56303198     0.00000000
     1.94097379     0.55054576     0.00000000
     1.26970090     0.50104667     0.00000000
     0.61106917     0.37865859     0.00000000
     0.28413640     0.30966647     0.00000000
     0.00000000     0.00000000     0.00000000
     5.29892262    -0.26875139     0.00000000
     5.31060500    -0.23689842     0.00000000
     5.31890668    -0.20563533     0.00000000
     5.32426546    -0.17370313     0.00000000
     5.32639894    -0.14184367     0.00000000
     5.32543707    -0.10992633     0.00000000
     5.32182820    -0.07804466     0.00000000
     5.31553696    -0.04634284     0.00000000
     5.30664426    -0.01447991     0.00000000
     5.29520952     0.01667972     0.00000000
     5.28009909     0.04853475     0.00000000
     5.29905606    -0.26683692     0.07846015
     5.30975082    -0.23632511     0.08638587
     5.31770846    -0.20529840     0.09255745
     5.32265235    -0.17379837     0.09697397
     5.32479581    -0.14172359     0.09898592
     5.32391477    -0.10983883     0.09878194
     5.32025998    -0.07806096     0.09848106
     5.31394978    -0.04610950     0.09587386
     5.30550252    -0.01472331     0.09097699
     5.29440138     0.01626277     0.08479926
     5.28038384     0.04675510     0.07741250
     5.29907472    -0.26117613     0.15739469
     5.30787932    -0.23257478     0.17558319
     5.31440729    -0.20275495     0.18952920
     5.31861568    -0.17179298     0.19920224
     5.32008707    -0.14087343     0.20449320
     5.31932321    -0.10965199     0.20378958
     5.31570168    -0.07846839     0.20390111
     5.31019473    -0.04770367     0.19793821
     5.30254389    -0.01679082     0.18771705
     5.29294040     0.01297144     0.17372130
     5.28095467     0.04146882     0.15591911
     5.29891344    -0.25162921     0.23299727
     5.30520901    -0.22534950     0.26158635
     5.30979598    -0.19716613     0.28440300
     5.31194112    -0.16859052     0.30121223
     5.31271982    -0.13931940     0.30944557
     5.31163454    -0.10939492     0.31003813
     5.30853788    -0.07946269     0.30874961
     5.30385602    -0.05020355     0.29982207
     5.29844678    -0.02160819     0.28232403
     5.29100848     0.00658228     0.25932167
     5.28178891     0.03255897     0.23128776
     5.29888117    -0.23803276     0.30262067
     5.30191810    -0.21459409     0.34318664
     5.30290387    -0.19011946     0.37666007
     5.30308617    -0.16431096     0.40021763
     5.30245758    -0.13709150     0.41344555
     5.30114494    -0.10914532     0.41608197
     5.29852908    -0.08130451     0.41275713
     5.29547563    -0.05397602     0.39881544
     5.29207612    -0.02802076     0.37456550
     5.28851741    -0.00338434     0.34063530
     5.28306771     0.01986983     0.30037843
     5.29859347    -0.22099882     0.36507189
     5.29678579    -0.20234640     0.41964942
     5.29445880    -0.18152589     0.46381321
     5.29204985    -0.15880439     0.49583520
     5.28977919    -0.13401986     0.51571276
     5.28781000    -0.10929109     0.52213937
     5.28622021    -0.08363551     0.51506016
     5.28521141    -0.05953820     0.49501957
     5.28454521    -0.03641778     0.46216363
     5.28435635    -0.01545252     0.41748864
     5.28426200     0.00326414     0.36266240
