# vtk DataFile Version 3.0
Example VTK
ASCII
DATASET UNSTRUCTURED_GRID
POINTS  1589 float
 -0.827795448920E+01 -0.449181004622E+01  0.103434287743E-26
 -0.678824711293E+01 -0.599760978919E+01  0.204145256953E-26
 -0.529632262022E+01 -0.692871418755E+01  0.220970376883E-26
 -0.380807859093E+01 -0.750272636899E+01  0.232414711040E-26
 -0.232093572236E+01 -0.779758876179E+01  0.227421859000E-26
 -0.839435381706E+00 -0.783119026245E+01  0.192154114050E-26
  0.634464300630E+00 -0.761327526873E+01  0.902812048884E-27
  0.154543801988E+01 -0.705378533890E+01 -0.715728920355E-27
  0.255688000000E+01 -0.652469000000E+01 -0.234651181861E-26
 -0.828070932588E+01 -0.360904427542E+01 -0.835115687969E-02
 -0.684784537733E+01 -0.481980578720E+01  0.000000000000E+00
 -0.538251391158E+01 -0.556158309288E+01  0.000000000000E+00
 -0.391589393815E+01 -0.601800557663E+01  0.000000000000E+00
 -0.245026156694E+01 -0.624643985608E+01  0.000000000000E+00
 -0.979279106194E+00 -0.626208412713E+01  0.000000000000E+00
  0.514714109775E+00 -0.606164538463E+01  0.000000000000E+00
  0.159219362594E+01 -0.570581843607E+01  0.000000000000E+00
  0.281449953081E+01 -0.541555421490E+01  0.000000000000E+00
 -0.828490713592E+01 -0.272831428613E+01 -0.106230526478E-01
 -0.687381548390E+01 -0.364254445247E+01  0.000000000000E+00
 -0.543912661109E+01 -0.419512717278E+01  0.000000000000E+00
 -0.399166670610E+01 -0.453155078697E+01  0.000000000000E+00
 -0.253094877733E+01 -0.469546069954E+01  0.000000000000E+00
 -0.104341907652E+01 -0.469643457908E+01  0.000000000000E+00
  0.503227787983E+00 -0.453148029621E+01  0.000000000000E+00
  0.169226974673E+01 -0.441339867788E+01  0.000000000000E+00
  0.302141890857E+01 -0.435077446057E+01  0.000000000000E+00
 -0.828805372433E+01 -0.184732067320E+01 -0.126879584238E-01
 -0.689186619158E+01 -0.245925563065E+01  0.000000000000E+00
 -0.547482180647E+01 -0.282524241319E+01  0.000000000000E+00
 -0.403939136289E+01 -0.304512537495E+01  0.000000000000E+00
 -0.257927799147E+01 -0.314886573686E+01  0.000000000000E+00
 -0.107816487575E+01 -0.314291306887E+01  0.000000000000E+00
  0.494834090029E+00 -0.302879258760E+01  0.000000000000E+00
  0.177119240046E+01 -0.314322455999E+01  0.000000000000E+00
  0.318302058283E+01 -0.329208089505E+01  0.000000000000E+00
 -0.829125723640E+01 -0.966813453507E+00 -0.138188994427E-01
 -0.690334032763E+01 -0.127250627022E+01  0.000000000000E+00
 -0.549722802530E+01 -0.145246096496E+01  0.000000000000E+00
 -0.406871662068E+01 -0.155859062834E+01  0.000000000000E+00
 -0.260952114779E+01 -0.160586545013E+01  0.000000000000E+00
 -0.110368439182E+01 -0.159767075073E+01  0.000000000000E+00
  0.475522009931E+00 -0.153716763533E+01  0.000000000000E+00
  0.181652908824E+01 -0.187255677796E+01  0.000000000000E+00
  0.329268992431E+01 -0.222146517822E+01  0.000000000000E+00
 -0.829420999620E+01 -0.863817111154E-01 -0.147561788937E-01
 -0.691152422795E+01 -0.837663767980E-01  0.000000000000E+00
 -0.551061753734E+01 -0.779127722322E-01  0.000000000000E+00
 -0.408609203424E+01 -0.718927462022E-01  0.000000000000E+00
 -0.262792939398E+01 -0.645580594780E-01  0.000000000000E+00
 -0.112025421962E+01 -0.558447582388E-01  0.000000000000E+00
  0.462513988340E+00 -0.485630761049E-01  0.000000000000E+00
  0.185028646099E+01 -0.577960118383E+00  0.000000000000E+00
  0.333333000000E+01 -0.112691000000E+01 -0.291452160746E-26
 -0.829703354586E+01  0.794008815370E+00 -0.149069788416E-01
 -0.691504837159E+01  0.110554935638E+01  0.000000000000E+00
 -0.551532485226E+01  0.129703978233E+01  0.000000000000E+00
 -0.409105047424E+01  0.141466942123E+01  0.000000000000E+00
 -0.263110707741E+01  0.147543252967E+01  0.000000000000E+00
 -0.111552418989E+01  0.148373892799E+01  0.000000000000E+00
  0.490156929201E+00  0.143018531140E+01  0.000000000000E+00
  0.179993401785E+01  0.909176508934E+00  0.000000000000E+00
  0.320940814472E+01  0.369551379187E+00  0.000000000000E+00
 -0.829950374650E+01  0.167439669409E+01 -0.147218339366E-01
 -0.691529774567E+01  0.229400733013E+01  0.000000000000E+00
 -0.551078392581E+01  0.267098453043E+01  0.000000000000E+00
 -0.408458310633E+01  0.290089630066E+01  0.000000000000E+00
 -0.262595474409E+01  0.301565968062E+01  0.000000000000E+00
 -0.111270996424E+01  0.302202596103E+01  0.000000000000E+00
  0.494246170481E+00  0.290760488695E+01  0.000000000000E+00
  0.171137475255E+01  0.238667500878E+01  0.000000000000E+00
  0.302642553682E+01  0.188885137702E+01  0.000000000000E+00
 -0.830275533755E+01  0.255551635324E+01 -0.130031071454E-01
 -0.690954388668E+01  0.347973892810E+01  0.000000000000E+00
 -0.549301909229E+01  0.404256168025E+01  0.000000000000E+00
 -0.406082569365E+01  0.438750722895E+01  0.000000000000E+00
 -0.260897429305E+01  0.455996546134E+01  0.000000000000E+00
 -0.111727222862E+01  0.456944691095E+01  0.000000000000E+00
  0.457710759806E+00  0.439932513518E+01  0.000000000000E+00
  0.155158729284E+01  0.387396090624E+01  0.000000000000E+00
  0.275369851085E+01  0.340443622079E+01  0.000000000000E+00
 -0.830645759083E+01  0.343644633404E+01 -0.102901574593E-01
 -0.689682430526E+01  0.465937397210E+01  0.000000000000E+00
 -0.545253825216E+01  0.541106327190E+01  0.000000000000E+00
 -0.400665329908E+01  0.587542335456E+01  0.000000000000E+00
 -0.255931281476E+01  0.611177227435E+01  0.000000000000E+00
 -0.110294937108E+01  0.613575657478E+01  0.000000000000E+00
  0.395783517435E+00  0.592892618615E+01  0.000000000000E+00
  0.132881301541E+01  0.538869329928E+01  0.000000000000E+00
  0.237066581903E+01  0.494901489371E+01  0.000000000000E+00
 -0.831380336994E+01  0.431964933388E+01  0.900874275923E-27
 -0.684774578180E+01  0.583951743707E+01  0.183040585938E-26
 -0.538017091403E+01  0.678057582168E+01  0.204319638461E-26
 -0.391342571461E+01  0.736309430725E+01  0.211839221868E-26
 -0.244862656570E+01  0.766725118980E+01  0.199664781015E-26
 -0.989469228035E+00  0.771379139466E+01  0.147887967450E-26
  0.454261823305E+00  0.750155945537E+01 -0.361053828214E-29
  0.113773330663E+01  0.697362962404E+01 -0.165945168108E-26
  0.195297000000E+01  0.652469000000E+01 -0.210817055674E-26
 -0.827817142436E+01 -0.443727995411E+01  0.779809129899E+00
 -0.678797337695E+01 -0.592559783375E+01  0.104881502005E+01
 -0.529549625927E+01 -0.684403324252E+01  0.121468917713E+01
 -0.380655800094E+01 -0.741077090931E+01  0.131756446614E+01
 -0.231843807511E+01 -0.770175348672E+01  0.137188764718E+01
 -0.835368682477E+00 -0.773462433876E+01  0.138270762235E+01
  0.641118002612E+00 -0.751926491066E+01  0.135173076472E+01
  0.155973154138E+01 -0.697751689321E+01  0.119075888207E+01
  0.256440000000E+01 -0.647239000000E+01  0.677093000000E+00
 -0.828090054710E+01 -0.358550312159E+01  0.866039779138E+00
 -0.684367833185E+01 -0.478782654956E+01  0.116751687591E+01
 -0.537643867321E+01 -0.552416989397E+01  0.135020530855E+01
 -0.390716964640E+01 -0.597723534947E+01  0.146482180262E+01
 -0.243910599017E+01 -0.620417155919E+01  0.152422730179E+01
 -0.966271567051E+00 -0.622035786840E+01  0.153301051164E+01
  0.526947149715E+00 -0.602481823877E+01  0.148113380925E+01
  0.159673125150E+01 -0.567943558238E+01  0.129381488672E+01
  0.280852787558E+01 -0.540109985081E+01  0.751777935456E+00
 -0.828416060171E+01 -0.272173788251E+01  0.931242250462E+00
 -0.686868986621E+01 -0.363370376622E+01  0.125938781099E+01
 -0.543092916463E+01 -0.418504604656E+01  0.145694407999E+01
 -0.398007591367E+01 -0.452063248701E+01  0.157805712442E+01
 -0.251728106645E+01 -0.468455633863E+01  0.163864459070E+01
 -0.103054571906E+01 -0.468672821831E+01  0.164073530167E+01
  0.509779865698E+00 -0.452507189162E+01  0.158224016263E+01
  0.168867124313E+01 -0.440960886130E+01  0.138330719895E+01
  0.300683910263E+01 -0.435096735126E+01  0.808605762972E+00
 -0.828734811768E+01 -0.184868825166E+01  0.975401954635E+00
 -0.688596915493E+01 -0.246075249459E+01  0.132155471919E+01
 -0.546603173637E+01 -0.282727546238E+01  0.152834496400E+01
 -0.402722090050E+01 -0.304744289009E+01  0.165434425528E+01
 -0.256549327372E+01 -0.315159219233E+01  0.171538310963E+01
 -0.106592550317E+01 -0.314642410063E+01  0.171567012492E+01
  0.500077519007E+00 -0.303309492847E+01  0.165413250497E+01
  0.176453049373E+01 -0.314639787838E+01  0.144355936635E+01
  0.316605347938E+01 -0.329333015240E+01  0.837474628297E+00
 -0.829058167435E+01 -0.968791650851E+00  0.996564896869E+00
 -0.689818403409E+01 -0.127549309669E+01  0.135188690017E+01
 -0.548863467130E+01 -0.145618595714E+01  0.156301847314E+01
 -0.405686615544E+01 -0.156280038382E+01  0.169138420465E+01
 -0.259602558580E+01 -0.161041228413E+01  0.175299245926E+01
 -0.109093580992E+01 -0.160228628609E+01  0.175358491152E+01
  0.483402871039E+00 -0.154096331145E+01  0.169122184268E+01
  0.181342063284E+01 -0.187458380586E+01  0.147408861465E+01
  0.327865344715E+01 -0.221909508387E+01  0.839095540395E+00
 -0.829403163829E+01 -0.862184256007E-01  0.994053433701E+00
 -0.690607900967E+01 -0.837747736640E-01  0.134883153258E+01
 -0.550241183069E+01 -0.780767750317E-01  0.155968839833E+01
 -0.407483404991E+01 -0.722181158089E-01  0.168748304708E+01
 -0.261527909573E+01 -0.650043347441E-01  0.174830085997E+01
 -0.110818633454E+01 -0.558422978831E-01  0.174778673328E+01
  0.471169468117E+00 -0.472961043773E-01  0.168775671240E+01
  0.185505265711E+01 -0.578446821833E+00  0.146479667150E+01
  0.333333000000E+01 -0.112691000000E+01  0.833333000000E+00
 -0.829658862318E+01  0.796217203595E+00  0.996165645641E+00
 -0.691010893934E+01  0.110848970330E+01  0.135302866016E+01
 -0.550703559615E+01  0.130046371911E+01  0.156464277778E+01
 -0.407997276145E+01  0.141832193247E+01  0.169245961208E+01
 -0.261947535826E+01  0.147928372143E+01  0.175196502889E+01
 -0.110664722798E+01  0.148849520788E+01  0.174748937142E+01
  0.490908526758E+00  0.143773684122E+01  0.167889719164E+01
  0.179245885091E+01  0.915737850618E+00  0.147759746070E+01
  0.320079668470E+01  0.355200785417E+00  0.938878193183E+00
 -0.829910170695E+01  0.167600638528E+01  0.974755643300E+00
 -0.690961821664E+01  0.229529315774E+01  0.132380488551E+01
 -0.550247857673E+01  0.267282361129E+01  0.153172464872E+01
 -0.407361396598E+01  0.290292084194E+01  0.165705052834E+01
 -0.261501319442E+01  0.301811758952E+01  0.171482400779E+01
 -0.110585936477E+01  0.302624595928E+01  0.170857034580E+01
  0.490806527180E+00  0.291647505500E+01  0.163533292638E+01
  0.169702469693E+01  0.239782936307E+01  0.145094999898E+01
  0.301113055923E+01  0.187993951079E+01  0.988971285927E+00
 -0.830216682763E+01  0.254909180930E+01  0.930801021898E+00
 -0.690438948956E+01  0.347044851553E+01  0.126254331467E+01
 -0.548501149327E+01  0.403241766078E+01  0.146202277127E+01
 -0.405001536207E+01  0.437658219991E+01  0.158300922394E+01
 -0.259741100890E+01  0.454920403667E+01  0.164065439608E+01
 -0.110881251104E+01  0.456091665215E+01  0.163542751981E+01
  0.456718712146E+00  0.439760526803E+01  0.156309421115E+01
  0.153986700211E+01  0.387867875085E+01  0.139104101754E+01
  0.273780479212E+01  0.340242408268E+01  0.977505645073E+00
 -0.830668488618E+01  0.341315419126E+01  0.866411454481E+00
 -0.689207628700E+01  0.462650117568E+01  0.117115099143E+01
 -0.544616349901E+01  0.537372400412E+01  0.135647225662E+01
 -0.399773884404E+01  0.583465590373E+01  0.147192800401E+01
 -0.254807232179E+01  0.606971130282E+01  0.153048920352E+01
 -0.109063124309E+01  0.609487337072E+01  0.153498572095E+01
  0.404645118168E+00  0.589618322562E+01  0.146507232377E+01
  0.132933906148E+01  0.536671660752E+01  0.129697172160E+01
  0.236386233509E+01  0.493608661194E+01  0.911631446505E+00
 -0.831354963807E+01  0.426535688126E+01  0.781042273154E+00
 -0.684685039396E+01  0.576636332430E+01  0.105328592027E+01
 -0.537882973791E+01  0.669570658705E+01  0.122078540109E+01
 -0.391107588861E+01  0.727094467894E+01  0.132489804045E+01
 -0.244511728802E+01  0.757098496931E+01  0.137890627334E+01
 -0.983942098007E+00  0.761700369519E+01  0.138870306891E+01
  0.461928427530E+00  0.740834018231E+01  0.134492988135E+01
  0.115167969599E+01  0.689375820671E+01  0.117636735053E+01
  0.196387000000E+01  0.646426000000E+01  0.786055000000E+00
 -0.827852095001E+01 -0.427562755961E+01  0.154227757722E+01
 -0.678688214273E+01 -0.570936319296E+01  0.207222666581E+01
 -0.529310302316E+01 -0.659242374375E+01  0.239902475634E+01
 -0.380209707153E+01 -0.713731288645E+01  0.260210884745E+01
 -0.231116873103E+01 -0.741665622300E+01  0.270850622811E+01
 -0.824019026698E+00 -0.744762385502E+01  0.272964057238E+01
  0.663004734140E+00 -0.724019945167E+01  0.266465659064E+01
  0.159995567523E+01 -0.674782984664E+01  0.234646435027E+01
  0.258678000000E+01 -0.631679000000E+01  0.133751000000E+01
 -0.828080628986E+01 -0.347595250056E+01  0.171904790136E+01
 -0.683519488558E+01 -0.463970120335E+01  0.231373735014E+01
 -0.536134369422E+01 -0.535297057737E+01  0.267604450629E+01
 -0.388563714716E+01 -0.579088902851E+01  0.290250438421E+01
 -0.241029131801E+01 -0.601079327122E+01  0.301995523008E+01
 -0.931026254139E+00 -0.602723375259E+01  0.303733876145E+01
  0.562142191629E+00 -0.584579587607E+01  0.293733682606E+01
  0.161790015268E+01 -0.553757846611E+01  0.257511907175E+01
  0.280435534423E+01 -0.530648539042E+01  0.150071107710E+01
 -0.828287753157E+01 -0.265104632788E+01  0.185582281334E+01
 -0.685730046318E+01 -0.353704456913E+01  0.250265139111E+01
 -0.540949592087E+01 -0.407405748968E+01  0.289442191581E+01
 -0.394895134214E+01 -0.440058663488E+01  0.313537505893E+01
 -0.247895630062E+01 -0.456113170017E+01  0.325665481091E+01
 -0.991685747465E+00 -0.456580265706E+01  0.326357265465E+01
  0.536470044056E+00 -0.441461718675E+01  0.315035972095E+01
  0.169404292161E+01 -0.432039152880E+01  0.276552902020E+01
  0.298305205502E+01 -0.429056204703E+01  0.162292909278E+01
 -0.828558771095E+01 -0.180625011119E+01  0.194951654662E+01
 -0.687347681454E+01 -0.240339871471E+01  0.263212852490E+01
 -0.544176920265E+01 -0.276182845043E+01  0.304277019334E+01
 -0.399253984523E+01 -0.297713506820E+01  0.329444510605E+01
 -0.252441401518E+01 -0.308003983328E+01  0.341748056001E+01
 -0.102655389662E+01 -0.307683420339E+01  0.342080250090E+01
  0.525155427584E+00 -0.296835415309E+01  0.330235321666E+01
  0.176304628521E+01 -0.309113418506E+01  0.289462276469E+01
  0.313338733921E+01 -0.325201149863E+01  0.168605971602E+01
 -0.828980527406E+01 -0.949428291486E+00  0.199778838525E+01
 -0.688503802201E+01 -0.124873962316E+01  0.269753019210E+01
 -0.546367058981E+01 -0.142616718577E+01  0.311798912476E+01
 -0.402154235748E+01 -0.153092306775E+01  0.337489126475E+01
 -0.255430024557E+01 -0.157840391006E+01  0.349924916408E+01
 -0.104990350425E+01 -0.157095453485E+01  0.350225508196E+01
  0.514494819245E+00 -0.150978046504E+01  0.338167926102E+01
  0.181903361215E+01 -0.184593199799E+01  0.296004925168E+01
  0.325073105561E+01 -0.219345707941E+01  0.169050719362E+01
 -0.829319527000E+01 -0.858769109642E-01  0.199602715534E+01
 -0.689353637369E+01 -0.835671385238E-01  0.269698038933E+01
 -0.547784203489E+01 -0.782570646425E-01  0.311725812484E+01
 -0.404038840377E+01 -0.729307158685E-01  0.337367151276E+01
 -0.257522769500E+01 -0.664306440025E-01  0.349671860719E+01
 -0.106944253850E+01 -0.565123130309E-01  0.349729800870E+01
  0.500972109121E+00 -0.453980330819E-01  0.337919922756E+01
  0.187170072722E+01 -0.580379120678E+00  0.293810366414E+01
  0.333333000000E+01 -0.112691000000E+01  0.166667000000E+01
 -0.829629622704E+01  0.777623162109E+00  0.199784163126E+01
 -0.689718650460E+01  0.108198133945E+01  0.269978624363E+01
 -0.548222010049E+01  0.127014679470E+01  0.312117841372E+01
 -0.404576439236E+01  0.138525670710E+01  0.337739041222E+01
 -0.258193693730E+01  0.144513352527E+01  0.349837445868E+01
 -0.107605050999E+01  0.145666951115E+01  0.349299516183E+01
  0.500703610468E+00  0.141413135046E+01  0.336103731654E+01
  0.178063794236E+01  0.894255388899E+00  0.296997220778E+01
  0.317793542682E+01  0.324050810039E+00  0.188133357515E+01
 -0.829804660991E+01  0.163424178100E+01  0.194967674556E+01
 -0.689750626917E+01  0.223783654945E+01  0.263663558371E+01
 -0.547840752369E+01  0.260714129100E+01  0.304937546232E+01
 -0.404053483629E+01  0.283213600991E+01  0.330023085538E+01
 -0.257963902764E+01  0.294592949060E+01  0.341798099807E+01
 -0.108054474693E+01  0.295886603962E+01  0.340971591859E+01
  0.490084970580E+00  0.286344905480E+01  0.326969932497E+01
  0.166928913487E+01  0.235545328121E+01  0.291538959311E+01
  0.297407978406E+01  0.183248615068E+01  0.198299097656E+01
 -0.830139476016E+01  0.247902117091E+01  0.185636545911E+01
 -0.689313351556E+01  0.337313439186E+01  0.250916586836E+01
 -0.546355397011E+01  0.392121852642E+01  0.290424765172E+01
 -0.401962073855E+01  0.425656685882E+01  0.314544901618E+01
 -0.256281382464E+01  0.442645726303E+01  0.326183997822E+01
 -0.108032880936E+01  0.444423508438E+01  0.325576329085E+01
  0.462814340171E+00  0.430107561688E+01  0.311657685442E+01
  0.152275204431E+01  0.380093343201E+01  0.278688020594E+01
  0.270740854681E+01  0.333619844618E+01  0.195669196902E+01
 -0.830643093166E+01  0.330406652651E+01  0.172029881301E+01
 -0.688267826165E+01  0.447722866399E+01  0.232149036057E+01
 -0.543002661097E+01  0.520211386286E+01  0.268827239942E+01
 -0.397491270293E+01  0.564814995151E+01  0.291649114466E+01
 -0.251770498231E+01  0.587671027620E+01  0.303238173600E+01
 -0.105495339287E+01  0.590444335242E+01  0.304266018338E+01
  0.435414494298E+00  0.572871634755E+01  0.290979698693E+01
  0.134070532166E+01  0.523025408422E+01  0.258965595071E+01
  0.236127338809E+01  0.482818455975E+01  0.181622728032E+01
 -0.831259915935E+01  0.410405400309E+01  0.154434431112E+01
 -0.684440147029E+01  0.554868099629E+01  0.208013006125E+01
 -0.537479386969E+01  0.644332371131E+01  0.241125351555E+01
 -0.390446148184E+01  0.699681531500E+01  0.261628138091E+01
 -0.243484861102E+01  0.728486972167E+01  0.272299309820E+01
 -0.968386359703E+00  0.732960718535E+01  0.274097909807E+01
  0.490291941490E+00  0.713040182807E+01  0.265561424647E+01
  0.120711592766E+01  0.665565699991E+01  0.232008922708E+01
  0.199630000000E+01  0.628446000000E+01  0.155276000000E+01
 -0.827876007765E+01 -0.401094813300E+01  0.226655277789E+01
 -0.678501363938E+01 -0.535357931324E+01  0.304444865465E+01
 -0.528933846213E+01 -0.618022411209E+01  0.352386339631E+01
 -0.379519900578E+01 -0.668935225901E+01  0.382112780050E+01
 -0.229999181284E+01 -0.694965646146E+01  0.397668981898E+01
 -0.804889902155E+00 -0.697807498840E+01  0.400444160293E+01
  0.695199748385E+00 -0.678294359909E+01  0.390328660266E+01
  0.165924315708E+01 -0.637046419650E+01  0.343536006160E+01
  0.262348000000E+01 -0.606170000000E+01  0.196500000000E+01
 -0.827964785331E+01 -0.328345652015E+01  0.254104664251E+01
 -0.682346921420E+01 -0.437923643387E+01  0.341719709033E+01
 -0.533853227354E+01 -0.505246783786E+01  0.395352861693E+01
 -0.385318951628E+01 -0.546442968578E+01  0.428702502829E+01
 -0.236754002695E+01 -0.567163106482E+01  0.445899280811E+01
 -0.875851666922E+00 -0.568917352045E+01  0.448461298692E+01
  0.623165418024E+00 -0.552365238556E+01  0.434107731680E+01
  0.166522697337E+01 -0.527953665654E+01  0.382433633512E+01
  0.280939913414E+01 -0.513485447907E+01  0.223644562331E+01
 -0.828073892589E+01 -0.251726825437E+01  0.275660924947E+01
 -0.684263298715E+01 -0.335546122362E+01  0.371182882436E+01
 -0.537634186645E+01 -0.386524430079E+01  0.429321671139E+01
 -0.389984533205E+01 -0.417506550775E+01  0.465173685498E+01
 -0.241779913916E+01 -0.432830370740E+01  0.483283512152E+01
 -0.923664871557E+00 -0.433699103157E+01  0.484761923191E+01
  0.594788515727E+00 -0.419959250303E+01  0.468645409016E+01
  0.172734675117E+01 -0.414559842140E+01  0.413451234985E+01
  0.296563349962E+01 -0.417180682846E+01  0.243695519194E+01
 -0.828476515214E+01 -0.172331324911E+01  0.290876567881E+01
 -0.685604237325E+01 -0.228890321766E+01  0.391734175513E+01
 -0.540301676971E+01 -0.263075258385E+01  0.452953441817E+01
 -0.393531602005E+01 -0.283640771966E+01  0.490605160521E+01
 -0.245483803528E+01 -0.293553777870E+01  0.509190273717E+01
 -0.953013146935E+00 -0.293658991766E+01  0.510191134343E+01
  0.585605167335E+00 -0.283602213884E+01  0.493330744300E+01
  0.179200608377E+01 -0.297968407070E+01  0.434675694625E+01
  0.310603285298E+01 -0.317199381646E+01  0.254258751684E+01
 -0.828829669411E+01 -0.909621295801E+00  0.298928914105E+01
 -0.686657538185E+01 -0.119340900374E+01  0.402809001801E+01
 -0.542263234214E+01 -0.136309200528E+01  0.465650591097E+01
 -0.396124940313E+01 -0.146381785128E+01  0.504255277005E+01
 -0.248197500128E+01 -0.151021645848E+01  0.523096160100E+01
 -0.972546554771E+00 -0.150559464673E+01  0.523899323516E+01
  0.581420909819E+00 -0.144666737546E+01  0.506547020431E+01
  0.185659189773E+01 -0.179058034368E+01  0.445567955693E+01
  0.323000216519E+01 -0.214942748274E+01  0.255121738647E+01
 -0.829179321996E+01 -0.854760082829E-01  0.299708070255E+01
 -0.687480875494E+01 -0.831065367736E-01  0.403990504493E+01
 -0.543645600829E+01 -0.782148746464E-01  0.467011644855E+01
 -0.397999865473E+01 -0.737086692754E-01  0.505684344444E+01
 -0.250383330324E+01 -0.681408754948E-01  0.524420703408E+01
 -0.995342306744E+00 -0.593460562497E-01  0.524894433074E+01
  0.561794909779E+00 -0.441306371843E-01  0.507591948989E+01
  0.190992535329E+01 -0.582920161828E+00  0.442612596131E+01
  0.333333000000E+01 -0.112691000000E+01  0.250000000000E+01
 -0.829511780544E+01  0.738637693327E+00  0.298975156078E+01
 -0.687879292173E+01  0.102748226546E+01  0.403120469069E+01
 -0.544066216253E+01  0.120707729875E+01  0.466113128083E+01
 -0.398566344440E+01  0.131693549602E+01  0.504692953499E+01
 -0.251301001811E+01  0.137433690075E+01  0.523219126212E+01
 -0.101081291293E+01  0.138736636375E+01  0.523172827852E+01
  0.539027762750E+00  0.135724039656E+01  0.504477763863E+01
  0.178835186814E+01  0.843035703313E+00  0.448282264401E+01
  0.315309548286E+01  0.271882761553E+00  0.282820165905E+01
 -0.829794421081E+01  0.155225696446E+01  0.290972827468E+01
 -0.687994053755E+01  0.212371664530E+01  0.392353867017E+01
 -0.543851841771E+01  0.247603609270E+01  0.453888832116E+01
 -0.398246662082E+01  0.269077969272E+01  0.491536389177E+01
 -0.251408177141E+01  0.280072182280E+01  0.509596054732E+01
 -0.102209383010E+01  0.281882806029E+01  0.509269049929E+01
  0.514101544212E+00  0.274374832378E+01  0.489708638771E+01
  0.165814153218E+01  0.225463852816E+01  0.439651245886E+01
  0.292992520394E+01  0.174482992672E+01  0.298409186324E+01
 -0.829986802812E+01  0.234615989264E+01  0.275801770349E+01
 -0.687871247586E+01  0.319147007137E+01  0.372074189748E+01
 -0.542940434696E+01  0.371217142131E+01  0.430678965606E+01
 -0.396946092347E+01  0.403120374200E+01  0.466644052467E+01
 -0.250330924499E+01  0.419460731665E+01  0.484245869860E+01
 -0.102358282454E+01  0.422042698715E+01  0.484184462217E+01
  0.489811778633E+00  0.410306874154E+01  0.464691390396E+01
  0.151941115114E+01  0.363882696807E+01  0.418327286818E+01
  0.267266306716E+01  0.320880523214E+01  0.293641781367E+01
 -0.830511479232E+01  0.311230198917E+01  0.254323414581E+01
 -0.687053043821E+01  0.421636157487E+01  0.342817784229E+01
 -0.540640584005E+01  0.490089611389E+01  0.397090005932E+01
 -0.394089836650E+01  0.532163220188E+01  0.430707852749E+01
 -0.247340275419E+01  0.553842202773E+01  0.447727526575E+01
 -0.999536590458E+00  0.557185459029E+01  0.449440396841E+01
  0.488072452868E+00  0.542166579153E+01  0.431091788657E+01
  0.137620423492E+01  0.497495612784E+01  0.386339191508E+01
  0.237073963212E+01  0.463435195750E+01  0.270135533281E+01
 -0.831092342086E+01  0.383966562725E+01  0.226943915632E+01
 -0.684062896315E+01  0.519198822706E+01  0.305557158682E+01
 -0.536846387780E+01  0.602981455771E+01  0.354153219836E+01
 -0.389424745493E+01  0.654760171704E+01  0.384182584644E+01
 -0.241892576896E+01  0.681659179157E+01  0.399794425393E+01
 -0.942554070848E+00  0.685930699716E+01  0.402282978461E+01
  0.533445877239E+00  0.667482741524E+01  0.389356522709E+01
  0.128205546741E+01  0.626179326563E+01  0.341121932153E+01
  0.204947000000E+01  0.598972000000E+01  0.228122000000E+01
 -0.827805240873E+01 -0.364911610637E+01  0.293426417576E+01
 -0.678321219285E+01 -0.486801851118E+01  0.394149914737E+01
 -0.528445940320E+01 -0.561768589816E+01  0.456124368955E+01
 -0.378694082345E+01 -0.607824936309E+01  0.494497246837E+01
 -0.228591232293E+01 -0.631302133563E+01  0.514397221992E+01
 -0.781720684893E+00 -0.633805244374E+01  0.517647663169E+01
  0.732454152351E+00 -0.615912132556E+01  0.503456315477E+01
  0.173285929920E+01 -0.585552667640E+01  0.443351579777E+01
  0.267357000000E+01 -0.571343000000E+01  0.254410000000E+01
 -0.827774071227E+01 -0.301259028701E+01  0.331849656975E+01
 -0.680745357826E+01 -0.401518295846E+01  0.445915141752E+01
 -0.530888824864E+01 -0.463091246504E+01  0.515995814408E+01
 -0.381360455125E+01 -0.500717684685E+01  0.559381244231E+01
 -0.231547894392E+01 -0.519777974837E+01  0.581619062225E+01
 -0.810182765861E+00 -0.521135802677E+01  0.584629289403E+01
  0.710240008531E+00 -0.507072861435E+01  0.566422703692E+01
  0.174658017216E+01 -0.491298270971E+01  0.501455357086E+01
  0.282518220826E+01 -0.488688099409E+01  0.294787719556E+01
 -0.828060799525E+01 -0.232704086270E+01  0.362573459600E+01
 -0.682084116955E+01 -0.309537114197E+01  0.487143235699E+01
 -0.532993068242E+01 -0.356488946208E+01  0.563656273898E+01
 -0.383639845987E+01 -0.385101206653E+01  0.610835741201E+01
 -0.233798593623E+01 -0.399485309868E+01  0.634667740306E+01
 -0.831524425549E+00 -0.399932914051E+01  0.636998756001E+01
  0.696598870410E+00 -0.389151852106E+01  0.616510954048E+01
  0.179885704244E+01 -0.389465029797E+01  0.547204359307E+01
  0.296248659272E+01 -0.399328387745E+01  0.324037913422E+01
 -0.828335952550E+01 -0.160239781829E+01  0.384421039127E+01
 -0.683107028183E+01 -0.212202593051E+01  0.516678773836E+01
 -0.534707657775E+01 -0.243791101400E+01  0.597637361735E+01
 -0.385651616349E+01 -0.262924252360E+01  0.647631880564E+01
 -0.235894645871E+01 -0.272461310932E+01  0.672410671622E+01
 -0.846926173942E+00 -0.272164954871E+01  0.674239031859E+01
  0.696639490537E+00 -0.264515055363E+01  0.652689483667E+01
  0.186044381765E+01 -0.282110268208E+01  0.578841165586E+01
  0.309550631359E+01 -0.305239014195E+01  0.339882582968E+01
 -0.828594856631E+01 -0.850429005961E+00  0.396906299540E+01
 -0.683932973568E+01 -0.111207587275E+01  0.533642178955E+01
 -0.536103587383E+01 -0.126881036552E+01  0.617176473723E+01
 -0.387437362078E+01 -0.136318048565E+01  0.668694440472E+01
 -0.237708550853E+01 -0.140842429681E+01  0.694084408960E+01
 -0.861478599155E+00 -0.140218233108E+01  0.695378325064E+01
  0.701779013574E+00 -0.135745796762E+01  0.672892167188E+01
  0.193230161254E+01 -0.171201971711E+01  0.595643784472E+01
  0.322438343406E+01 -0.209189817192E+01  0.341358542636E+01
 -0.828919332905E+01 -0.851877129520E-01  0.399656642188E+01
 -0.684652864834E+01 -0.826517549920E-01  0.537536106204E+01
 -0.537275817375E+01 -0.784638765509E-01  0.621661133127E+01
 -0.388986280742E+01 -0.737282095546E-01  0.673551819317E+01
 -0.239606752208E+01 -0.692007847972E-01  0.698969207557E+01
 -0.883193333752E+00 -0.601530052300E-01  0.699971291703E+01
  0.677049357250E+00 -0.507835571796E-01  0.677368588604E+01
  0.198047477645E+01 -0.583911549390E+00  0.593432050261E+01
  0.333333000000E+01 -0.112691000000E+01  0.333333000000E+01
 -0.829265573100E+01  0.680125551132E+00  0.396995672404E+01
 -0.685097018850E+01  0.946669641722E+00  0.534028557294E+01
 -0.537789235993E+01  0.111248970241E+01  0.617741576803E+01
 -0.389657153561E+01  0.121576372359E+01  0.669350450703E+01
 -0.240686546630E+01  0.127122809628E+01  0.694538885837E+01
 -0.902311550853E+00  0.128301023196E+01  0.695303999682E+01
  0.641218842445E+00  0.125920043828E+01  0.671837278631E+01
  0.183200612819E+01  0.767713408030E+00  0.602077663752E+01
  0.313527245764E+01  0.200823873562E+00  0.378040021528E+01
 -0.829638757171E+01  0.143195249538E+01  0.384600484907E+01
 -0.685414261457E+01  0.195724061599E+01  0.517396522562E+01
 -0.537994589529E+01  0.228220736819E+01  0.598809773555E+01
 -0.390020826747E+01  0.248307833722E+01  0.648873470714E+01
 -0.241366658194E+01  0.258861202402E+01  0.673444095641E+01
 -0.920153730085E+00  0.260504617256E+01  0.674074722504E+01
  0.605710525064E+00  0.255193928706E+01  0.650065029877E+01
  0.168116023674E+01  0.210172872751E+01  0.589786533579E+01
  0.289995727057E+01  0.160491329747E+01  0.398809168150E+01
 -0.829940600317E+01  0.215658519700E+01  0.362804952806E+01
 -0.685463875182E+01  0.293133426258E+01  0.488201400054E+01
 -0.537900526862E+01  0.341089423057E+01  0.565245044440E+01
 -0.389967417454E+01  0.370577973690E+01  0.612689636699E+01
 -0.241668057598E+01  0.386063467486E+01  0.636139396259E+01
 -0.928971093269E+00  0.388333596924E+01  0.637088253874E+01
  0.577346750178E+00  0.380118616394E+01  0.613371672991E+01
  0.154720335579E+01  0.339284125743E+01  0.557341083913E+01
  0.264911646499E+01  0.301116625415E+01  0.390952936714E+01
 -0.830217870409E+01  0.284228897293E+01  0.332115069290E+01
 -0.685309584657E+01  0.385255352710E+01  0.447134776878E+01
 -0.537428495784E+01  0.447883574376E+01  0.517983977948E+01
 -0.389794667643E+01  0.486394386774E+01  0.561699196350E+01
 -0.241671999355E+01  0.506565961420E+01  0.583762697746E+01
 -0.931243786766E+00  0.509612042160E+01  0.585921288884E+01
  0.570446230123E+00  0.498140331642E+01  0.563570023622E+01
  0.143072270408E+01  0.461398185662E+01  0.509593487916E+01
  0.239262223121E+01  0.435537984463E+01  0.355573043447E+01
 -0.830797516029E+01  0.347853039310E+01  0.293774690743E+01
 -0.683632410329E+01  0.470553850654E+01  0.395641775267E+01
 -0.536033200584E+01  0.546582933958E+01  0.458440621255E+01
 -0.388173662980E+01  0.593510780989E+01  0.497246325002E+01
 -0.239921542843E+01  0.617871049471E+01  0.517323936355E+01
 -0.913213854247E+00  0.621846581981E+01  0.520401490815E+01
  0.582134915386E+00  0.605408393368E+01  0.503434692185E+01
  0.137940215812E+01  0.572553946827E+01  0.442741420749E+01
  0.212207000000E+01  0.558730000000E+01  0.295352000000E+01
 -0.827680943630E+01 -0.319872339647E+01  0.352970788968E+01
 -0.678146165776E+01 -0.426504742411E+01  0.474142574358E+01
 -0.527975484472E+01 -0.491875138367E+01  0.548571084663E+01
 -0.377770064939E+01 -0.531984088791E+01  0.594601503844E+01
 -0.227178930987E+01 -0.552275432470E+01  0.618358082185E+01
 -0.758605407760E+00 -0.554367142516E+01  0.621472628578E+01
  0.770870396694E+00 -0.538541123462E+01  0.603563689585E+01
  0.181483819049E+01 -0.521407821755E+01  0.531851171702E+01
  0.273585000000E+01 -0.528053000000E+01  0.306056000000E+01
 -0.827852822481E+01 -0.267363431780E+01  0.404036837839E+01
 -0.677988534791E+01 -0.355884960179E+01  0.542391419485E+01
 -0.527529316128E+01 -0.410110326275E+01  0.627543869842E+01
 -0.377007753651E+01 -0.443293414650E+01  0.680039386095E+01
 -0.225827899950E+01 -0.459917858477E+01  0.706932957557E+01
 -0.738802074295E+00 -0.461449933617E+01  0.709872583686E+01
  0.801393264270E+00 -0.448136825320E+01  0.688212684548E+01
  0.190292213013E+01 -0.443568469301E+01  0.609589979347E+01
  0.283639000000E+01 -0.458160000000E+01  0.363581000000E+01
 -0.827999852481E+01 -0.208476959024E+01  0.445035117722E+01
 -0.677917844314E+01 -0.276703191893E+01  0.597404874358E+01
 -0.527304842031E+01 -0.318510403054E+01  0.691021194625E+01
 -0.376363611477E+01 -0.343951526427E+01  0.748887719433E+01
 -0.224949565377E+01 -0.356526906473E+01  0.777964138546E+01
 -0.721782533695E+00 -0.357486624946E+01  0.780892038602E+01
  0.819895155621E+00 -0.346767806262E+01  0.756104167139E+01
  0.198960142336E+01 -0.356141610784E+01  0.670668224187E+01
  0.295176000000E+01 -0.377956000000E+01  0.404840000000E+01
 -0.828098871891E+01 -0.144581412848E+01  0.475030190154E+01
 -0.678050550743E+01 -0.190993873160E+01  0.637691862265E+01
 -0.527233307952E+01 -0.219254620394E+01  0.737655685890E+01
 -0.376195897095E+01 -0.236448196180E+01  0.799292407861E+01
 -0.224339852522E+01 -0.244650320166E+01  0.830095604220E+01
 -0.715712629971E+00 -0.245003678808E+01  0.832696225140E+01
  0.834118336581E+00 -0.237178720673E+01  0.805656154789E+01
  0.206657071618E+01 -0.261025971045E+01  0.714020846268E+01
  0.307680000000E+01 -0.291030000000E+01  0.427989000000E+01
 -0.828276866353E+01 -0.773957417341E+00  0.493315755006E+01
 -0.678311329426E+01 -0.100723297130E+01  0.662392350947E+01
 -0.527538309713E+01 -0.114926798549E+01  0.766160774943E+01
 -0.376333567045E+01 -0.123254886728E+01  0.830296014932E+01
 -0.224553241066E+01 -0.127170223765E+01  0.861813268408E+01
 -0.713563761717E+00 -0.126624881663E+01  0.864614508516E+01
  0.824704785042E+00 -0.122002712598E+01  0.835200613898E+01
  0.213935078799E+01 -0.160892671361E+01  0.738125812879E+01
  0.320592000000E+01 -0.201270000000E+01  0.431991000000E+01
 -0.828548825003E+01 -0.846764487404E-01  0.499515244467E+01
 -0.678769246664E+01 -0.828897763833E-01  0.670818008681E+01
 -0.528133973057E+01 -0.784444897517E-01  0.775991238775E+01
 -0.377031551325E+01 -0.741802010103E-01  0.840932021430E+01
 -0.225299201717E+01 -0.656474637488E-01  0.872801368086E+01
 -0.722745382485E+00 -0.569511718979E-01  0.875263186916E+01
  0.817977422765E+00 -0.358681079456E-01  0.845703666763E+01
  0.217148323201E+01 -0.581874471317E+00  0.739610928616E+01
  0.333333000000E+01 -0.112691000000E+01  0.416667000000E+01
 -0.828897145317E+01  0.603856853713E+00  0.493464690523E+01
 -0.679421137145E+01  0.842541111111E+00  0.662792036290E+01
 -0.529027385936E+01  0.990946174105E+00  0.766856451983E+01
 -0.378266669086E+01  0.108614086458E+01  0.831025207387E+01
 -0.226670914361E+01  0.113736166501E+01  0.862623361468E+01
 -0.739635241014E+00  0.115566049769E+01  0.864904329203E+01
  0.798276164591E+00  0.113945610550E+01  0.834923471365E+01
  0.205278379818E+01  0.661099382431E+00  0.749050196743E+01
  0.311477000000E+01  0.846185000000E-01  0.477384000000E+01
 -0.829314568366E+01  0.127604513657E+01  0.475265118233E+01
 -0.680175829580E+01  0.174435267636E+01  0.638549269192E+01
 -0.530302840202E+01  0.203543220240E+01  0.738878145756E+01
 -0.379816232385E+01  0.221662490256E+01  0.800904424088E+01
 -0.228855053932E+01  0.231286115951E+01  0.831348505278E+01
 -0.761630601707E+00  0.233525263718E+01  0.833780179972E+01
  0.765444844459E+00  0.228769616005E+01  0.803670376439E+01
  0.192145427691E+01  0.187988275640E+01  0.731234569615E+01
  0.287533000000E+01  0.141185000000E+01  0.502046000000E+01
 -0.829732377901E+01  0.191450558481E+01  0.445374915909E+01
 -0.681093877451E+01  0.260175871617E+01  0.598546311924E+01
 -0.531685364726E+01  0.302773189936E+01  0.692865856786E+01
 -0.381938950486E+01  0.329194982836E+01  0.751023836548E+01
 -0.231323799603E+01  0.342965465191E+01  0.780002334137E+01
 -0.796872008128E+00  0.345690227533E+01  0.782092700795E+01
  0.729885117730E+00  0.337668852765E+01  0.754069155517E+01
  0.177053736350E+01  0.304422563160E+01  0.687018265662E+01
  0.263311000000E+01  0.275453000000E+01  0.488788000000E+01
 -0.830048051033E+01  0.250346157613E+01  0.404365653664E+01
 -0.682000706467E+01  0.339320908493E+01  0.543840548004E+01
 -0.533327402501E+01  0.394423653687E+01  0.629690049925E+01
 -0.384142539514E+01  0.428473060833E+01  0.682669698343E+01
 -0.234469243200E+01  0.446063342710E+01  0.709369809018E+01
 -0.835778946219E+00  0.449234756673E+01  0.711632745028E+01
  0.679237911108E+00  0.437891241958E+01  0.686678019431E+01
  0.162390096958E+01  0.411116095579E+01  0.620358034699E+01
  0.240640000000E+01  0.401125000000E+01  0.438612000000E+01
 -0.830314291228E+01  0.302872550285E+01  0.353291834869E+01
 -0.683126197801E+01  0.410364422605E+01  0.475401113175E+01
 -0.535049015168E+01  0.476616785832E+01  0.550847722862E+01
 -0.386708163207E+01  0.517563306065E+01  0.597362884429E+01
 -0.237995529022E+01  0.538759193870E+01  0.621266326407E+01
 -0.885287777840E+00  0.542252410960E+01  0.624218099005E+01
  0.618520255293E+00  0.528230938481E+01  0.603061172582E+01
  0.147637889622E+01  0.505012204539E+01  0.535046788043E+01
  0.221231000000E+01  0.508710000000E+01  0.355309000000E+01
  0.500000000000E+01 -0.169037000000E+01  0.489859000000E-15
  0.527591000000E+01 -0.788220000000E+00  0.391887000000E-15
  0.575887000000E+01 -0.658810000000E+00  0.391887000000E-15
  0.624183000000E+01 -0.529401000000E+00  0.391887000000E-15
  0.672480000000E+01 -0.399991000000E+00  0.391887000000E-15
  0.720776000000E+01 -0.270582000000E+00  0.391887000000E-15
  0.769072000000E+01 -0.141172000000E+00  0.391887000000E-15
  0.817369000000E+01 -0.117629000000E-01  0.391887000000E-15
  0.865665000000E+01  0.117647000000E+00  0.391887000000E-15
  0.913961000000E+01  0.247056000000E+00  0.391887000000E-15
  0.962257000000E+01  0.376466000000E+00  0.391887000000E-15
  0.466101428814E+01 -0.157893862171E+00  0.391887000000E-15
  0.505640206632E+01  0.468615210790E+00  0.313510000000E-15
  0.554061784887E+01  0.579770894445E+00  0.313510000000E-15
  0.601359191993E+01  0.710005020080E+00  0.313510000000E-15
  0.648349634962E+01  0.838827573416E+00  0.313510000000E-15
  0.695211631566E+01  0.966376997825E+00  0.313510000000E-15
  0.742044858679E+01  0.109302129352E+01  0.313510000000E-15
  0.788882355279E+01  0.121922214623E+01  0.313510000000E-15
  0.835734684463E+01  0.134549478379E+01  0.313510000000E-15
  0.882607137861E+01  0.147207673787E+01  0.313510000000E-15
  0.929129000000E+01  0.161285000000E+01  0.313510000000E-15
  0.439796957879E+01  0.138139456003E+01  0.293915000000E-15
  0.484400840003E+01  0.170811748417E+01  0.235132000000E-15
  0.531695539460E+01  0.184036126477E+01  0.235132000000E-15
  0.577248871117E+01  0.197245441226E+01  0.235132000000E-15
  0.622409078801E+01  0.210025880332E+01  0.235132000000E-15
  0.667597183534E+01  0.222462539439E+01  0.235132000000E-15
  0.712890993515E+01  0.234772062192E+01  0.235132000000E-15
  0.758308352416E+01  0.247034049675E+01  0.235132000000E-15
  0.803874681497E+01  0.259286142370E+01  0.235132000000E-15
  0.849656007949E+01  0.271738042020E+01  0.235132000000E-15
  0.896000000000E+01  0.284924000000E+01  0.235132000000E-15
  0.403268527380E+01  0.290121042873E+01  0.195943000000E-15
  0.454000195487E+01  0.292623017515E+01  0.156755000000E-15
  0.499503350760E+01  0.309656772478E+01  0.156755000000E-15
  0.544259231962E+01  0.323415390054E+01  0.156755000000E-15
  0.589131130117E+01  0.335985857440E+01  0.156755000000E-15
  0.634159039208E+01  0.348277063927E+01  0.156755000000E-15
  0.679374555810E+01  0.360461048245E+01  0.156755000000E-15
  0.724753845858E+01  0.372625226852E+01  0.156755000000E-15
  0.770297850575E+01  0.384810580306E+01  0.156755000000E-15
  0.816149467607E+01  0.396887072565E+01  0.156755000000E-15
  0.862871000000E+01  0.408562000000E+01  0.156755000000E-15
  0.348344978411E+01  0.445990526856E+01  0.979717000000E-16
  0.410794903537E+01  0.414290230787E+01  0.783774000000E-16
  0.454995026211E+01  0.432802069899E+01  0.783774000000E-16
  0.501223235420E+01  0.445768323318E+01  0.783774000000E-16
  0.547797594377E+01  0.458513420501E+01  0.783774000000E-16
  0.594573592906E+01  0.471077275637E+01  0.783774000000E-16
  0.641448789950E+01  0.483620236200E+01  0.783774000000E-16
  0.688377852621E+01  0.496161915357E+01  0.783774000000E-16
  0.735349369959E+01  0.508682160127E+01  0.783774000000E-16
  0.782353263706E+01  0.521168145122E+01  0.783774000000E-16
  0.829742000000E+01  0.532201000000E+01  0.783774000000E-16
  0.292945000000E+01  0.603704000000E+01 -0.111072586765E-28
  0.361947000000E+01  0.539371000000E+01 -0.716394896118E-28
  0.410243000000E+01  0.552311000000E+01 -0.748068550885E-29
  0.458539000000E+01  0.565252000000E+01 -0.359365322695E-28
  0.506835000000E+01  0.578193000000E+01 -0.415250332744E-28
  0.555132000000E+01  0.591134000000E+01 -0.431171100840E-28
  0.603428000000E+01  0.604075000000E+01 -0.430103851211E-28
  0.651724000000E+01  0.617016000000E+01 -0.423642451016E-28
  0.700021000000E+01  0.629957000000E+01 -0.413825887379E-28
  0.748317000000E+01  0.642898000000E+01 -0.369048560023E-28
  0.796613000000E+01  0.655839000000E+01 -0.125254861401E-28
  0.498725000000E+01 -0.164280000000E+01  0.625738000000E+00
  0.526571000000E+01 -0.750165000000E+00  0.500590000000E+00
  0.574867000000E+01 -0.620756000000E+00  0.500590000000E+00
  0.623164000000E+01 -0.491346000000E+00  0.500590000000E+00
  0.671460000000E+01 -0.361937000000E+00  0.500590000000E+00
  0.719756000000E+01 -0.232527000000E+00  0.500590000000E+00
  0.768053000000E+01 -0.103118000000E+00  0.500590000000E+00
  0.816349000000E+01  0.262920000000E-01  0.500590000000E+00
  0.864645000000E+01  0.155702000000E+00  0.500590000000E+00
  0.912941000000E+01  0.285111000000E+00  0.500590000000E+00
  0.961238000000E+01  0.414521000000E+00  0.500590000000E+00
  0.465215105463E+01 -0.152203375991E+00  0.768685355664E+00
  0.504815207009E+01  0.471399129280E+00  0.609455698035E+00
  0.553130802484E+01  0.583348952865E+00  0.620347886052E+00
  0.600475490723E+01  0.713838908715E+00  0.623264446545E+00
  0.647574156478E+01  0.842834367217E+00  0.624091651675E+00
  0.694562419370E+01  0.970648170708E+00  0.624192336102E+00
  0.741522822721E+01  0.109758681929E+01  0.624063527126E+00
  0.788480614910E+01  0.122406737410E+01  0.623862097812E+00
  0.835447399098E+01  0.135057316245E+01  0.623495967809E+00
  0.882417302103E+01  0.147721202597E+01  0.622541648336E+00
  0.929009000000E+01  0.161731000000E+01  0.618286000000E+00
  0.438193104828E+01  0.137978969737E+01  0.829779602374E+00
  0.483184086541E+01  0.170471853515E+01  0.669570622060E+00
  0.530450437792E+01  0.183674290841E+01  0.685170305731E+00
  0.576107639333E+01  0.196870014520E+01  0.691743261342E+00
  0.621453339428E+01  0.209670027565E+01  0.693753551249E+00
  0.666855473629E+01  0.222149530747E+01  0.693673480108E+00
  0.712364391544E+01  0.234509609959E+01  0.692950427040E+00
  0.757984272639E+01  0.246820031803E+01  0.691948780934E+00
  0.803726229148E+01  0.259113553372E+01  0.690269864470E+00
  0.849637809962E+01  0.271586407975E+01  0.686873842193E+00
  0.896044000000E+01  0.284757000000E+01  0.680162000000E+00
  0.401348035009E+01  0.290540470396E+01  0.826775919226E+00
  0.452619994970E+01  0.292709792982E+01  0.671003881349E+00
  0.498145436797E+01  0.309575064270E+01  0.685738402814E+00
  0.543028403150E+01  0.323275729176E+01  0.693008281126E+00
  0.588095631595E+01  0.335862212265E+01  0.694778118785E+00
  0.633346818328E+01  0.348196209300E+01  0.694356835442E+00
  0.678782156829E+01  0.360433335209E+01  0.693364802643E+00
  0.724364439743E+01  0.372650821014E+01  0.692195454600E+00
  0.770083700790E+01  0.384885739495E+01  0.690426626002E+00
  0.816057751982E+01  0.397008579183E+01  0.686975772873E+00
  0.862826000000E+01  0.408729000000E+01  0.680162000000E+00
  0.347221598035E+01  0.445753400829E+01  0.764152821588E+00
  0.409899234674E+01  0.413896281316E+01  0.612465752282E+00
  0.454199294934E+01  0.432090711673E+01  0.624444066141E+00
  0.500574564313E+01  0.445022416487E+01  0.625540566818E+00
  0.547303667202E+01  0.457794229991E+01  0.625052185899E+00
  0.594224238669E+01  0.470392736001E+01  0.624346717702E+00
  0.641232634008E+01  0.482971659413E+01  0.623824620276E+00
  0.688281673472E+01  0.495547449049E+01  0.623470875351E+00
  0.735359712053E+01  0.508102093949E+01  0.623089040847E+00
  0.782446209840E+01  0.520629816538E+01  0.622237821297E+00
  0.829861000000E+01  0.531755000000E+01  0.618286000000E+00
  0.294219000000E+01  0.598947000000E+01  0.625738000000E+00
  0.362966000000E+01  0.535565000000E+01  0.500590000000E+00
  0.411263000000E+01  0.548506000000E+01  0.500590000000E+00
  0.459559000000E+01  0.561447000000E+01  0.500590000000E+00
  0.507855000000E+01  0.574388000000E+01  0.500590000000E+00
  0.556151000000E+01  0.587329000000E+01  0.500590000000E+00
  0.604448000000E+01  0.600270000000E+01  0.500590000000E+00
  0.652744000000E+01  0.613211000000E+01  0.500590000000E+00
  0.701040000000E+01  0.626152000000E+01  0.500590000000E+00
  0.749337000000E+01  0.639093000000E+01  0.500590000000E+00
  0.797633000000E+01  0.652034000000E+01  0.500590000000E+00
  0.494933000000E+01 -0.150127000000E+01  0.123607000000E+01
  0.523537000000E+01 -0.636938000000E+00  0.988854000000E+00
  0.571833000000E+01 -0.507528000000E+00  0.988854000000E+00
  0.620130000000E+01 -0.378118000000E+00  0.988854000000E+00
  0.668426000000E+01 -0.248709000000E+00  0.988854000000E+00
  0.716722000000E+01 -0.119299000000E+00  0.988854000000E+00
  0.765019000000E+01  0.101101000000E-01  0.988854000000E+00
  0.813315000000E+01  0.139520000000E+00  0.988854000000E+00
  0.861611000000E+01  0.268929000000E+00  0.988854000000E+00
  0.909907000000E+01  0.398339000000E+00  0.988854000000E+00
  0.958204000000E+01  0.527748000000E+00  0.988854000000E+00
  0.461788277717E+01 -0.911334535308E-01  0.152621923512E+01
  0.501681269253E+01  0.516145670902E+00  0.121039322678E+01
  0.549723739255E+01  0.630659377271E+00  0.122832463717E+01
  0.597219019513E+01  0.761759485359E+00  0.123256092851E+01
  0.644610790048E+01  0.891304862148E+00  0.123364272858E+01
  0.691921970987E+01  0.101988206599E+01  0.123373676284E+01
  0.739199996413E+01  0.114753538417E+01  0.123353538636E+01
  0.786463783350E+01  0.127467870673E+01  0.123327042396E+01
  0.833709046425E+01  0.140182544318E+01  0.123278244321E+01
  0.880922880265E+01  0.152863289842E+01  0.123142091906E+01
  0.927681000000E+01  0.166687000000E+01  0.122425000000E+01
  0.433216968623E+01  0.139772385283E+01  0.165422207542E+01
  0.479284283453E+01  0.171265778280E+01  0.132952440193E+01
  0.526419591180E+01  0.184449870649E+01  0.135750740881E+01
  0.572386210546E+01  0.197613769597E+01  0.136792196644E+01
  0.618270586811E+01  0.210482362184E+01  0.137059669209E+01
  0.664284574870E+01  0.223093143052E+01  0.137015887718E+01
  0.710399349669E+01  0.235592610213E+01  0.136893082108E+01
  0.756583851614E+01  0.248036873915E+01  0.136742217094E+01
  0.802817073288E+01  0.260447163564E+01  0.136492224260E+01
  0.849101638075E+01  0.272982068750E+01  0.135956058672E+01
  0.895686000000E+01  0.286093000000E+01  0.134800000000E+01
  0.396617886809E+01  0.289555411452E+01  0.164801511628E+01
  0.449174787674E+01  0.291199795436E+01  0.133171253808E+01
  0.494744426525E+01  0.307515127528E+01  0.135881629284E+01
  0.540011043126E+01  0.321049840457E+01  0.137037748924E+01
  0.585658627846E+01  0.333683602896E+01  0.137244787907E+01
  0.631552826192E+01  0.346142005133E+01  0.137135586881E+01
  0.677609224249E+01  0.358528479392E+01  0.136965420577E+01
  0.723760143830E+01  0.370898388368E+01  0.136786274692E+01
  0.769966139936E+01  0.383271739075E+01  0.136521410563E+01
  0.816293729261E+01  0.395527058213E+01  0.135976014807E+01
  0.863184000000E+01  0.407393000000E+01  0.134800000000E+01
  0.345619912130E+01  0.440429233203E+01  0.151968147963E+01
  0.408591906388E+01  0.409133555151E+01  0.121492919502E+01
  0.453210931064E+01  0.426427338608E+01  0.123496637274E+01
  0.499981429658E+01  0.439316427075E+01  0.123613745832E+01
  0.547118410389E+01  0.452159466273E+01  0.123505786084E+01
  0.594416826932E+01  0.464841775130E+01  0.123386403964E+01
  0.641752603844E+01  0.477509815868E+01  0.123307563408E+01
  0.689095572479E+01  0.490173989181E+01  0.123259025673E+01
  0.736434298429E+01  0.502805796545E+01  0.123209029508E+01
  0.783728069349E+01  0.515435009836E+01  0.123089910519E+01
  0.831189000000E+01  0.526799000000E+01  0.122425000000E+01
  0.298012000000E+01  0.584793000000E+01  0.123607000000E+01
  0.366000000000E+01  0.524242000000E+01  0.988854000000E+00
  0.414296000000E+01  0.537183000000E+01  0.988854000000E+00
  0.462593000000E+01  0.550124000000E+01  0.988854000000E+00
  0.510889000000E+01  0.563065000000E+01  0.988854000000E+00
  0.559185000000E+01  0.576006000000E+01  0.988854000000E+00
  0.607482000000E+01  0.588947000000E+01  0.988854000000E+00
  0.655778000000E+01  0.601888000000E+01  0.988854000000E+00
  0.704074000000E+01  0.614829000000E+01  0.988854000000E+00
  0.752371000000E+01  0.627770000000E+01  0.988854000000E+00
  0.800667000000E+01  0.640711000000E+01  0.988854000000E+00
  0.488716000000E+01 -0.126925000000E+01  0.181596000000E+01
  0.518564000000E+01 -0.451325000000E+00  0.145277000000E+01
  0.566860000000E+01 -0.321916000000E+00  0.145277000000E+01
  0.615156000000E+01 -0.192506000000E+00  0.145277000000E+01
  0.663453000000E+01 -0.630967000000E-01  0.145277000000E+01
  0.711749000000E+01  0.663128000000E-01  0.145277000000E+01
  0.760045000000E+01  0.195722000000E+00  0.145277000000E+01
  0.808341000000E+01  0.325132000000E+00  0.145277000000E+01
  0.856638000000E+01  0.454541000000E+00  0.145277000000E+01
  0.904934000000E+01  0.583951000000E+00  0.145277000000E+01
  0.953230000000E+01  0.713360000000E+00  0.145277000000E+01
  0.456156199643E+01  0.234337531360E-01  0.226162546183E+01
  0.496501278300E+01  0.601783039275E+00  0.179295173312E+01
  0.544209126842E+01  0.720793705196E+00  0.181134883670E+01
  0.592013346709E+01  0.852670430685E+00  0.181447823158E+01
  0.639841290272E+01  0.983258211417E+00  0.181526767638E+01
  0.687588514598E+01  0.111257657743E+01  0.181533914544E+01
  0.735289861811E+01  0.124106909342E+01  0.181516350969E+01
  0.782962646277E+01  0.136910010435E+01  0.181494346645E+01
  0.830616196973E+01  0.149693415245E+01  0.181467402970E+01
  0.878166728482E+01  0.162432421855E+01  0.181375897624E+01
  0.925190000000E+01  0.175986000000E+01  0.180586000000E+01
  0.425707755643E+01  0.143292713036E+01  0.246709610612E+01
  0.473054063358E+01  0.173179509032E+01  0.197135441002E+01
  0.519949027259E+01  0.186348831000E+01  0.200407936394E+01
  0.566509874304E+01  0.199482907210E+01  0.201298021307E+01
  0.613303030694E+01  0.212508337840E+01  0.201458931742E+01
  0.660254182035E+01  0.225297828946E+01  0.201381218620E+01
  0.707256735613E+01  0.237991503216E+01  0.201257559609E+01
  0.754262501429E+01  0.250627275376E+01  0.201127669879E+01
  0.801234939418E+01  0.263203762928E+01  0.200933176003E+01
  0.848065482755E+01  0.275847464983E+01  0.200451506787E+01
  0.894940000000E+01  0.288877000000E+01  0.199149000000E+01
  0.389752000014E+01  0.287090018585E+01  0.245894775443E+01
  0.443901016116E+01  0.288130356770E+01  0.197323230912E+01
  0.489530821542E+01  0.303540129416E+01  0.200624037377E+01
  0.535528446161E+01  0.316867359001E+01  0.201605093505E+01
  0.582196210908E+01  0.329612026612E+01  0.201663374158E+01
  0.629088708116E+01  0.342273901861E+01  0.201509729036E+01
  0.676059774120E+01  0.354887941056E+01  0.201336296709E+01
  0.723040090711E+01  0.367482818467E+01  0.201177741729E+01
  0.769977838880E+01  0.380077021347E+01  0.200968934663E+01
  0.816833085321E+01  0.392515097414E+01  0.200478316335E+01
  0.863930000000E+01  0.404608000000E+01  0.199149000000E+01
  0.344455927396E+01  0.429741628669E+01  0.225474489213E+01
  0.407324973487E+01  0.400160407449E+01  0.179663968768E+01
  0.452437679702E+01  0.416125240323E+01  0.181837848279E+01
  0.499811395542E+01  0.428990826068E+01  0.181787873234E+01
  0.547565273954E+01  0.441896157164E+01  0.181638382273E+01
  0.595349661226E+01  0.454701795303E+01  0.181527709245E+01
  0.643107758093E+01  0.467488770078E+01  0.181458326996E+01
  0.690834499296E+01  0.480266227564E+01  0.181419198331E+01
  0.738539774122E+01  0.493033806267E+01  0.181392435092E+01
  0.786135242381E+01  0.505774705465E+01  0.181317833399E+01
  0.833681000000E+01  0.517500000000E+01  0.180586000000E+01
  0.304229000000E+01  0.561592000000E+01  0.181596000000E+01
  0.370974000000E+01  0.505681000000E+01  0.145277000000E+01
  0.419270000000E+01  0.518622000000E+01  0.145277000000E+01
  0.467566000000E+01  0.531563000000E+01  0.145277000000E+01
  0.515863000000E+01  0.544504000000E+01  0.145277000000E+01
  0.564159000000E+01  0.557445000000E+01  0.145277000000E+01
  0.612455000000E+01  0.570386000000E+01  0.145277000000E+01
  0.660751000000E+01  0.583327000000E+01  0.145277000000E+01
  0.709048000000E+01  0.596268000000E+01  0.145277000000E+01
  0.757344000000E+01  0.609209000000E+01  0.145277000000E+01
  0.805640000000E+01  0.622150000000E+01  0.145277000000E+01
  0.480228000000E+01 -0.952469000000E+00  0.235114000000E+01
  0.511773000000E+01 -0.197899000000E+00  0.188091000000E+01
  0.560069000000E+01 -0.684892000000E-01  0.188091000000E+01
  0.608366000000E+01  0.609204000000E-01  0.188091000000E+01
  0.656662000000E+01  0.190330000000E+00  0.188091000000E+01
  0.704958000000E+01  0.319739000000E+00  0.188091000000E+01
  0.753255000000E+01  0.449149000000E+00  0.188091000000E+01
  0.801551000000E+01  0.578558000000E+00  0.188091000000E+01
  0.849847000000E+01  0.707968000000E+00  0.188091000000E+01
  0.898143000000E+01  0.837378000000E+00  0.188091000000E+01
  0.946440000000E+01  0.966787000000E+00  0.188091000000E+01
  0.448594636935E+01  0.182513513359E+00  0.296403034349E+01
  0.489427660328E+01  0.729437085442E+00  0.234584440687E+01
  0.537165228014E+01  0.853466963205E+00  0.235601904343E+01
  0.585498458673E+01  0.986753368456E+00  0.235711567845E+01
  0.633780771030E+01  0.111676153999E+01  0.235755475388E+01
  0.681954785389E+01  0.124634744045E+01  0.235758892568E+01
  0.730069985869E+01  0.137543481408E+01  0.235750104371E+01
  0.778151304172E+01  0.150430198171E+01  0.235743414077E+01
  0.826213116676E+01  0.163332973401E+01  0.235722493727E+01
  0.874296936372E+01  0.176104566965E+01  0.235750862211E+01
  0.921608000000E+01  0.189354000000E+01  0.235170000000E+01
  0.416424532534E+01  0.148591238965E+01  0.326227772320E+01
  0.464876154850E+01  0.176308238920E+01  0.258718540579E+01
  0.511772106647E+01  0.189531354057E+01  0.260994195446E+01
  0.559500687261E+01  0.202778717905E+01  0.261233751542E+01
  0.607456501934E+01  0.215871521470E+01  0.261303926489E+01
  0.655435481891E+01  0.228803572681E+01  0.261249427635E+01
  0.703357975845E+01  0.241679523182E+01  0.261191780655E+01
  0.751222847432E+01  0.254520184883E+01  0.261140411539E+01
  0.799027221919E+01  0.267309450998E+01  0.261051917160E+01
  0.846656113274E+01  0.280080233154E+01  0.260926612773E+01
  0.893831000000E+01  0.293018000000E+01  0.259920000000E+01
  0.381317261864E+01  0.283499617052E+01  0.325757023560E+01
  0.437025404686E+01  0.283525519373E+01  0.258849357502E+01
  0.483052264205E+01  0.297789159389E+01  0.261222929144E+01
  0.530566392721E+01  0.310996117518E+01  0.261426300658E+01
  0.578558112414E+01  0.323950149760E+01  0.261418979072E+01
  0.626546274359E+01  0.336868361908E+01  0.261323279069E+01
  0.674471963141E+01  0.349728831732E+01  0.261239335944E+01
  0.722332827194E+01  0.362556856543E+01  0.261173597733E+01
  0.770114431899E+01  0.375381864420E+01  0.261077678356E+01
  0.817733096445E+01  0.388120079982E+01  0.260950490656E+01
  0.865040000000E+01  0.400468000000E+01  0.259920000000E+01
  0.343875688468E+01  0.414426316423E+01  0.295754391818E+01
  0.406322695487E+01  0.387004640341E+01  0.234772740964E+01
  0.452262706733E+01  0.401487830650E+01  0.236102569752E+01
  0.500698484530E+01  0.414323220258E+01  0.235854032133E+01
  0.549003615053E+01  0.427406830590E+01  0.235795187089E+01
  0.597234122809E+01  0.440347809690E+01  0.235732794760E+01
  0.645383453090E+01  0.453262194148E+01  0.235702137647E+01
  0.693487969000E+01  0.466155538885E+01  0.235688756981E+01
  0.741581726957E+01  0.479015207017E+01  0.235669960893E+01
  0.789629528361E+01  0.491995210065E+01  0.235705211630E+01
  0.837263000000E+01  0.504132000000E+01  0.235170000000E+01
  0.312717000000E+01  0.529913000000E+01  0.235114000000E+01
  0.377764000000E+01  0.480338000000E+01  0.188091000000E+01
  0.426060000000E+01  0.493279000000E+01  0.188091000000E+01
  0.474357000000E+01  0.506220000000E+01  0.188091000000E+01
  0.522653000000E+01  0.519161000000E+01  0.188091000000E+01
  0.570949000000E+01  0.532102000000E+01  0.188091000000E+01
  0.619246000000E+01  0.545043000000E+01  0.188091000000E+01
  0.667542000000E+01  0.557984000000E+01  0.188091000000E+01
  0.715838000000E+01  0.570925000000E+01  0.188091000000E+01
  0.764135000000E+01  0.583866000000E+01  0.188091000000E+01
  0.812431000000E+01  0.596807000000E+01  0.188091000000E+01
  0.469677000000E+01 -0.558718000000E+00  0.282843000000E+01
  0.503333000000E+01  0.117102000000E+00  0.226274000000E+01
  0.551629000000E+01  0.246512000000E+00  0.226274000000E+01
  0.599925000000E+01  0.375921000000E+00  0.226274000000E+01
  0.648222000000E+01  0.505331000000E+00  0.226274000000E+01
  0.696518000000E+01  0.634740000000E+00  0.226274000000E+01
  0.744814000000E+01  0.764150000000E+00  0.226274000000E+01
  0.793110000000E+01  0.893559000000E+00  0.226274000000E+01
  0.841407000000E+01  0.102297000000E+01  0.226274000000E+01
  0.889703000000E+01  0.115238000000E+01  0.226274000000E+01
  0.937999000000E+01  0.128179000000E+01  0.226274000000E+01
  0.443473000000E+01  0.419249000000E+00  0.356403000000E+01
  0.482369000000E+01  0.899475000000E+00  0.285122000000E+01
  0.530665000000E+01  0.102888000000E+01  0.285122000000E+01
  0.578962000000E+01  0.115829000000E+01  0.285122000000E+01
  0.627258000000E+01  0.128770000000E+01  0.285122000000E+01
  0.675554000000E+01  0.141711000000E+01  0.285122000000E+01
  0.723851000000E+01  0.154652000000E+01  0.285122000000E+01
  0.772147000000E+01  0.167593000000E+01  0.285122000000E+01
  0.820443000000E+01  0.180534000000E+01  0.285122000000E+01
  0.868739000000E+01  0.193475000000E+01  0.285122000000E+01
  0.917036000000E+01  0.206416000000E+01  0.285122000000E+01
  0.412668000000E+01  0.156892000000E+01  0.395075000000E+01
  0.457725000000E+01  0.181921000000E+01  0.316060000000E+01
  0.506021000000E+01  0.194862000000E+01  0.316060000000E+01
  0.554317000000E+01  0.207803000000E+01  0.316060000000E+01
  0.602614000000E+01  0.220744000000E+01  0.316060000000E+01
  0.650910000000E+01  0.233685000000E+01  0.316060000000E+01
  0.699206000000E+01  0.246626000000E+01  0.316060000000E+01
  0.747503000000E+01  0.259567000000E+01  0.316060000000E+01
  0.795799000000E+01  0.272508000000E+01  0.316060000000E+01
  0.844095000000E+01  0.285449000000E+01  0.316060000000E+01
  0.892392000000E+01  0.298390000000E+01  0.316060000000E+01
  0.380277000000E+01  0.277775000000E+01  0.395075000000E+01
  0.431812000000E+01  0.278628000000E+01  0.316060000000E+01
  0.480109000000E+01  0.291569000000E+01  0.316060000000E+01
  0.528405000000E+01  0.304509000000E+01  0.316060000000E+01
  0.576701000000E+01  0.317450000000E+01  0.316060000000E+01
  0.624998000000E+01  0.330391000000E+01  0.316060000000E+01
  0.673294000000E+01  0.343332000000E+01  0.316060000000E+01
  0.721590000000E+01  0.356273000000E+01  0.316060000000E+01
  0.769886000000E+01  0.369214000000E+01  0.316060000000E+01
  0.818183000000E+01  0.382155000000E+01  0.316060000000E+01
  0.866479000000E+01  0.395096000000E+01  0.316060000000E+01
  0.349472000000E+01  0.392742000000E+01  0.356403000000E+01
  0.407168000000E+01  0.370601000000E+01  0.285122000000E+01
  0.455465000000E+01  0.383542000000E+01  0.285122000000E+01
  0.503761000000E+01  0.396483000000E+01  0.285122000000E+01
  0.552057000000E+01  0.409424000000E+01  0.285122000000E+01
  0.600353000000E+01  0.422365000000E+01  0.285122000000E+01
  0.648650000000E+01  0.435306000000E+01  0.285122000000E+01
  0.696946000000E+01  0.448247000000E+01  0.285122000000E+01
  0.745242000000E+01  0.461188000000E+01  0.285122000000E+01
  0.793539000000E+01  0.474129000000E+01  0.285122000000E+01
  0.841835000000E+01  0.487070000000E+01  0.285122000000E+01
  0.323267000000E+01  0.490538000000E+01  0.282843000000E+01
  0.386205000000E+01  0.448838000000E+01  0.226274000000E+01
  0.434501000000E+01  0.461779000000E+01  0.226274000000E+01
  0.482797000000E+01  0.474720000000E+01  0.226274000000E+01
  0.531093000000E+01  0.487661000000E+01  0.226274000000E+01
  0.579390000000E+01  0.500602000000E+01  0.226274000000E+01
  0.627686000000E+01  0.513543000000E+01  0.226274000000E+01
  0.675982000000E+01  0.526484000000E+01  0.226274000000E+01
  0.724279000000E+01  0.539425000000E+01  0.226274000000E+01
  0.772575000000E+01  0.552366000000E+01  0.226274000000E+01
  0.820871000000E+01  0.565307000000E+01  0.226274000000E+01
  0.560370000000E+01 -0.185213000000E+01  0.275546000000E-15
  0.620741000000E+01 -0.201389000000E+01  0.275546000000E-15
  0.681111000000E+01 -0.217566000000E+01  0.275546000000E-15
  0.741481000000E+01 -0.233742000000E+01  0.275546000000E-15
  0.801852000000E+01 -0.249918000000E+01  0.275546000000E-15
  0.862222000000E+01 -0.266094000000E+01  0.275546000000E-15
  0.922593000000E+01 -0.282270000000E+01  0.275546000000E-15
  0.982963000000E+01 -0.298447000000E+01  0.275546000000E-15
  0.491158979591E+01 -0.258171627852E+01  0.220436000000E-15
  0.550574665469E+01 -0.274769925050E+01  0.220436000000E-15
  0.608293935743E+01 -0.290336387683E+01  0.220436000000E-15
  0.666098440169E+01 -0.305924647235E+01  0.220436000000E-15
  0.724344459988E+01 -0.321568339234E+01  0.220436000000E-15
  0.782941993335E+01 -0.337289346325E+01  0.220436000000E-15
  0.841762002604E+01 -0.353072974791E+01  0.220436000000E-15
  0.900744912198E+01 -0.368837507884E+01  0.220436000000E-15
  0.959669000000E+01 -0.385380000000E+01  0.220436000000E-15
  0.473387553723E+01 -0.345632276822E+01  0.165327000000E-15
  0.532380172554E+01 -0.363388967039E+01  0.165327000000E-15
  0.589363026876E+01 -0.379154904746E+01  0.165327000000E-15
  0.646292167971E+01 -0.394459471627E+01  0.165327000000E-15
  0.703623888794E+01 -0.409774462075E+01  0.165327000000E-15
  0.761341878237E+01 -0.425189805451E+01  0.165327000000E-15
  0.819342430640E+01 -0.440681439026E+01  0.165327000000E-15
  0.877582864752E+01 -0.456277704046E+01  0.165327000000E-15
  0.936375000000E+01 -0.472313000000E+01  0.165327000000E-15
  0.449289124061E+01 -0.431938388000E+01  0.110218000000E-15
  0.507631987778E+01 -0.450922399943E+01  0.110218000000E-15
  0.564717062568E+01 -0.466824647952E+01  0.110218000000E-15
  0.621979554757E+01 -0.482137947020E+01  0.110218000000E-15
  0.679610537899E+01 -0.497454694775E+01  0.110218000000E-15
  0.737553977938E+01 -0.512862010272E+01  0.110218000000E-15
  0.795704188124E+01 -0.528365594840E+01  0.110218000000E-15
  0.854062476093E+01 -0.543899116904E+01  0.110218000000E-15
  0.913082000000E+01 -0.559247000000E+01  0.110218000000E-15
  0.418772024061E+01 -0.518061920069E+01  0.551091000000E-16
  0.476665187140E+01 -0.536518933271E+01  0.551091000000E-16
  0.535195934629E+01 -0.552305678131E+01  0.551091000000E-16
  0.593974682395E+01 -0.568022879168E+01  0.551091000000E-16
  0.652961604074E+01 -0.583714381816E+01  0.551091000000E-16
  0.712054033838E+01 -0.599463881839E+01  0.551091000000E-16
  0.771205991884E+01 -0.615239472497E+01  0.551091000000E-16
  0.830379042977E+01 -0.631089663837E+01  0.551091000000E-16
  0.889788000000E+01 -0.646180000000E+01  0.551091000000E-16
  0.383531000000E+01 -0.603704000000E+01  0.280365097776E-27
  0.443902000000E+01 -0.619880000000E+01  0.112364468065E-28
  0.504272000000E+01 -0.636056000000E+01  0.160590207740E-28
  0.564643000000E+01 -0.652232000000E+01  0.148121269366E-28
  0.625013000000E+01 -0.668408000000E+01  0.173270461668E-28
  0.685383000000E+01 -0.684585000000E+01  0.188103786293E-28
  0.745754000000E+01 -0.700761000000E+01  0.198587148520E-28
  0.806124000000E+01 -0.716937000000E+01  0.196072438211E-28
  0.866494000000E+01 -0.733113000000E+01  0.781595017257E-29
  0.499283000000E+01 -0.171713000000E+01  0.351978000000E+00
  0.559653000000E+01 -0.187889000000E+01  0.351978000000E+00
  0.620024000000E+01 -0.204065000000E+01  0.351978000000E+00
  0.680394000000E+01 -0.220241000000E+01  0.351978000000E+00
  0.740764000000E+01 -0.236418000000E+01  0.351978000000E+00
  0.801135000000E+01 -0.252594000000E+01  0.351978000000E+00
  0.861505000000E+01 -0.268770000000E+01  0.351978000000E+00
  0.921876000000E+01 -0.284946000000E+01  0.351978000000E+00
  0.982246000000E+01 -0.301122000000E+01  0.351978000000E+00
  0.489551631532E+01 -0.258343645887E+01  0.422763207405E+00
  0.548866041515E+01 -0.274737476179E+01  0.441836857645E+00
  0.606999402914E+01 -0.290461167736E+01  0.443808589750E+00
  0.665213558063E+01 -0.306125596106E+01  0.441825047084E+00
  0.723750992849E+01 -0.321829209333E+01  0.439875931330E+00
  0.782547157235E+01 -0.337588975871E+01  0.438665141024E+00
  0.841510749272E+01 -0.353400590055E+01  0.437980013357E+00
  0.900597132617E+01 -0.369184544944E+01  0.437378945293E+00
  0.959585000000E+01 -0.385693000000E+01  0.434732000000E+00
  0.471645749450E+01 -0.345403026394E+01  0.460299953372E+00
  0.530556860075E+01 -0.362856455479E+01  0.484979685183E+00
  0.587929218312E+01 -0.378669769321E+01  0.489265514036E+00
  0.645294894081E+01 -0.394089237581E+01  0.488264126199E+00
  0.702988471159E+01 -0.409502048719E+01  0.486184039626E+00
  0.760978272918E+01 -0.424988920139E+01  0.484620813320E+00
  0.819176645842E+01 -0.440532358091E+01  0.483468417993E+00
  0.877553614399E+01 -0.456162867529E+01  0.481799721328E+00
  0.936407000000E+01 -0.472196000000E+01  0.478239000000E+00
  0.447646154145E+01 -0.432028519365E+01  0.460542023048E+00
  0.505954646323E+01 -0.450611435677E+01  0.483887808583E+00
  0.563404778196E+01 -0.466513621150E+01  0.488572565470E+00
  0.621047892302E+01 -0.481935657745E+01  0.487323308962E+00
  0.678992452503E+01 -0.497354970096E+01  0.485483953910E+00
  0.737172220314E+01 -0.512842084542E+01  0.484141008144E+00
  0.795501984755E+01 -0.528405467897E+01  0.483162109029E+00
  0.853983783059E+01 -0.543980810776E+01  0.481629294180E+00
  0.913050000000E+01 -0.559364000000E+01  0.478239000000E+00
  0.417770777506E+01 -0.517801291043E+01  0.425449458814E+00
  0.475753390955E+01 -0.535857302269E+01  0.439452050844E+00
  0.534547988366E+01 -0.551673238838E+01  0.440329127603E+00
  0.593549011814E+01 -0.567464076038E+01  0.439234051539E+00
  0.652701964423E+01 -0.583221549027E+01  0.438250428021E+00
  0.711920314133E+01 -0.599021081891E+01  0.437691109771E+00
  0.771175030944E+01 -0.614835670910E+01  0.437389410507E+00
  0.830431107495E+01 -0.630715415296E+01  0.437052604079E+00
  0.889872000000E+01 -0.645867000000E+01  0.434732000000E+00
  0.384248000000E+01 -0.601028000000E+01  0.351978000000E+00
  0.444619000000E+01 -0.617204000000E+01  0.351978000000E+00
  0.504989000000E+01 -0.633380000000E+01  0.351978000000E+00
  0.565359000000E+01 -0.649556000000E+01  0.351978000000E+00
  0.625730000000E+01 -0.665733000000E+01  0.351978000000E+00
  0.686100000000E+01 -0.681909000000E+01  0.351978000000E+00
  0.746471000000E+01 -0.698085000000E+01  0.351978000000E+00
  0.806841000000E+01 -0.714261000000E+01  0.351978000000E+00
  0.867211000000E+01 -0.730437000000E+01  0.351978000000E+00
  0.497150000000E+01 -0.179674000000E+01  0.695288000000E+00
  0.557520000000E+01 -0.195850000000E+01  0.695288000000E+00
  0.617891000000E+01 -0.212026000000E+01  0.695288000000E+00
  0.678261000000E+01 -0.228203000000E+01  0.695288000000E+00
  0.738631000000E+01 -0.244379000000E+01  0.695288000000E+00
  0.799002000000E+01 -0.260555000000E+01  0.695288000000E+00
  0.859372000000E+01 -0.276731000000E+01  0.695288000000E+00
  0.919742000000E+01 -0.292907000000E+01  0.695288000000E+00
  0.980113000000E+01 -0.309084000000E+01  0.695288000000E+00
  0.485118939746E+01 -0.261466156795E+01  0.845725255872E+00
  0.544189867108E+01 -0.277434717618E+01  0.871516170038E+00
  0.603281452243E+01 -0.293501592044E+01  0.874279377483E+00
  0.662435865209E+01 -0.309360562600E+01  0.871418879819E+00
  0.721630395021E+01 -0.325201591678E+01  0.868673071992E+00
  0.780881945329E+01 -0.341045818742E+01  0.866977475488E+00
  0.840178021884E+01 -0.356925471896E+01  0.866038749069E+00
  0.899515782186E+01 -0.372764149071E+01  0.865225187392E+00
  0.958652000000E+01 -0.389178000000E+01  0.860798000000E+00
  0.467013221594E+01 -0.346066486182E+01  0.922313766779E+00
  0.525697851654E+01 -0.362750649887E+01  0.958620816376E+00
  0.583992234848E+01 -0.378677319939E+01  0.964926842632E+00
  0.642431348892E+01 -0.394394786885E+01  0.963203578127E+00
  0.701020888855E+01 -0.410052289957E+01  0.960138403377E+00
  0.759690182869E+01 -0.425719362494E+01  0.957937622610E+00
  0.818398871996E+01 -0.441395589537E+01  0.956360747641E+00
  0.877137484828E+01 -0.457115959434E+01  0.953862367335E+00
  0.936155000000E+01 -0.473135000000E+01  0.947812000000E+00
  0.443928452660E+01 -0.431044739877E+01  0.921369484099E+00
  0.502137088328E+01 -0.448603692165E+01  0.957167394709E+00
  0.560440687423E+01 -0.464497158940E+01  0.963932154592E+00
  0.619018716518E+01 -0.480183260677E+01  0.961852301644E+00
  0.677737003179E+01 -0.495853449400E+01  0.959112564193E+00
  0.736513151260E+01 -0.511540462965E+01  0.957218908794E+00
  0.795300400948E+01 -0.527252311110E+01  0.955888551492E+00
  0.854113519861E+01 -0.542936589705E+01  0.953592659411E+00
  0.913302000000E+01 -0.558424000000E+01  0.947812000000E+00
  0.416182223396E+01 -0.514413022562E+01  0.847520605332E+00
  0.474399000068E+01 -0.531574327401E+01  0.868192002558E+00
  0.533786128367E+01 -0.547465933010E+01  0.869286137318E+00
  0.593302805721E+01 -0.563408623816E+01  0.867672681501E+00
  0.652831051215E+01 -0.579312404672E+01  0.866267725979E+00
  0.712340647683E+01 -0.595226621027E+01  0.865497323038E+00
  0.771838238807E+01 -0.611129430585E+01  0.865111912149E+00
  0.831297126496E+01 -0.627079706649E+01  0.864696710353E+00
  0.890806000000E+01 -0.642382000000E+01  0.860798000000E+00
  0.386382000000E+01 -0.593067000000E+01  0.695288000000E+00
  0.446752000000E+01 -0.609243000000E+01  0.695288000000E+00
  0.507122000000E+01 -0.625419000000E+01  0.695288000000E+00
  0.567493000000E+01 -0.641595000000E+01  0.695288000000E+00
  0.627863000000E+01 -0.657771000000E+01  0.695288000000E+00
  0.688233000000E+01 -0.673948000000E+01  0.695288000000E+00
  0.748604000000E+01 -0.690124000000E+01  0.695288000000E+00
  0.808974000000E+01 -0.706300000000E+01  0.695288000000E+00
  0.869345000000E+01 -0.722476000000E+01  0.695288000000E+00
  0.493653000000E+01 -0.192725000000E+01  0.102148000000E+01
  0.554023000000E+01 -0.208901000000E+01  0.102148000000E+01
  0.614394000000E+01 -0.225077000000E+01  0.102148000000E+01
  0.674764000000E+01 -0.241254000000E+01  0.102148000000E+01
  0.735134000000E+01 -0.257430000000E+01  0.102148000000E+01
  0.795505000000E+01 -0.273606000000E+01  0.102148000000E+01
  0.855875000000E+01 -0.289782000000E+01  0.102148000000E+01
  0.916245000000E+01 -0.305958000000E+01  0.102148000000E+01
  0.976616000000E+01 -0.322134000000E+01  0.102148000000E+01
  0.479458007535E+01 -0.267442287328E+01  0.126135970771E+01
  0.538390919177E+01 -0.283171580731E+01  0.127944446504E+01
  0.598496733497E+01 -0.299523799372E+01  0.128149863147E+01
  0.658554246692E+01 -0.315595085478E+01  0.127927751798E+01
  0.718408549611E+01 -0.331573055955E+01  0.127711867945E+01
  0.778151756768E+01 -0.347527189836E+01  0.127575882133E+01
  0.837868669134E+01 -0.363492926094E+01  0.127505448509E+01
  0.897542986942E+01 -0.379423356801E+01  0.127456459668E+01
  0.956900000000E+01 -0.395716000000E+01  0.126974000000E+01
  0.461155826690E+01 -0.347555720206E+01  0.138053116989E+01
  0.519649722725E+01 -0.363427513900E+01  0.141132295658E+01
  0.579061175280E+01 -0.379518774115E+01  0.141606973913E+01
  0.638732557473E+01 -0.395586417959E+01  0.141431196308E+01
  0.698326572000E+01 -0.411506571451E+01  0.141180726020E+01
  0.757787421889E+01 -0.427387041933E+01  0.141010930294E+01
  0.817150303924E+01 -0.443232741093E+01  0.140901501382E+01
  0.876370949793E+01 -0.459084316825E+01  0.140697921321E+01
  0.935631000000E+01 -0.475093000000E+01  0.140026000000E+01
  0.439484232599E+01 -0.428944871248E+01  0.137728629727E+01
  0.497665393527E+01 -0.445275913878E+01  0.141048497112E+01
  0.557014867026E+01 -0.461226777674E+01  0.141528482694E+01
  0.616700096996E+01 -0.477231229633E+01  0.141322238528E+01
  0.676309201565E+01 -0.493185890117E+01  0.141093816445E+01
  0.735798529522E+01 -0.509099616639E+01  0.140947584015E+01
  0.795186002193E+01 -0.525004168628E+01  0.140857687068E+01
  0.854450027121E+01 -0.540828959618E+01  0.140671740685E+01
  0.913827000000E+01 -0.556467000000E+01  0.140026000000E+01
  0.414893726664E+01 -0.507848840141E+01  0.125865670246E+01
  0.473489049782E+01 -0.524087802593E+01  0.127712371448E+01
  0.533527812838E+01 -0.540073003354E+01  0.127743618447E+01
  0.593583145541E+01 -0.556175820579E+01  0.127612293681E+01
  0.653513876130E+01 -0.572237454404E+01  0.127499625946E+01
  0.713364311896E+01 -0.588272141436E+01  0.127438186742E+01
  0.773186528812E+01 -0.604294592358E+01  0.127414542060E+01
  0.832935962939E+01 -0.620325032114E+01  0.127401464034E+01
  0.892558000000E+01 -0.635843000000E+01  0.126974000000E+01
  0.389879000000E+01 -0.580016000000E+01  0.102148000000E+01
  0.450249000000E+01 -0.596192000000E+01  0.102148000000E+01
  0.510619000000E+01 -0.612368000000E+01  0.102148000000E+01
  0.570990000000E+01 -0.628544000000E+01  0.102148000000E+01
  0.631360000000E+01 -0.644720000000E+01  0.102148000000E+01
  0.691730000000E+01 -0.660897000000E+01  0.102148000000E+01
  0.752101000000E+01 -0.677073000000E+01  0.102148000000E+01
  0.812471000000E+01 -0.693249000000E+01  0.102148000000E+01
  0.872841000000E+01 -0.709425000000E+01  0.102148000000E+01
  0.488878000000E+01 -0.210544000000E+01  0.132252000000E+01
  0.549249000000E+01 -0.226720000000E+01  0.132252000000E+01
  0.609619000000E+01 -0.242896000000E+01  0.132252000000E+01
  0.669989000000E+01 -0.259073000000E+01  0.132252000000E+01
  0.730360000000E+01 -0.275249000000E+01  0.132252000000E+01
  0.790730000000E+01 -0.291425000000E+01  0.132252000000E+01
  0.851100000000E+01 -0.307601000000E+01  0.132252000000E+01
  0.911471000000E+01 -0.323777000000E+01  0.132252000000E+01
  0.971841000000E+01 -0.339954000000E+01  0.132252000000E+01
  0.473748936306E+01 -0.276264436746E+01  0.165479279703E+01
  0.533128958144E+01 -0.292097387543E+01  0.165855418553E+01
  0.593704802478E+01 -0.308500060535E+01  0.165980270382E+01
  0.654162613083E+01 -0.324646312588E+01  0.165878942760E+01
  0.714404465671E+01 -0.340731009889E+01  0.165787108206E+01
  0.774524722882E+01 -0.356796863281E+01  0.165725996953E+01
  0.834609661958E+01 -0.372888537810E+01  0.165687349510E+01
  0.894759084974E+01 -0.388934126525E+01  0.165701147524E+01
  0.954381000000E+01 -0.405116000000E+01  0.165354000000E+01
  0.455396910062E+01 -0.350017643156E+01  0.182195154681E+01
  0.514294091924E+01 -0.365180751883E+01  0.183455077658E+01
  0.574664584536E+01 -0.381574807471E+01  0.183594202094E+01
  0.635149841994E+01 -0.397779344359E+01  0.183516294195E+01
  0.695403525351E+01 -0.413882738964E+01  0.183414506372E+01
  0.755470363191E+01 -0.429941023525E+01  0.183350869202E+01
  0.815449612045E+01 -0.445972631829E+01  0.183303288481E+01
  0.875319609188E+01 -0.461991195692E+01  0.183262787920E+01
  0.934851000000E+01 -0.478004000000E+01  0.182756000000E+01
  0.435352755350E+01 -0.425775876021E+01  0.181788481800E+01
  0.494094850100E+01 -0.440969148671E+01  0.183469180250E+01
  0.554415988415E+01 -0.457197541706E+01  0.183554593869E+01
  0.614867539905E+01 -0.473416533455E+01  0.183466145497E+01
  0.675094087708E+01 -0.489564873547E+01  0.183371058602E+01
  0.735157026019E+01 -0.505647118783E+01  0.183317463394E+01
  0.795135385967E+01 -0.521715286478E+01  0.183278605631E+01
  0.855015997177E+01 -0.537742935040E+01  0.183247133325E+01
  0.914607000000E+01 -0.553555000000E+01  0.182756000000E+01
  0.414467650207E+01 -0.498238099154E+01  0.164842472725E+01
  0.473806264912E+01 -0.513761761715E+01  0.165830190695E+01
  0.534281083848E+01 -0.529928258331E+01  0.165774049941E+01
  0.594626175604E+01 -0.546135266544E+01  0.165722285930E+01
  0.654849728095E+01 -0.562292202509E+01  0.165669765346E+01
  0.714998286743E+01 -0.578417520446E+01  0.165644979787E+01
  0.775137782555E+01 -0.594512412991E+01  0.165630518798E+01
  0.835304122231E+01 -0.610681980537E+01  0.165663262916E+01
  0.895076000000E+01 -0.626444000000E+01  0.165354000000E+01
  0.394653000000E+01 -0.562197000000E+01  0.132252000000E+01
  0.455024000000E+01 -0.578373000000E+01  0.132252000000E+01
  0.515394000000E+01 -0.594549000000E+01  0.132252000000E+01
  0.575764000000E+01 -0.610725000000E+01  0.132252000000E+01
  0.636135000000E+01 -0.626901000000E+01  0.132252000000E+01
  0.696505000000E+01 -0.643078000000E+01  0.132252000000E+01
  0.756875000000E+01 -0.659254000000E+01  0.132252000000E+01
  0.817246000000E+01 -0.675430000000E+01  0.132252000000E+01
  0.877616000000E+01 -0.691606000000E+01  0.132252000000E+01
  0.482944000000E+01 -0.232692000000E+01  0.159099000000E+01
  0.543314000000E+01 -0.248869000000E+01  0.159099000000E+01
  0.603684000000E+01 -0.265045000000E+01  0.159099000000E+01
  0.664055000000E+01 -0.281221000000E+01  0.159099000000E+01
  0.724425000000E+01 -0.297397000000E+01  0.159099000000E+01
  0.784795000000E+01 -0.313573000000E+01  0.159099000000E+01
  0.845166000000E+01 -0.329750000000E+01  0.159099000000E+01
  0.905536000000E+01 -0.345926000000E+01  0.159099000000E+01
  0.965906000000E+01 -0.362102000000E+01  0.159099000000E+01
  0.468204000000E+01 -0.287703000000E+01  0.200476000000E+01
  0.528574000000E+01 -0.303879000000E+01  0.200476000000E+01
  0.588944000000E+01 -0.320055000000E+01  0.200476000000E+01
  0.649315000000E+01 -0.336232000000E+01  0.200476000000E+01
  0.709685000000E+01 -0.352408000000E+01  0.200476000000E+01
  0.770055000000E+01 -0.368584000000E+01  0.200476000000E+01
  0.830426000000E+01 -0.384760000000E+01  0.200476000000E+01
  0.890796000000E+01 -0.400936000000E+01  0.200476000000E+01
  0.951166000000E+01 -0.417113000000E+01  0.200476000000E+01
  0.450876000000E+01 -0.352372000000E+01  0.222230000000E+01
  0.511246000000E+01 -0.368548000000E+01  0.222230000000E+01
  0.571616000000E+01 -0.384724000000E+01  0.222230000000E+01
  0.631987000000E+01 -0.400900000000E+01  0.222230000000E+01
  0.692357000000E+01 -0.417077000000E+01  0.222230000000E+01
  0.752727000000E+01 -0.433253000000E+01  0.222230000000E+01
  0.813098000000E+01 -0.449429000000E+01  0.222230000000E+01
  0.873468000000E+01 -0.465605000000E+01  0.222230000000E+01
  0.933838000000E+01 -0.481781000000E+01  0.222230000000E+01
  0.432656000000E+01 -0.420369000000E+01  0.222230000000E+01
  0.493026000000E+01 -0.436545000000E+01  0.222230000000E+01
  0.553397000000E+01 -0.452721000000E+01  0.222230000000E+01
  0.613767000000E+01 -0.468897000000E+01  0.222230000000E+01
  0.674137000000E+01 -0.485074000000E+01  0.222230000000E+01
  0.734508000000E+01 -0.501250000000E+01  0.222230000000E+01
  0.794878000000E+01 -0.517426000000E+01  0.222230000000E+01
  0.855248000000E+01 -0.533602000000E+01  0.222230000000E+01
  0.915619000000E+01 -0.549778000000E+01  0.222230000000E+01
  0.415328000000E+01 -0.485038000000E+01  0.200476000000E+01
  0.475698000000E+01 -0.501214000000E+01  0.200476000000E+01
  0.536069000000E+01 -0.517390000000E+01  0.200476000000E+01
  0.596439000000E+01 -0.533566000000E+01  0.200476000000E+01
  0.656809000000E+01 -0.549742000000E+01  0.200476000000E+01
  0.717180000000E+01 -0.565919000000E+01  0.200476000000E+01
  0.777550000000E+01 -0.582095000000E+01  0.200476000000E+01
  0.837920000000E+01 -0.598271000000E+01  0.200476000000E+01
  0.898291000000E+01 -0.614447000000E+01  0.200476000000E+01
  0.400588000000E+01 -0.540048000000E+01  0.159099000000E+01
  0.460958000000E+01 -0.556224000000E+01  0.159099000000E+01
  0.521329000000E+01 -0.572401000000E+01  0.159099000000E+01
  0.581699000000E+01 -0.588577000000E+01  0.159099000000E+01
  0.642069000000E+01 -0.604753000000E+01  0.159099000000E+01
  0.702440000000E+01 -0.620929000000E+01  0.159099000000E+01
  0.762810000000E+01 -0.637105000000E+01  0.159099000000E+01
  0.823180000000E+01 -0.653282000000E+01  0.159099000000E+01
  0.883551000000E+01 -0.669458000000E+01  0.159099000000E+01
 -0.940645224145E+01 -0.434326976691E+01  0.000000000000E+00
 -0.827836855163E+01 -0.661833666584E+01  0.000000000000E+00
 -0.678709803853E+01 -0.812817152581E+01  0.000000000000E+00
 -0.529911641532E+01 -0.906610124923E+01  0.000000000000E+00
 -0.381198978266E+01 -0.964757157308E+01  0.000000000000E+00
 -0.232454010356E+01 -0.995045373825E+01  0.000000000000E+00
 -0.840349879817E+00 -0.100039174340E+02  0.000000000000E+00
  0.649716163705E+00 -0.978969230964E+01  0.000000000000E+00
  0.161500758994E+01 -0.932326216260E+01  0.000000000000E+00
  0.264934000000E+01 -0.852255000000E+01  0.000000000000E+00
 -0.940613275243E+01 -0.429051041692E+01  0.754458633670E+00
 -0.827773093646E+01 -0.653716157571E+01  0.115863021837E+01
 -0.678652761087E+01 -0.802885213833E+01  0.142593383345E+01
 -0.529807214890E+01 -0.895492326530E+01  0.159389486978E+01
 -0.381041440831E+01 -0.952893380318E+01  0.169838815384E+01
 -0.232217819710E+01 -0.982771642734E+01  0.175471398323E+01
 -0.836915880270E+00 -0.988027388085E+01  0.176916783693E+01
  0.655184882649E+00 -0.966830450833E+01  0.174322469197E+01
  0.162631090318E+01 -0.921686888595E+01  0.159223588995E+01
  0.265940000000E+01 -0.845929000000E+01  0.106447060733E+01
 -0.940565689338E+01 -0.413414743587E+01  0.148948961714E+01
 -0.827670967379E+01 -0.629694178984E+01  0.228698268474E+01
 -0.678489652319E+01 -0.773359736668E+01  0.281723656633E+01
 -0.529504770386E+01 -0.862438881561E+01  0.314739452297E+01
 -0.380564841860E+01 -0.917591657607E+01  0.335358728696E+01
 -0.231536765787E+01 -0.946283030610E+01  0.346387576011E+01
 -0.826121567903E+00 -0.951209520174E+01  0.349125756770E+01
  0.671156686478E+00 -0.930717554701E+01  0.343802840342E+01
  0.166071148508E+01 -0.890455468921E+01  0.313763734971E+01
  0.268944000000E+01 -0.827083000000E+01  0.209387656777E+01
 -0.940547449651E+01 -0.387813577879E+01  0.218883830030E+01
 -0.827560410450E+01 -0.590386613728E+01  0.335982640426E+01
 -0.678223954166E+01 -0.724964848194E+01  0.413833082125E+01
 -0.529027121354E+01 -0.808290236822E+01  0.462208114101E+01
 -0.379805542238E+01 -0.859783362085E+01  0.492342015638E+01
 -0.230429878137E+01 -0.886489863073E+01  0.508371964360E+01
 -0.808348461960E+00 -0.890874762488E+01  0.512068006992E+01
  0.698699821657E+00 -0.871704373472E+01  0.503727863442E+01
  0.171792542792E+01 -0.839491911610E+01  0.458629800838E+01
  0.273896000000E+01 -0.796106000000E+01  0.305821200968E+01
 -0.940494081407E+01 -0.352836547831E+01  0.283457982168E+01
 -0.827461335132E+01 -0.536730052505E+01  0.435024274945E+01
 -0.677909455217E+01 -0.658916486756E+01  0.535641927598E+01
 -0.528394233857E+01 -0.734410518174E+01  0.598121824670E+01
 -0.378857573367E+01 -0.780953974605E+01  0.636918387689E+01
 -0.228958264820E+01 -0.804957307558E+01  0.657289255152E+01
 -0.786716907381E+00 -0.808669684025E+01  0.661621232497E+01
  0.729172773955E+00 -0.791313671863E+01  0.649681366752E+01
  0.178626851710E+01 -0.770268443396E+01  0.589838078649E+01
  0.280715000000E+01 -0.753640000000E+01  0.393233466507E+01
 -0.940449285420E+01 -0.309438193992E+01  0.341000261564E+01
 -0.827431658493E+01 -0.470217795683E+01  0.523234659077E+01
 -0.677543746282E+01 -0.576819575344E+01  0.644203779589E+01
 -0.527749231358E+01 -0.642681994719E+01  0.719175472591E+01
 -0.377747101309E+01 -0.683118242086E+01  0.765542349598E+01
 -0.227401348796E+01 -0.703815419582E+01  0.789629865779E+01
 -0.763778120346E+00 -0.706848405058E+01  0.794155962154E+01
  0.756253550691E+00 -0.691528390786E+01  0.778179556914E+01
  0.185969618839E+01 -0.684902106746E+01  0.704530203363E+01
  0.289295000000E+01 -0.700555000000E+01  0.469785761123E+01
 -0.940598827746E+01 -0.258751606400E+01  0.390203660310E+01
 -0.827313129123E+01 -0.392270020003E+01  0.598580417074E+01
 -0.677277337346E+01 -0.480796193607E+01  0.736869706347E+01
 -0.527090263912E+01 -0.535361307003E+01  0.822455338481E+01
 -0.376765706249E+01 -0.568776445331E+01  0.875215764996E+01
 -0.225848376554E+01 -0.585720158709E+01  0.902446352309E+01
 -0.742444332013E+00 -0.587872298966E+01  0.906346052894E+01
  0.784212700612E+00 -0.575160418907E+01  0.886663222163E+01
  0.193932045753E+01 -0.581743619974E+01  0.803662285040E+01
  0.303424000000E+01 -0.614055000000E+01  0.554490465872E+01
 -0.940792314931E+01 -0.201738368288E+01  0.429938901861E+01
 -0.827361779348E+01 -0.304891756908E+01  0.659287460637E+01
 -0.677075718597E+01 -0.373130321290E+01  0.811428385518E+01
 -0.526681017447E+01 -0.415195272770E+01  0.905535702677E+01
 -0.375905194150E+01 -0.440741275938E+01  0.963445463142E+01
 -0.224746333071E+01 -0.453633344290E+01  0.993085050432E+01
 -0.723460741216E+00 -0.454861854033E+01  0.995994804928E+01
  0.804581460731E+00 -0.444885646931E+01  0.973404842122E+01
  0.201908739316E+01 -0.466516282736E+01  0.881721594864E+01
  0.320142000000E+01 -0.513372000000E+01  0.615743946360E+01
 -0.940951204130E+01 -0.140076347040E+01  0.458928900116E+01
 -0.827507666974E+01 -0.210135502812E+01  0.703812242708E+01
 -0.677126636695E+01 -0.256601407676E+01  0.866105920952E+01
 -0.526481058181E+01 -0.285001959604E+01  0.966469469200E+01
 -0.375570038093E+01 -0.302273762911E+01  0.102819840775E+02
 -0.223972714417E+01 -0.310679787883E+01  0.105935452550E+02
 -0.714892722219E+00 -0.311224673453E+01  0.106188679270E+02
  0.817365502591E+00 -0.304005537970E+01  0.103679732178E+02
  0.208946097827E+01 -0.342075736449E+01  0.938214391143E+01
  0.339046000000E+01 -0.402099000000E+01  0.652955541165E+01
 -0.941111669444E+01 -0.750492488200E+00  0.476638672079E+01
 -0.827788339319E+01 -0.110580402634E+01  0.730992968059E+01
 -0.677392216766E+01 -0.133867826273E+01  0.899625780640E+01
 -0.526747935767E+01 -0.148156312128E+01  0.100384375139E+02
 -0.375644803011E+01 -0.156515593098E+01  0.106787505176E+02
 -0.224089415436E+01 -0.160569663720E+01  0.110004289365E+02
 -0.712076408944E+00 -0.160097605029E+01  0.110208751260E+02
  0.807763604529E+00 -0.156059984871E+01  0.107647330420E+02
  0.214664479858E+01 -0.211373424590E+01  0.971493211224E+01
  0.359729000000E+01 -0.284101000000E+01  0.666108727636E+01
 -0.941338353151E+01 -0.855146124209E-01  0.482611448786E+01
 -0.828196217412E+01 -0.835594826897E-01  0.740280984205E+01
 -0.677961771636E+01 -0.817839012975E-01  0.911163518320E+01
 -0.527423878650E+01 -0.772246116005E-01  0.101676735570E+02
 -0.376399623779E+01 -0.730717785001E-01  0.108162496346E+02
 -0.224875725369E+01 -0.648680844902E-01  0.111411775394E+02
 -0.721919217208E+00 -0.564780519116E-01  0.111595782141E+02
  0.803311095391E+00 -0.397165289566E-01  0.109000510036E+02
  0.217912019817E+01 -0.773429716912E+00  0.981492260757E+01
  0.381812000000E+01 -0.163350000000E+01  0.652409499157E+01
 -0.941618853062E+01  0.581014765305E+00  0.476733548082E+01
 -0.828736871053E+01  0.937111402195E+00  0.731417576783E+01
 -0.678831480414E+01  0.117673679694E+01  0.900455554288E+01
 -0.528521202672E+01  0.132595581872E+01  0.100490856453E+02
 -0.377819711722E+01  0.142133903357E+01  0.106911154688E+02
 -0.226428875443E+01  0.147336995994E+01  0.110128275883E+02
 -0.740313924374E+00  0.149212912641E+01  0.110304680874E+02
  0.781576192495E+00  0.147262752217E+01  0.107718712989E+02
  0.206939810436E+01  0.854170525163E+00  0.989231896193E+01
  0.346924000000E+01  0.119503000000E+00  0.739749720877E+01
 -0.941906997881E+01  0.122972433727E+01  0.459136201650E+01
 -0.829419450032E+01  0.193411552369E+01  0.704602754788E+01
 -0.679893931354E+01  0.240362283849E+01  0.867702429966E+01
 -0.530108139628E+01  0.269670122508E+01  0.968563056770E+01
 -0.379686338001E+01  0.287827215244E+01  0.103050967138E+02
 -0.228908132790E+01  0.297712079604E+01  0.106192935106E+02
 -0.766476810679E+00  0.299977332538E+01  0.106350095779E+02
  0.749097744507E+00  0.295474836510E+01  0.103863194510E+02
  0.193458873227E+01  0.245093126522E+01  0.964285637065E+01
  0.311159000000E+01  0.194949000000E+01  0.764076011358E+01
 -0.942203345642E+01  0.184705618592E+01  0.430176834911E+01
 -0.830105430892E+01  0.288049912424E+01  0.660448208848E+01
 -0.681209175543E+01  0.357088800585E+01  0.813692027356E+01
 -0.531877261989E+01  0.399937871732E+01  0.908441021869E+01
 -0.382197713519E+01  0.426521138937E+01  0.966799266230E+01
 -0.231838548436E+01  0.440658092717E+01  0.996570401013E+01
 -0.806342405100E+00  0.443574203022E+01  0.998952823525E+01
  0.708322556848E+00  0.436313351619E+01  0.975717243913E+01
  0.178016428998E+01  0.397861599654E+01  0.909473374522E+01
  0.276762000000E+01  0.373421000000E+01  0.737862699727E+01
 -0.942397558503E+01  0.241575728464E+01  0.390559612337E+01
 -0.830891029160E+01  0.375406158958E+01  0.600063157259E+01
 -0.682535346119E+01  0.464830903552E+01  0.739658933971E+01
 -0.533936716553E+01  0.520309231377E+01  0.826047524443E+01
 -0.384845447818E+01  0.554660805671E+01  0.879345091029E+01
 -0.235383089880E+01  0.572824307125E+01  0.907191407585E+01
 -0.846303416094E+00  0.576385523138E+01  0.910610710537E+01
  0.663024985158E+00  0.566294278697E+01  0.890539061596E+01
  0.163172866330E+01  0.539202494076E+01  0.826809730618E+01
  0.245735000000E+01  0.536055000000E+01  0.664789883152E+01
 -0.942634959695E+01  0.292199009948E+01  0.341237158733E+01
 -0.831500220929E+01  0.453155374342E+01  0.524874877625E+01
 -0.683714420791E+01  0.560732018996E+01  0.647411128715E+01
 -0.535702611733E+01  0.627481893608E+01  0.723064466703E+01
 -0.387349685319E+01  0.668859713501E+01  0.769982748874E+01
 -0.238522298979E+01  0.690631439853E+01  0.794392231743E+01
 -0.889141752795E+00  0.694751994320E+01  0.798681676517E+01
  0.615943629740E+00  0.681920688286E+01  0.781357815032E+01
  0.147863074188E+01  0.663579207171E+01  0.714414536786E+01
  0.219858000000E+01  0.672672000000E+01  0.544173888622E+01
 -0.942959052363E+01  0.335454664429E+01  0.283695626212E+01
 -0.831765026864E+01  0.519786591263E+01  0.436267401821E+01
 -0.684449081535E+01  0.643184964491E+01  0.538044566706E+01
 -0.536812753744E+01  0.719507725181E+01  0.601131571398E+01
 -0.388944819972E+01  0.766962713031E+01  0.640346213494E+01
 -0.240650310007E+01  0.791824308342E+01  0.660834718109E+01
 -0.916742570987E+00  0.796712483148E+01  0.664680217625E+01
  0.585053486968E+00  0.781069307494E+01  0.651530149123E+01
  0.138201007251E+01  0.752738470948E+01  0.598155927575E+01
  0.208004000000E+01  0.735507000000E+01  0.454373537215E+01
 -0.943298321959E+01  0.370452952338E+01  0.219051676008E+01
 -0.832174017839E+01  0.573602793645E+01  0.336915631812E+01
 -0.685124964052E+01  0.709472159051E+01  0.415760749174E+01
 -0.537848590601E+01  0.793678797308E+01  0.464608780669E+01
 -0.390381545458E+01  0.846108930440E+01  0.495077641480E+01
 -0.242701798884E+01  0.873744931868E+01  0.511234793998E+01
 -0.945229875764E+00  0.879344338161E+01  0.514474211807E+01
  0.547790297342E+00  0.861760276970E+01  0.505915797744E+01
  0.128684520506E+01  0.826655902439E+01  0.465283282378E+01
  0.198540000000E+01  0.785780000000E+01  0.352390854328E+01
 -0.943497555555E+01  0.396037826018E+01  0.149063883942E+01
 -0.832516510439E+01  0.612975094193E+01  0.229383370543E+01
 -0.685646078150E+01  0.758043374488E+01  0.283073529563E+01
 -0.538624607002E+01  0.848016220971E+01  0.316410965445E+01
 -0.391498829846E+01  0.904120750734E+01  0.337255508832E+01
 -0.244312115534E+01  0.933871662890E+01  0.348409919837E+01
 -0.971017360927E+00  0.940040231413E+01  0.350870765746E+01
  0.510941662368E+00  0.921298034570E+01  0.345577554923E+01
  0.121378079459E+01  0.881050587352E+01  0.318236745777E+01
  0.191647000000E+01  0.822453000000E+01  0.240615597700E+01
 -0.943658215654E+01  0.411654210394E+01  0.755076382557E+00
 -0.832719846166E+01  0.637002862541E+01  0.116221731325E+01
 -0.685980883010E+01  0.787685617608E+01  0.143314468329E+01
 -0.539112222827E+01  0.881190502963E+01  0.160231122343E+01
 -0.392209294566E+01  0.939570766537E+01  0.170832188980E+01
 -0.245310304180E+01  0.970597912394E+01  0.176503637394E+01
 -0.985937173227E+00  0.977202309382E+01  0.177829217427E+01
  0.490369601467E+00  0.957927189297E+01  0.175274770948E+01
  0.117448495870E+01  0.914681911094E+01  0.161429763338E+01
  0.187456000000E+01  0.844766000000E+01  0.122098146284E+01
 -0.943737135293E+01  0.416929366179E+01  0.000000000000E+00
 -0.832781500379E+01  0.645087484049E+01  0.000000000000E+00
 -0.686099992235E+01  0.797646961452E+01  0.000000000000E+00
 -0.539272113873E+01  0.892342239322E+01  0.000000000000E+00
 -0.392461948559E+01  0.951499237273E+01  0.000000000000E+00
 -0.245630234490E+01  0.982943151886E+01  0.000000000000E+00
 -0.991140642316E+00  0.989695794339E+01  0.000000000000E+00
  0.484791517796E+00  0.970362312046E+01  0.000000000000E+00
  0.116152170045E+01  0.926124608372E+01  0.000000000000E+00
  0.186051000000E+01  0.852255000000E+01  0.000000000000E+00
 -0.968962152083E+01 -0.221223019409E+01  0.000000000000E+00
 -0.971985624751E+01 -0.178703386633E+01  0.000000000000E+00
 -0.974332204287E+01 -0.136231456558E+01  0.000000000000E+00
 -0.976007845045E+01 -0.937023172850E+00  0.000000000000E+00
 -0.977069730342E+01 -0.511776125102E+00  0.000000000000E+00
 -0.977522978494E+01 -0.864556801466E-01  0.000000000000E+00
 -0.977354193342E+01  0.338834755673E+00  0.000000000000E+00
 -0.976548706731E+01  0.763960114031E+00  0.000000000000E+00
 -0.975083078300E+01  0.118918702850E+01  0.000000000000E+00
 -0.972908299985E+01  0.161382135179E+01  0.000000000000E+00
 -0.970066159852E+01  0.203902297173E+01  0.000000000000E+00
 -0.968945212771E+01 -0.218609194924E+01  0.374546941161E+00
 -0.971824402706E+01 -0.177572924665E+01  0.415499677377E+00
 -0.974069585755E+01 -0.135916169528E+01  0.447103789013E+00
 -0.975719777320E+01 -0.937729009077E+00  0.468570064343E+00
 -0.976770315240E+01 -0.512755820942E+00  0.478777302773E+00
 -0.977226427340E+01 -0.863902945197E-01  0.477540160885E+00
 -0.977051717846E+01  0.339898239371E+00  0.478373290201E+00
 -0.976257809670E+01  0.764771364895E+00  0.467695395790E+00
 -0.974815780993E+01  0.118610810475E+01  0.445848700691E+00
 -0.972744968316E+01  0.160263807544E+01  0.414239258610E+00
 -0.970044139254E+01  0.201299337673E+01  0.373726091558E+00
 -0.968932709980E+01 -0.210834533187E+01  0.741984532489E+00
 -0.971418771527E+01 -0.172299393490E+01  0.827391319840E+00
 -0.973415941757E+01 -0.132509074398E+01  0.893506831871E+00
 -0.974905760571E+01 -0.917290135178E+00  0.938696437338E+00
 -0.975881058289E+01 -0.503445834509E+00  0.961718434214E+00
 -0.976317388399E+01 -0.862453874606E-01  0.960504653799E+00
 -0.976150195094E+01  0.330927751215E+00  0.961228748105E+00
 -0.975422130075E+01  0.744657557228E+00  0.937664277191E+00
 -0.974137401103E+01  0.115240910451E+01  0.892040164560E+00
 -0.972313448601E+01  0.155026101075E+01  0.825889649254E+00
 -0.970003177544E+01  0.193553711175E+01  0.740793572039E+00
 -0.968935072854E+01 -0.198070441806E+01  0.109160697941E+01
 -0.970794517973E+01 -0.163004082371E+01  0.122457622812E+01
 -0.972339536480E+01 -0.126047224422E+01  0.132911211599E+01
 -0.973573360043E+01 -0.877187202751E+00  0.140260884358E+01
 -0.974384313956E+01 -0.484201782871E+00  0.144117315241E+01
 -0.974787960548E+01 -0.860485316902E-01  0.144452676932E+01
 -0.974636575549E+01  0.312115590672E+00  0.144059449117E+01
 -0.974062598364E+01  0.705098128587E+00  0.140145591026E+01
 -0.973023893981E+01  0.108840322984E+01  0.132741231820E+01
 -0.971640690942E+01  0.145796762849E+01  0.122273702057E+01
 -0.969947300554E+01  0.180838820310E+01  0.109022135013E+01
 -0.968923457909E+01 -0.180597002017E+01  0.141416494726E+01
 -0.969962627149E+01 -0.149917476706E+01  0.160045383187E+01
 -0.970949928052E+01 -0.116839074156E+01  0.174928274893E+01
 -0.971734263857E+01 -0.818674919554E+00  0.185516227457E+01
 -0.972296852296E+01 -0.455636435079E+00  0.191541108446E+01
 -0.972589812844E+01 -0.858614642694E-01  0.192835482399E+01
 -0.972530449431E+01  0.283847151720E+00  0.191484222943E+01
 -0.972188894918E+01  0.646973511908E+00  0.185400550920E+01
 -0.971599075275E+01  0.996814761915E+00  0.174755832150E+01
 -0.970761763124E+01  0.132773109751E+01  0.159837185634E+01
 -0.969859465154E+01  0.163437167290E+01  0.141233708278E+01
 -0.968929150046E+01 -0.158866824991E+01  0.170215912816E+01
 -0.969068741394E+01 -0.133526304841E+01  0.194912307938E+01
 -0.969243456575E+01 -0.105118817741E+01  0.214802098236E+01
 -0.969415623300E+01 -0.743234377027E+00  0.229345570267E+01
 -0.969571406935E+01 -0.418460968802E+00  0.238242274118E+01
 -0.969694497168E+01 -0.859488549752E-01  0.241213292896E+01
 -0.969781519752E+01  0.247192390535E+00  0.238191631500E+01
 -0.969820057940E+01  0.571499570825E+00  0.229276479106E+01
 -0.969834182874E+01  0.879748986560E+00  0.214667517938E+01
 -0.969812669340E+01  0.116395856331E+01  0.194734648388E+01
 -0.969785095656E+01  0.141741157827E+01  0.170018855506E+01
CELLS       1130     10170
8      0      9     10      1     99    108    109    100
8     99    108    109    100    198    207    208    199
8    198    207    208    199    297    306    307    298
8    297    306    307    298    396    405    406    397
8    396    405    406    397    495    504    505    496
8      9     18     19     10    108    117    118    109
8    108    117    118    109    207    216    217    208
8    207    216    217    208    306    315    316    307
8    306    315    316    307    405    414    415    406
8    405    414    415    406    504    513    514    505
8     18     27     28     19    117    126    127    118
8    117    126    127    118    216    225    226    217
8    216    225    226    217    315    324    325    316
8    315    324    325    316    414    423    424    415
8    414    423    424    415    513    522    523    514
8     27     36     37     28    126    135    136    127
8    126    135    136    127    225    234    235    226
8    225    234    235    226    324    333    334    325
8    324    333    334    325    423    432    433    424
8    423    432    433    424    522    531    532    523
8     36     45     46     37    135    144    145    136
8    135    144    145    136    234    243    244    235
8    234    243    244    235    333    342    343    334
8    333    342    343    334    432    441    442    433
8    432    441    442    433    531    540    541    532
8     45     54     55     46    144    153    154    145
8    144    153    154    145    243    252    253    244
8    243    252    253    244    342    351    352    343
8    342    351    352    343    441    450    451    442
8    441    450    451    442    540    549    550    541
8     54     63     64     55    153    162    163    154
8    153    162    163    154    252    261    262    253
8    252    261    262    253    351    360    361    352
8    351    360    361    352    450    459    460    451
8    450    459    460    451    549    558    559    550
8     63     72     73     64    162    171    172    163
8    162    171    172    163    261    270    271    262
8    261    270    271    262    360    369    370    361
8    360    369    370    361    459    468    469    460
8    459    468    469    460    558    567    568    559
8     72     81     82     73    171    180    181    172
8    171    180    181    172    270    279    280    271
8    270    279    280    271    369    378    379    370
8    369    378    379    370    468    477    478    469
8    468    477    478    469    567    576    577    568
8     81     90     91     82    180    189    190    181
8    180    189    190    181    279    288    289    280
8    279    288    289    280    378    387    388    379
8    378    387    388    379    477    486    487    478
8    477    486    487    478    576    585    586    577
8      1     10     11      2    100    109    110    101
8    100    109    110    101    199    208    209    200
8    199    208    209    200    298    307    308    299
8    298    307    308    299    397    406    407    398
8    397    406    407    398    496    505    506    497
8     10     19     20     11    109    118    119    110
8    109    118    119    110    208    217    218    209
8    208    217    218    209    307    316    317    308
8    307    316    317    308    406    415    416    407
8    406    415    416    407    505    514    515    506
8     19     28     29     20    118    127    128    119
8    118    127    128    119    217    226    227    218
8    217    226    227    218    316    325    326    317
8    316    325    326    317    415    424    425    416
8    415    424    425    416    514    523    524    515
8     28     37     38     29    127    136    137    128
8    127    136    137    128    226    235    236    227
8    226    235    236    227    325    334    335    326
8    325    334    335    326    424    433    434    425
8    424    433    434    425    523    532    533    524
8     37     46     47     38    136    145    146    137
8    136    145    146    137    235    244    245    236
8    235    244    245    236    334    343    344    335
8    334    343    344    335    433    442    443    434
8    433    442    443    434    532    541    542    533
8     46     55     56     47    145    154    155    146
8    145    154    155    146    244    253    254    245
8    244    253    254    245    343    352    353    344
8    343    352    353    344    442    451    452    443
8    442    451    452    443    541    550    551    542
8     55     64     65     56    154    163    164    155
8    154    163    164    155    253    262    263    254
8    253    262    263    254    352    361    362    353
8    352    361    362    353    451    460    461    452
8    451    460    461    452    550    559    560    551
8     64     73     74     65    163    172    173    164
8    163    172    173    164    262    271    272    263
8    262    271    272    263    361    370    371    362
8    361    370    371    362    460    469    470    461
8    460    469    470    461    559    568    569    560
8     73     82     83     74    172    181    182    173
8    172    181    182    173    271    280    281    272
8    271    280    281    272    370    379    380    371
8    370    379    380    371    469    478    479    470
8    469    478    479    470    568    577    578    569
8     82     91     92     83    181    190    191    182
8    181    190    191    182    280    289    290    281
8    280    289    290    281    379    388    389    380
8    379    388    389    380    478    487    488    479
8    478    487    488    479    577    586    587    578
8      2     11     12      3    101    110    111    102
8    101    110    111    102    200    209    210    201
8    200    209    210    201    299    308    309    300
8    299    308    309    300    398    407    408    399
8    398    407    408    399    497    506    507    498
8     11     20     21     12    110    119    120    111
8    110    119    120    111    209    218    219    210
8    209    218    219    210    308    317    318    309
8    308    317    318    309    407    416    417    408
8    407    416    417    408    506    515    516    507
8     20     29     30     21    119    128    129    120
8    119    128    129    120    218    227    228    219
8    218    227    228    219    317    326    327    318
8    317    326    327    318    416    425    426    417
8    416    425    426    417    515    524    525    516
8     29     38     39     30    128    137    138    129
8    128    137    138    129    227    236    237    228
8    227    236    237    228    326    335    336    327
8    326    335    336    327    425    434    435    426
8    425    434    435    426    524    533    534    525
8     38     47     48     39    137    146    147    138
8    137    146    147    138    236    245    246    237
8    236    245    246    237    335    344    345    336
8    335    344    345    336    434    443    444    435
8    434    443    444    435    533    542    543    534
8     47     56     57     48    146    155    156    147
8    146    155    156    147    245    254    255    246
8    245    254    255    246    344    353    354    345
8    344    353    354    345    443    452    453    444
8    443    452    453    444    542    551    552    543
8     56     65     66     57    155    164    165    156
8    155    164    165    156    254    263    264    255
8    254    263    264    255    353    362    363    354
8    353    362    363    354    452    461    462    453
8    452    461    462    453    551    560    561    552
8     65     74     75     66    164    173    174    165
8    164    173    174    165    263    272    273    264
8    263    272    273    264    362    371    372    363
8    362    371    372    363    461    470    471    462
8    461    470    471    462    560    569    570    561
8     74     83     84     75    173    182    183    174
8    173    182    183    174    272    281    282    273
8    272    281    282    273    371    380    381    372
8    371    380    381    372    470    479    480    471
8    470    479    480    471    569    578    579    570
8     83     92     93     84    182    191    192    183
8    182    191    192    183    281    290    291    282
8    281    290    291    282    380    389    390    381
8    380    389    390    381    479    488    489    480
8    479    488    489    480    578    587    588    579
8      3     12     13      4    102    111    112    103
8    102    111    112    103    201    210    211    202
8    201    210    211    202    300    309    310    301
8    300    309    310    301    399    408    409    400
8    399    408    409    400    498    507    508    499
8     12     21     22     13    111    120    121    112
8    111    120    121    112    210    219    220    211
8    210    219    220    211    309    318    319    310
8    309    318    319    310    408    417    418    409
8    408    417    418    409    507    516    517    508
8     21     30     31     22    120    129    130    121
8    120    129    130    121    219    228    229    220
8    219    228    229    220    318    327    328    319
8    318    327    328    319    417    426    427    418
8    417    426    427    418    516    525    526    517
8     30     39     40     31    129    138    139    130
8    129    138    139    130    228    237    238    229
8    228    237    238    229    327    336    337    328
8    327    336    337    328    426    435    436    427
8    426    435    436    427    525    534    535    526
8     39     48     49     40    138    147    148    139
8    138    147    148    139    237    246    247    238
8    237    246    247    238    336    345    346    337
8    336    345    346    337    435    444    445    436
8    435    444    445    436    534    543    544    535
8     48     57     58     49    147    156    157    148
8    147    156    157    148    246    255    256    247
8    246    255    256    247    345    354    355    346
8    345    354    355    346    444    453    454    445
8    444    453    454    445    543    552    553    544
8     57     66     67     58    156    165    166    157
8    156    165    166    157    255    264    265    256
8    255    264    265    256    354    363    364    355
8    354    363    364    355    453    462    463    454
8    453    462    463    454    552    561    562    553
8     66     75     76     67    165    174    175    166
8    165    174    175    166    264    273    274    265
8    264    273    274    265    363    372    373    364
8    363    372    373    364    462    471    472    463
8    462    471    472    463    561    570    571    562
8     75     84     85     76    174    183    184    175
8    174    183    184    175    273    282    283    274
8    273    282    283    274    372    381    382    373
8    372    381    382    373    471    480    481    472
8    471    480    481    472    570    579    580    571
8     84     93     94     85    183    192    193    184
8    183    192    193    184    282    291    292    283
8    282    291    292    283    381    390    391    382
8    381    390    391    382    480    489    490    481
8    480    489    490    481    579    588    589    580
8      4     13     14      5    103    112    113    104
8    103    112    113    104    202    211    212    203
8    202    211    212    203    301    310    311    302
8    301    310    311    302    400    409    410    401
8    400    409    410    401    499    508    509    500
8     13     22     23     14    112    121    122    113
8    112    121    122    113    211    220    221    212
8    211    220    221    212    310    319    320    311
8    310    319    320    311    409    418    419    410
8    409    418    419    410    508    517    518    509
8     22     31     32     23    121    130    131    122
8    121    130    131    122    220    229    230    221
8    220    229    230    221    319    328    329    320
8    319    328    329    320    418    427    428    419
8    418    427    428    419    517    526    527    518
8     31     40     41     32    130    139    140    131
8    130    139    140    131    229    238    239    230
8    229    238    239    230    328    337    338    329
8    328    337    338    329    427    436    437    428
8    427    436    437    428    526    535    536    527
8     40     49     50     41    139    148    149    140
8    139    148    149    140    238    247    248    239
8    238    247    248    239    337    346    347    338
8    337    346    347    338    436    445    446    437
8    436    445    446    437    535    544    545    536
8     49     58     59     50    148    157    158    149
8    148    157    158    149    247    256    257    248
8    247    256    257    248    346    355    356    347
8    346    355    356    347    445    454    455    446
8    445    454    455    446    544    553    554    545
8     58     67     68     59    157    166    167    158
8    157    166    167    158    256    265    266    257
8    256    265    266    257    355    364    365    356
8    355    364    365    356    454    463    464    455
8    454    463    464    455    553    562    563    554
8     67     76     77     68    166    175    176    167
8    166    175    176    167    265    274    275    266
8    265    274    275    266    364    373    374    365
8    364    373    374    365    463    472    473    464
8    463    472    473    464    562    571    572    563
8     76     85     86     77    175    184    185    176
8    175    184    185    176    274    283    284    275
8    274    283    284    275    373    382    383    374
8    373    382    383    374    472    481    482    473
8    472    481    482    473    571    580    581    572
8     85     94     95     86    184    193    194    185
8    184    193    194    185    283    292    293    284
8    283    292    293    284    382    391    392    383
8    382    391    392    383    481    490    491    482
8    481    490    491    482    580    589    590    581
8      5     14     15      6    104    113    114    105
8    104    113    114    105    203    212    213    204
8    203    212    213    204    302    311    312    303
8    302    311    312    303    401    410    411    402
8    401    410    411    402    500    509    510    501
8     14     23     24     15    113    122    123    114
8    113    122    123    114    212    221    222    213
8    212    221    222    213    311    320    321    312
8    311    320    321    312    410    419    420    411
8    410    419    420    411    509    518    519    510
8     23     32     33     24    122    131    132    123
8    122    131    132    123    221    230    231    222
8    221    230    231    222    320    329    330    321
8    320    329    330    321    419    428    429    420
8    419    428    429    420    518    527    528    519
8     32     41     42     33    131    140    141    132
8    131    140    141    132    230    239    240    231
8    230    239    240    231    329    338    339    330
8    329    338    339    330    428    437    438    429
8    428    437    438    429    527    536    537    528
8     41     50     51     42    140    149    150    141
8    140    149    150    141    239    248    249    240
8    239    248    249    240    338    347    348    339
8    338    347    348    339    437    446    447    438
8    437    446    447    438    536    545    546    537
8     50     59     60     51    149    158    159    150
8    149    158    159    150    248    257    258    249
8    248    257    258    249    347    356    357    348
8    347    356    357    348    446    455    456    447
8    446    455    456    447    545    554    555    546
8     59     68     69     60    158    167    168    159
8    158    167    168    159    257    266    267    258
8    257    266    267    258    356    365    366    357
8    356    365    366    357    455    464    465    456
8    455    464    465    456    554    563    564    555
8     68     77     78     69    167    176    177    168
8    167    176    177    168    266    275    276    267
8    266    275    276    267    365    374    375    366
8    365    374    375    366    464    473    474    465
8    464    473    474    465    563    572    573    564
8     77     86     87     78    176    185    186    177
8    176    185    186    177    275    284    285    276
8    275    284    285    276    374    383    384    375
8    374    383    384    375    473    482    483    474
8    473    482    483    474    572    581    582    573
8     86     95     96     87    185    194    195    186
8    185    194    195    186    284    293    294    285
8    284    293    294    285    383    392    393    384
8    383    392    393    384    482    491    492    483
8    482    491    492    483    581    590    591    582
8      6     15     16      7    105    114    115    106
8    105    114    115    106    204    213    214    205
8    204    213    214    205    303    312    313    304
8    303    312    313    304    402    411    412    403
8    402    411    412    403    501    510    511    502
8     15     24     25     16    114    123    124    115
8    114    123    124    115    213    222    223    214
8    213    222    223    214    312    321    322    313
8    312    321    322    313    411    420    421    412
8    411    420    421    412    510    519    520    511
8     24     33     34     25    123    132    133    124
8    123    132    133    124    222    231    232    223
8    222    231    232    223    321    330    331    322
8    321    330    331    322    420    429    430    421
8    420    429    430    421    519    528    529    520
8     33     42     43     34    132    141    142    133
8    132    141    142    133    231    240    241    232
8    231    240    241    232    330    339    340    331
8    330    339    340    331    429    438    439    430
8    429    438    439    430    528    537    538    529
8     42     51     52     43    141    150    151    142
8    141    150    151    142    240    249    250    241
8    240    249    250    241    339    348    349    340
8    339    348    349    340    438    447    448    439
8    438    447    448    439    537    546    547    538
8     51     60     61     52    150    159    160    151
8    150    159    160    151    249    258    259    250
8    249    258    259    250    348    357    358    349
8    348    357    358    349    447    456    457    448
8    447    456    457    448    546    555    556    547
8     60     69     70     61    159    168    169    160
8    159    168    169    160    258    267    268    259
8    258    267    268    259    357    366    367    358
8    357    366    367    358    456    465    466    457
8    456    465    466    457    555    564    565    556
8     69     78     79     70    168    177    178    169
8    168    177    178    169    267    276    277    268
8    267    276    277    268    366    375    376    367
8    366    375    376    367    465    474    475    466
8    465    474    475    466    564    573    574    565
8     78     87     88     79    177    186    187    178
8    177    186    187    178    276    285    286    277
8    276    285    286    277    375    384    385    376
8    375    384    385    376    474    483    484    475
8    474    483    484    475    573    582    583    574
8     87     96     97     88    186    195    196    187
8    186    195    196    187    285    294    295    286
8    285    294    295    286    384    393    394    385
8    384    393    394    385    483    492    493    484
8    483    492    493    484    582    591    592    583
8      7     16     17      8    106    115    116    107
8    106    115    116    107    205    214    215    206
8    205    214    215    206    304    313    314    305
8    304    313    314    305    403    412    413    404
8    403    412    413    404    502    511    512    503
8     16     25     26     17    115    124    125    116
8    115    124    125    116    214    223    224    215
8    214    223    224    215    313    322    323    314
8    313    322    323    314    412    421    422    413
8    412    421    422    413    511    520    521    512
8     25     34     35     26    124    133    134    125
8    124    133    134    125    223    232    233    224
8    223    232    233    224    322    331    332    323
8    322    331    332    323    421    430    431    422
8    421    430    431    422    520    529    530    521
8     34     43     44     35    133    142    143    134
8    133    142    143    134    232    241    242    233
8    232    241    242    233    331    340    341    332
8    331    340    341    332    430    439    440    431
8    430    439    440    431    529    538    539    530
8     43     52     53     44    142    151    152    143
8    142    151    152    143    241    250    251    242
8    241    250    251    242    340    349    350    341
8    340    349    350    341    439    448    449    440
8    439    448    449    440    538    547    548    539
8     52     61     62     53    151    160    161    152
8    151    160    161    152    250    259    260    251
8    250    259    260    251    349    358    359    350
8    349    358    359    350    448    457    458    449
8    448    457    458    449    547    556    557    548
8     61     70     71     62    160    169    170    161
8    160    169    170    161    259    268    269    260
8    259    268    269    260    358    367    368    359
8    358    367    368    359    457    466    467    458
8    457    466    467    458    556    565    566    557
8     70     79     80     71    169    178    179    170
8    169    178    179    170    268    277    278    269
8    268    277    278    269    367    376    377    368
8    367    376    377    368    466    475    476    467
8    466    475    476    467    565    574    575    566
8     79     88     89     80    178    187    188    179
8    178    187    188    179    277    286    287    278
8    277    286    287    278    376    385    386    377
8    376    385    386    377    475    484    485    476
8    475    484    485    476    574    583    584    575
8     88     97     98     89    187    196    197    188
8    187    196    197    188    286    295    296    287
8    286    295    296    287    385    394    395    386
8    385    394    395    386    484    493    494    485
8    484    493    494    485    583    592    593    584
8     53     62    605    594    152    161    671    660
8    152    161    671    660    251    260    737    726
8    251    260    737    726    350    359    803    792
8    350    359    803    792    449    458    869    858
8    449    458    869    858    548    557    935    924
8     62     71    616    605    161    170    682    671
8    161    170    682    671    260    269    748    737
8    260    269    748    737    359    368    814    803
8    359    368    814    803    458    467    880    869
8    458    467    880    869    557    566    946    935
8     71     80    627    616    170    179    693    682
8    170    179    693    682    269    278    759    748
8    269    278    759    748    368    377    825    814
8    368    377    825    814    467    476    891    880
8    467    476    891    880    566    575    957    946
8     80     89    638    627    179    188    704    693
8    179    188    704    693    278    287    770    759
8    278    287    770    759    377    386    836    825
8    377    386    836    825    476    485    902    891
8    476    485    902    891    575    584    968    957
8     89     98    649    638    188    197    715    704
8    188    197    715    704    287    296    781    770
8    287    296    781    770    386    395    847    836
8    386    395    847    836    485    494    913    902
8    485    494    913    902    584    593    979    968
8      8     17   1025   1034    107    116   1079   1088
8    107    116   1079   1088    206    215   1133   1142
8    206    215   1133   1142    305    314   1187   1196
8    305    314   1187   1196    404    413   1241   1250
8    404    413   1241   1250    503    512   1295   1304
8     17     26   1016   1025    116    125   1070   1079
8    116    125   1070   1079    215    224   1124   1133
8    215    224   1124   1133    314    323   1178   1187
8    314    323   1178   1187    413    422   1232   1241
8    413    422   1232   1241    512    521   1286   1295
8     26     35   1007   1016    125    134   1061   1070
8    125    134   1061   1070    224    233   1115   1124
8    224    233   1115   1124    323    332   1169   1178
8    323    332   1169   1178    422    431   1223   1232
8    422    431   1223   1232    521    530   1277   1286
8     35     44    998   1007    134    143   1052   1061
8    134    143   1052   1061    233    242   1106   1115
8    233    242   1106   1115    332    341   1160   1169
8    332    341   1160   1169    431    440   1214   1223
8    431    440   1214   1223    530    539   1268   1277
8     44     53    594    998    143    152   1043   1052
8    143    152   1043   1052    242    251   1097   1106
8    242    251   1097   1106    341    350   1151   1160
8    341    350   1151   1160    440    449   1205   1214
8    440    449   1205   1214    539    548   1259   1268
8    594    605    606    595    660    671    672    661
8    660    671    672    661    726    737    738    727
8    726    737    738    727    792    803    804    793
8    792    803    804    793    858    869    870    859
8    858    869    870    859    924    935    936    925
8    605    616    617    606    671    682    683    672
8    671    682    683    672    737    748    749    738
8    737    748    749    738    803    814    815    804
8    803    814    815    804    869    880    881    870
8    869    880    881    870    935    946    947    936
8    616    627    628    617    682    693    694    683
8    682    693    694    683    748    759    760    749
8    748    759    760    749    814    825    826    815
8    814    825    826    815    880    891    892    881
8    880    891    892    881    946    957    958    947
8    627    638    639    628    693    704    705    694
8    693    704    705    694    759    770    771    760
8    759    770    771    760    825    836    837    826
8    825    836    837    826    891    902    903    892
8    891    902    903    892    957    968    969    958
8    638    649    650    639    704    715    716    705
8    704    715    716    705    770    781    782    771
8    770    781    782    771    836    847    848    837
8    836    847    848    837    902    913    914    903
8    902    913    914    903    968    979    980    969
8    595    606    607    596    661    672    673    662
8    661    672    673    662    727    738    739    728
8    727    738    739    728    793    804    805    794
8    793    804    805    794    859    870    871    860
8    859    870    871    860    925    936    937    926
8    606    617    618    607    672    683    684    673
8    672    683    684    673    738    749    750    739
8    738    749    750    739    804    815    816    805
8    804    815    816    805    870    881    882    871
8    870    881    882    871    936    947    948    937
8    617    628    629    618    683    694    695    684
8    683    694    695    684    749    760    761    750
8    749    760    761    750    815    826    827    816
8    815    826    827    816    881    892    893    882
8    881    892    893    882    947    958    959    948
8    628    639    640    629    694    705    706    695
8    694    705    706    695    760    771    772    761
8    760    771    772    761    826    837    838    827
8    826    837    838    827    892    903    904    893
8    892    903    904    893    958    969    970    959
8    639    650    651    640    705    716    717    706
8    705    716    717    706    771    782    783    772
8    771    782    783    772    837    848    849    838
8    837    848    849    838    903    914    915    904
8    903    914    915    904    969    980    981    970
8    596    607    608    597    662    673    674    663
8    662    673    674    663    728    739    740    729
8    728    739    740    729    794    805    806    795
8    794    805    806    795    860    871    872    861
8    860    871    872    861    926    937    938    927
8    607    618    619    608    673    684    685    674
8    673    684    685    674    739    750    751    740
8    739    750    751    740    805    816    817    806
8    805    816    817    806    871    882    883    872
8    871    882    883    872    937    948    949    938
8    618    629    630    619    684    695    696    685
8    684    695    696    685    750    761    762    751
8    750    761    762    751    816    827    828    817
8    816    827    828    817    882    893    894    883
8    882    893    894    883    948    959    960    949
8    629    640    641    630    695    706    707    696
8    695    706    707    696    761    772    773    762
8    761    772    773    762    827    838    839    828
8    827    838    839    828    893    904    905    894
8    893    904    905    894    959    970    971    960
8    640    651    652    641    706    717    718    707
8    706    717    718    707    772    783    784    773
8    772    783    784    773    838    849    850    839
8    838    849    850    839    904    915    916    905
8    904    915    916    905    970    981    982    971
8    597    608    609    598    663    674    675    664
8    663    674    675    664    729    740    741    730
8    729    740    741    730    795    806    807    796
8    795    806    807    796    861    872    873    862
8    861    872    873    862    927    938    939    928
8    608    619    620    609    674    685    686    675
8    674    685    686    675    740    751    752    741
8    740    751    752    741    806    817    818    807
8    806    817    818    807    872    883    884    873
8    872    883    884    873    938    949    950    939
8    619    630    631    620    685    696    697    686
8    685    696    697    686    751    762    763    752
8    751    762    763    752    817    828    829    818
8    817    828    829    818    883    894    895    884
8    883    894    895    884    949    960    961    950
8    630    641    642    631    696    707    708    697
8    696    707    708    697    762    773    774    763
8    762    773    774    763    828    839    840    829
8    828    839    840    829    894    905    906    895
8    894    905    906    895    960    971    972    961
8    641    652    653    642    707    718    719    708
8    707    718    719    708    773    784    785    774
8    773    784    785    774    839    850    851    840
8    839    850    851    840    905    916    917    906
8    905    916    917    906    971    982    983    972
8    598    609    610    599    664    675    676    665
8    664    675    676    665    730    741    742    731
8    730    741    742    731    796    807    808    797
8    796    807    808    797    862    873    874    863
8    862    873    874    863    928    939    940    929
8    609    620    621    610    675    686    687    676
8    675    686    687    676    741    752    753    742
8    741    752    753    742    807    818    819    808
8    807    818    819    808    873    884    885    874
8    873    884    885    874    939    950    951    940
8    620    631    632    621    686    697    698    687
8    686    697    698    687    752    763    764    753
8    752    763    764    753    818    829    830    819
8    818    829    830    819    884    895    896    885
8    884    895    896    885    950    961    962    951
8    631    642    643    632    697    708    709    698
8    697    708    709    698    763    774    775    764
8    763    774    775    764    829    840    841    830
8    829    840    841    830    895    906    907    896
8    895    906    907    896    961    972    973    962
8    642    653    654    643    708    719    720    709
8    708    719    720    709    774    785    786    775
8    774    785    786    775    840    851    852    841
8    840    851    852    841    906    917    918    907
8    906    917    918    907    972    983    984    973
8    599    610    611    600    665    676    677    666
8    665    676    677    666    731    742    743    732
8    731    742    743    732    797    808    809    798
8    797    808    809    798    863    874    875    864
8    863    874    875    864    929    940    941    930
8    610    621    622    611    676    687    688    677
8    676    687    688    677    742    753    754    743
8    742    753    754    743    808    819    820    809
8    808    819    820    809    874    885    886    875
8    874    885    886    875    940    951    952    941
8    621    632    633    622    687    698    699    688
8    687    698    699    688    753    764    765    754
8    753    764    765    754    819    830    831    820
8    819    830    831    820    885    896    897    886
8    885    896    897    886    951    962    963    952
8    632    643    644    633    698    709    710    699
8    698    709    710    699    764    775    776    765
8    764    775    776    765    830    841    842    831
8    830    841    842    831    896    907    908    897
8    896    907    908    897    962    973    974    963
8    643    654    655    644    709    720    721    710
8    709    720    721    710    775    786    787    776
8    775    786    787    776    841    852    853    842
8    841    852    853    842    907    918    919    908
8    907    918    919    908    973    984    985    974
8    600    611    612    601    666    677    678    667
8    666    677    678    667    732    743    744    733
8    732    743    744    733    798    809    810    799
8    798    809    810    799    864    875    876    865
8    864    875    876    865    930    941    942    931
8    611    622    623    612    677    688    689    678
8    677    688    689    678    743    754    755    744
8    743    754    755    744    809    820    821    810
8    809    820    821    810    875    886    887    876
8    875    886    887    876    941    952    953    942
8    622    633    634    623    688    699    700    689
8    688    699    700    689    754    765    766    755
8    754    765    766    755    820    831    832    821
8    820    831    832    821    886    897    898    887
8    886    897    898    887    952    963    964    953
8    633    644    645    634    699    710    711    700
8    699    710    711    700    765    776    777    766
8    765    776    777    766    831    842    843    832
8    831    842    843    832    897    908    909    898
8    897    908    909    898    963    974    975    964
8    644    655    656    645    710    721    722    711
8    710    721    722    711    776    787    788    777
8    776    787    788    777    842    853    854    843
8    842    853    854    843    908    919    920    909
8    908    919    920    909    974    985    986    975
8    601    612    613    602    667    678    679    668
8    667    678    679    668    733    744    745    734
8    733    744    745    734    799    810    811    800
8    799    810    811    800    865    876    877    866
8    865    876    877    866    931    942    943    932
8    612    623    624    613    678    689    690    679
8    678    689    690    679    744    755    756    745
8    744    755    756    745    810    821    822    811
8    810    821    822    811    876    887    888    877
8    876    887    888    877    942    953    954    943
8    623    634    635    624    689    700    701    690
8    689    700    701    690    755    766    767    756
8    755    766    767    756    821    832    833    822
8    821    832    833    822    887    898    899    888
8    887    898    899    888    953    964    965    954
8    634    645    646    635    700    711    712    701
8    700    711    712    701    766    777    778    767
8    766    777    778    767    832    843    844    833
8    832    843    844    833    898    909    910    899
8    898    909    910    899    964    975    976    965
8    645    656    657    646    711    722    723    712
8    711    722    723    712    777    788    789    778
8    777    788    789    778    843    854    855    844
8    843    854    855    844    909    920    921    910
8    909    920    921    910    975    986    987    976
8    602    613    614    603    668    679    680    669
8    668    679    680    669    734    745    746    735
8    734    745    746    735    800    811    812    801
8    800    811    812    801    866    877    878    867
8    866    877    878    867    932    943    944    933
8    613    624    625    614    679    690    691    680
8    679    690    691    680    745    756    757    746
8    745    756    757    746    811    822    823    812
8    811    822    823    812    877    888    889    878
8    877    888    889    878    943    954    955    944
8    624    635    636    625    690    701    702    691
8    690    701    702    691    756    767    768    757
8    756    767    768    757    822    833    834    823
8    822    833    834    823    888    899    900    889
8    888    899    900    889    954    965    966    955
8    635    646    647    636    701    712    713    702
8    701    712    713    702    767    778    779    768
8    767    778    779    768    833    844    845    834
8    833    844    845    834    899    910    911    900
8    899    910    911    900    965    976    977    966
8    646    657    658    647    712    723    724    713
8    712    723    724    713    778    789    790    779
8    778    789    790    779    844    855    856    845
8    844    855    856    845    910    921    922    911
8    910    921    922    911    976    987    988    977
8    603    614    615    604    669    680    681    670
8    669    680    681    670    735    746    747    736
8    735    746    747    736    801    812    813    802
8    801    812    813    802    867    878    879    868
8    867    878    879    868    933    944    945    934
8    614    625    626    615    680    691    692    681
8    680    691    692    681    746    757    758    747
8    746    757    758    747    812    823    824    813
8    812    823    824    813    878    889    890    879
8    878    889    890    879    944    955    956    945
8    625    636    637    626    691    702    703    692
8    691    702    703    692    757    768    769    758
8    757    768    769    758    823    834    835    824
8    823    834    835    824    889    900    901    890
8    889    900    901    890    955    966    967    956
8    636    647    648    637    702    713    714    703
8    702    713    714    703    768    779    780    769
8    768    779    780    769    834    845    846    835
8    834    845    846    835    900    911    912    901
8    900    911    912    901    966    977    978    967
8    647    658    659    648    713    724    725    714
8    713    724    725    714    779    790    791    780
8    779    790    791    780    845    856    857    846
8    845    856    857    846    911    922    923    912
8    911    922    923    912    977    988    989    978
8    998    594    990    999   1052   1043   1044   1053
8   1052   1043   1044   1053   1106   1097   1098   1107
8   1106   1097   1098   1107   1160   1151   1152   1161
8   1160   1151   1152   1161   1214   1205   1206   1215
8   1214   1205   1206   1215   1268   1259   1260   1269
8   1007    998    999   1008   1061   1052   1053   1062
8   1061   1052   1053   1062   1115   1106   1107   1116
8   1115   1106   1107   1116   1169   1160   1161   1170
8   1169   1160   1161   1170   1223   1214   1215   1224
8   1223   1214   1215   1224   1277   1268   1269   1278
8   1016   1007   1008   1017   1070   1061   1062   1071
8   1070   1061   1062   1071   1124   1115   1116   1125
8   1124   1115   1116   1125   1178   1169   1170   1179
8   1178   1169   1170   1179   1232   1223   1224   1233
8   1232   1223   1224   1233   1286   1277   1278   1287
8   1025   1016   1017   1026   1079   1070   1071   1080
8   1079   1070   1071   1080   1133   1124   1125   1134
8   1133   1124   1125   1134   1187   1178   1179   1188
8   1187   1178   1179   1188   1241   1232   1233   1242
8   1241   1232   1233   1242   1295   1286   1287   1296
8   1034   1025   1026   1035   1088   1079   1080   1089
8   1088   1079   1080   1089   1142   1133   1134   1143
8   1142   1133   1134   1143   1196   1187   1188   1197
8   1196   1187   1188   1197   1250   1241   1242   1251
8   1250   1241   1242   1251   1304   1295   1296   1305
8    999    990    991   1000   1053   1044   1045   1054
8   1053   1044   1045   1054   1107   1098   1099   1108
8   1107   1098   1099   1108   1161   1152   1153   1162
8   1161   1152   1153   1162   1215   1206   1207   1216
8   1215   1206   1207   1216   1269   1260   1261   1270
8   1008    999   1000   1009   1062   1053   1054   1063
8   1062   1053   1054   1063   1116   1107   1108   1117
8   1116   1107   1108   1117   1170   1161   1162   1171
8   1170   1161   1162   1171   1224   1215   1216   1225
8   1224   1215   1216   1225   1278   1269   1270   1279
8   1017   1008   1009   1018   1071   1062   1063   1072
8   1071   1062   1063   1072   1125   1116   1117   1126
8   1125   1116   1117   1126   1179   1170   1171   1180
8   1179   1170   1171   1180   1233   1224   1225   1234
8   1233   1224   1225   1234   1287   1278   1279   1288
8   1026   1017   1018   1027   1080   1071   1072   1081
8   1080   1071   1072   1081   1134   1125   1126   1135
8   1134   1125   1126   1135   1188   1179   1180   1189
8   1188   1179   1180   1189   1242   1233   1234   1243
8   1242   1233   1234   1243   1296   1287   1288   1297
8   1035   1026   1027   1036   1089   1080   1081   1090
8   1089   1080   1081   1090   1143   1134   1135   1144
8   1143   1134   1135   1144   1197   1188   1189   1198
8   1197   1188   1189   1198   1251   1242   1243   1252
8   1251   1242   1243   1252   1305   1296   1297   1306
8   1000    991    992   1001   1054   1045   1046   1055
8   1054   1045   1046   1055   1108   1099   1100   1109
8   1108   1099   1100   1109   1162   1153   1154   1163
8   1162   1153   1154   1163   1216   1207   1208   1217
8   1216   1207   1208   1217   1270   1261   1262   1271
8   1009   1000   1001   1010   1063   1054   1055   1064
8   1063   1054   1055   1064   1117   1108   1109   1118
8   1117   1108   1109   1118   1171   1162   1163   1172
8   1171   1162   1163   1172   1225   1216   1217   1226
8   1225   1216   1217   1226   1279   1270   1271   1280
8   1018   1009   1010   1019   1072   1063   1064   1073
8   1072   1063   1064   1073   1126   1117   1118   1127
8   1126   1117   1118   1127   1180   1171   1172   1181
8   1180   1171   1172   1181   1234   1225   1226   1235
8   1234   1225   1226   1235   1288   1279   1280   1289
8   1027   1018   1019   1028   1081   1072   1073   1082
8   1081   1072   1073   1082   1135   1126   1127   1136
8   1135   1126   1127   1136   1189   1180   1181   1190
8   1189   1180   1181   1190   1243   1234   1235   1244
8   1243   1234   1235   1244   1297   1288   1289   1298
8   1036   1027   1028   1037   1090   1081   1082   1091
8   1090   1081   1082   1091   1144   1135   1136   1145
8   1144   1135   1136   1145   1198   1189   1190   1199
8   1198   1189   1190   1199   1252   1243   1244   1253
8   1252   1243   1244   1253   1306   1297   1298   1307
8   1001    992    993   1002   1055   1046   1047   1056
8   1055   1046   1047   1056   1109   1100   1101   1110
8   1109   1100   1101   1110   1163   1154   1155   1164
8   1163   1154   1155   1164   1217   1208   1209   1218
8   1217   1208   1209   1218   1271   1262   1263   1272
8   1010   1001   1002   1011   1064   1055   1056   1065
8   1064   1055   1056   1065   1118   1109   1110   1119
8   1118   1109   1110   1119   1172   1163   1164   1173
8   1172   1163   1164   1173   1226   1217   1218   1227
8   1226   1217   1218   1227   1280   1271   1272   1281
8   1019   1010   1011   1020   1073   1064   1065   1074
8   1073   1064   1065   1074   1127   1118   1119   1128
8   1127   1118   1119   1128   1181   1172   1173   1182
8   1181   1172   1173   1182   1235   1226   1227   1236
8   1235   1226   1227   1236   1289   1280   1281   1290
8   1028   1019   1020   1029   1082   1073   1074   1083
8   1082   1073   1074   1083   1136   1127   1128   1137
8   1136   1127   1128   1137   1190   1181   1182   1191
8   1190   1181   1182   1191   1244   1235   1236   1245
8   1244   1235   1236   1245   1298   1289   1290   1299
8   1037   1028   1029   1038   1091   1082   1083   1092
8   1091   1082   1083   1092   1145   1136   1137   1146
8   1145   1136   1137   1146   1199   1190   1191   1200
8   1199   1190   1191   1200   1253   1244   1245   1254
8   1253   1244   1245   1254   1307   1298   1299   1308
8   1002    993    994   1003   1056   1047   1048   1057
8   1056   1047   1048   1057   1110   1101   1102   1111
8   1110   1101   1102   1111   1164   1155   1156   1165
8   1164   1155   1156   1165   1218   1209   1210   1219
8   1218   1209   1210   1219   1272   1263   1264   1273
8   1011   1002   1003   1012   1065   1056   1057   1066
8   1065   1056   1057   1066   1119   1110   1111   1120
8   1119   1110   1111   1120   1173   1164   1165   1174
8   1173   1164   1165   1174   1227   1218   1219   1228
8   1227   1218   1219   1228   1281   1272   1273   1282
8   1020   1011   1012   1021   1074   1065   1066   1075
8   1074   1065   1066   1075   1128   1119   1120   1129
8   1128   1119   1120   1129   1182   1173   1174   1183
8   1182   1173   1174   1183   1236   1227   1228   1237
8   1236   1227   1228   1237   1290   1281   1282   1291
8   1029   1020   1021   1030   1083   1074   1075   1084
8   1083   1074   1075   1084   1137   1128   1129   1138
8   1137   1128   1129   1138   1191   1182   1183   1192
8   1191   1182   1183   1192   1245   1236   1237   1246
8   1245   1236   1237   1246   1299   1290   1291   1300
8   1038   1029   1030   1039   1092   1083   1084   1093
8   1092   1083   1084   1093   1146   1137   1138   1147
8   1146   1137   1138   1147   1200   1191   1192   1201
8   1200   1191   1192   1201   1254   1245   1246   1255
8   1254   1245   1246   1255   1308   1299   1300   1309
8   1003    994    995   1004   1057   1048   1049   1058
8   1057   1048   1049   1058   1111   1102   1103   1112
8   1111   1102   1103   1112   1165   1156   1157   1166
8   1165   1156   1157   1166   1219   1210   1211   1220
8   1219   1210   1211   1220   1273   1264   1265   1274
8   1012   1003   1004   1013   1066   1057   1058   1067
8   1066   1057   1058   1067   1120   1111   1112   1121
8   1120   1111   1112   1121   1174   1165   1166   1175
8   1174   1165   1166   1175   1228   1219   1220   1229
8   1228   1219   1220   1229   1282   1273   1274   1283
8   1021   1012   1013   1022   1075   1066   1067   1076
8   1075   1066   1067   1076   1129   1120   1121   1130
8   1129   1120   1121   1130   1183   1174   1175   1184
8   1183   1174   1175   1184   1237   1228   1229   1238
8   1237   1228   1229   1238   1291   1282   1283   1292
8   1030   1021   1022   1031   1084   1075   1076   1085
8   1084   1075   1076   1085   1138   1129   1130   1139
8   1138   1129   1130   1139   1192   1183   1184   1193
8   1192   1183   1184   1193   1246   1237   1238   1247
8   1246   1237   1238   1247   1300   1291   1292   1301
8   1039   1030   1031   1040   1093   1084   1085   1094
8   1093   1084   1085   1094   1147   1138   1139   1148
8   1147   1138   1139   1148   1201   1192   1193   1202
8   1201   1192   1193   1202   1255   1246   1247   1256
8   1255   1246   1247   1256   1309   1300   1301   1310
8   1004    995    996   1005   1058   1049   1050   1059
8   1058   1049   1050   1059   1112   1103   1104   1113
8   1112   1103   1104   1113   1166   1157   1158   1167
8   1166   1157   1158   1167   1220   1211   1212   1221
8   1220   1211   1212   1221   1274   1265   1266   1275
8   1013   1004   1005   1014   1067   1058   1059   1068
8   1067   1058   1059   1068   1121   1112   1113   1122
8   1121   1112   1113   1122   1175   1166   1167   1176
8   1175   1166   1167   1176   1229   1220   1221   1230
8   1229   1220   1221   1230   1283   1274   1275   1284
8   1022   1013   1014   1023   1076   1067   1068   1077
8   1076   1067   1068   1077   1130   1121   1122   1131
8   1130   1121   1122   1131   1184   1175   1176   1185
8   1184   1175   1176   1185   1238   1229   1230   1239
8   1238   1229   1230   1239   1292   1283   1284   1293
8   1031   1022   1023   1032   1085   1076   1077   1086
8   1085   1076   1077   1086   1139   1130   1131   1140
8   1139   1130   1131   1140   1193   1184   1185   1194
8   1193   1184   1185   1194   1247   1238   1239   1248
8   1247   1238   1239   1248   1301   1292   1293   1302
8   1040   1031   1032   1041   1094   1085   1086   1095
8   1094   1085   1086   1095   1148   1139   1140   1149
8   1148   1139   1140   1149   1202   1193   1194   1203
8   1202   1193   1194   1203   1256   1247   1248   1257
8   1256   1247   1248   1257   1310   1301   1302   1311
8   1005    996    997   1006   1059   1050   1051   1060
8   1059   1050   1051   1060   1113   1104   1105   1114
8   1113   1104   1105   1114   1167   1158   1159   1168
8   1167   1158   1159   1168   1221   1212   1213   1222
8   1221   1212   1213   1222   1275   1266   1267   1276
8   1014   1005   1006   1015   1068   1059   1060   1069
8   1068   1059   1060   1069   1122   1113   1114   1123
8   1122   1113   1114   1123   1176   1167   1168   1177
8   1176   1167   1168   1177   1230   1221   1222   1231
8   1230   1221   1222   1231   1284   1275   1276   1285
8   1023   1014   1015   1024   1077   1068   1069   1078
8   1077   1068   1069   1078   1131   1122   1123   1132
8   1131   1122   1123   1132   1185   1176   1177   1186
8   1185   1176   1177   1186   1239   1230   1231   1240
8   1239   1230   1231   1240   1293   1284   1285   1294
8   1032   1023   1024   1033   1086   1077   1078   1087
8   1086   1077   1078   1087   1140   1131   1132   1141
8   1140   1131   1132   1141   1194   1185   1186   1195
8   1194   1185   1186   1195   1248   1239   1240   1249
8   1248   1239   1240   1249   1302   1293   1294   1303
8   1041   1032   1033   1042   1095   1086   1087   1096
8   1095   1086   1087   1096   1149   1140   1141   1150
8   1149   1140   1141   1150   1203   1194   1195   1204
8   1203   1194   1195   1204   1257   1248   1249   1258
8   1257   1248   1249   1258   1311   1302   1303   1312
8      0   1314   1324     99      1   1315   1325    100
8     99   1324   1334    198    100   1325   1335    199
8    198   1334   1344    297    199   1335   1345    298
8    297   1344   1354    396    298   1345   1355    397
8    396   1354   1364    495    397   1355   1365    496
8    495   1364   1374    504    496   1365   1375    505
8    504   1374   1384    513    505   1375   1385    514
8    513   1384   1394    522    514   1385   1395    523
8    522   1394   1404    531    523   1395   1405    532
8    531   1404   1414    540    532   1405   1415    541
8    540   1414   1424    549    541   1415   1425    550
8    549   1424   1434    558    550   1425   1435    559
8    558   1434   1444    567    559   1435   1445    568
8    567   1444   1454    576    568   1445   1455    577
8    576   1454   1464    585    577   1455   1465    586
8     90    189   1504   1514     91    190   1505   1515
8    189    288   1494   1504    190    289   1495   1505
8    288    387   1484   1494    289    388   1485   1495
8    387    486   1474   1484    388    487   1475   1485
8    486    585   1464   1474    487    586   1465   1475
8      1   1315   1325    100      2   1316   1326    101
8    100   1325   1335    199    101   1326   1336    200
8    199   1335   1345    298    200   1336   1346    299
8    298   1345   1355    397    299   1346   1356    398
8    397   1355   1365    496    398   1356   1366    497
8    496   1365   1375    505    497   1366   1376    506
8    505   1375   1385    514    506   1376   1386    515
8    514   1385   1395    523    515   1386   1396    524
8    523   1395   1405    532    524   1396   1406    533
8    532   1405   1415    541    533   1406   1416    542
8    541   1415   1425    550    542   1416   1426    551
8    550   1425   1435    559    551   1426   1436    560
8    559   1435   1445    568    560   1436   1446    569
8    568   1445   1455    577    569   1446   1456    578
8    577   1455   1465    586    578   1456   1466    587
8     91    190   1505   1515     92    191   1506   1516
8    190    289   1495   1505    191    290   1496   1506
8    289    388   1485   1495    290    389   1486   1496
8    388    487   1475   1485    389    488   1476   1486
8    487    586   1465   1475    488    587   1466   1476
8      2   1316   1326    101      3   1317   1327    102
8    101   1326   1336    200    102   1327   1337    201
8    200   1336   1346    299    201   1337   1347    300
8    299   1346   1356    398    300   1347   1357    399
8    398   1356   1366    497    399   1357   1367    498
8    497   1366   1376    506    498   1367   1377    507
8    506   1376   1386    515    507   1377   1387    516
8    515   1386   1396    524    516   1387   1397    525
8    524   1396   1406    533    525   1397   1407    534
8    533   1406   1416    542    534   1407   1417    543
8    542   1416   1426    551    543   1417   1427    552
8    551   1426   1436    560    552   1427   1437    561
8    560   1436   1446    569    561   1437   1447    570
8    569   1446   1456    578    570   1447   1457    579
8    578   1456   1466    587    579   1457   1467    588
8     92    191   1506   1516     93    192   1507   1517
8    191    290   1496   1506    192    291   1497   1507
8    290    389   1486   1496    291    390   1487   1497
8    389    488   1476   1486    390    489   1477   1487
8    488    587   1466   1476    489    588   1467   1477
8      3   1317   1327    102      4   1318   1328    103
8    102   1327   1337    201    103   1328   1338    202
8    201   1337   1347    300    202   1338   1348    301
8    300   1347   1357    399    301   1348   1358    400
8    399   1357   1367    498    400   1358   1368    499
8    498   1367   1377    507    499   1368   1378    508
8    507   1377   1387    516    508   1378   1388    517
8    516   1387   1397    525    517   1388   1398    526
8    525   1397   1407    534    526   1398   1408    535
8    534   1407   1417    543    535   1408   1418    544
8    543   1417   1427    552    544   1418   1428    553
8    552   1427   1437    561    553   1428   1438    562
8    561   1437   1447    570    562   1438   1448    571
8    570   1447   1457    579    571   1448   1458    580
8    579   1457   1467    588    580   1458   1468    589
8     93    192   1507   1517     94    193   1508   1518
8    192    291   1497   1507    193    292   1498   1508
8    291    390   1487   1497    292    391   1488   1498
8    390    489   1477   1487    391    490   1478   1488
8    489    588   1467   1477    490    589   1468   1478
8      4   1318   1328    103      5   1319   1329    104
8    103   1328   1338    202    104   1329   1339    203
8    202   1338   1348    301    203   1339   1349    302
8    301   1348   1358    400    302   1349   1359    401
8    400   1358   1368    499    401   1359   1369    500
8    499   1368   1378    508    500   1369   1379    509
8    508   1378   1388    517    509   1379   1389    518
8    517   1388   1398    526    518   1389   1399    527
8    526   1398   1408    535    527   1399   1409    536
8    535   1408   1418    544    536   1409   1419    545
8    544   1418   1428    553    545   1419   1429    554
8    553   1428   1438    562    554   1429   1439    563
8    562   1438   1448    571    563   1439   1449    572
8    571   1448   1458    580    572   1449   1459    581
8    580   1458   1468    589    581   1459   1469    590
8     94    193   1508   1518     95    194   1509   1519
8    193    292   1498   1508    194    293   1499   1509
8    292    391   1488   1498    293    392   1489   1499
8    391    490   1478   1488    392    491   1479   1489
8    490    589   1468   1478    491    590   1469   1479
8      5   1319   1329    104      6   1320   1330    105
8    104   1329   1339    203    105   1330   1340    204
8    203   1339   1349    302    204   1340   1350    303
8    302   1349   1359    401    303   1350   1360    402
8    401   1359   1369    500    402   1360   1370    501
8    500   1369   1379    509    501   1370   1380    510
8    509   1379   1389    518    510   1380   1390    519
8    518   1389   1399    527    519   1390   1400    528
8    527   1399   1409    536    528   1400   1410    537
8    536   1409   1419    545    537   1410   1420    546
8    545   1419   1429    554    546   1420   1430    555
8    554   1429   1439    563    555   1430   1440    564
8    563   1439   1449    572    564   1440   1450    573
8    572   1449   1459    581    573   1450   1460    582
8    581   1459   1469    590    582   1460   1470    591
8     95    194   1509   1519     96    195   1510   1520
8    194    293   1499   1509    195    294   1500   1510
8    293    392   1489   1499    294    393   1490   1500
8    392    491   1479   1489    393    492   1480   1490
8    491    590   1469   1479    492    591   1470   1480
8      6   1320   1330    105      7   1321   1331    106
8    105   1330   1340    204    106   1331   1341    205
8    204   1340   1350    303    205   1341   1351    304
8    303   1350   1360    402    304   1351   1361    403
8    402   1360   1370    501    403   1361   1371    502
8    501   1370   1380    510    502   1371   1381    511
8    510   1380   1390    519    511   1381   1391    520
8    519   1390   1400    528    520   1391   1401    529
8    528   1400   1410    537    529   1401   1411    538
8    537   1410   1420    546    538   1411   1421    547
8    546   1420   1430    555    547   1421   1431    556
8    555   1430   1440    564    556   1431   1441    565
8    564   1440   1450    573    565   1441   1451    574
8    573   1450   1460    582    574   1451   1461    583
8    582   1460   1470    591    583   1461   1471    592
8     96    195   1510   1520     97    196   1511   1521
8    195    294   1500   1510    196    295   1501   1511
8    294    393   1490   1500    295    394   1491   1501
8    393    492   1480   1490    394    493   1481   1491
8    492    591   1470   1480    493    592   1471   1481
8      7   1321   1331    106      8   1322   1332    107
8    106   1331   1341    205    107   1332   1342    206
8    205   1341   1351    304    206   1342   1352    305
8    304   1351   1361    403    305   1352   1362    404
8    403   1361   1371    502    404   1362   1372    503
8    502   1371   1381    511    503   1372   1382    512
8    511   1381   1391    520    512   1382   1392    521
8    520   1391   1401    529    521   1392   1402    530
8    529   1401   1411    538    530   1402   1412    539
8    538   1411   1421    547    539   1412   1422    548
8    547   1421   1431    556    548   1422   1432    557
8    556   1431   1441    565    557   1432   1442    566
8    565   1441   1451    574    566   1442   1452    575
8    574   1451   1461    583    575   1452   1462    584
8    583   1461   1471    592    584   1462   1472    593
8     97    196   1511   1521     98    197   1512   1522
8    196    295   1501   1511    197    296   1502   1512
8    295    394   1491   1501    296    395   1492   1502
8    394    493   1481   1491    395    494   1482   1492
8    493    592   1471   1481    494    593   1472   1482
8   1523   1524      9      0   1534   1535    108     99
8   1534   1535    108     99   1545   1546    207    198
8   1545   1546    207    198   1556   1557    306    297
8   1556   1557    306    297   1567   1568    405    396
8   1567   1568    405    396   1578   1579    504    495
8   1524   1525     18      9   1535   1536    117    108
8   1535   1536    117    108   1546   1547    216    207
8   1546   1547    216    207   1557   1558    315    306
8   1557   1558    315    306   1568   1569    414    405
8   1568   1569    414    405   1579   1580    513    504
8   1525   1526     27     18   1536   1537    126    117
8   1536   1537    126    117   1547   1548    225    216
8   1547   1548    225    216   1558   1559    324    315
8   1558   1559    324    315   1569   1570    423    414
8   1569   1570    423    414   1580   1581    522    513
8   1526   1527     36     27   1537   1538    135    126
8   1537   1538    135    126   1548   1549    234    225
8   1548   1549    234    225   1559   1560    333    324
8   1559   1560    333    324   1570   1571    432    423
8   1570   1571    432    423   1581   1582    531    522
8   1527   1528     45     36   1538   1539    144    135
8   1538   1539    144    135   1549   1550    243    234
8   1549   1550    243    234   1560   1561    342    333
8   1560   1561    342    333   1571   1572    441    432
8   1571   1572    441    432   1582   1583    540    531
8   1528   1529     54     45   1539   1540    153    144
8   1539   1540    153    144   1550   1551    252    243
8   1550   1551    252    243   1561   1562    351    342
8   1561   1562    351    342   1572   1573    450    441
8   1572   1573    450    441   1583   1584    549    540
8   1529   1530     63     54   1540   1541    162    153
8   1540   1541    162    153   1551   1552    261    252
8   1551   1552    261    252   1562   1563    360    351
8   1562   1563    360    351   1573   1574    459    450
8   1573   1574    459    450   1584   1585    558    549
8   1530   1531     72     63   1541   1542    171    162
8   1541   1542    171    162   1552   1553    270    261
8   1552   1553    270    261   1563   1564    369    360
8   1563   1564    369    360   1574   1575    468    459
8   1574   1575    468    459   1585   1586    567    558
8   1531   1532     81     72   1542   1543    180    171
8   1542   1543    180    171   1553   1554    279    270
8   1553   1554    279    270   1564   1565    378    369
8   1564   1565    378    369   1575   1576    477    468
8   1575   1576    477    468   1586   1587    576    567
8   1532   1533     90     81   1543   1544    189    180
8   1543   1544    189    180   1554   1555    288    279
8   1554   1555    288    279   1565   1566    387    378
8   1565   1566    387    378   1576   1577    486    477
8   1576   1577    486    477   1587   1588    585    576
8   1523   1313   1323   1534      0   1314   1324     99
8   1534   1323   1333   1545     99   1324   1334    198
8   1545   1333   1343   1556    198   1334   1344    297
8   1556   1343   1353   1567    297   1344   1354    396
8   1567   1353   1363   1578    396   1354   1364    495
8   1578   1363   1373   1579    495   1364   1374    504
8   1579   1373   1383   1580    504   1374   1384    513
8   1580   1383   1393   1581    513   1384   1394    522
8   1581   1393   1403   1582    522   1394   1404    531
8   1582   1403   1413   1583    531   1404   1414    540
8   1583   1413   1423   1584    540   1414   1424    549
8   1584   1423   1433   1585    549   1424   1434    558
8   1585   1433   1443   1586    558   1434   1444    567
8   1586   1443   1453   1587    567   1444   1454    576
8   1587   1453   1463   1588    576   1454   1464    585
8   1533   1544   1503   1513     90    189   1504   1514
8   1544   1555   1493   1503    189    288   1494   1504
8   1555   1566   1483   1493    288    387   1484   1494
8   1566   1577   1473   1483    387    486   1474   1484
8   1577   1588   1463   1473    486    585   1464   1474
CELL_TYPES  1130
12
12
12
12
12
12
12
12
12
12
12
12
12
12
12
12
12
12
12
12
12
12
12
12
12
12
12
12
12
12
12
12
12
12
12
12
12
12
12
12
12
12
12
12
12
12
12
12
12
12
12
12
12
12
12
12
12
12
12
12
12
12
12
12
12
12
12
12
12
12
12
12
12
12
12
12
12
12
12
12
12
12
12
12
12
12
12
12
12
12
12
12
12
12
12
12
12
12
12
12
12
12
12
12
12
12
12
12
12
12
12
12
12
12
12
12
12
12
12
12
12
12
12
12
12
12
12
12
12
12
12
12
12
12
12
12
12
12
12
12
12
12
12
12
12
12
12
12
12
12
12
12
12
12
12
12
12
12
12
12
12
12
12
12
12
12
12
12
12
12
12
12
12
12
12
12
12
12
12
12
12
12
12
12
12
12
12
12
12
12
12
12
12
12
12
12
12
12
12
12
12
12
12
12
12
12
12
12
12
12
12
12
12
12
12
12
12
12
12
12
12
12
12
12
12
12
12
12
12
12
12
12
12
12
12
12
12
12
12
12
12
12
12
12
12
12
12
12
12
12
12
12
12
12
12
12
12
12
12
12
12
12
12
12
12
12
12
12
12
12
12
12
12
12
12
12
12
12
12
12
12
12
12
12
12
12
12
12
12
12
12
12
12
12
12
12
12
12
12
12
12
12
12
12
12
12
12
12
12
12
12
12
12
12
12
12
12
12
12
12
12
12
12
12
12
12
12
12
12
12
12
12
12
12
12
12
12
12
12
12
12
12
12
12
12
12
12
12
12
12
12
12
12
12
12
12
12
12
12
12
12
12
12
12
12
12
12
12
12
12
12
12
12
12
12
12
12
12
12
12
12
12
12
12
12
12
12
12
12
12
12
12
12
12
12
12
12
12
12
12
12
12
12
12
12
12
12
12
12
12
12
12
12
12
12
12
12
12
12
12
12
12
12
12
12
12
12
12
12
12
12
12
12
12
12
12
12
12
12
12
12
12
12
12
12
12
12
12
12
12
12
12
12
12
12
12
12
12
12
12
12
12
12
12
12
12
12
12
12
12
12
12
12
12
12
12
12
12
12
12
12
12
12
12
12
12
12
12
12
12
12
12
12
12
12
12
12
12
12
12
12
12
12
12
12
12
12
12
12
12
12
12
12
12
12
12
12
12
12
12
12
12
12
12
12
12
12
12
12
12
12
12
12
12
12
12
12
12
12
12
12
12
12
12
12
12
12
12
12
12
12
12
12
12
12
12
12
12
12
12
12
12
12
12
12
12
12
12
12
12
12
12
12
12
12
12
12
12
12
12
12
12
12
12
12
12
12
12
12
12
12
12
12
12
12
12
12
12
12
12
12
12
12
12
12
12
12
12
12
12
12
12
12
12
12
12
12
12
12
12
12
12
12
12
12
12
12
12
12
12
12
12
12
12
12
12
12
12
12
12
12
12
12
12
12
12
12
12
12
12
12
12
12
12
12
12
12
12
12
12
12
12
12
12
12
12
12
12
12
12
12
12
12
12
12
12
12
12
12
12
12
12
12
12
12
12
12
12
12
12
12
12
12
12
12
12
12
12
12
12
12
12
12
12
12
12
12
12
12
12
12
12
12
12
12
12
12
12
12
12
12
12
12
12
12
12
12
12
12
12
12
12
12
12
12
12
12
12
12
12
12
12
12
12
12
12
12
12
12
12
12
12
12
12
12
12
12
12
12
12
12
12
12
12
12
12
12
12
12
12
12
12
12
12
12
12
12
12
12
12
12
12
12
12
12
12
12
12
12
12
12
12
12
12
12
12
12
12
12
12
12
12
12
12
12
12
12
12
12
12
12
12
12
12
12
12
12
12
12
12
12
12
12
12
12
12
12
12
12
12
12
12
12
12
12
12
12
12
12
12
12
12
12
12
12
12
12
12
12
12
12
12
12
12
12
12
12
12
12
12
12
12
12
12
12
12
12
12
12
12
12
12
12
12
12
12
12
12
12
12
12
12
12
12
12
12
12
12
12
12
12
12
12
12
12
12
12
12
12
12
12
12
12
12
12
12
12
12
12
12
12
12
12
12
12
12
12
12
12
12
12
12
12
12
12
12
12
12
12
12
12
12
12
12
12
12
12
12
12
12
12
12
12
12
12
12
12
12
12
12
12
12
12
12
12
12
12
12
12
12
12
12
12
12
12
12
12
12
12
12
12
12
12
12
12
12
12
12
12
12
12
12
12
12
12
12
12
12
12
12
12
12
12
12
12
12
12
12
12
12
12
12
12
12
12
12
12
12
12
12
12
12
12
12
12
12
12
12
12
12
12
12
12
12
12
12
12
12
12
12
12
12
12
12
12
12
12
12
12
12
12
12
12
12
12
12
12
12
12
12
12
12
12
12
12
12
12
12
12
12
12
12
12
12
12
12
12
12
12
12
12
12
12
12
12
12
12
12
12
12
12
12
12
12
12
12
12
12
12
12
12
12
12
12
12
12
12
12
12
12
12
12
12
12
12
12
12
12
12
12
12
12
12
12
12
12
12
12
12
12
12
12
12
12
12
12
12
12
12
12
POINT_DATA      1589
VECTORS Velocities float 
     0.00000000     0.00000000     0.00000000
     0.00000000     0.00000000     0.00000000
     0.00000000     0.00000000     0.00000000
     0.00000000     0.00000000     0.00000000
     0.00000000     0.00000000     0.00000000
     0.00000000     0.00000000     0.00000000
     0.00000000     0.00000000     0.00000000
     0.00000000     0.00000000     0.00000000
     0.00000000     0.00000000     0.00000000
     0.00000000     0.00000000     0.00000000
   -14.76227733    18.60569585     0.00000000
   -26.64159233    12.35086108     0.00000000
   -28.83616012     7.83445793     0.00000000
   -30.19436812     1.76008559     0.00000000
   -26.92882547    -3.01902188     0.00000000
   -19.93720952   -10.37060665     0.00000000
     5.05457811   -26.67683566     0.00000000
    41.52968445    16.90172633     0.00000000
     0.00000000     0.00000000     0.00000000
   -14.73327388    26.96971780     0.00000000
   -23.32482457    16.47567457     0.00000000
   -24.82784025     6.47244544     0.00000000
   -21.16154591    -5.71848994     0.00000000
   -10.00399434   -11.11514131     0.00000000
     0.56712540   -21.76808510     0.00000000
     1.77912534   -32.87705889     0.00000000
     7.83520565    18.63212964     0.00000000
     0.00000000     0.00000000     0.00000000
    -5.87145756    23.08953383     0.00000000
    -0.84901853    13.50047524     0.00000000
     8.94339323    -1.60016007     0.00000000
     8.59269684    -9.35152830     0.00000000
     3.07293534   -19.30444960     0.00000000
   -21.82445473   -19.65577025     0.00000000
   -31.91617296   -11.15946456     0.00000000
    -3.56563935    13.27289547     0.00000000
     0.00000000     0.00000000     0.00000000
     3.49725588     4.12947054     0.00000000
    22.45353648    -3.49292391     0.00000000
    35.11779340    -6.17958130     0.00000000
    34.89217027    -6.12781671     0.00000000
    13.53645084    -2.82060781     0.00000000
   -28.76586422    -2.55405355     0.00000000
   -37.87916155     2.71065543     0.00000000
   -47.73348178    13.39151856     0.00000000
     0.00000000     0.00000000     0.00000000
     4.22657082   -19.53368696     0.00000000
    18.53032208   -19.12490777     0.00000000
    30.60749699    -6.91031527     0.00000000
    27.77511544     4.94531000     0.00000000
     8.11446634    20.12213454     0.00000000
   -21.63379655    11.39754682     0.00000000
   -22.35661105    -4.15986731     0.00000000
     0.00000000     0.00000000     0.00000000
     0.00000000     0.00000000     0.00000000
    -5.73383064   -32.92044581     0.00000000
    -1.02040976   -23.98030182     0.00000000
     3.26728082    -6.62648712     0.00000000
     0.51863672    15.29556749     0.00000000
    -9.06536575    27.80992778     0.00000000
   -20.20251348    19.10914351     0.00000000
   -21.70011934    -3.08003807     0.00000000
   -21.06864782    -6.74094569     0.00000000
     0.00000000     0.00000000     0.00000000
   -11.26536684   -34.52841430     0.00000000
   -15.94050715   -23.45247766     0.00000000
   -17.89423607    -6.15028050     0.00000000
   -20.61460804    11.16776726     0.00000000
   -13.68074368    20.63202554     0.00000000
   -11.56823408    20.04634935     0.00000000
   -13.69833403     6.44006573     0.00000000
    -7.12521331   -26.69619003     0.00000000
     0.00000000     0.00000000     0.00000000
   -15.74944920   -30.59236279     0.00000000
   -25.40630514   -18.44591927     0.00000000
   -28.15949192   -10.74710746     0.00000000
   -24.23466120     0.01255753     0.00000000
   -14.98845101     5.13546658     0.00000000
    -1.30225450    15.49567101     0.00000000
     4.03724258    16.90415948     0.00000000
     1.29815767   -23.44826757     0.00000000
     0.00000000     0.00000000     0.00000000
   -14.45140579   -19.57688087     0.00000000
   -24.11713507   -11.70182676     0.00000000
   -26.08936931   -10.58227298     0.00000000
   -27.30438425    -5.08052423     0.00000000
   -22.11150011     0.17366019     0.00000000
    -9.82498671     6.99720026     0.00000000
     9.53991653    16.92931894     0.00000000
    33.15128131   -20.28468215     0.00000000
     0.00000000     0.00000000     0.00000000
     0.00000000     0.00000000     0.00000000
     0.00000000     0.00000000     0.00000000
     0.00000000     0.00000000     0.00000000
     0.00000000     0.00000000     0.00000000
     0.00000000     0.00000000     0.00000000
     0.00000000     0.00000000     0.00000000
     0.00000000     0.00000000     0.00000000
     0.00000000     0.00000000     0.00000000
     0.00000000     0.00000000     0.00000000
     0.00000000     0.00000000     0.00000000
     0.00000000     0.00000000     0.00000000
     0.00000000     0.00000000     0.00000000
     0.00000000     0.00000000     0.00000000
     0.00000000     0.00000000     0.00000000
     0.00000000     0.00000000     0.00000000
     0.00000000     0.00000000     0.00000000
     0.00000000     0.00000000     0.00000000
     0.00000000     0.00000000     0.00000000
    -7.10209827    11.99954198     6.94807883
   -20.44832034    12.75531815     2.11065717
   -25.37777993     7.23291751     3.12963798
   -25.12098480     3.11601444    -0.71543830
   -24.75261502    -1.01219567    -1.72907082
   -18.90099374    -5.87865886    -4.06767069
     2.16057948   -26.09088159    -8.42705357
    38.42230561    15.39647307    -3.30438838
     0.00000000     0.00000000     0.00000000
    -5.63372623    21.00106047     8.35997479
   -19.17561670    19.18801320    -1.65474403
   -24.97879410     7.95785989     1.33268617
   -18.73841237    -1.80126497    -0.32854500
    -8.22805910    -5.73991002     1.89859387
    12.37028836   -13.65011410     1.97714725
    15.61973563   -37.17475975    -8.64626602
    10.67231070    11.19594358   -14.26371597
     0.00000000     0.00000000     0.00000000
     4.65242215    16.25023821     9.42552769
     3.49488014    16.10863349    -2.25757465
     5.51710120     0.92728944    -1.11457021
     9.50943697    -6.69892047    -0.81046653
    11.63614709   -13.21636073     6.18757582
    10.34393061   -18.89067317     5.49605988
    -9.55947874   -24.24182713   -10.40658930
    -4.03494672     2.91212639   -10.43490834
     0.00000000     0.00000000     0.00000000
    11.34545603     2.73810203    11.42299923
    27.65751187    -1.67537756     3.22975038
    34.66985768    -5.23972644     1.70385282
    34.90378875    -6.54688373    -1.86607949
    22.48293445    -0.88086854     6.23491296
     8.35645515    -4.38303234     6.13258632
   -12.34868201    -5.63377261    -7.12981310
   -45.64541476     8.85658393     5.91338414
     0.00000000     0.00000000     0.00000000
    13.73542950   -14.57130483     8.20299697
    23.80570199   -19.57055590    -0.81116120
    27.61907998    -8.60236943    -3.27715921
    22.61629625     2.84085355    -5.68586719
    15.51768540    15.67584579     6.06831339
     4.78704861    16.18490174     5.17027169
    -7.97603489    -0.48198728    -7.67664366
     0.00000000     0.00000000     0.00000000
     0.00000000     0.00000000     0.00000000
     5.32151056   -27.59618774     7.02745098
     2.98212624   -26.01541629    -3.66623539
    -2.66893075    -7.77850246    -3.72346156
    -1.31281671    11.47054816    -2.57320409
    -0.42693785    23.48869185     5.44001452
    -0.96470174    28.46880170     0.28199890
    -9.55857499     8.18872436    -4.46865120
   -17.44042655    -8.64097903     4.04061332
     0.00000000     0.00000000     0.00000000
    -0.81573653   -30.13211631     7.61058653
   -12.23596801   -24.87606624    -0.99973174
   -17.65401547    -6.05557163     5.34188596
   -15.51404812     7.93652995     4.94372169
    -8.38889547    20.73755474     5.83724425
     0.24598484    29.20200582    -2.38334450
    -6.86543076    21.81677884    -7.35605907
    -1.84729506   -23.32284184     2.18078916
     0.00000000     0.00000000     0.00000000
    -6.01239388   -24.62559783     7.88512863
   -21.89170594   -19.75835433    -1.02817597
   -26.93007170    -9.67076055     4.72501058
   -21.80291449     1.10340479     1.62642871
   -13.14588290     8.87651880    -0.03465261
     2.44247613    22.83521758    -7.00340661
     6.00599490    27.76499438   -12.01667624
     2.50729346   -20.24934782    -1.88407087
     0.00000000     0.00000000     0.00000000
    -7.19134943   -13.05489962     5.63631531
   -20.26194339   -12.29730991    -0.14991175
   -25.84692488    -9.10965330     0.76462343
   -27.91118225    -3.24465828    -4.06597051
   -24.84361079     3.73081625    -6.71214916
   -11.81609360    10.99144203    -8.56144437
     4.74769854    22.20461953   -10.13901428
    28.07923878   -20.50109988    -1.76007159
     0.00000000     0.00000000     0.00000000
     0.00000000     0.00000000     0.00000000
     0.00000000     0.00000000     0.00000000
     0.00000000     0.00000000     0.00000000
     0.00000000     0.00000000     0.00000000
     0.00000000     0.00000000     0.00000000
     0.00000000     0.00000000     0.00000000
     0.00000000     0.00000000     0.00000000
     0.00000000     0.00000000     0.00000000
     0.00000000     0.00000000     0.00000000
     0.00000000     0.00000000     0.00000000
     0.00000000     0.00000000     0.00000000
     0.00000000     0.00000000     0.00000000
     0.00000000     0.00000000     0.00000000
     0.00000000     0.00000000     0.00000000
     0.00000000     0.00000000     0.00000000
     0.00000000     0.00000000     0.00000000
     0.00000000     0.00000000     0.00000000
     0.00000000     0.00000000     0.00000000
    -5.07756541    10.68632928     7.25235096
   -13.20332319    11.42786767     6.18270869
   -17.06851198     7.17730368     2.32425759
   -17.76637273     2.44464675    -1.10340291
   -18.64018133    -0.51671152    -4.40928539
   -19.13958185    -6.20609490    -7.97828492
    -2.44759409   -24.96891102   -13.63640530
    36.79636182    12.90998325    -8.39178625
     0.00000000     0.00000000     0.00000000
    -4.08485827    15.73397475     8.19898628
   -11.26213067    18.36740447     4.30195764
   -17.31583986    11.14716490    -1.51233476
   -15.22860290     1.55023888    -1.32260996
    -4.89120000    -1.24394438    -2.30263444
     9.32499466    -5.00635745    -1.29601428
    18.86642059   -33.05464602   -10.19631971
    15.60659927     3.22455601   -18.14646594
     0.00000000     0.00000000     0.00000000
     2.35414624    10.82789719    10.30206130
     7.15320380    13.20741768     7.56857393
    10.16564944     4.61161442     0.71639062
    11.70026443    -2.26724705     1.72283623
    15.98931481    -4.18857485     1.90003486
    19.79002022    -7.29103058     4.40230182
     9.49431807   -22.41786911    -8.01358182
    -0.29238855    -7.51701175   -12.20022351
     0.00000000     0.00000000     0.00000000
     6.58861571    -0.93048997     9.84816900
    22.93712561    -5.37596526    11.07824089
    33.39441140    -6.78865396     5.76447872
    32.92527484    -5.83560962     2.16283319
    29.58354663     0.46269694     1.23036984
    14.34251644     0.33800049     2.82911705
     9.42141178    -9.59066294    -9.65778105
   -31.51253093    -0.03532573     3.45395768
     0.00000000     0.00000000     0.00000000
     7.13285414   -14.73837740     6.07956243
    18.07174768   -20.45592267     4.90339521
    21.42216165   -13.54536978    -3.12922961
    17.50752016    -3.70512765    -5.30134690
    16.02610042     7.03343984    -4.11544174
    12.83451927    15.64279263     2.80430634
     0.18860352     2.41817340    -8.07499953
     0.00000000     0.00000000     0.00000000
     0.00000000     0.00000000     0.00000000
     0.87791884   -24.76086587     5.28736190
     2.57857650   -25.65796507     3.20366183
    -2.85675380   -15.05821498    -4.81968989
    -4.67396064    -2.07239872    -5.74576140
     0.77637164    10.36431590    -3.73322284
     3.72591828    25.74175658    -3.68223304
     3.36188691    17.18084678    -6.89208078
   -10.39209390    -7.81699722     6.40271461
     0.00000000     0.00000000     0.00000000
    -4.17497460   -27.03850931     5.94059958
    -9.61842797   -24.60617641     5.65181951
   -14.09383094   -12.13198948     2.65993742
   -13.24387308    -1.46425762     3.80980516
    -5.79920633    11.52872118     0.38020948
     1.60077572    29.81095765    -7.00755088
    -0.95641361    30.25061329   -10.16475298
     0.68799320   -18.85229924     3.06333605
     0.00000000     0.00000000     0.00000000
    -7.60051905   -22.76130180     6.19158496
   -17.92302724   -18.91479712     6.25507101
   -23.78469902   -11.08378613     2.65513560
   -19.87582811    -0.16242271     1.94287232
   -14.61177816    10.58050733    -4.30438376
    -2.79966455    27.00546714   -12.98157779
     5.72916474    35.48316765   -14.84396557
     2.30578713   -17.33734484     0.78104716
     0.00000000     0.00000000     0.00000000
    -7.27982990   -13.43190340     5.51038706
   -16.90244119   -11.32352877     4.78112134
   -23.73253615    -9.10480814     1.23694621
   -27.27470008    -1.77202648    -1.36411286
   -27.82576416     7.13975306    -6.75922582
   -17.08504695    16.41507902   -12.01607038
     1.73681519    26.49882494   -15.87138941
    26.11447300   -19.57047304    -3.24213142
     0.00000000     0.00000000     0.00000000
     0.00000000     0.00000000     0.00000000
     0.00000000     0.00000000     0.00000000
     0.00000000     0.00000000     0.00000000
     0.00000000     0.00000000     0.00000000
     0.00000000     0.00000000     0.00000000
     0.00000000     0.00000000     0.00000000
     0.00000000     0.00000000     0.00000000
     0.00000000     0.00000000     0.00000000
     0.00000000     0.00000000     0.00000000
     0.00000000     0.00000000     0.00000000
     0.00000000     0.00000000     0.00000000
     0.00000000     0.00000000     0.00000000
     0.00000000     0.00000000     0.00000000
     0.00000000     0.00000000     0.00000000
     0.00000000     0.00000000     0.00000000
     0.00000000     0.00000000     0.00000000
     0.00000000     0.00000000     0.00000000
     0.00000000     0.00000000     0.00000000
    -1.55259787     6.23342844     6.07544373
    -5.43104373     8.55572267     4.87983993
    -8.28582668     5.25385757     1.48468120
    -9.65380649     1.24000261    -2.48761725
   -12.69122422    -1.78289984    -3.91360382
   -17.85024284    -7.50558246    -5.66454396
   -12.07971072   -23.90654295    -9.88040190
    30.02522847    12.13872845   -10.82812700
     0.00000000     0.00000000     0.00000000
     0.49011349     8.76312292     9.57821792
     0.20263001    10.18915942     5.53461087
    -2.21434826     6.98086828     0.39607678
    -3.15852734     0.16200204    -2.85819333
    -2.81573918    -0.92063716    -5.41277929
     0.44439545    -5.83905879    -4.24017897
     4.92892876   -27.96275359    -9.79824889
    16.92279159     0.32314340   -14.91566476
     0.00000000     0.00000000     0.00000000
     5.12300314     4.40528309    12.34392823
    11.30777928     4.86478982    11.61355652
    17.19143248     1.61878152     8.31601184
    17.92940438    -0.10075586     4.60126345
    15.90657716    -0.20395138    -0.51628218
    17.57066803    -1.28027404     1.14771089
     6.05990851   -17.33138801    -5.60247052
    10.60932984    -9.80126143    -6.80032798
     0.00000000     0.00000000     0.00000000
     6.51343600    -3.23029842    11.78567114
    18.77152937    -7.05699960    12.59333025
    27.15006915    -6.28267762    10.23748422
    31.46488534    -2.86694725     6.47037030
    26.37820166     4.98274479     0.22714725
    18.92205734     7.84856556     1.04113828
     5.57312202    -4.86101676    -4.51496281
   -17.34822668    -2.88041253    -0.17918692
     0.00000000     0.00000000     0.00000000
     6.71229697   -13.22845806     8.42324349
    13.44181091   -18.65510192     5.62548247
    19.29744522   -14.46588239     1.73840643
    21.20735650    -6.55009976    -3.49710419
    20.47625525     7.23683499    -7.25195853
    18.01933818    17.98841844    -1.46945977
     1.85391782     0.30692487     0.38067020
     0.00000000     0.00000000     0.00000000
     0.00000000     0.00000000     0.00000000
     2.97363107   -20.44728214     7.87547547
     3.75802935   -23.46639782     3.90450799
     3.27721479   -18.83420361    -0.79716904
     5.13530651    -8.01258767    -8.57047015
     9.23042835     6.06159052   -12.36477495
     6.54185973    26.54898180    -7.50035224
    -2.17390644    17.14624777    -5.76684920
    -4.74212079   -10.10669723     9.64788498
     0.00000000     0.00000000     0.00000000
    -1.29611317   -22.01310720     8.14847597
    -6.39189839   -23.25389904     5.38427938
    -9.86629168   -16.99907071     1.97647453
   -10.03844300    -8.38736160    -5.37277421
    -4.73857738     8.37430131   -10.95927754
    -0.80433986    31.87498963   -11.26295670
    -5.79111003    32.79930160    -9.52272903
     3.91124803   -18.61849764     7.57107764
     0.00000000     0.00000000     0.00000000
    -3.76375000   -18.62968243     8.23768248
   -12.73841946   -18.54935119     6.63270480
   -17.74235475   -14.42164517     4.60451031
   -19.87881965    -5.85435347    -1.63587926
   -15.85657510     8.38728895    -6.98402657
   -11.81272567    31.29785501   -14.18435653
    -1.88003334    36.26893912   -18.31427219
     3.32884457   -15.40542125     5.50848491
     0.00000000     0.00000000     0.00000000
    -4.98849331   -11.26218847     5.43318716
   -11.76926218   -10.71212524     6.23079347
   -16.15170471    -9.80934095     4.41449580
   -21.69796327    -4.22686544     2.35858376
   -23.21291073     3.46687402    -0.61909288
   -19.06090107    18.12431917    -5.95839624
    -8.96308512    27.79799809   -15.09851623
    21.56459908   -18.75099420    -1.66060097
     0.00000000     0.00000000     0.00000000
     0.00000000     0.00000000     0.00000000
     0.00000000     0.00000000     0.00000000
     0.00000000     0.00000000     0.00000000
     0.00000000     0.00000000     0.00000000
     0.00000000     0.00000000     0.00000000
     0.00000000     0.00000000     0.00000000
     0.00000000     0.00000000     0.00000000
     0.00000000     0.00000000     0.00000000
     0.00000000     0.00000000     0.00000000
     0.00000000     0.00000000     0.00000000
     0.00000000     0.00000000     0.00000000
     0.00000000     0.00000000     0.00000000
     0.00000000     0.00000000     0.00000000
     0.00000000     0.00000000     0.00000000
     0.00000000     0.00000000     0.00000000
     0.00000000     0.00000000     0.00000000
     0.00000000     0.00000000     0.00000000
     0.00000000     0.00000000     0.00000000
     0.47171022     2.21150463     3.39766266
    -0.25006272     1.98954125     1.48078214
    -1.35956898     0.34523206    -0.09876369
    -3.22548666    -0.81414001    -2.32524946
    -4.99217152    -2.32421048    -1.92457225
   -10.11025617    -1.31682973     0.34870750
   -12.10940294   -15.78267666    -1.56480919
    15.48991169     7.56005407    -9.62060341
     0.00000000     0.00000000     0.00000000
     2.08300134     2.97746123     5.76275288
     6.47901175     0.14085057     4.61221593
     6.34479144    -0.01769399     1.37406212
     4.30838533    -1.74877002    -1.09653575
    -0.09294147    -1.63493974    -3.07316842
    -7.25856160     0.65363446     0.06906087
    -6.17596762   -20.57397063    -2.09406491
     9.69403403    -1.35995420   -10.47727888
     0.00000000     0.00000000     0.00000000
     5.39037689     1.00430458     8.81279006
    12.46511642    -0.19617533     9.83262100
    16.04987466     0.30776653     7.39254767
    15.19400606     2.49944862     4.69725354
     9.74552205     3.13273465     0.51900475
     6.53997525     4.08045887    -0.23710562
    -2.55635358   -13.42941249     0.55899628
     8.10149750    -4.85025199    -5.25954253
     0.00000000     0.00000000     0.00000000
     6.04448419    -2.17793085     8.54332642
    16.41305516    -1.93516852    10.77255235
    20.81192707     1.50549100     8.77233560
    21.87640433     6.67697957     5.18815693
    18.36698785    11.42065697     2.24370117
     1.61209247    12.81932297    -1.24349717
     7.08098173    -9.70216924     4.12832342
   -15.03025175     1.81931813    -2.22767022
     0.00000000     0.00000000     0.00000000
     4.87358056    -5.88251345     6.61409798
    13.28158023    -6.18238223     8.17822650
    19.51983491    -1.12597851     4.03562823
    20.70870824     7.18598338     0.41068643
    16.57615202    16.88694697    -3.99028157
    13.64715429    23.74101772    -2.26714756
     1.03137398     0.34806729     5.86961693
     0.00000000     0.00000000     0.00000000
     0.00000000     0.00000000     0.00000000
     4.41681495    -9.93983583     6.58433715
    10.70982380   -10.22962724     7.05684118
    12.63310391    -7.80761290     1.46721144
    14.17774196     2.13697033    -4.11221390
    10.17234087    16.45628682   -10.67313907
     5.98498614    24.95697295    -5.74727215
    -1.49017317    32.33695119    -4.32045083
    -5.66151961   -17.55330169     9.66013530
     0.00000000     0.00000000     0.00000000
     0.96016631   -12.62438456     6.45480538
     2.79073780   -12.87628802     6.93516411
     2.32324119   -12.31211272     2.55000179
    -1.18820927    -5.81843568    -3.78681081
    -4.65002820    10.06471666   -11.79270688
    -3.23312805    22.85584481    -7.47656589
    -4.29987483    44.20206699   -11.72671706
    -0.73136322   -20.00519638    10.85294415
     0.00000000     0.00000000     0.00000000
    -0.98829584   -11.00490944     5.59131001
    -2.58141181   -11.31132927     6.66948463
    -5.61093049   -12.67557520     4.52188911
   -10.54506769    -8.52360515     1.96131654
   -16.47459606     0.94340986    -4.59350476
   -11.20149438    14.63211678    -3.28992342
    -5.16951823    38.59463149   -19.84538880
     1.24441909    -9.31308378     6.73887847
     0.00000000     0.00000000     0.00000000
    -2.54134653    -7.28234240     3.39856242
    -3.99736470    -6.47769659     4.87415588
    -6.34093466    -7.93386955     4.12314740
   -10.31461906    -5.61777232     4.61244648
   -14.63179372    -2.26857834     2.20514714
   -10.04923583     3.69562019     3.92413384
    -8.51040411    22.75131831   -12.41698026
     9.60966395   -10.38430592    -1.33462693
     0.00000000     0.00000000     0.00000000
     0.00000000     0.00000000     0.00000000
     0.00000000     0.00000000     0.00000000
     0.00000000     0.00000000     0.00000000
     0.00000000     0.00000000     0.00000000
     0.00000000     0.00000000     0.00000000
     0.00000000     0.00000000     0.00000000
     0.00000000     0.00000000     0.00000000
     0.00000000     0.00000000     0.00000000
     0.00000000     0.00000000     0.00000000
     0.00000000     0.00000000     0.00000000
     0.00000000     0.00000000     0.00000000
     0.00000000     0.00000000     0.00000000
     0.00000000     0.00000000     0.00000000
     0.00000000     0.00000000     0.00000000
     0.00000000     0.00000000     0.00000000
     0.00000000     0.00000000     0.00000000
     0.00000000     0.00000000     0.00000000
     0.00000000     0.00000000     0.00000000
     0.00000000     0.00000000     0.00000000
     0.00000000     0.00000000     0.00000000
     0.00000000     0.00000000     0.00000000
     0.00000000     0.00000000     0.00000000
     0.00000000     0.00000000     0.00000000
     0.00000000     0.00000000     0.00000000
     0.00000000     0.00000000     0.00000000
     0.00000000     0.00000000     0.00000000
     0.00000000     0.00000000     0.00000000
     0.00000000     0.00000000     0.00000000
     0.00000000     0.00000000     0.00000000
     0.00000000     0.00000000     0.00000000
     0.00000000     0.00000000     0.00000000
     0.00000000     0.00000000     0.00000000
     0.00000000     0.00000000     0.00000000
     0.00000000     0.00000000     0.00000000
     0.00000000     0.00000000     0.00000000
     0.00000000     0.00000000     0.00000000
     0.00000000     0.00000000     0.00000000
     0.00000000     0.00000000     0.00000000
     0.00000000     0.00000000     0.00000000
     0.00000000     0.00000000     0.00000000
     0.00000000     0.00000000     0.00000000
     0.00000000     0.00000000     0.00000000
     0.00000000     0.00000000     0.00000000
     0.00000000     0.00000000     0.00000000
     0.00000000     0.00000000     0.00000000
     0.00000000     0.00000000     0.00000000
     0.00000000     0.00000000     0.00000000
     0.00000000     0.00000000     0.00000000
     0.00000000     0.00000000     0.00000000
     0.00000000     0.00000000     0.00000000
     0.00000000     0.00000000     0.00000000
     0.00000000     0.00000000     0.00000000
     0.00000000     0.00000000     0.00000000
     0.00000000     0.00000000     0.00000000
     0.00000000     0.00000000     0.00000000
     0.00000000     0.00000000     0.00000000
     0.00000000     0.00000000     0.00000000
     0.00000000     0.00000000     0.00000000
     0.00000000     0.00000000     0.00000000
     0.00000000     0.00000000     0.00000000
     0.00000000     0.00000000     0.00000000
     0.00000000     0.00000000     0.00000000
     0.00000000     0.00000000     0.00000000
     0.00000000     0.00000000     0.00000000
     0.00000000     0.00000000     0.00000000
     0.00000000     0.00000000     0.00000000
     0.00000000     0.00000000     0.00000000
     0.00000000     0.00000000     0.00000000
     0.00000000     0.00000000     0.00000000
     0.00000000     0.00000000     0.00000000
     0.00000000     0.00000000     0.00000000
     0.00000000     0.00000000     0.00000000
     0.00000000     0.00000000     0.00000000
     0.00000000     0.00000000     0.00000000
     0.00000000     0.00000000     0.00000000
     0.00000000     0.00000000     0.00000000
     0.00000000     0.00000000     0.00000000
     0.00000000     0.00000000     0.00000000
     0.00000000     0.00000000     0.00000000
     0.00000000     0.00000000     0.00000000
     0.00000000     0.00000000     0.00000000
     0.00000000     0.00000000     0.00000000
     0.00000000     0.00000000     0.00000000
     0.00000000     0.00000000     0.00000000
     0.00000000     0.00000000     0.00000000
     0.00000000     0.00000000     0.00000000
     0.00000000     0.00000000     0.00000000
     0.00000000     0.00000000     0.00000000
     0.00000000     0.00000000     0.00000000
     0.00000000     0.00000000     0.00000000
     0.00000000     0.00000000     0.00000000
     0.00000000     0.00000000     0.00000000
     0.00000000     0.00000000     0.00000000
     0.00000000     0.00000000     0.00000000
     0.00000000     0.00000000     0.00000000
     0.00000000     0.00000000     0.00000000
     0.00000000     0.00000000     0.00000000
     0.00000000     0.00000000     0.00000000
     0.00000000     0.00000000     0.00000000
     0.00000000     0.00000000     0.00000000
     0.00000000     0.00000000     0.00000000
     0.00000000     0.00000000     0.00000000
     0.00000000     0.00000000     0.00000000
     0.00000000     0.00000000     0.00000000
     0.00000000     0.00000000     0.00000000
     0.00000000     0.00000000     0.00000000
     0.00000000     0.00000000     0.00000000
     0.00000000     0.00000000     0.00000000
     0.00000000     0.00000000     0.00000000
     0.00000000     0.00000000     0.00000000
     0.00000000     0.00000000     0.00000000
     0.00000000     0.00000000     0.00000000
     0.00000000     0.00000000     0.00000000
     0.00000000     0.00000000     0.00000000
     0.00000000     0.00000000     0.00000000
     0.00000000     0.00000000     0.00000000
     0.00000000     0.00000000     0.00000000
     0.00000000     0.00000000     0.00000000
    -4.25392217     6.91586046     0.00000000
    -7.78491999     7.35994553     0.00000000
    -9.36687619    -1.30842873     0.00000000
   -10.12156240    -1.54883309     0.00000000
    -9.77325210    -4.00721776     0.00000000
    -8.66234554    -4.08567086     0.00000000
    -6.72989677    -5.25617718     0.00000000
    -4.11544294    -4.95761554     0.00000000
    -1.81270002    -4.01012030     0.00000000
    -0.17688077    -1.97212444     0.00000000
     0.00000000     0.00000000     0.00000000
   -12.55146616     6.47854217     0.00000000
   -10.05468737     9.92142927     0.00000000
    -7.07577048     3.82357074     0.00000000
    -5.99066361     2.40165758     0.00000000
    -5.11723819    -0.91666884     0.00000000
    -3.72801399    -3.43433339     0.00000000
    -2.21894292    -7.00828305     0.00000000
    -0.71233969    -8.91806966     0.00000000
     0.34275398    -9.03618557     0.00000000
     0.89493116    -6.09321368     0.00000000
     0.00000000     0.00000000     0.00000000
    -0.07856010   -12.91105598     0.00000000
     3.61016244    -1.39966738     0.00000000
     3.85086128    10.11425260     0.00000000
     3.55931325     9.57542720     0.00000000
     3.45250105     7.67255512     0.00000000
     5.18468761     2.68730612     0.00000000
     6.28221832    -1.35836552     0.00000000
     6.74972158    -5.44385584     0.00000000
     5.50812607    -7.28854761     0.00000000
     2.79237522    -5.84852306     0.00000000
     0.00000000     0.00000000     0.00000000
    19.46878089   -22.79436143     0.00000000
     4.43102429    -7.54878668     0.00000000
    -2.84124628     3.67512612     0.00000000
     0.05621329     5.25934043     0.00000000
     4.16612040     6.26020303     0.00000000
     7.75010942     4.18608105     0.00000000
     8.97247526     2.50146639     0.00000000
     8.27669731     0.06865339     0.00000000
     5.39300124    -1.51351291     0.00000000
     1.96972051    -1.50460015     0.00000000
     0.00000000     0.00000000     0.00000000
     0.00000000     0.00000000     0.00000000
     0.00000000     0.00000000     0.00000000
     0.00000000     0.00000000     0.00000000
     0.00000000     0.00000000     0.00000000
     0.00000000     0.00000000     0.00000000
     0.00000000     0.00000000     0.00000000
     0.00000000     0.00000000     0.00000000
     0.00000000     0.00000000     0.00000000
     0.00000000     0.00000000     0.00000000
     0.00000000     0.00000000     0.00000000
     0.00000000     0.00000000     0.00000000
     0.00000000     0.00000000     0.00000000
     0.00000000     0.00000000     0.00000000
     0.00000000     0.00000000     0.00000000
     0.00000000     0.00000000     0.00000000
     0.00000000     0.00000000     0.00000000
     0.00000000     0.00000000     0.00000000
     0.00000000     0.00000000     0.00000000
     0.00000000     0.00000000     0.00000000
     0.00000000     0.00000000     0.00000000
     0.00000000     0.00000000     0.00000000
     0.00000000     0.00000000     0.00000000
    -2.00079153     3.54170909   -12.61639171
    -6.31447602     7.38546236    -2.19571642
    -8.18962692    -0.61443876     0.05241652
    -9.36934247    -1.27286178    -0.02628648
    -9.24803697    -3.52118661     0.43710617
    -8.54052487    -3.67386390     0.02636366
    -6.49314922    -4.77209420     0.28118844
    -4.22374936    -4.57395140     0.21175130
    -1.75019553    -3.71242119     0.18571000
    -0.31705966    -1.88014996    -0.05013996
     0.00000000     0.00000000     0.00000000
    -9.05000674     2.32049062     3.83058536
    -7.90191808     9.68410678     0.96711725
    -5.65905156     4.09897514    -2.14255498
    -5.77844852     2.57346787    -2.60481092
    -4.69029447    -0.50129311    -2.77559511
    -4.19783333    -3.30064282    -2.17155748
    -2.40843325    -6.66430679    -1.52200733
    -1.08834469    -8.61362221    -0.48671096
     0.25185852    -8.59810421     0.22956147
     0.84425321    -5.80284722     0.46240624
     0.00000000     0.00000000     0.00000000
     3.25351508   -15.37895427     3.96020662
     5.33582581    -1.91678463     3.79395554
     4.74611701     9.68548849     0.85025093
     3.87673203     9.51770430    -1.34722821
     4.10316089     7.63505434    -2.85480498
     5.26200871     2.53634182    -2.90979556
     6.29378432    -1.56733287    -2.17625584
     6.41177560    -5.49946659    -0.65306190
     5.24091982    -7.10972811     0.69421386
     2.67181505    -5.51471493     1.11653727
     0.00000000     0.00000000     0.00000000
    16.00109972   -20.68016724     2.67695023
     4.83231305    -7.94486527     1.94938822
    -2.74748926     3.26728148     0.53714934
     0.49133500     5.18300039    -0.38076116
     4.20762736     5.88879151     0.08326122
     7.67557951     3.78682353    -0.12588177
     8.76709566     2.10402526     0.46712038
     7.82000058    -0.29625128     0.98251889
     5.07062254    -1.68798672     1.60560117
     1.72926233    -1.55572505     1.43186676
     0.00000000     0.00000000     0.00000000
     0.00000000     0.00000000     0.00000000
     0.00000000     0.00000000     0.00000000
     0.00000000     0.00000000     0.00000000
     0.00000000     0.00000000     0.00000000
     0.00000000     0.00000000     0.00000000
     0.00000000     0.00000000     0.00000000
     0.00000000     0.00000000     0.00000000
     0.00000000     0.00000000     0.00000000
     0.00000000     0.00000000     0.00000000
     0.00000000     0.00000000     0.00000000
     0.00000000     0.00000000     0.00000000
     0.00000000     0.00000000     0.00000000
     0.00000000     0.00000000     0.00000000
     0.00000000     0.00000000     0.00000000
     0.00000000     0.00000000     0.00000000
     0.00000000     0.00000000     0.00000000
     0.00000000     0.00000000     0.00000000
     0.00000000     0.00000000     0.00000000
     0.00000000     0.00000000     0.00000000
     0.00000000     0.00000000     0.00000000
     0.00000000     0.00000000     0.00000000
     0.00000000     0.00000000     0.00000000
     2.64089854    -3.20801188   -20.55503736
    -3.10492060     5.43736114    -5.16330115
    -5.34725467     0.23689615     0.69855432
    -7.37818159    -0.38375830     0.41632108
    -8.06115835    -2.21492960     0.88422212
    -7.49648954    -2.42520566    -0.02109204
    -6.18031330    -3.45884284     0.52144264
    -3.96630161    -3.42035345     0.31214552
    -1.90013310    -2.89917016     0.36758752
    -0.27652433    -1.51733062    -0.16070973
     0.00000000     0.00000000     0.00000000
    -2.42845523    -6.66229340     3.87030048
    -3.90869115     7.49547784     2.93358373
    -2.13983582     3.99602273    -2.57674870
    -2.98671816     3.38171227    -3.14678361
    -4.40168392     0.31001209    -3.82247729
    -4.32027363    -2.26487779    -3.31233531
    -3.36323662    -5.66779142    -2.30081379
    -1.86781175    -7.23715283    -0.87464632
    -0.45520880    -7.19228294     0.26856289
     0.48067274    -4.73795007     0.68382717
     0.00000000     0.00000000     0.00000000
     5.07393001   -17.19981727     5.55282766
     6.54476785    -3.34745767     7.26663760
     6.34595065     8.84885212     1.63463554
     5.29571676     9.28507500    -1.85594744
     4.50649515     6.98482170    -4.23668922
     5.15554830     1.76553835    -4.33778186
     5.16121572    -2.28536239    -3.07150404
     4.93050556    -5.76757368    -0.80197674
     3.86237520    -6.67350795     1.17848298
     1.97103026    -4.77303558     1.76018964
     0.00000000     0.00000000     0.00000000
    10.96647089   -15.82380919     3.66740904
     3.19193497    -8.57736813     1.82600539
    -2.44298233     3.16394158     0.89189890
     0.48256973     4.48910469    -0.42443440
     4.31545281     4.71069635     0.07541049
     7.28118788     2.64480101    -0.18787877
     7.72535315     0.87136007     0.88287482
     6.53039908    -1.21372159     1.72894396
     3.83991517    -2.30028430     2.70963761
     1.33018216    -1.68124704     2.20765931
     0.00000000     0.00000000     0.00000000
     0.00000000     0.00000000     0.00000000
     0.00000000     0.00000000     0.00000000
     0.00000000     0.00000000     0.00000000
     0.00000000     0.00000000     0.00000000
     0.00000000     0.00000000     0.00000000
     0.00000000     0.00000000     0.00000000
     0.00000000     0.00000000     0.00000000
     0.00000000     0.00000000     0.00000000
     0.00000000     0.00000000     0.00000000
     0.00000000     0.00000000     0.00000000
     0.00000000     0.00000000     0.00000000
     0.00000000     0.00000000     0.00000000
     0.00000000     0.00000000     0.00000000
     0.00000000     0.00000000     0.00000000
     0.00000000     0.00000000     0.00000000
     0.00000000     0.00000000     0.00000000
     0.00000000     0.00000000     0.00000000
     0.00000000     0.00000000     0.00000000
     0.00000000     0.00000000     0.00000000
     0.00000000     0.00000000     0.00000000
     0.00000000     0.00000000     0.00000000
     0.00000000     0.00000000     0.00000000
     5.02153818    -6.36674686   -23.84147127
     1.01578743     1.56787302    -7.17621663
    -3.03727978    -0.03719528     2.12298167
    -4.87956332     0.40739372     0.49821235
    -5.27982657    -0.60823156     1.09353752
    -5.61855611    -0.87913284     0.02617474
    -4.93344357    -1.76735493     0.61177907
    -3.51415951    -1.81257530     0.21004063
    -1.57880730    -1.55274992     0.42471623
    -0.34455906    -0.91533767    -0.23971468
     0.00000000     0.00000000     0.00000000
    -0.57945627   -13.53175107     1.41584572
     0.69967504     3.27352196     1.25465466
     3.05195414     2.35504129    -0.39075589
    -0.73370166     3.57435117    -1.17582555
    -2.48618619     1.53638042    -3.04677345
    -4.09907892    -0.95004007    -2.37936057
    -3.68125718    -3.73117115    -2.06470437
    -2.77052626    -4.99362039    -0.72779017
    -1.20301902    -4.80182703     0.00412345
     0.03578382    -3.05064765     0.52935002
     0.00000000     0.00000000     0.00000000
     3.12805468   -19.48809005     4.68956130
     6.86081919    -4.72876980     6.13173891
     7.25734367     7.84091623     2.02482913
     4.92562295     7.55335153    -1.09495897
     4.23222009     5.48276608    -3.66873126
     3.58429093     0.77826820    -3.30740873
     2.78819023    -2.56652873    -2.37860040
     2.08631112    -5.17030859    -0.35266341
     1.64188716    -5.36658448     1.02792530
     1.02738726    -3.42963016     1.49913137
     0.00000000     0.00000000     0.00000000
     4.66592046    -8.17194798     5.79693739
     0.71192514    -7.83618109    -0.67603923
    -4.75897239     3.14912672     1.57840549
     0.20357920     3.01953976    -1.24723894
     3.87573330     3.02771267     0.21020489
     5.77769659     1.13609612    -0.26493451
     5.41331448    -0.31096509     1.22512555
     3.94546239    -2.04685034     1.78869897
     2.13611065    -2.62874538     2.79051772
     0.63961528    -1.70360770     1.95630277
     0.00000000     0.00000000     0.00000000
     0.00000000     0.00000000     0.00000000
     0.00000000     0.00000000     0.00000000
     0.00000000     0.00000000     0.00000000
     0.00000000     0.00000000     0.00000000
     0.00000000     0.00000000     0.00000000
     0.00000000     0.00000000     0.00000000
     0.00000000     0.00000000     0.00000000
     0.00000000     0.00000000     0.00000000
     0.00000000     0.00000000     0.00000000
     0.00000000     0.00000000     0.00000000
     0.00000000     0.00000000     0.00000000
     0.00000000     0.00000000     0.00000000
     0.00000000     0.00000000     0.00000000
     0.00000000     0.00000000     0.00000000
     0.00000000     0.00000000     0.00000000
     0.00000000     0.00000000     0.00000000
     0.00000000     0.00000000     0.00000000
     0.00000000     0.00000000     0.00000000
     0.00000000     0.00000000     0.00000000
     0.00000000     0.00000000     0.00000000
     0.00000000     0.00000000     0.00000000
     0.00000000     0.00000000     0.00000000
     8.73566523    -0.85525767   -20.52594202
     0.77007908    -2.81812276    -4.85494946
    -2.78620197    -0.20305071     1.63723220
    -1.35056908     0.24077177    -0.06395709
    -2.25759461     0.34080280     0.98336298
    -2.65739710    -0.16241294     0.01047193
    -2.92613448    -0.53603538     0.50506307
    -2.04149238    -0.68088988    -0.05394071
    -1.02144839    -0.53276381     0.18761382
    -0.03882254    -0.24525884    -0.14811548
     0.00000000     0.00000000     0.00000000
     3.07255759   -13.57065431    -3.32254202
     2.19040903    -0.27377903    -1.64666746
     2.08562999    -0.42011291     1.44938564
     1.52808555     3.22975907    -0.32492744
    -0.64259393     1.43669194    -0.58372839
    -2.28855708     0.35043713    -0.86136264
    -2.68948943    -1.66881384    -0.72329061
    -2.33730163    -2.08295161    -0.37250666
    -1.28197986    -2.23046705    -0.15782533
    -0.37407900    -1.14087283     0.13257678
     0.00000000     0.00000000     0.00000000
     3.85986935   -16.05500974     1.00974308
     4.54799010    -5.44026126     1.29291834
     3.96591482     5.33403391     1.61861577
     3.16678926     4.47215720    -0.72474179
     2.47289910     3.32704689    -1.36700621
     1.54097917     0.16760848    -1.20285912
     0.39860761    -1.47735136    -0.76704181
    -0.11738893    -3.11267724     0.04905810
    -0.12880690    -2.83364790     0.39569102
     0.11924983    -1.86949041     0.58723054
     0.00000000     0.00000000     0.00000000
     5.18013247    -4.81991506     4.35400251
    -2.48081025    -4.73502732     0.13258228
    -5.81034511     1.60295987    -0.09916249
     0.31617525     1.88123847    -1.39812606
     2.22487122     1.34219510     0.06332079
     3.07281869     0.48181518    -0.15682191
     2.22994825    -0.62800768     0.97015951
     1.36430332    -1.41887944     1.04731741
     0.47277714    -1.78989542     1.58863864
     0.30824872    -1.13009185     0.99807055
     0.00000000     0.00000000     0.00000000
     0.00000000     0.00000000     0.00000000
     0.00000000     0.00000000     0.00000000
     0.00000000     0.00000000     0.00000000
     0.00000000     0.00000000     0.00000000
     0.00000000     0.00000000     0.00000000
     0.00000000     0.00000000     0.00000000
     0.00000000     0.00000000     0.00000000
     0.00000000     0.00000000     0.00000000
     0.00000000     0.00000000     0.00000000
     0.00000000     0.00000000     0.00000000
     0.00000000     0.00000000     0.00000000
     0.00000000     0.00000000     0.00000000
     0.00000000     0.00000000     0.00000000
     0.00000000     0.00000000     0.00000000
     0.00000000     0.00000000     0.00000000
     0.00000000     0.00000000     0.00000000
     0.00000000     0.00000000     0.00000000
     0.00000000     0.00000000     0.00000000
     0.00000000     0.00000000     0.00000000
     0.00000000     0.00000000     0.00000000
     0.00000000     0.00000000     0.00000000
     0.00000000     0.00000000     0.00000000
     0.00000000     0.00000000     0.00000000
     0.00000000     0.00000000     0.00000000
     0.00000000     0.00000000     0.00000000
     0.00000000     0.00000000     0.00000000
     0.00000000     0.00000000     0.00000000
     0.00000000     0.00000000     0.00000000
     0.00000000     0.00000000     0.00000000
     0.00000000     0.00000000     0.00000000
     0.00000000     0.00000000     0.00000000
     0.00000000     0.00000000     0.00000000
     0.00000000     0.00000000     0.00000000
     0.00000000     0.00000000     0.00000000
     0.00000000     0.00000000     0.00000000
     0.00000000     0.00000000     0.00000000
     0.00000000     0.00000000     0.00000000
     0.00000000     0.00000000     0.00000000
     0.00000000     0.00000000     0.00000000
     0.00000000     0.00000000     0.00000000
     0.00000000     0.00000000     0.00000000
     0.00000000     0.00000000     0.00000000
     0.00000000     0.00000000     0.00000000
     0.00000000     0.00000000     0.00000000
     0.00000000     0.00000000     0.00000000
     0.00000000     0.00000000     0.00000000
     0.00000000     0.00000000     0.00000000
     0.00000000     0.00000000     0.00000000
     0.00000000     0.00000000     0.00000000
     0.00000000     0.00000000     0.00000000
     0.00000000     0.00000000     0.00000000
     0.00000000     0.00000000     0.00000000
     0.00000000     0.00000000     0.00000000
     0.00000000     0.00000000     0.00000000
     0.00000000     0.00000000     0.00000000
     0.00000000     0.00000000     0.00000000
     0.00000000     0.00000000     0.00000000
     0.00000000     0.00000000     0.00000000
     0.00000000     0.00000000     0.00000000
     0.00000000     0.00000000     0.00000000
     0.00000000     0.00000000     0.00000000
     0.00000000     0.00000000     0.00000000
     0.00000000     0.00000000     0.00000000
     0.00000000     0.00000000     0.00000000
     0.00000000     0.00000000     0.00000000
     0.00000000     0.00000000     0.00000000
     0.00000000     0.00000000     0.00000000
     0.00000000     0.00000000     0.00000000
     0.00000000     0.00000000     0.00000000
     0.00000000     0.00000000     0.00000000
     0.00000000     0.00000000     0.00000000
     0.00000000     0.00000000     0.00000000
     0.00000000     0.00000000     0.00000000
     0.00000000     0.00000000     0.00000000
     0.00000000     0.00000000     0.00000000
     0.00000000     0.00000000     0.00000000
     0.00000000     0.00000000     0.00000000
     0.00000000     0.00000000     0.00000000
     0.00000000     0.00000000     0.00000000
     0.00000000     0.00000000     0.00000000
     0.00000000     0.00000000     0.00000000
     0.00000000     0.00000000     0.00000000
     0.00000000     0.00000000     0.00000000
     0.00000000     0.00000000     0.00000000
     0.00000000     0.00000000     0.00000000
    13.44080723    36.45260705     0.00000000
    45.12742241    -6.41805160     0.00000000
    42.92795968   -18.42527152     0.00000000
    31.25833987   -17.85932864     0.00000000
    18.07220601   -11.80959801     0.00000000
     9.94804437    -6.85602051     0.00000000
     4.90338701    -2.56595476     0.00000000
     5.04758409    -0.85771523     0.00000000
     4.94554400    -1.32515200     0.00000000
    20.08872084    66.33393907     0.00000000
     6.62406138    16.50846467     0.00000000
     8.02962255   -13.30844634     0.00000000
    10.74519112   -21.58714750     0.00000000
    11.45650070   -19.77545047     0.00000000
     9.50131962   -12.79028572     0.00000000
     8.65462821    -6.02601586     0.00000000
     8.02444946    -0.91008686     0.00000000
     7.41831200    -1.98772800     0.00000000
    21.80050038    48.67854464     0.00000000
    -1.96649567    12.04167812     0.00000000
   -11.74100658    -2.03636897     0.00000000
    -7.50141975   -11.34848221     0.00000000
    -0.71540799   -13.75828116     0.00000000
     4.98143969   -10.69031660     0.00000000
     8.16192476    -5.52312298     0.00000000
     8.74359031    -1.47441790     0.00000000
     7.41831200    -1.98772800     0.00000000
    14.74176888    21.28613479     0.00000000
   -12.60317885     2.49213158     0.00000000
   -10.53086900     1.55688273     0.00000000
    -8.91628141    -2.40812475     0.00000000
    -2.28811968    -3.81323252     0.00000000
     2.16728590    -4.13131218     0.00000000
     5.88785079    -2.52052344     0.00000000
     5.19149169    -1.27743066     0.00000000
     4.94554400    -1.32515200     0.00000000
     0.00000000     0.00000000     0.00000000
     0.00000000     0.00000000     0.00000000
     0.00000000     0.00000000     0.00000000
     0.00000000     0.00000000     0.00000000
     0.00000000     0.00000000     0.00000000
     0.00000000     0.00000000     0.00000000
     0.00000000     0.00000000     0.00000000
     0.00000000     0.00000000     0.00000000
     0.00000000     0.00000000     0.00000000
     0.00000000     0.00000000     0.00000000
     0.00000000     0.00000000     0.00000000
     0.00000000     0.00000000     0.00000000
     0.00000000     0.00000000     0.00000000
     0.00000000     0.00000000     0.00000000
     0.00000000     0.00000000     0.00000000
     0.00000000     0.00000000     0.00000000
     0.00000000     0.00000000     0.00000000
     0.00000000     0.00000000     0.00000000
    15.27767718    35.93274340    -3.88904241
    44.54252020    -7.72264845    -0.87146502
    41.96714221   -18.59480989     0.53579681
    28.37964746   -16.82688787     1.70995780
    16.82327126   -10.98092818     1.44523743
     7.98021926    -6.00542189     1.18559496
     5.02704176    -2.36749806     0.44160153
     4.09339726    -0.58504771     0.01637373
     4.67041600    -1.25143200     0.00000000
    19.15212073    67.39288327    -3.36459894
     5.95726813    14.39143065    -1.43932296
     7.21477171   -14.25497362    -2.08295581
    10.18209269   -20.94700398    -0.91021145
     9.65423957   -18.21520658     0.75095849
     8.42047378   -11.39343084     0.94842849
     7.48381917    -5.10909957     0.68634174
     7.71911366    -0.72488533     0.73075526
     7.06752800    -1.89373600     0.00000000
    21.04465693    49.28839393     0.15558269
    -3.10849860    11.26227676    -0.95626887
   -12.32440843    -2.32400287    -1.96695490
    -7.68902729   -10.87191296    -1.98979651
    -1.10792342   -12.50517717    -0.09691669
     4.26504375    -9.47196488     0.25593103
     7.55140411    -4.70557554     0.59931664
     8.13593895    -1.20188054     0.97628328
     7.06752800    -1.89373600     0.00000000
    13.77201615    20.49183043     0.38019398
   -10.63519586     1.99561792     0.91393897
   -11.26037416     2.07499866    -0.20523972
    -7.97202009    -2.12030086     0.37993586
    -3.08711404    -3.04400109    -0.23215457
     2.64656998    -3.77562688     0.36823390
     4.70776762    -1.92936656     0.38690826
     5.41523679    -1.25893316     0.54867114
     4.67041600    -1.25143200     0.00000000
     0.00000000     0.00000000     0.00000000
     0.00000000     0.00000000     0.00000000
     0.00000000     0.00000000     0.00000000
     0.00000000     0.00000000     0.00000000
     0.00000000     0.00000000     0.00000000
     0.00000000     0.00000000     0.00000000
     0.00000000     0.00000000     0.00000000
     0.00000000     0.00000000     0.00000000
     0.00000000     0.00000000     0.00000000
     0.00000000     0.00000000     0.00000000
     0.00000000     0.00000000     0.00000000
     0.00000000     0.00000000     0.00000000
     0.00000000     0.00000000     0.00000000
     0.00000000     0.00000000     0.00000000
     0.00000000     0.00000000     0.00000000
     0.00000000     0.00000000     0.00000000
     0.00000000     0.00000000     0.00000000
     0.00000000     0.00000000     0.00000000
    16.85057073    33.69423970    -7.11563114
    43.40499635   -11.52186294    -1.76091556
    35.77270706   -17.67922734     2.04275940
    22.35513351   -14.28034856     3.09423984
    11.13018604    -8.49223577     2.47492166
     5.84203123    -4.51637762     1.65806372
     2.97758975    -1.53832880     0.65642020
     3.88967596    -0.48370647    -0.05349290
     3.97420800    -1.06488800     0.00000000
    14.11369458    65.10266836    -8.50133036
     2.54002137     8.11625863    -2.19952293
     5.86447197   -15.87872890    -3.52916511
     6.49262329   -18.07293218    -0.39096541
     5.70529284   -13.96034022     1.40168107
     4.87508683    -7.95205324     1.39578639
     5.46187688    -3.23533255     0.88462672
     6.01543381    -0.23942304     0.96933458
     6.05865600    -1.62341600     0.00000000
    16.21124377    48.04025589    -2.68587696
    -5.50587129     9.64822224     0.01162003
   -13.18706626    -2.82288653    -3.56230257
    -7.85257617    -9.05592564    -2.41752971
    -2.22489830    -9.26022001    -0.22968112
     2.75369468    -6.48886686     0.49442017
     5.55874386    -2.75458866     0.73059866
     6.68244089    -0.63203134     1.36500484
     6.05865600    -1.62341600     0.00000000
    16.61443082    17.98339693     0.35367956
   -10.18782489     2.41096206     2.69355960
    -9.89073415     2.21330759    -0.18294681
    -8.31566214    -0.72696766     0.13798572
    -2.39639321    -2.26758932    -0.17308513
     1.13413034    -2.17743901     0.32378423
     4.42851637    -1.34208554     0.72020733
     3.83252286    -0.64013019     0.76762512
     3.97420800    -1.06488800     0.00000000
     0.00000000     0.00000000     0.00000000
     0.00000000     0.00000000     0.00000000
     0.00000000     0.00000000     0.00000000
     0.00000000     0.00000000     0.00000000
     0.00000000     0.00000000     0.00000000
     0.00000000     0.00000000     0.00000000
     0.00000000     0.00000000     0.00000000
     0.00000000     0.00000000     0.00000000
     0.00000000     0.00000000     0.00000000
     0.00000000     0.00000000     0.00000000
     0.00000000     0.00000000     0.00000000
     0.00000000     0.00000000     0.00000000
     0.00000000     0.00000000     0.00000000
     0.00000000     0.00000000     0.00000000
     0.00000000     0.00000000     0.00000000
     0.00000000     0.00000000     0.00000000
     0.00000000     0.00000000     0.00000000
     0.00000000     0.00000000     0.00000000
    18.76484248    27.67944788   -10.84025275
    37.19356794   -16.00112041    -1.34005191
    24.64460767   -13.51240579     4.24157423
    12.00284506   -10.00187439     3.13069402
     6.07921560    -5.29891973     2.53828222
     2.10881299    -2.56845552     1.33949180
     2.22162542    -1.00224242     0.48667114
     2.24026337    -0.13187024    -0.11519655
     2.90814400    -0.77923200     0.00000000
     9.39700107    55.27197053   -12.31033094
    -1.51201925     0.24477453    -3.13800148
     3.02519205   -14.51175640    -2.31225976
     1.16763313   -12.07489218     0.64135223
     1.10106799    -8.39109420     1.40933236
     1.80362286    -4.23414558     1.18718020
     2.72169826    -1.41724984     0.53818742
     4.29851065    -0.03354007     0.66573231
     4.46371200    -1.19604800     0.00000000
    11.77667278    40.96552740    -4.03822915
    -8.39245003     7.47455335     0.95168556
   -12.95085411    -2.93253181    -3.08416933
    -7.35295534    -5.87046099    -2.12698232
    -3.10464804    -5.43691619     0.10716637
     0.77775748    -3.19654229     0.14891711
     3.43658677    -1.08749539     0.61499073
     4.37261942    -0.12266336     0.96546728
     4.46371200    -1.19604800     0.00000000
    15.53142213    15.25869860     1.26089017
    -9.19893932     2.32251240     4.63851704
    -8.74868986     3.30445521    -0.88045869
    -6.62071765    -0.56681375     0.23449070
    -3.15118512    -0.62049144    -0.56395672
     1.14242564    -1.23724372     0.36554397
     2.09118575    -0.20429827     0.55413357
     3.35158494    -0.42996795     0.68906284
     2.90814400    -0.77923200     0.00000000
     0.00000000     0.00000000     0.00000000
     0.00000000     0.00000000     0.00000000
     0.00000000     0.00000000     0.00000000
     0.00000000     0.00000000     0.00000000
     0.00000000     0.00000000     0.00000000
     0.00000000     0.00000000     0.00000000
     0.00000000     0.00000000     0.00000000
     0.00000000     0.00000000     0.00000000
     0.00000000     0.00000000     0.00000000
     0.00000000     0.00000000     0.00000000
     0.00000000     0.00000000     0.00000000
     0.00000000     0.00000000     0.00000000
     0.00000000     0.00000000     0.00000000
     0.00000000     0.00000000     0.00000000
     0.00000000     0.00000000     0.00000000
     0.00000000     0.00000000     0.00000000
     0.00000000     0.00000000     0.00000000
     0.00000000     0.00000000     0.00000000
    21.95549156    14.87646384   -10.34947984
    22.89731602   -14.27823829     1.96765515
     8.50326243    -5.51091777     3.46972118
     4.99327105    -5.53685495     1.77764846
     0.97143484    -1.60823950     1.60470998
     1.02575547    -1.47684084     0.49064452
     0.40427442    -0.07861487     0.24300940
     1.52151663    -0.23653019    -0.12983881
     1.55041600    -0.41543200     0.00000000
     9.12410518    35.27108225    -7.04543756
    -4.39334031    -4.88930786    -2.57288854
    -0.25278343    -8.16373618     0.34998568
    -2.75935550    -5.16573819     0.34121202
    -0.70699883    -3.62485437     0.90859400
    -0.40615656    -1.36163431     0.36441449
     1.33021333    -0.52194411     0.18961890
     1.75635260     0.11314657     0.15290617
     2.39579200    -0.64195200     0.00000000
     9.51370226    27.32663416    -0.72262663
    -8.44209372     4.35386413     1.43252477
    -9.42028487    -1.44593814    -2.13494854
    -4.81196347    -2.67034498    -0.64450708
    -3.23342484    -1.85962708    -0.30059957
     0.25253335    -1.16654342     0.08266811
     0.94731185    -0.04942701     0.13256877
     2.44510953     0.00017063     0.35499834
     2.39579200    -0.64195200     0.00000000
     9.74354838     9.98716789     3.36359530
    -8.95651018     2.56316046     3.25767945
    -3.92856538     2.08034655    -1.09745344
    -5.73143935    -0.15028237     0.31467917
    -1.09812665    -0.00130059    -0.87023050
    -0.59794352    -0.29506804     0.40658271
     1.64162791    -0.02221789     0.07654137
     1.09493253     0.05024118     0.41845715
     1.55041600    -0.41543200     0.00000000
     0.00000000     0.00000000     0.00000000
     0.00000000     0.00000000     0.00000000
     0.00000000     0.00000000     0.00000000
     0.00000000     0.00000000     0.00000000
     0.00000000     0.00000000     0.00000000
     0.00000000     0.00000000     0.00000000
     0.00000000     0.00000000     0.00000000
     0.00000000     0.00000000     0.00000000
     0.00000000     0.00000000     0.00000000
     0.00000000     0.00000000     0.00000000
     0.00000000     0.00000000     0.00000000
     0.00000000     0.00000000     0.00000000
     0.00000000     0.00000000     0.00000000
     0.00000000     0.00000000     0.00000000
     0.00000000     0.00000000     0.00000000
     0.00000000     0.00000000     0.00000000
     0.00000000     0.00000000     0.00000000
     0.00000000     0.00000000     0.00000000
     0.00000000     0.00000000     0.00000000
     0.00000000     0.00000000     0.00000000
     0.00000000     0.00000000     0.00000000
     0.00000000     0.00000000     0.00000000
     0.00000000     0.00000000     0.00000000
     0.00000000     0.00000000     0.00000000
     0.00000000     0.00000000     0.00000000
     0.00000000     0.00000000     0.00000000
     0.00000000     0.00000000     0.00000000
     0.00000000     0.00000000     0.00000000
     0.00000000     0.00000000     0.00000000
     0.00000000     0.00000000     0.00000000
     0.00000000     0.00000000     0.00000000
     0.00000000     0.00000000     0.00000000
     0.00000000     0.00000000     0.00000000
     0.00000000     0.00000000     0.00000000
     0.00000000     0.00000000     0.00000000
     0.00000000     0.00000000     0.00000000
     0.00000000     0.00000000     0.00000000
     0.00000000     0.00000000     0.00000000
     0.00000000     0.00000000     0.00000000
     0.00000000     0.00000000     0.00000000
     0.00000000     0.00000000     0.00000000
     0.00000000     0.00000000     0.00000000
     0.00000000     0.00000000     0.00000000
     0.00000000     0.00000000     0.00000000
     0.00000000     0.00000000     0.00000000
     0.00000000     0.00000000     0.00000000
     0.00000000     0.00000000     0.00000000
     0.00000000     0.00000000     0.00000000
     0.00000000     0.00000000     0.00000000
     0.00000000     0.00000000     0.00000000
     0.00000000     0.00000000     0.00000000
     0.00000000     0.00000000     0.00000000
     0.00000000     0.00000000     0.00000000
     0.00000000     0.00000000     0.00000000
     0.00000000     0.00000000     0.00000000
     0.00000000     0.00000000     0.00000000
     0.00000000     0.00000000     0.00000000
     0.00000000     0.00000000     0.00000000
     0.00000000     0.00000000     0.00000000
     0.00000000     0.00000000     0.00000000
     0.00000000     0.00000000     0.00000000
     0.00000000     0.00000000     0.00000000
     0.00000000     0.00000000     0.00000000
     0.00000000     0.00000000     0.00000000
     0.00000000     0.00000000     0.00000000
     0.00000000     0.00000000     0.00000000
     0.00000000     0.00000000     0.00000000
     0.00000000     0.00000000     0.00000000
     0.00000000     0.00000000     0.00000000
     0.00000000     0.00000000     0.00000000
     0.00000000     0.00000000     0.00000000
     0.00000000     0.00000000     0.00000000
     0.00000000     0.00000000     0.00000000
     0.00000000     0.00000000     0.00000000
     0.00000000     0.00000000     0.00000000
     0.00000000     0.00000000     0.00000000
     0.00000000     0.00000000     0.00000000
     0.00000000     0.00000000     0.00000000
     0.00000000     0.00000000     0.00000000
     0.00000000     0.00000000     0.00000000
     0.00000000     0.00000000     0.00000000
     0.00000000     0.00000000     0.00000000
     0.00000000     0.00000000     0.00000000
     0.00000000     0.00000000     0.00000000
     0.00000000     0.00000000     0.00000000
     0.00000000     0.00000000     0.00000000
     0.00000000     0.00000000     0.00000000
     0.00000000     0.00000000     0.00000000
     0.00000000     0.00000000     0.00000000
     0.00000000     0.00000000     0.00000000
     0.00000000     0.00000000     0.00000000
     0.00000000     0.00000000     0.00000000
     0.00000000     0.00000000     0.00000000
     0.00000000     0.00000000     0.00000000
     0.00000000     0.00000000     0.00000000
     0.00000000     0.00000000     0.00000000
     0.00000000     0.00000000     0.00000000
     0.00000000     0.00000000     0.00000000
     0.00000000     0.00000000     0.00000000
     0.00000000     0.00000000     0.00000000
     0.00000000     0.00000000     0.00000000
     0.00000000     0.00000000     0.00000000
     0.00000000     0.00000000     0.00000000
     0.00000000     0.00000000     0.00000000
     0.00000000     0.00000000     0.00000000
     0.00000000     0.00000000     0.00000000
     0.00000000     0.00000000     0.00000000
     0.00000000     0.00000000     0.00000000
     0.00000000     0.00000000     0.00000000
     0.00000000     0.00000000     0.00000000
     0.00000000     0.00000000     0.00000000
     0.00000000     0.00000000     0.00000000
     0.00000000     0.00000000     0.00000000
     0.00000000     0.00000000     0.00000000
     0.00000000     0.00000000     0.00000000
     0.00000000     0.00000000     0.00000000
     0.00000000     0.00000000     0.00000000
     0.00000000     0.00000000     0.00000000
     0.00000000     0.00000000     0.00000000
     0.00000000     0.00000000     0.00000000
     0.00000000     0.00000000     0.00000000
     0.00000000     0.00000000     0.00000000
     0.00000000     0.00000000     0.00000000
     0.00000000     0.00000000     0.00000000
     0.00000000     0.00000000     0.00000000
     0.00000000     0.00000000     0.00000000
     0.00000000     0.00000000     0.00000000
     0.00000000     0.00000000     0.00000000
     0.00000000     0.00000000     0.00000000
     0.00000000     0.00000000     0.00000000
     0.00000000     0.00000000     0.00000000
     0.00000000     0.00000000     0.00000000
     0.00000000     0.00000000     0.00000000
     0.00000000     0.00000000     0.00000000
     0.00000000     0.00000000     0.00000000
     0.00000000     0.00000000     0.00000000
     0.00000000     0.00000000     0.00000000
     0.00000000     0.00000000     0.00000000
     0.00000000     0.00000000     0.00000000
     0.00000000     0.00000000     0.00000000
     0.00000000     0.00000000     0.00000000
     0.00000000     0.00000000     0.00000000
     0.00000000     0.00000000     0.00000000
     0.00000000     0.00000000     0.00000000
     0.00000000     0.00000000     0.00000000
     0.00000000     0.00000000     0.00000000
     0.00000000     0.00000000     0.00000000
     0.00000000     0.00000000     0.00000000
     0.00000000     0.00000000     0.00000000
     0.00000000     0.00000000     0.00000000
     0.00000000     0.00000000     0.00000000
     0.00000000     0.00000000     0.00000000
     0.00000000     0.00000000     0.00000000
     0.00000000     0.00000000     0.00000000
     0.00000000     0.00000000     0.00000000
     0.00000000     0.00000000     0.00000000
     0.00000000     0.00000000     0.00000000
     0.00000000     0.00000000     0.00000000
     0.00000000     0.00000000     0.00000000
     0.00000000     0.00000000     0.00000000
     0.00000000     0.00000000     0.00000000
     0.00000000     0.00000000     0.00000000
     0.00000000     0.00000000     0.00000000
     0.00000000     0.00000000     0.00000000
     0.00000000     0.00000000     0.00000000
     0.00000000     0.00000000     0.00000000
     0.00000000     0.00000000     0.00000000
     0.00000000     0.00000000     0.00000000
     0.00000000     0.00000000     0.00000000
     0.00000000     0.00000000     0.00000000
     0.00000000     0.00000000     0.00000000
     0.00000000     0.00000000     0.00000000
     0.00000000     0.00000000     0.00000000
     0.00000000     0.00000000     0.00000000
     0.00000000     0.00000000     0.00000000
     0.00000000     0.00000000     0.00000000
     0.00000000     0.00000000     0.00000000
     0.00000000     0.00000000     0.00000000
     0.00000000     0.00000000     0.00000000
     0.00000000     0.00000000     0.00000000
     0.00000000     0.00000000     0.00000000
     0.00000000     0.00000000     0.00000000
     0.00000000     0.00000000     0.00000000
     0.00000000     0.00000000     0.00000000
     0.00000000     0.00000000     0.00000000
     0.00000000     0.00000000     0.00000000
     0.00000000     0.00000000     0.00000000
     0.00000000     0.00000000     0.00000000
     0.00000000     0.00000000     0.00000000
     0.00000000     0.00000000     0.00000000
     0.00000000     0.00000000     0.00000000
     0.00000000     0.00000000     0.00000000
     0.00000000     0.00000000     0.00000000
     0.00000000     0.00000000     0.00000000
     0.00000000     0.00000000     0.00000000
     0.00000000     0.00000000     0.00000000
     0.00000000     0.00000000     0.00000000
     0.00000000     0.00000000     0.00000000
     0.00000000     0.00000000     0.00000000
     0.00000000     0.00000000     0.00000000
     0.00000000     0.00000000     0.00000000
     0.00000000     0.00000000     0.00000000
     0.00000000     0.00000000     0.00000000
     0.00000000     0.00000000     0.00000000
     0.00000000     0.00000000     0.00000000
     0.00000000     0.00000000     0.00000000
     0.00000000     0.00000000     0.00000000
     0.00000000     0.00000000     0.00000000
     0.00000000     0.00000000     0.00000000
     0.00000000     0.00000000     0.00000000
     0.00000000     0.00000000     0.00000000
     0.00000000     0.00000000     0.00000000
     0.00000000     0.00000000     0.00000000
     0.00000000     0.00000000     0.00000000
     0.00000000     0.00000000     0.00000000
     0.00000000     0.00000000     0.00000000
     0.00000000     0.00000000     0.00000000
     0.00000000     0.00000000     0.00000000
     0.00000000     0.00000000     0.00000000
     0.00000000     0.00000000     0.00000000
     0.00000000     0.00000000     0.00000000
     0.00000000     0.00000000     0.00000000
     0.00000000     0.00000000     0.00000000
     0.00000000     0.00000000     0.00000000
     0.00000000     0.00000000     0.00000000
     0.00000000     0.00000000     0.00000000
     0.00000000     0.00000000     0.00000000
     0.00000000     0.00000000     0.00000000
     0.00000000     0.00000000     0.00000000
     0.00000000     0.00000000     0.00000000
     0.00000000     0.00000000     0.00000000
     0.00000000     0.00000000     0.00000000
     0.00000000     0.00000000     0.00000000
     0.00000000     0.00000000     0.00000000
     0.00000000     0.00000000     0.00000000
     0.00000000     0.00000000     0.00000000
     0.00000000     0.00000000     0.00000000
     0.00000000     0.00000000     0.00000000
     0.00000000     0.00000000     0.00000000
     0.00000000     0.00000000     0.00000000
     0.00000000     0.00000000     0.00000000
     0.00000000     0.00000000     0.00000000
     0.00000000     0.00000000     0.00000000
     0.00000000     0.00000000     0.00000000
     0.00000000     0.00000000     0.00000000
     0.00000000     0.00000000     0.00000000
     0.00000000     0.00000000     0.00000000
     0.00000000     0.00000000     0.00000000
     0.00000000     0.00000000     0.00000000
     0.00000000     0.00000000     0.00000000
     0.00000000     0.00000000     0.00000000
     0.00000000     0.00000000     0.00000000
     0.00000000     0.00000000     0.00000000
     0.00000000     0.00000000     0.00000000
     0.00000000     0.00000000     0.00000000
     0.00000000     0.00000000     0.00000000
     0.00000000     0.00000000     0.00000000
     0.00000000     0.00000000     0.00000000
     0.00000000     0.00000000     0.00000000
     0.00000000     0.00000000     0.00000000
     0.00000000     0.00000000     0.00000000
     0.00000000     0.00000000     0.00000000
     0.00000000     0.00000000     0.00000000
     0.00000000     0.00000000     0.00000000
     0.00000000     0.00000000     0.00000000
     0.00000000     0.00000000     0.00000000
     0.00000000     0.00000000     0.00000000
     0.00000000     0.00000000     0.00000000
     0.00000000     0.00000000     0.00000000
     0.00000000     0.00000000     0.00000000
     0.00000000     0.00000000     0.00000000
     0.00000000     0.00000000     0.00000000
     0.00000000     0.00000000     0.00000000
     0.00000000     0.00000000     0.00000000
     0.00000000     0.00000000     0.00000000
     0.00000000     0.00000000     0.00000000
     0.00000000     0.00000000     0.00000000
     0.00000000     0.00000000     0.00000000
     0.00000000     0.00000000     0.00000000
     0.00000000     0.00000000     0.00000000
     0.00000000     0.00000000     0.00000000
     0.00000000     0.00000000     0.00000000
     0.00000000     0.00000000     0.00000000
     0.00000000     0.00000000     0.00000000
     0.00000000     0.00000000     0.00000000
     0.00000000     0.00000000     0.00000000
     0.00000000     0.00000000     0.00000000
     0.00000000     0.00000000     0.00000000
     0.00000000     0.00000000     0.00000000
     0.00000000     0.00000000     0.00000000
     0.00000000     0.00000000     0.00000000
     0.00000000     0.00000000     0.00000000
     0.00000000     0.00000000     0.00000000
     0.00000000     0.00000000     0.00000000
     0.00000000     0.00000000     0.00000000
     0.00000000     0.00000000     0.00000000
     0.00000000     0.00000000     0.00000000
     0.00000000     0.00000000     0.00000000
     0.00000000     0.00000000     0.00000000
     0.00000000     0.00000000     0.00000000
     0.00000000     0.00000000     0.00000000
     0.00000000     0.00000000     0.00000000
     0.00000000     0.00000000     0.00000000
     0.00000000     0.00000000     0.00000000
     0.00000000     0.00000000     0.00000000
     0.00000000     0.00000000     0.00000000
     0.00000000     0.00000000     0.00000000
     0.00000000     0.00000000     0.00000000
     0.00000000     0.00000000     0.00000000
     0.00000000     0.00000000     0.00000000
     0.00000000     0.00000000     0.00000000
     0.00000000     0.00000000     0.00000000
     0.00000000     0.00000000     0.00000000
     0.00000000     0.00000000     0.00000000
     0.00000000     0.00000000     0.00000000
     0.00000000     0.00000000     0.00000000
     0.00000000     0.00000000     0.00000000
     0.00000000     0.00000000     0.00000000
     0.00000000     0.00000000     0.00000000
     0.00000000     0.00000000     0.00000000
     0.00000000     0.00000000     0.00000000
     0.00000000     0.00000000     0.00000000
     0.00000000     0.00000000     0.00000000
     0.00000000     0.00000000     0.00000000
     0.00000000     0.00000000     0.00000000
     0.00000000     0.00000000     0.00000000
     0.00000000     0.00000000     0.00000000
     0.00000000     0.00000000     0.00000000
     0.00000000     0.00000000     0.00000000
     0.00000000     0.00000000     0.00000000
     0.00000000     0.00000000     0.00000000
     0.00000000     0.00000000     0.00000000
     0.00000000     0.00000000     0.00000000
     0.00000000     0.00000000     0.00000000
     0.00000000     0.00000000     0.00000000
     0.00000000     0.00000000     0.00000000
     0.00000000     0.00000000     0.00000000
     0.00000000     0.00000000     0.00000000
     0.00000000     0.00000000     0.00000000
SCALARS Temperatures float
LOOKUP_TABLE default
     0.00000000
     0.00000000
     0.00000000
     0.00000000
     0.00000000
     0.00000000
     0.00000000
     0.00000000
     0.00000000
     0.00000000
     0.00000000
     0.00000000
     0.00000000
     0.00000000
     0.00000000
     0.00000000
     0.00000000
     0.00000000
     0.00000000
     0.00000000
     0.00000000
     0.00000000
     0.00000000
     0.00000000
     0.00000000
     0.00000000
     0.00000000
     0.00000000
     0.00000000
     0.00000000
     0.00000000
     0.00000000
     0.00000000
     0.00000000
     0.00000000
     0.00000000
     0.00000000
     0.00000000
     0.00000000
     0.00000000
     0.00000000
     0.00000000
     0.00000000
     0.00000000
     0.00000000
     0.00000000
     0.00000000
     0.00000000
     0.00000000
     0.00000000
     0.00000000
     0.00000000
     0.00000000
     0.00000000
     0.00000000
     0.00000000
     0.00000000
     0.00000000
     0.00000000
     0.00000000
     0.00000000
     0.00000000
     0.00000000
     0.00000000
     0.00000000
     0.00000000
     0.00000000
     0.00000000
     0.00000000
     0.00000000
     0.00000000
     0.00000000
     0.00000000
     0.00000000
     0.00000000
     0.00000000
     0.00000000
     0.00000000
     0.00000000
     0.00000000
     0.00000000
     0.00000000
     0.00000000
     0.00000000
     0.00000000
     0.00000000
     0.00000000
     0.00000000
     0.00000000
     0.00000000
     0.00000000
     0.00000000
     0.00000000
     0.00000000
     0.00000000
     0.00000000
     0.00000000
     0.00000000
     0.00000000
     0.00000000
     0.00000000
     0.00000000
     0.00000000
     0.00000000
     0.00000000
     0.00000000
     0.00000000
     0.00000000
     0.00000000
     0.00000000
     0.00000000
     0.00000000
     0.00000000
     0.00000000
     0.00000000
     0.00000000
     0.00000000
     0.00000000
     0.00000000
     0.00000000
     0.00000000
     0.00000000
     0.00000000
     0.00000000
     0.00000000
     0.00000000
     0.00000000
     0.00000000
     0.00000000
     0.00000000
     0.00000000
     0.00000000
     0.00000000
     0.00000000
     0.00000000
     0.00000000
     0.00000000
     0.00000000
     0.00000000
     0.00000000
     0.00000000
     0.00000000
     0.00000000
     0.00000000
     0.00000000
     0.00000000
     0.00000000
     0.00000000
     0.00000000
     0.00000000
     0.00000000
     0.00000000
     0.00000000
     0.00000000
     0.00000000
     0.00000000
     0.00000000
     0.00000000
     0.00000000
     0.00000000
     0.00000000
     0.00000000
     0.00000000
     0.00000000
     0.00000000
     0.00000000
     0.00000000
     0.00000000
     0.00000000
     0.00000000
     0.00000000
     0.00000000
     0.00000000
     0.00000000
     0.00000000
     0.00000000
     0.00000000
     0.00000000
     0.00000000
     0.00000000
     0.00000000
     0.00000000
     0.00000000
     0.00000000
     0.00000000
     0.00000000
     0.00000000
     0.00000000
     0.00000000
     0.00000000
     0.00000000
     0.00000000
     0.00000000
     0.00000000
     0.00000000
     0.00000000
     0.00000000
     0.00000000
     0.00000000
     0.00000000
     0.00000000
     0.00000000
     0.00000000
     0.00000000
     0.00000000
     0.00000000
     0.00000000
     0.00000000
     0.00000000
     0.00000000
     0.00000000
     0.00000000
     0.00000000
     0.00000000
     0.00000000
     0.00000000
     0.00000000
     0.00000000
     0.00000000
     0.00000000
     0.00000000
     0.00000000
     0.00000000
     0.00000000
     0.00000000
     0.00000000
     0.00000000
     0.00000000
     0.00000000
     0.00000000
     0.00000000
     0.00000000
     0.00000000
     0.00000000
     0.00000000
     0.00000000
     0.00000000
     0.00000000
     0.00000000
     0.00000000
     0.00000000
     0.00000000
     0.00000000
     0.00000000
     0.00000000
     0.00000000
     0.00000000
     0.00000000
     0.00000000
     0.00000000
     0.00000000
     0.00000000
     0.00000000
     0.00000000
     0.00000000
     0.00000000
     0.00000000
     0.00000000
     0.00000000
     0.00000000
     0.00000000
     0.00000000
     0.00000000
     0.00000000
     0.00000000
     0.00000000
     0.00000000
     0.00000000
     0.00000000
     0.00000000
     0.00000000
     0.00000000
     0.00000000
     0.00000000
     0.00000000
     0.00000000
     0.00000000
     0.00000000
     0.00000000
     0.00000000
     0.00000000
     0.00000000
     0.00000000
     0.00000000
     0.00000000
     0.00000000
     0.00000000
     0.00000000
     0.00000000
     0.00000000
     0.00000000
     0.00000000
     0.00000000
     0.00000000
     0.00000000
     0.00000000
     0.00000000
     0.00000000
     0.00000000
     0.00000000
     0.00000000
     0.00000000
     0.00000000
     0.00000000
     0.00000000
     0.00000000
     0.00000000
     0.00000000
     0.00000000
     0.00000000
     0.00000000
     0.00000000
     0.00000000
     0.00000000
     0.00000000
     0.00000000
     0.00000000
     0.00000000
     0.00000000
     0.00000000
     0.00000000
     0.00000000
     0.00000000
     0.00000000
     0.00000000
     0.00000000
     0.00000000
     0.00000000
     0.00000000
     0.00000000
     0.00000000
     0.00000000
     0.00000000
     0.00000000
     0.00000000
     0.00000000
     0.00000000
     0.00000000
     0.00000000
     0.00000000
     0.00000000
     0.00000000
     0.00000000
     0.00000000
     0.00000000
     0.00000000
     0.00000000
     0.00000000
     0.00000000
     0.00000000
     0.00000000
     0.00000000
     0.00000000
     0.00000000
     0.00000000
     0.00000000
     0.00000000
     0.00000000
     0.00000000
     0.00000000
     0.00000000
     0.00000000
     0.00000000
     0.00000000
     0.00000000
     0.00000000
     0.00000000
     0.00000000
     0.00000000
     0.00000000
     0.00000000
     0.00000000
     0.00000000
     0.00000000
     0.00000000
     0.00000000
     0.00000000
     0.00000000
     0.00000000
     0.00000000
     0.00000000
     0.00000000
     0.00000000
     0.00000000
     0.00000000
     0.00000000
     0.00000000
     0.00000000
     0.00000000
     0.00000000
     0.00000000
     0.00000000
     0.00000000
     0.00000000
     0.00000000
     0.00000000
     0.00000000
     0.00000000
     0.00000000
     0.00000000
     0.00000000
     0.00000000
     0.00000000
     0.00000000
     0.00000000
     0.00000000
     0.00000000
     0.00000000
     0.00000000
     0.00000000
     0.00000000
     0.00000000
     0.00000000
     0.00000000
     0.00000000
     0.00000000
     0.00000000
     0.00000000
     0.00000000
     0.00000000
     0.00000000
     0.00000000
     0.00000000
     0.00000000
     0.00000000
     0.00000000
     0.00000000
     0.00000000
     0.00000000
     0.00000000
     0.00000000
     0.00000000
     0.00000000
     0.00000000
     0.00000000
     0.00000000
     0.00000000
     0.00000000
     0.00000000
     0.00000000
     0.00000000
     0.00000000
     0.00000000
     0.00000000
     0.00000000
     0.00000000
     0.00000000
     0.00000000
     0.00000000
     0.00000000
     0.00000000
     0.00000000
     0.00000000
     0.00000000
     0.00000000
     0.00000000
     0.00000000
     0.00000000
     0.00000000
     0.00000000
     0.00000000
     0.00000000
     0.00000000
     0.00000000
     0.00000000
     0.00000000
     0.00000000
     0.00000000
     0.00000000
     0.00000000
     0.00000000
     0.00000000
     0.00000000
     0.00000000
     0.00000000
     0.00000000
     0.00000000
     0.00000000
     0.00000000
     0.00000000
     0.00000000
     0.00000000
     0.00000000
     0.00000000
     0.00000000
     0.00000000
     0.00000000
     0.00000000
     0.00000000
     0.00000000
     0.00000000
     0.00000000
     0.00000000
     0.00000000
     0.00000000
     0.00000000
     0.00000000
     0.00000000
     0.00000000
     0.00000000
     0.00000000
     0.00000000
     0.00000000
     0.00000000
     0.00000000
     0.00000000
     0.00000000
     0.00000000
     0.00000000
     0.00000000
     0.00000000
     0.00000000
     0.00000000
     0.00000000
     0.00000000
     0.00000000
     0.00000000
     0.00000000
     0.00000000
     0.00000000
     0.00000000
     0.00000000
     0.00000000
     0.00000000
     0.00000000
     0.00000000
     0.00000000
     0.00000000
     0.00000000
     0.00000000
     0.00000000
     0.00000000
     0.00000000
     0.00000000
     0.00000000
     0.00000000
     0.00000000
     0.00000000
     0.00000000
     0.00000000
     0.00000000
     0.00000000
     0.00000000
     0.00000000
     0.00000000
     0.00000000
     0.00000000
     0.00000000
     0.00000000
     0.00000000
     0.00000000
     0.00000000
     0.00000000
     0.00000000
     0.00000000
     0.00000000
     0.00000000
     0.00000000
     0.00000000
     0.00000000
     0.00000000
     0.00000000
     0.00000000
     0.00000000
     0.00000000
     0.00000000
     0.00000000
     0.00000000
     0.00000000
     0.00000000
     0.00000000
     0.00000000
     0.00000000
     0.00000000
     0.00000000
     0.00000000
     0.00000000
     0.00000000
     0.00000000
     0.00000000
     0.00000000
     0.00000000
     0.00000000
     0.00000000
     0.00000000
     0.00000000
     0.00000000
     0.00000000
     0.00000000
     0.00000000
     0.00000000
     0.00000000
     0.00000000
     0.00000000
     0.00000000
     0.00000000
     0.00000000
     0.00000000
     0.00000000
     0.00000000
     0.00000000
     0.00000000
     0.00000000
     0.00000000
     0.00000000
     0.00000000
     0.00000000
     0.00000000
     0.00000000
     0.00000000
     0.00000000
     0.00000000
     0.00000000
     0.00000000
     0.00000000
     0.00000000
     0.00000000
     0.00000000
     0.00000000
     0.00000000
     0.00000000
     0.00000000
     0.00000000
     0.00000000
     0.00000000
     0.00000000
     0.00000000
     0.00000000
     0.00000000
     0.00000000
     0.00000000
     0.00000000
     0.00000000
     0.00000000
     0.00000000
     0.00000000
     0.00000000
     0.00000000
     0.00000000
     0.00000000
     0.00000000
     0.00000000
     0.00000000
     0.00000000
     0.00000000
     0.00000000
     0.00000000
     0.00000000
     0.00000000
     0.00000000
     0.00000000
     0.00000000
     0.00000000
     0.00000000
     0.00000000
     0.00000000
     0.00000000
     0.00000000
     0.00000000
     0.00000000
     0.00000000
     0.00000000
     0.00000000
     0.00000000
     0.00000000
     0.00000000
     0.00000000
     0.00000000
     0.00000000
     0.00000000
     0.00000000
     0.00000000
     0.00000000
     0.00000000
     0.00000000
     0.00000000
     0.00000000
     0.00000000
     0.00000000
     0.00000000
     0.00000000
     0.00000000
     0.00000000
     0.00000000
     0.00000000
     0.00000000
     0.00000000
     0.00000000
     0.00000000
     0.00000000
     0.00000000
     0.00000000
     0.00000000
     0.00000000
     0.00000000
     0.00000000
     0.00000000
     0.00000000
     0.00000000
     0.00000000
     0.00000000
     0.00000000
     0.00000000
     0.00000000
     0.00000000
     0.00000000
     0.00000000
     0.00000000
     0.00000000
     0.00000000
     0.00000000
     0.00000000
     0.00000000
     0.00000000
     0.00000000
     0.00000000
     0.00000000
     0.00000000
     0.00000000
     0.00000000
     0.00000000
     0.00000000
     0.00000000
     0.00000000
     0.00000000
     0.00000000
     0.00000000
     0.00000000
     0.00000000
     0.00000000
     0.00000000
     0.00000000
     0.00000000
     0.00000000
     0.00000000
     0.00000000
     0.00000000
     0.00000000
     0.00000000
     0.00000000
     0.00000000
     0.00000000
     0.00000000
     0.00000000
     0.00000000
     0.00000000
     0.00000000
     0.00000000
     0.00000000
     0.00000000
     0.00000000
     0.00000000
     0.00000000
     0.00000000
     0.00000000
     0.00000000
     0.00000000
     0.00000000
     0.00000000
     0.00000000
     0.00000000
     0.00000000
     0.00000000
     0.00000000
     0.00000000
     0.00000000
     0.00000000
     0.00000000
     0.00000000
     0.00000000
     0.00000000
     0.00000000
     0.00000000
     0.00000000
     0.00000000
     0.00000000
     0.00000000
     0.00000000
     0.00000000
     0.00000000
     0.00000000
     0.00000000
     0.00000000
     0.00000000
     0.00000000
     0.00000000
     0.00000000
     0.00000000
     0.00000000
     0.00000000
     0.00000000
     0.00000000
     0.00000000
     0.00000000
     0.00000000
     0.00000000
     0.00000000
     0.00000000
     0.00000000
     0.00000000
     0.00000000
     0.00000000
     0.00000000
     0.00000000
     0.00000000
     0.00000000
     0.00000000
     0.00000000
     0.00000000
     0.00000000
     0.00000000
     0.00000000
     0.00000000
     0.00000000
     0.00000000
     0.00000000
     0.00000000
     0.00000000
     0.00000000
     0.00000000
     0.00000000
     0.00000000
     0.00000000
     0.00000000
     0.00000000
     0.00000000
     0.00000000
     0.00000000
     0.00000000
     0.00000000
     0.00000000
     0.00000000
     0.00000000
     0.00000000
     0.00000000
     0.00000000
     0.00000000
     0.00000000
     0.00000000
     0.00000000
     0.00000000
     0.00000000
     0.00000000
     0.00000000
     0.00000000
     0.00000000
     0.00000000
     0.00000000
     0.00000000
     0.00000000
     0.00000000
     0.00000000
     0.00000000
     0.00000000
     0.00000000
     0.00000000
     0.00000000
     0.00000000
     0.00000000
     0.00000000
     0.00000000
     0.00000000
     0.00000000
     0.00000000
     0.00000000
     0.00000000
     0.00000000
     0.00000000
     0.00000000
     0.00000000
     0.00000000
     0.00000000
     0.00000000
     0.00000000
     0.00000000
     0.00000000
     0.00000000
     0.00000000
     0.00000000
     0.00000000
     0.00000000
     0.00000000
     0.00000000
     0.00000000
     0.00000000
     0.00000000
     0.00000000
     0.00000000
     0.00000000
     0.00000000
     0.00000000
     0.00000000
     0.00000000
     0.00000000
     0.00000000
     0.00000000
     0.00000000
     0.00000000
     0.00000000
     0.00000000
     0.00000000
     0.00000000
     0.00000000
     0.00000000
     0.00000000
     0.00000000
     0.00000000
     0.00000000
     0.00000000
     0.00000000
     0.00000000
     0.00000000
     0.00000000
     0.00000000
     0.00000000
     0.00000000
     0.00000000
     0.00000000
     0.00000000
     0.00000000
     0.00000000
     0.00000000
     0.00000000
     0.00000000
     0.00000000
     0.00000000
     0.00000000
     0.00000000
     0.00000000
     0.00000000
     0.00000000
     0.00000000
     0.00000000
     0.00000000
     0.00000000
     0.00000000
     0.00000000
     0.00000000
     0.00000000
     0.00000000
     0.00000000
     0.00000000
     0.00000000
     0.00000000
     0.00000000
     0.00000000
     0.00000000
     0.00000000
     0.00000000
     0.00000000
     0.00000000
     0.00000000
     0.00000000
     0.00000000
     0.00000000
     0.00000000
     0.00000000
     0.00000000
     0.00000000
     0.00000000
     0.00000000
     0.00000000
     0.00000000
     0.00000000
     0.00000000
     0.00000000
     0.00000000
     0.00000000
     0.00000000
     0.00000000
     0.00000000
     0.00000000
     0.00000000
     0.00000000
     0.00000000
     0.00000000
     0.00000000
     0.00000000
     0.00000000
     0.00000000
     0.00000000
     0.00000000
     0.00000000
     0.00000000
     0.00000000
     0.00000000
     0.00000000
     0.00000000
     0.00000000
     0.00000000
     0.00000000
     0.00000000
     0.00000000
     0.00000000
     0.00000000
     0.00000000
     0.00000000
     0.00000000
     0.00000000
     0.00000000
     0.00000000
     0.00000000
     0.00000000
     0.00000000
     0.00000000
     0.00000000
     0.00000000
     0.00000000
     0.00000000
     0.00000000
     0.00000000
     0.00000000
     0.00000000
     0.00000000
     0.00000000
     0.00000000
     0.00000000
     0.00000000
     0.00000000
     0.00000000
     0.00000000
     0.00000000
     0.00000000
     0.00000000
     0.00000000
     0.00000000
     0.00000000
     0.00000000
     0.00000000
     0.00000000
     0.00000000
     0.00000000
     0.00000000
     0.00000000
     0.00000000
     0.00000000
     0.00000000
     0.00000000
     0.00000000
     0.00000000
     0.00000000
     0.00000000
     0.00000000
     0.00000000
     0.00000000
     0.00000000
     0.00000000
     0.00000000
     0.00000000
     0.00000000
     0.00000000
     0.00000000
     0.00000000
     0.00000000
     0.00000000
     0.00000000
     0.00000000
     0.00000000
     0.00000000
     0.00000000
     0.00000000
     0.00000000
     0.00000000
     0.00000000
     0.00000000
     0.00000000
     0.00000000
     0.00000000
     0.00000000
     0.00000000
     0.00000000
     0.00000000
     0.00000000
     0.00000000
     0.00000000
     0.00000000
     0.00000000
     0.00000000
     0.00000000
     0.00000000
     0.00000000
     0.00000000
     0.00000000
     0.00000000
     0.00000000
     0.00000000
     0.00000000
     0.00000000
     0.00000000
     0.00000000
     0.00000000
     0.00000000
     0.00000000
     0.00000000
     0.00000000
     0.00000000
     0.00000000
     0.00000000
     0.00000000
     0.00000000
     0.00000000
     0.00000000
     0.00000000
     0.00000000
     0.00000000
     0.00000000
     0.00000000
     0.00000000
     0.00000000
     0.00000000
     0.00000000
     0.00000000
     0.00000000
     0.00000000
     0.00000000
     0.00000000
     0.00000000
     0.00000000
     0.00000000
     0.00000000
     0.00000000
     0.00000000
     0.00000000
     0.00000000
     0.00000000
     0.00000000
     0.00000000
     0.00000000
     0.00000000
     0.00000000
     0.00000000
     0.00000000
     0.00000000
     0.00000000
     0.00000000
     0.00000000
     0.00000000
     0.00000000
     0.00000000
     0.00000000
     0.00000000
     0.00000000
     0.00000000
     0.00000000
     0.00000000
     0.00000000
     0.00000000
     0.00000000
     0.00000000
     0.00000000
     0.00000000
     0.00000000
     0.00000000
     0.00000000
     0.00000000
     0.00000000
     0.00000000
     0.00000000
     0.00000000
     0.00000000
     0.00000000
     0.00000000
     0.00000000
     0.00000000
     0.00000000
     0.00000000
     0.00000000
     0.00000000
     0.00000000
     0.00000000
     0.00000000
     0.00000000
     0.00000000
     0.00000000
     0.00000000
     0.00000000
     0.00000000
     0.00000000
     0.00000000
     0.00000000
     0.00000000
     0.00000000
     0.00000000
     0.00000000
     0.00000000
     0.00000000
     0.00000000
     0.00000000
     0.00000000
     0.00000000
     0.00000000
     0.00000000
     0.00000000
     0.00000000
     0.00000000
     0.00000000
     0.00000000
     0.00000000
     0.00000000
     0.00000000
     0.00000000
     0.00000000
     0.00000000
     0.00000000
     0.00000000
     0.00000000
     0.00000000
     0.00000000
     0.00000000
     0.00000000
     0.00000000
     0.00000000
     0.00000000
     0.00000000
     0.00000000
     0.00000000
     0.00000000
     0.00000000
     0.00000000
     0.00000000
     0.00000000
     0.00000000
     0.00000000
     0.00000000
     0.00000000
     0.00000000
     0.00000000
     0.00000000
     0.00000000
     0.00000000
     0.00000000
     0.00000000
     0.00000000
     0.00000000
     0.00000000
     0.00000000
     0.00000000
     0.00000000
     0.00000000
     0.00000000
     0.00000000
     0.00000000
     0.00000000
     0.00000000
     0.00000000
     0.00000000
     0.00000000
     0.00000000
     0.00000000
     0.00000000
     0.00000000
     0.00000000
     0.00000000
     0.00000000
     0.00000000
     0.00000000
     0.00000000
     0.00000000
     0.00000000
     0.00000000
     0.00000000
     0.00000000
     0.00000000
     0.00000000
     0.00000000
     0.00000000
     0.00000000
     0.00000000
     0.00000000
     0.00000000
     0.00000000
     0.00000000
     0.00000000
     0.00000000
     0.00000000
     0.00000000
     0.00000000
     0.00000000
     0.00000000
     0.00000000
     0.00000000
     0.00000000
     0.00000000
     0.00000000
     0.00000000
     0.00000000
     0.00000000
     0.00000000
     0.00000000
     0.00000000
     0.00000000
     0.00000000
     0.00000000
     0.00000000
     0.00000000
     0.00000000
     0.00000000
     0.00000000
     0.00000000
     0.00000000
     0.00000000
     0.00000000
     0.00000000
     0.00000000
     0.00000000
     0.00000000
     0.00000000
     0.00000000
     0.00000000
     0.00000000
     0.00000000
     0.00000000
     0.00000000
     0.00000000
     0.00000000
     0.00000000
     0.00000000
     0.00000000
     0.00000000
     0.00000000
     0.00000000
     0.00000000
     0.00000000
     0.00000000
     0.00000000
     0.00000000
     0.00000000
     0.00000000
     0.00000000
     0.00000000
     0.00000000
     0.00000000
     0.00000000
     0.00000000
     0.00000000
     0.00000000
     0.00000000
     0.00000000
     0.00000000
     0.00000000
     0.00000000
     0.00000000
     0.00000000
     0.00000000
     0.00000000
     0.00000000
     0.00000000
     0.00000000
     0.00000000
     0.00000000
     0.00000000
     0.00000000
     0.00000000
     0.00000000
     0.00000000
     0.00000000
     0.00000000
     0.00000000
     0.00000000
     0.00000000
     0.00000000
     0.00000000
     0.00000000
     0.00000000
     0.00000000
     0.00000000
     0.00000000
     0.00000000
     0.00000000
     0.00000000
     0.00000000
     0.00000000
     0.00000000
     0.00000000
     0.00000000
     0.00000000
     0.00000000
     0.00000000
     0.00000000
     0.00000000
     0.00000000
     0.00000000
     0.00000000
     0.00000000
     0.00000000
     0.00000000
     0.00000000
     0.00000000
     0.00000000
     0.00000000
     0.00000000
     0.00000000
     0.00000000
     0.00000000
     0.00000000
     0.00000000
     0.00000000
     0.00000000
     0.00000000
     0.00000000
     0.00000000
     0.00000000
     0.00000000
     0.00000000
     0.00000000
     0.00000000
     0.00000000
     0.00000000
     0.00000000
     0.00000000
     0.00000000
     0.00000000
     0.00000000
     0.00000000
     0.00000000
     0.00000000
     0.00000000
     0.00000000
     0.00000000
     0.00000000
     0.00000000
     0.00000000
     0.00000000
     0.00000000
     0.00000000
     0.00000000
     0.00000000
     0.00000000
     0.00000000
     0.00000000
     0.00000000
     0.00000000
     0.00000000
     0.00000000
     0.00000000
     0.00000000
     0.00000000
     0.00000000
     0.00000000
     0.00000000
     0.00000000
     0.00000000
     0.00000000
     0.00000000
     0.00000000
     0.00000000
     0.00000000
     0.00000000
     0.00000000
     0.00000000
     0.00000000
     0.00000000
     0.00000000
     0.00000000
     0.00000000
     0.00000000
     0.00000000
     0.00000000
     0.00000000
     0.00000000
     0.00000000
     0.00000000
     0.00000000
     0.00000000
     0.00000000
     0.00000000
     0.00000000
     0.00000000
     0.00000000
     0.00000000
     0.00000000
     0.00000000
     0.00000000
     0.00000000
     0.00000000
     0.00000000
     0.00000000
     0.00000000
     0.00000000
     0.00000000
     0.00000000
     0.00000000
     0.00000000
     0.00000000
     0.00000000
     0.00000000
     0.00000000
     0.00000000
     0.00000000
     0.00000000
     0.00000000
     0.00000000
     0.00000000
     0.00000000
     0.00000000
     0.00000000
     0.00000000
     0.00000000
     0.00000000
     0.00000000
     0.00000000
     0.00000000
     0.00000000
     0.00000000
     0.00000000
     0.00000000
     0.00000000
     0.00000000
     0.00000000
     0.00000000
     0.00000000
     0.00000000
     0.00000000
     0.00000000
     0.00000000
     0.00000000
     0.00000000
     0.00000000
     0.00000000
     0.00000000
     0.00000000
     0.00000000
     0.00000000
     0.00000000
     0.00000000
     0.00000000
     0.00000000
     0.00000000
     0.00000000
     0.00000000
     0.00000000
     0.00000000
     0.00000000
     0.00000000
     0.00000000
     0.00000000
     0.00000000
     0.00000000
     0.00000000
     0.00000000
     0.00000000
     0.00000000
     0.00000000
     0.00000000
     0.00000000
     0.00000000
     0.00000000
     0.00000000
     0.00000000
     0.00000000
     0.00000000
     0.00000000
     0.00000000
     0.00000000
     0.00000000
     0.00000000
     0.00000000
     0.00000000
     0.00000000
     0.00000000
     0.00000000
     0.00000000
     0.00000000
     0.00000000
     0.00000000
     0.00000000
     0.00000000
     0.00000000
     0.00000000
     0.00000000
     0.00000000
     0.00000000
     0.00000000
     0.00000000
     0.00000000
     0.00000000
     0.00000000
     0.00000000
     0.00000000
     0.00000000
     0.00000000
     0.00000000
     0.00000000
     0.00000000
     0.00000000
     0.00000000
     0.00000000
     0.00000000
     0.00000000
VECTORS ShearStress float 
    -0.00164118     0.00259982     0.00024795
    -0.01603951     0.01352251     0.00150803
    -0.01928823     0.01018125     0.00046112
    -0.01852489     0.00566112     0.00033867
    -0.01739526     0.00195032    -0.00009548
    -0.01538500    -0.00106629    -0.00027463
    -0.01218800    -0.00485544    -0.00073779
    -0.00352030    -0.00254787    -0.00211858
     0.05398256     0.02443900    -0.00142528
    -0.00004444     0.01097930     0.00090307
     0.00000000     0.00000000     0.00000000
     0.00000000     0.00000000     0.00000000
     0.00000000     0.00000000     0.00000000
     0.00000000     0.00000000     0.00000000
     0.00000000     0.00000000     0.00000000
     0.00000000     0.00000000     0.00000000
     0.00000000     0.00000000     0.00000000
     0.00000000     0.00000000     0.00000000
    -0.00007262     0.01675246     0.00119873
     0.00000000     0.00000000     0.00000000
     0.00000000     0.00000000     0.00000000
     0.00000000     0.00000000     0.00000000
     0.00000000     0.00000000     0.00000000
     0.00000000     0.00000000     0.00000000
     0.00000000     0.00000000     0.00000000
     0.00000000     0.00000000     0.00000000
     0.00000000     0.00000000     0.00000000
    -0.00005824     0.01401808     0.00139393
     0.00000000     0.00000000     0.00000000
     0.00000000     0.00000000     0.00000000
     0.00000000     0.00000000     0.00000000
     0.00000000     0.00000000     0.00000000
     0.00000000     0.00000000     0.00000000
     0.00000000     0.00000000     0.00000000
     0.00000000     0.00000000     0.00000000
     0.00000000     0.00000000     0.00000000
    -0.00000928     0.00233207     0.00160642
     0.00000000     0.00000000     0.00000000
     0.00000000     0.00000000     0.00000000
     0.00000000     0.00000000     0.00000000
     0.00000000     0.00000000     0.00000000
     0.00000000     0.00000000     0.00000000
     0.00000000     0.00000000     0.00000000
     0.00000000     0.00000000     0.00000000
     0.00000000     0.00000000     0.00000000
     0.00005535    -0.01229374     0.00124631
     0.00000000     0.00000000     0.00000000
     0.00000000     0.00000000     0.00000000
     0.00000000     0.00000000     0.00000000
     0.00000000     0.00000000     0.00000000
     0.00000000     0.00000000     0.00000000
     0.00000000     0.00000000     0.00000000
     0.00000000     0.00000000     0.00000000
    -0.08445418     0.02871045     0.00141939
     0.00009375    -0.02139722     0.00106524
     0.00000000     0.00000000     0.00000000
     0.00000000     0.00000000     0.00000000
     0.00000000     0.00000000     0.00000000
     0.00000000     0.00000000     0.00000000
     0.00000000     0.00000000     0.00000000
     0.00000000     0.00000000     0.00000000
     0.00000000     0.00000000     0.00000000
     0.00000000     0.00000000     0.00000000
     0.00011370    -0.02295378     0.00111315
     0.00000000     0.00000000     0.00000000
     0.00000000     0.00000000     0.00000000
     0.00000000     0.00000000     0.00000000
     0.00000000     0.00000000     0.00000000
     0.00000000     0.00000000     0.00000000
     0.00000000     0.00000000     0.00000000
     0.00000000     0.00000000     0.00000000
     0.00000000     0.00000000     0.00000000
     0.00012168    -0.01970004     0.00110686
     0.00000000     0.00000000     0.00000000
     0.00000000     0.00000000     0.00000000
     0.00000000     0.00000000     0.00000000
     0.00000000     0.00000000     0.00000000
     0.00000000     0.00000000     0.00000000
     0.00000000     0.00000000     0.00000000
     0.00000000     0.00000000     0.00000000
     0.00000000     0.00000000     0.00000000
     0.00009916    -0.01174734     0.00075686
     0.00000000     0.00000000     0.00000000
     0.00000000     0.00000000     0.00000000
     0.00000000     0.00000000     0.00000000
     0.00000000     0.00000000     0.00000000
     0.00000000     0.00000000     0.00000000
     0.00000000     0.00000000     0.00000000
     0.00000000     0.00000000     0.00000000
     0.00000000     0.00000000     0.00000000
    -0.00164928    -0.00271770     0.00020639
    -0.01603450    -0.01395545     0.00124878
    -0.01796571    -0.00976127     0.00011568
    -0.01761404    -0.00558776     0.00009776
    -0.01635754    -0.00201539    -0.00043325
    -0.01283390     0.00080116    -0.00081356
    -0.00724404     0.00344846    -0.00137164
     0.00016977     0.00060184    -0.00207017
     0.03554134    -0.01868178    -0.00045301
    -0.00110101     0.00191392     0.00107330
    -0.01119313     0.01034982     0.00635966
    -0.01680258     0.00930214     0.00254149
    -0.01714922     0.00552038     0.00163104
    -0.01592928     0.00177716    -0.00025371
    -0.01478004    -0.00119499    -0.00114849
    -0.01183379    -0.00507188    -0.00299749
    -0.00463417    -0.00412344    -0.00777744
     0.05351312     0.02486549    -0.00700812
    -0.00002789     0.00814223     0.00382505
     0.00000000     0.00000000     0.00000000
     0.00000000     0.00000000     0.00000000
     0.00000000     0.00000000     0.00000000
     0.00000000     0.00000000     0.00000000
     0.00000000     0.00000000     0.00000000
     0.00000000     0.00000000     0.00000000
     0.00000000     0.00000000     0.00000000
     0.00000000     0.00000000     0.00000000
    -0.00004824     0.01346115     0.00507622
     0.00000000     0.00000000     0.00000000
     0.00000000     0.00000000     0.00000000
     0.00000000     0.00000000     0.00000000
     0.00000000     0.00000000     0.00000000
     0.00000000     0.00000000     0.00000000
     0.00000000     0.00000000     0.00000000
     0.00000000     0.00000000     0.00000000
     0.00000000     0.00000000     0.00000000
    -0.00003786     0.01064811     0.00592645
     0.00000000     0.00000000     0.00000000
     0.00000000     0.00000000     0.00000000
     0.00000000     0.00000000     0.00000000
     0.00000000     0.00000000     0.00000000
     0.00000000     0.00000000     0.00000000
     0.00000000     0.00000000     0.00000000
     0.00000000     0.00000000     0.00000000
     0.00000000     0.00000000     0.00000000
    -0.00000057     0.00143598     0.00667020
     0.00000000     0.00000000     0.00000000
     0.00000000     0.00000000     0.00000000
     0.00000000     0.00000000     0.00000000
     0.00000000     0.00000000     0.00000000
     0.00000000     0.00000000     0.00000000
     0.00000000     0.00000000     0.00000000
     0.00000000     0.00000000     0.00000000
     0.00000000     0.00000000     0.00000000
     0.00004944    -0.01020376     0.00510472
     0.00000000     0.00000000     0.00000000
     0.00000000     0.00000000     0.00000000
     0.00000000     0.00000000     0.00000000
     0.00000000     0.00000000     0.00000000
     0.00000000     0.00000000     0.00000000
     0.00000000     0.00000000     0.00000000
     0.00000000     0.00000000     0.00000000
    -0.07494477     0.02631667     0.00615670
     0.00008138    -0.01866196     0.00436531
     0.00000000     0.00000000     0.00000000
     0.00000000     0.00000000     0.00000000
     0.00000000     0.00000000     0.00000000
     0.00000000     0.00000000     0.00000000
     0.00000000     0.00000000     0.00000000
     0.00000000     0.00000000     0.00000000
     0.00000000     0.00000000     0.00000000
     0.00000000     0.00000000     0.00000000
     0.00010216    -0.02045287     0.00457999
     0.00000000     0.00000000     0.00000000
     0.00000000     0.00000000     0.00000000
     0.00000000     0.00000000     0.00000000
     0.00000000     0.00000000     0.00000000
     0.00000000     0.00000000     0.00000000
     0.00000000     0.00000000     0.00000000
     0.00000000     0.00000000     0.00000000
     0.00000000     0.00000000     0.00000000
     0.00010995    -0.01676547     0.00457074
     0.00000000     0.00000000     0.00000000
     0.00000000     0.00000000     0.00000000
     0.00000000     0.00000000     0.00000000
     0.00000000     0.00000000     0.00000000
     0.00000000     0.00000000     0.00000000
     0.00000000     0.00000000     0.00000000
     0.00000000     0.00000000     0.00000000
     0.00000000     0.00000000     0.00000000
     0.00007893    -0.00907968     0.00316364
     0.00000000     0.00000000     0.00000000
     0.00000000     0.00000000     0.00000000
     0.00000000     0.00000000     0.00000000
     0.00000000     0.00000000     0.00000000
     0.00000000     0.00000000     0.00000000
     0.00000000     0.00000000     0.00000000
     0.00000000     0.00000000     0.00000000
     0.00000000     0.00000000     0.00000000
    -0.00117454    -0.00207979     0.00087526
    -0.01185982    -0.01107366     0.00508768
    -0.01684938    -0.00936694     0.00094304
    -0.01804265    -0.00580761     0.00027485
    -0.01751193    -0.00189591    -0.00204313
    -0.01486901     0.00147686    -0.00384259
    -0.00936160     0.00538782    -0.00613670
    -0.00277094     0.00360728    -0.00836316
     0.03360192    -0.01819801    -0.00249715
    -0.00085604     0.00175621     0.00136905
    -0.00868743     0.01016353     0.00891659
    -0.01313569     0.00894681     0.00586697
    -0.01382378     0.00503025     0.00213230
    -0.01318845     0.00134949    -0.00068304
    -0.01327234    -0.00174400    -0.00267754
    -0.01303590    -0.00686056    -0.00579294
    -0.00744657    -0.00866805    -0.01431629
     0.05760608     0.02783234    -0.01869513
    -0.00001320     0.00653349     0.00430649
     0.00000000     0.00000000     0.00000000
     0.00000000     0.00000000     0.00000000
     0.00000000     0.00000000     0.00000000
     0.00000000     0.00000000     0.00000000
     0.00000000     0.00000000     0.00000000
     0.00000000     0.00000000     0.00000000
     0.00000000     0.00000000     0.00000000
     0.00000000     0.00000000     0.00000000
    -0.00002278     0.00982792     0.00571607
     0.00000000     0.00000000     0.00000000
     0.00000000     0.00000000     0.00000000
     0.00000000     0.00000000     0.00000000
     0.00000000     0.00000000     0.00000000
     0.00000000     0.00000000     0.00000000
     0.00000000     0.00000000     0.00000000
     0.00000000     0.00000000     0.00000000
     0.00000000     0.00000000     0.00000000
    -0.00001968     0.00684865     0.00698273
     0.00000000     0.00000000     0.00000000
     0.00000000     0.00000000     0.00000000
     0.00000000     0.00000000     0.00000000
     0.00000000     0.00000000     0.00000000
     0.00000000     0.00000000     0.00000000
     0.00000000     0.00000000     0.00000000
     0.00000000     0.00000000     0.00000000
     0.00000000     0.00000000     0.00000000
     0.00001371    -0.00072897     0.00679674
     0.00000000     0.00000000     0.00000000
     0.00000000     0.00000000     0.00000000
     0.00000000     0.00000000     0.00000000
     0.00000000     0.00000000     0.00000000
     0.00000000     0.00000000     0.00000000
     0.00000000     0.00000000     0.00000000
     0.00000000     0.00000000     0.00000000
     0.00000000     0.00000000     0.00000000
     0.00005498    -0.00979897     0.00473861
     0.00000000     0.00000000     0.00000000
     0.00000000     0.00000000     0.00000000
     0.00000000     0.00000000     0.00000000
     0.00000000     0.00000000     0.00000000
     0.00000000     0.00000000     0.00000000
     0.00000000     0.00000000     0.00000000
     0.00000000     0.00000000     0.00000000
    -0.04770061     0.01877552     0.00286887
     0.00007373    -0.01641025     0.00406799
     0.00000000     0.00000000     0.00000000
     0.00000000     0.00000000     0.00000000
     0.00000000     0.00000000     0.00000000
     0.00000000     0.00000000     0.00000000
     0.00000000     0.00000000     0.00000000
     0.00000000     0.00000000     0.00000000
     0.00000000     0.00000000     0.00000000
     0.00000000     0.00000000     0.00000000
     0.00008660    -0.01797380     0.00433858
     0.00000000     0.00000000     0.00000000
     0.00000000     0.00000000     0.00000000
     0.00000000     0.00000000     0.00000000
     0.00000000     0.00000000     0.00000000
     0.00000000     0.00000000     0.00000000
     0.00000000     0.00000000     0.00000000
     0.00000000     0.00000000     0.00000000
     0.00000000     0.00000000     0.00000000
     0.00010518    -0.01496313     0.00439233
     0.00000000     0.00000000     0.00000000
     0.00000000     0.00000000     0.00000000
     0.00000000     0.00000000     0.00000000
     0.00000000     0.00000000     0.00000000
     0.00000000     0.00000000     0.00000000
     0.00000000     0.00000000     0.00000000
     0.00000000     0.00000000     0.00000000
     0.00000000     0.00000000     0.00000000
     0.00007745    -0.00851005     0.00337895
     0.00000000     0.00000000     0.00000000
     0.00000000     0.00000000     0.00000000
     0.00000000     0.00000000     0.00000000
     0.00000000     0.00000000     0.00000000
     0.00000000     0.00000000     0.00000000
     0.00000000     0.00000000     0.00000000
     0.00000000     0.00000000     0.00000000
     0.00000000     0.00000000     0.00000000
    -0.00118384    -0.00225238     0.00108662
    -0.01184104    -0.01283733     0.00721276
    -0.01624023    -0.01052427     0.00441133
    -0.01883161    -0.00666497     0.00146225
    -0.01956176    -0.00217512    -0.00123989
    -0.01880314     0.00264125    -0.00496325
    -0.01411464     0.00971386    -0.00999984
    -0.00648680     0.00917786    -0.01530310
     0.03436415    -0.02041666    -0.00523724
    -0.00042942     0.00132079     0.00140953
    -0.00454983     0.00860581     0.00977870
    -0.00815607     0.00778969     0.00670360
    -0.00926312     0.00404454     0.00203563
    -0.00977116     0.00041449    -0.00169783
    -0.01195263    -0.00247338    -0.00329504
    -0.01577427    -0.00913155    -0.00528147
    -0.01485623    -0.01718045    -0.01466600
     0.06134604     0.03134879    -0.03036326
    -0.00000012     0.00388562     0.00370717
     0.00000000     0.00000000     0.00000000
     0.00000000     0.00000000     0.00000000
     0.00000000     0.00000000     0.00000000
     0.00000000     0.00000000     0.00000000
     0.00000000     0.00000000     0.00000000
     0.00000000     0.00000000     0.00000000
     0.00000000     0.00000000     0.00000000
     0.00000000     0.00000000     0.00000000
    -0.00000844     0.00547144     0.00602537
     0.00000000     0.00000000     0.00000000
     0.00000000     0.00000000     0.00000000
     0.00000000     0.00000000     0.00000000
     0.00000000     0.00000000     0.00000000
     0.00000000     0.00000000     0.00000000
     0.00000000     0.00000000     0.00000000
     0.00000000     0.00000000     0.00000000
     0.00000000     0.00000000     0.00000000
     0.00000041     0.00292965     0.00772412
     0.00000000     0.00000000     0.00000000
     0.00000000     0.00000000     0.00000000
     0.00000000     0.00000000     0.00000000
     0.00000000     0.00000000     0.00000000
     0.00000000     0.00000000     0.00000000
     0.00000000     0.00000000     0.00000000
     0.00000000     0.00000000     0.00000000
     0.00000000     0.00000000     0.00000000
     0.00003004    -0.00212859     0.00745132
     0.00000000     0.00000000     0.00000000
     0.00000000     0.00000000     0.00000000
     0.00000000     0.00000000     0.00000000
     0.00000000     0.00000000     0.00000000
     0.00000000     0.00000000     0.00000000
     0.00000000     0.00000000     0.00000000
     0.00000000     0.00000000     0.00000000
     0.00000000     0.00000000     0.00000000
     0.00005918    -0.00842378     0.00564488
     0.00000000     0.00000000     0.00000000
     0.00000000     0.00000000     0.00000000
     0.00000000     0.00000000     0.00000000
     0.00000000     0.00000000     0.00000000
     0.00000000     0.00000000     0.00000000
     0.00000000     0.00000000     0.00000000
     0.00000000     0.00000000     0.00000000
    -0.02406583     0.01174249    -0.00210459
     0.00007724    -0.01308476     0.00514213
     0.00000000     0.00000000     0.00000000
     0.00000000     0.00000000     0.00000000
     0.00000000     0.00000000     0.00000000
     0.00000000     0.00000000     0.00000000
     0.00000000     0.00000000     0.00000000
     0.00000000     0.00000000     0.00000000
     0.00000000     0.00000000     0.00000000
     0.00000000     0.00000000     0.00000000
     0.00007285    -0.01425187     0.00522874
     0.00000000     0.00000000     0.00000000
     0.00000000     0.00000000     0.00000000
     0.00000000     0.00000000     0.00000000
     0.00000000     0.00000000     0.00000000
     0.00000000     0.00000000     0.00000000
     0.00000000     0.00000000     0.00000000
     0.00000000     0.00000000     0.00000000
     0.00000000     0.00000000     0.00000000
     0.00008061    -0.01201326     0.00503704
     0.00000000     0.00000000     0.00000000
     0.00000000     0.00000000     0.00000000
     0.00000000     0.00000000     0.00000000
     0.00000000     0.00000000     0.00000000
     0.00000000     0.00000000     0.00000000
     0.00000000     0.00000000     0.00000000
     0.00000000     0.00000000     0.00000000
     0.00000000     0.00000000     0.00000000
     0.00006694    -0.00705621     0.00328044
     0.00000000     0.00000000     0.00000000
     0.00000000     0.00000000     0.00000000
     0.00000000     0.00000000     0.00000000
     0.00000000     0.00000000     0.00000000
     0.00000000     0.00000000     0.00000000
     0.00000000     0.00000000     0.00000000
     0.00000000     0.00000000     0.00000000
     0.00000000     0.00000000     0.00000000
    -0.00110495    -0.00237534     0.00128594
    -0.01102353    -0.01499491     0.00945030
    -0.01482374    -0.01254580     0.00779040
    -0.01755142    -0.00852195     0.00509686
    -0.02022440    -0.00379911     0.00221102
    -0.02104428     0.00215331    -0.00155451
    -0.01933688     0.01362189    -0.00806209
    -0.01382605     0.01929704    -0.01844461
     0.03414190    -0.02413341    -0.00512446
     0.00001034     0.00079247     0.00123380
    -0.00011834     0.00577699     0.00889759
    -0.00202556     0.00395884     0.00425463
    -0.00347295     0.00124985     0.00009391
    -0.00584531    -0.00122389    -0.00299171
    -0.00890289    -0.00282814    -0.00298838
    -0.01558198    -0.00736182     0.00006288
    -0.02049519    -0.02347772    -0.00799060
     0.05638974     0.02960476    -0.03940674
     0.00000026     0.00145948     0.00209316
     0.00000000     0.00000000     0.00000000
     0.00000000     0.00000000     0.00000000
     0.00000000     0.00000000     0.00000000
     0.00000000     0.00000000     0.00000000
     0.00000000     0.00000000     0.00000000
     0.00000000     0.00000000     0.00000000
     0.00000000     0.00000000     0.00000000
     0.00000000     0.00000000     0.00000000
    -0.00000133     0.00194661     0.00369496
     0.00000000     0.00000000     0.00000000
     0.00000000     0.00000000     0.00000000
     0.00000000     0.00000000     0.00000000
     0.00000000     0.00000000     0.00000000
     0.00000000     0.00000000     0.00000000
     0.00000000     0.00000000     0.00000000
     0.00000000     0.00000000     0.00000000
     0.00000000     0.00000000     0.00000000
     0.00001217     0.00072766     0.00527388
     0.00000000     0.00000000     0.00000000
     0.00000000     0.00000000     0.00000000
     0.00000000     0.00000000     0.00000000
     0.00000000     0.00000000     0.00000000
     0.00000000     0.00000000     0.00000000
     0.00000000     0.00000000     0.00000000
     0.00000000     0.00000000     0.00000000
     0.00000000     0.00000000     0.00000000
     0.00002598    -0.00143094     0.00521630
     0.00000000     0.00000000     0.00000000
     0.00000000     0.00000000     0.00000000
     0.00000000     0.00000000     0.00000000
     0.00000000     0.00000000     0.00000000
     0.00000000     0.00000000     0.00000000
     0.00000000     0.00000000     0.00000000
     0.00000000     0.00000000     0.00000000
     0.00000000     0.00000000     0.00000000
     0.00003815    -0.00403636     0.00421210
     0.00000000     0.00000000     0.00000000
     0.00000000     0.00000000     0.00000000
     0.00000000     0.00000000     0.00000000
     0.00000000     0.00000000     0.00000000
     0.00000000     0.00000000     0.00000000
     0.00000000     0.00000000     0.00000000
     0.00000000     0.00000000     0.00000000
    -0.02104854     0.00984327    -0.00526410
     0.00005233    -0.00655435     0.00402441
     0.00000000     0.00000000     0.00000000
     0.00000000     0.00000000     0.00000000
     0.00000000     0.00000000     0.00000000
     0.00000000     0.00000000     0.00000000
     0.00000000     0.00000000     0.00000000
     0.00000000     0.00000000     0.00000000
     0.00000000     0.00000000     0.00000000
     0.00000000     0.00000000     0.00000000
     0.00005513    -0.00788852     0.00391571
     0.00000000     0.00000000     0.00000000
     0.00000000     0.00000000     0.00000000
     0.00000000     0.00000000     0.00000000
     0.00000000     0.00000000     0.00000000
     0.00000000     0.00000000     0.00000000
     0.00000000     0.00000000     0.00000000
     0.00000000     0.00000000     0.00000000
     0.00000000     0.00000000     0.00000000
     0.00004541    -0.00689526     0.00339999
     0.00000000     0.00000000     0.00000000
     0.00000000     0.00000000     0.00000000
     0.00000000     0.00000000     0.00000000
     0.00000000     0.00000000     0.00000000
     0.00000000     0.00000000     0.00000000
     0.00000000     0.00000000     0.00000000
     0.00000000     0.00000000     0.00000000
     0.00000000     0.00000000     0.00000000
     0.00003708    -0.00432017     0.00205321
     0.00000000     0.00000000     0.00000000
     0.00000000     0.00000000     0.00000000
     0.00000000     0.00000000     0.00000000
     0.00000000     0.00000000     0.00000000
     0.00000000     0.00000000     0.00000000
     0.00000000     0.00000000     0.00000000
     0.00000000     0.00000000     0.00000000
     0.00000000     0.00000000     0.00000000
    -0.00096469    -0.00237821     0.00126649
    -0.00919464    -0.01671391     0.01039566
    -0.01000314    -0.01327762     0.01009417
    -0.01311797    -0.01066692     0.00857024
    -0.01729191    -0.00710120     0.00695772
    -0.02112959    -0.00105536     0.00414138
    -0.01808602     0.00931540     0.00106760
    -0.01717623     0.02926699    -0.02131402
     0.02603563    -0.02063519    -0.00707426
     0.00008645     0.00040162     0.00061346
     0.00052770     0.00264501     0.00377392
    -0.00035941     0.00166676     0.00162464
    -0.00115553     0.00034292    -0.00012931
    -0.00241758    -0.00083502    -0.00133637
    -0.00388703    -0.00153994    -0.00121344
    -0.00722934    -0.00331974     0.00069801
    -0.01001105    -0.01387807    -0.00321304
     0.02764767     0.01675019    -0.02334912
     0.00025085     0.00077981     0.00111725
     0.00215566     0.00592127     0.00764834
     0.00063497     0.00344636     0.00345199
    -0.00120730     0.00056364     0.00003238
    -0.00385614    -0.00193503    -0.00215644
    -0.00690547    -0.00334666    -0.00193944
    -0.01323989    -0.00619516     0.00182491
    -0.01649986    -0.02904144    -0.00565418
     0.05828904     0.03720163    -0.05957378
     0.00047342     0.00064322     0.00123674
     0.00487093     0.00426656     0.00771714
     0.00726626     0.00085288     0.00534570
     0.00609205    -0.00024319     0.00217410
     0.00380335    -0.00125345    -0.00022501
     0.00009975    -0.00154981    -0.00088125
    -0.00483271    -0.00245545     0.00092236
    -0.00780782    -0.02390244    -0.00562080
     0.02661996     0.00044316    -0.04448358
     0.00076076     0.00018987     0.00144433
     0.00773430     0.00138962     0.00826071
     0.01122447     0.00029650     0.00710026
     0.01146278     0.00067948     0.00430755
     0.00965742     0.00184787     0.00187560
     0.00620707     0.00229532     0.00021408
     0.00276863     0.00182479    -0.00046725
    -0.00262700    -0.01362063    -0.00190423
     0.01244501    -0.00506645    -0.02396956
     0.00073862    -0.00034242     0.00127855
     0.00762179    -0.00185657     0.00697135
     0.01194161    -0.00128035     0.00692645
     0.01269773     0.00093280     0.00449708
     0.01181157     0.00368649     0.00206514
     0.00893152     0.00610904     0.00024183
     0.00296519     0.00642868    -0.00021142
    -0.00044099    -0.00660292     0.00056064
    -0.00073730     0.00231338     0.00239850
     0.00056408    -0.00091059     0.00101851
     0.00584729    -0.00530574     0.00551612
     0.00938825    -0.00410233     0.00554531
     0.01062912    -0.00072592     0.00357014
     0.01040120     0.00363529     0.00122314
     0.00844437     0.00837061    -0.00086246
     0.00538208     0.01188863    -0.00250984
    -0.00075349     0.00384746     0.00229410
    -0.00276568    -0.00196330     0.00315313
     0.00044858    -0.00157273     0.00106607
     0.00463884    -0.00940855     0.00610845
     0.00708029    -0.00747216     0.00559193
     0.00698886    -0.00406428     0.00312155
     0.00691147     0.00173946     0.00052967
     0.00537340     0.00899045    -0.00218152
     0.00284190     0.01529277    -0.00411371
    -0.00142882     0.02589230    -0.00249757
    -0.00814522    -0.02658968     0.01508918
     0.00017799    -0.00219635     0.00112123
     0.00178536    -0.01380894     0.00682718
     0.00252740    -0.01124843     0.00573344
     0.00113643    -0.00792216     0.00337287
    -0.00086034    -0.00197887     0.00069510
    -0.00223169     0.00750236    -0.00253664
    -0.00236797     0.01708522    -0.00526926
    -0.00451822     0.03897184    -0.01022537
    -0.00505453    -0.03016541     0.01634476
    -0.00012795    -0.00243295     0.00118976
    -0.00134250    -0.01648741     0.00805130
    -0.00225898    -0.01403028     0.00663211
    -0.00530470    -0.01149394     0.00471725
    -0.00900803    -0.00613947     0.00248073
    -0.01212655     0.00312749    -0.00042349
    -0.00948412     0.01544875    -0.00412457
    -0.00705953     0.04411359    -0.02065331
     0.00114478    -0.01585586     0.00653651
    -0.00057240    -0.00251995     0.00110265
    -0.00556825    -0.01854288     0.00857999
    -0.00644193    -0.01517226     0.00775594
    -0.01016964    -0.01310313     0.00658585
    -0.01496036    -0.00897980     0.00527097
    -0.01940229    -0.00177177     0.00374307
    -0.01580605     0.00955744     0.00161327
    -0.01238669     0.04104752    -0.02220552
     0.02531003    -0.02993137    -0.01298059
    -0.00046292    -0.00129577     0.00062322
    -0.00341285    -0.00808628     0.00435467
    -0.00368356    -0.00654142     0.00421553
    -0.00530836    -0.00560207     0.00371687
    -0.00748062    -0.00396968     0.00314168
    -0.00976814    -0.00100961     0.00227758
    -0.00845445     0.00418808     0.00127329
    -0.00768288     0.01777201    -0.01104086
     0.01220958    -0.01172218    -0.00500554
     0.00069179     0.00754721    -0.00893419
    -0.00429106     0.01179157    -0.00143060
    -0.02522764    -0.00673072     0.00035629
    -0.02848720    -0.00761471     0.00022556
    -0.02914053    -0.00781063    -0.00003029
    -0.02653292    -0.00713773    -0.00034646
    -0.02187781    -0.00590824    -0.00056603
    -0.01496087    -0.00406481    -0.00068811
    -0.00796793    -0.00218714    -0.00063980
    -0.00239690    -0.00067692    -0.00042552
     0.00016257    -0.00144383    -0.00005549
     0.00000000     0.00000000     0.00000000
     0.00000000     0.00000000     0.00000000
     0.00000000     0.00000000     0.00000000
     0.00000000     0.00000000     0.00000000
     0.00000000     0.00000000     0.00000000
     0.00000000     0.00000000     0.00000000
     0.00000000     0.00000000     0.00000000
     0.00000000     0.00000000     0.00000000
     0.00000000     0.00000000     0.00000000
     0.00000000     0.00000000     0.00000000
     0.00409278    -0.01527453     0.00001596
     0.00000000     0.00000000     0.00000000
     0.00000000     0.00000000     0.00000000
     0.00000000     0.00000000     0.00000000
     0.00000000     0.00000000     0.00000000
     0.00000000     0.00000000     0.00000000
     0.00000000     0.00000000     0.00000000
     0.00000000     0.00000000     0.00000000
     0.00000000     0.00000000     0.00000000
     0.00000000     0.00000000     0.00000000
     0.00000000     0.00000000     0.00000000
     0.01116900    -0.04168315     0.00077335
     0.00000000     0.00000000     0.00000000
     0.00000000     0.00000000     0.00000000
     0.00000000     0.00000000     0.00000000
     0.00000000     0.00000000     0.00000000
     0.00000000     0.00000000     0.00000000
     0.00000000     0.00000000     0.00000000
     0.00000000     0.00000000     0.00000000
     0.00000000     0.00000000     0.00000000
     0.00000000     0.00000000     0.00000000
     0.00000000     0.00000000     0.00000000
     0.01152931    -0.04302780     0.00175055
     0.00000000     0.00000000     0.00000000
     0.00000000     0.00000000     0.00000000
     0.00000000     0.00000000     0.00000000
     0.00000000     0.00000000     0.00000000
     0.00000000     0.00000000     0.00000000
     0.00000000     0.00000000     0.00000000
     0.00000000     0.00000000     0.00000000
     0.00000000     0.00000000     0.00000000
     0.00000000     0.00000000     0.00000000
     0.00000000     0.00000000     0.00000000
     0.00433984    -0.01619652     0.00199658
     0.08694507    -0.06345541     0.00323490
     0.03039281    -0.02604228     0.00280892
    -0.00280370    -0.00072588    -0.00031122
     0.00451031     0.00131253    -0.00127636
     0.01565532     0.00428047    -0.00105111
     0.02364031     0.00637532    -0.00050226
     0.02573387     0.00687240     0.00028259
     0.02197698     0.00580152     0.00107039
     0.01349621     0.00348889     0.00156385
     0.00472473     0.00116595     0.00122806
     0.00083416    -0.00137573     0.00037643
    -0.00234447     0.00791419    -0.03833550
    -0.00197338     0.01155900    -0.01315679
    -0.02306191    -0.00602921     0.00062471
    -0.02763595    -0.00724662     0.00073739
    -0.02901351    -0.00764461     0.00072486
    -0.02697859    -0.00731014    -0.00037305
    -0.02220550    -0.00607693    -0.00054337
    -0.01548348    -0.00434398    -0.00087781
    -0.00813140    -0.00237596    -0.00090527
    -0.00260711    -0.00087618    -0.00086597
     0.00011136    -0.00137586    -0.00014620
     0.00000000     0.00000000     0.00000000
     0.00000000     0.00000000     0.00000000
     0.00000000     0.00000000     0.00000000
     0.00000000     0.00000000     0.00000000
     0.00000000     0.00000000     0.00000000
     0.00000000     0.00000000     0.00000000
     0.00000000     0.00000000     0.00000000
     0.00000000     0.00000000     0.00000000
     0.00000000     0.00000000     0.00000000
     0.00000000     0.00000000     0.00000000
     0.00383475    -0.01431139     0.00001668
     0.00000000     0.00000000     0.00000000
     0.00000000     0.00000000     0.00000000
     0.00000000     0.00000000     0.00000000
     0.00000000     0.00000000     0.00000000
     0.00000000     0.00000000     0.00000000
     0.00000000     0.00000000     0.00000000
     0.00000000     0.00000000     0.00000000
     0.00000000     0.00000000     0.00000000
     0.00000000     0.00000000     0.00000000
     0.00000000     0.00000000     0.00000000
     0.01056084    -0.03941363     0.00345543
     0.00000000     0.00000000     0.00000000
     0.00000000     0.00000000     0.00000000
     0.00000000     0.00000000     0.00000000
     0.00000000     0.00000000     0.00000000
     0.00000000     0.00000000     0.00000000
     0.00000000     0.00000000     0.00000000
     0.00000000     0.00000000     0.00000000
     0.00000000     0.00000000     0.00000000
     0.00000000     0.00000000     0.00000000
     0.00000000     0.00000000     0.00000000
     0.01092100    -0.04075774     0.00789440
     0.00000000     0.00000000     0.00000000
     0.00000000     0.00000000     0.00000000
     0.00000000     0.00000000     0.00000000
     0.00000000     0.00000000     0.00000000
     0.00000000     0.00000000     0.00000000
     0.00000000     0.00000000     0.00000000
     0.00000000     0.00000000     0.00000000
     0.00000000     0.00000000     0.00000000
     0.00000000     0.00000000     0.00000000
     0.00000000     0.00000000     0.00000000
     0.00425488    -0.01587951     0.00898439
     0.08015748    -0.06067107     0.01160621
     0.03045016    -0.02740719     0.01029841
    -0.00282820    -0.00079617     0.00040223
     0.00522889     0.00197369    -0.00286745
     0.01631520     0.00478015    -0.00198169
     0.02431893     0.00669674    -0.00090695
     0.02615454     0.00671831     0.00154221
     0.02186045     0.00510171     0.00399387
     0.01330963     0.00248170     0.00578634
     0.00454072     0.00035972     0.00462082
     0.00081070    -0.00146222     0.00159271
     0.00761966    -0.00947043    -0.07294326
     0.00382491     0.00651725    -0.03154614
    -0.01768432    -0.00383149     0.00245336
    -0.02493896    -0.00560692     0.00298229
    -0.02820510    -0.00668974     0.00244445
    -0.02682494    -0.00718775    -0.00003106
    -0.02308936    -0.00629082    -0.00027923
    -0.01614082    -0.00476500    -0.00120798
    -0.00875753    -0.00281499    -0.00128879
    -0.00259373    -0.00128140    -0.00164283
     0.00005361    -0.00116252    -0.00032340
     0.00000000     0.00000000     0.00000000
     0.00000000     0.00000000     0.00000000
     0.00000000     0.00000000     0.00000000
     0.00000000     0.00000000     0.00000000
     0.00000000     0.00000000     0.00000000
     0.00000000     0.00000000     0.00000000
     0.00000000     0.00000000     0.00000000
     0.00000000     0.00000000     0.00000000
     0.00000000     0.00000000     0.00000000
     0.00000000     0.00000000     0.00000000
     0.00306564    -0.01144100    -0.00041553
     0.00000000     0.00000000     0.00000000
     0.00000000     0.00000000     0.00000000
     0.00000000     0.00000000     0.00000000
     0.00000000     0.00000000     0.00000000
     0.00000000     0.00000000     0.00000000
     0.00000000     0.00000000     0.00000000
     0.00000000     0.00000000     0.00000000
     0.00000000     0.00000000     0.00000000
     0.00000000     0.00000000     0.00000000
     0.00000000     0.00000000     0.00000000
     0.00854920    -0.03190603     0.00509325
     0.00000000     0.00000000     0.00000000
     0.00000000     0.00000000     0.00000000
     0.00000000     0.00000000     0.00000000
     0.00000000     0.00000000     0.00000000
     0.00000000     0.00000000     0.00000000
     0.00000000     0.00000000     0.00000000
     0.00000000     0.00000000     0.00000000
     0.00000000     0.00000000     0.00000000
     0.00000000     0.00000000     0.00000000
     0.00000000     0.00000000     0.00000000
     0.00923737    -0.03447441     0.01222607
     0.00000000     0.00000000     0.00000000
     0.00000000     0.00000000     0.00000000
     0.00000000     0.00000000     0.00000000
     0.00000000     0.00000000     0.00000000
     0.00000000     0.00000000     0.00000000
     0.00000000     0.00000000     0.00000000
     0.00000000     0.00000000     0.00000000
     0.00000000     0.00000000     0.00000000
     0.00000000     0.00000000     0.00000000
     0.00000000     0.00000000     0.00000000
     0.00404983    -0.01511410     0.01382319
     0.06722848    -0.05596110     0.01942060
     0.02657394    -0.02894776     0.01483454
    -0.00408029    -0.00106944     0.00007900
     0.00515929     0.00324102    -0.00516592
     0.01770056     0.00592871    -0.00332204
     0.02551181     0.00714393    -0.00090835
     0.02601590     0.00556214     0.00395464
     0.02066910     0.00262001     0.00828086
     0.01180431    -0.00073227     0.01112273
     0.00406990    -0.00176675     0.00821362
     0.00077062    -0.00169204     0.00256392
     0.02133394    -0.02526824    -0.10549142
     0.01319622    -0.00528867    -0.05485101
    -0.01375068    -0.00101969     0.00492613
    -0.02093365    -0.00288255     0.00504195
    -0.02427595    -0.00387958     0.00481323
    -0.02514720    -0.00587058     0.00154725
    -0.02312943    -0.00560678     0.00106423
    -0.01683749    -0.00487534    -0.00067425
    -0.00880021    -0.00280981    -0.00083015
    -0.00255066    -0.00169330    -0.00187515
    -0.00005634    -0.00078900    -0.00041222
     0.00000000     0.00000000     0.00000000
     0.00000000     0.00000000     0.00000000
     0.00000000     0.00000000     0.00000000
     0.00000000     0.00000000     0.00000000
     0.00000000     0.00000000     0.00000000
     0.00000000     0.00000000     0.00000000
     0.00000000     0.00000000     0.00000000
     0.00000000     0.00000000     0.00000000
     0.00000000     0.00000000     0.00000000
     0.00000000     0.00000000     0.00000000
     0.00182991    -0.00682924    -0.00090767
     0.00000000     0.00000000     0.00000000
     0.00000000     0.00000000     0.00000000
     0.00000000     0.00000000     0.00000000
     0.00000000     0.00000000     0.00000000
     0.00000000     0.00000000     0.00000000
     0.00000000     0.00000000     0.00000000
     0.00000000     0.00000000     0.00000000
     0.00000000     0.00000000     0.00000000
     0.00000000     0.00000000     0.00000000
     0.00000000     0.00000000     0.00000000
     0.00544159    -0.02030799     0.00398760
     0.00000000     0.00000000     0.00000000
     0.00000000     0.00000000     0.00000000
     0.00000000     0.00000000     0.00000000
     0.00000000     0.00000000     0.00000000
     0.00000000     0.00000000     0.00000000
     0.00000000     0.00000000     0.00000000
     0.00000000     0.00000000     0.00000000
     0.00000000     0.00000000     0.00000000
     0.00000000     0.00000000     0.00000000
     0.00000000     0.00000000     0.00000000
     0.00647860    -0.02417846     0.01047035
     0.00000000     0.00000000     0.00000000
     0.00000000     0.00000000     0.00000000
     0.00000000     0.00000000     0.00000000
     0.00000000     0.00000000     0.00000000
     0.00000000     0.00000000     0.00000000
     0.00000000     0.00000000     0.00000000
     0.00000000     0.00000000     0.00000000
     0.00000000     0.00000000     0.00000000
     0.00000000     0.00000000     0.00000000
     0.00000000     0.00000000     0.00000000
     0.00343389    -0.01281537     0.01229294
     0.04642527    -0.04838417     0.03047362
     0.01670394    -0.02740794     0.01316561
    -0.01390357    -0.00252687    -0.00197372
     0.00285813     0.00535710    -0.00838586
     0.01865450     0.00685105    -0.00341793
     0.02531408     0.00664165     0.00020639
     0.02345984     0.00245950     0.00702959
     0.01646916    -0.00190585     0.01168949
     0.00863474    -0.00552669     0.01456466
     0.00276805    -0.00449387     0.00976223
     0.00060452    -0.00183704     0.00254462
     0.04359588    -0.01801325    -0.12861292
     0.01631038    -0.02276343    -0.06640316
    -0.01644011    -0.00116715     0.00430180
    -0.01255436    -0.00072306     0.00350529
    -0.01696769     0.00024590     0.00625228
    -0.01969121    -0.00332856     0.00251972
    -0.02088295    -0.00374704     0.00239549
    -0.01520328    -0.00428881    -0.00028963
    -0.00798811    -0.00239499    -0.00033662
    -0.00137245    -0.00132906    -0.00127747
    -0.00001678    -0.00034267    -0.00027814
     0.00000000     0.00000000     0.00000000
     0.00000000     0.00000000     0.00000000
     0.00000000     0.00000000     0.00000000
     0.00000000     0.00000000     0.00000000
     0.00000000     0.00000000     0.00000000
     0.00000000     0.00000000     0.00000000
     0.00000000     0.00000000     0.00000000
     0.00000000     0.00000000     0.00000000
     0.00000000     0.00000000     0.00000000
     0.00000000     0.00000000     0.00000000
     0.00062775    -0.00234277    -0.00070866
     0.00000000     0.00000000     0.00000000
     0.00000000     0.00000000     0.00000000
     0.00000000     0.00000000     0.00000000
     0.00000000     0.00000000     0.00000000
     0.00000000     0.00000000     0.00000000
     0.00000000     0.00000000     0.00000000
     0.00000000     0.00000000     0.00000000
     0.00000000     0.00000000     0.00000000
     0.00000000     0.00000000     0.00000000
     0.00000000     0.00000000     0.00000000
     0.00212673    -0.00793696     0.00133729
     0.00000000     0.00000000     0.00000000
     0.00000000     0.00000000     0.00000000
     0.00000000     0.00000000     0.00000000
     0.00000000     0.00000000     0.00000000
     0.00000000     0.00000000     0.00000000
     0.00000000     0.00000000     0.00000000
     0.00000000     0.00000000     0.00000000
     0.00000000     0.00000000     0.00000000
     0.00000000     0.00000000     0.00000000
     0.00000000     0.00000000     0.00000000
     0.00326183    -0.01217322     0.00460959
     0.00000000     0.00000000     0.00000000
     0.00000000     0.00000000     0.00000000
     0.00000000     0.00000000     0.00000000
     0.00000000     0.00000000     0.00000000
     0.00000000     0.00000000     0.00000000
     0.00000000     0.00000000     0.00000000
     0.00000000     0.00000000     0.00000000
     0.00000000     0.00000000     0.00000000
     0.00000000     0.00000000     0.00000000
     0.00000000     0.00000000     0.00000000
     0.00207574    -0.00774669     0.00635175
     0.04193187    -0.05255669     0.03131152
     0.00016722    -0.02580612     0.01779218
    -0.02989780    -0.00200958    -0.00764955
     0.00051953     0.00850031    -0.01089018
     0.01653381     0.00680078    -0.00310104
     0.02137910     0.00500049     0.00092744
     0.01675434    -0.00153088     0.00787699
     0.00996858    -0.00575650     0.01106901
     0.00399634    -0.00894562     0.01318460
     0.00181410    -0.00597219     0.00850841
     0.00041621    -0.00149393     0.00170445
     0.03178810    -0.00993927    -0.06767652
     0.01178687    -0.01477916    -0.03334382
    -0.00923498    -0.00056680     0.00162485
    -0.00616534     0.00022262     0.00155050
    -0.00872221     0.00113526     0.00290235
    -0.01028719    -0.00116710     0.00131226
    -0.01116399    -0.00167436     0.00110973
    -0.00806272    -0.00233817    -0.00014244
    -0.00421238    -0.00142633    -0.00023200
    -0.00059084    -0.00082667    -0.00055417
    -0.00001898    -0.00014533    -0.00011155
     0.09734992    -0.04212410    -0.16099981
     0.03636089    -0.03762875    -0.07481638
    -0.01932493    -0.00125847     0.00231949
    -0.01306918     0.00347408     0.00335222
    -0.02066882     0.00447991     0.00523553
    -0.02564585    -0.00199505     0.00252042
    -0.02792866    -0.00519778     0.00149185
    -0.02046353    -0.00736664    -0.00071058
    -0.01072073    -0.00549543    -0.00103634
    -0.00169970    -0.00306068    -0.00122864
    -0.00001683    -0.00054173    -0.00022800
     0.03362251    -0.10466906    -0.02727615
     0.02351209    -0.02867886    -0.01949929
     0.01212354     0.00358048    -0.00010956
     0.00884040     0.01759452     0.00207036
    -0.00314895     0.01016358     0.00151452
    -0.01301751     0.00061413     0.00061392
    -0.01660587    -0.01024431    -0.00079675
    -0.01448002    -0.01411480    -0.00136480
    -0.00831779    -0.01381379    -0.00157601
    -0.00256464    -0.00748328    -0.00089346
    -0.00001933    -0.00154700     0.00002386
     0.03698048    -0.12230583     0.01426949
     0.03048180    -0.06209801     0.00395087
     0.02029555     0.02179377    -0.00273088
     0.01898434     0.02814017    -0.00372727
     0.01506144     0.02019300    -0.00264682
     0.00911758     0.00344960    -0.00019685
     0.00231510    -0.00895465     0.00149423
    -0.00105309    -0.01834842     0.00294314
    -0.00111147    -0.01819640     0.00296046
     0.00040073    -0.01170592     0.00199908
     0.00041019    -0.00254844     0.00067634
     0.04393976    -0.09131136     0.02948342
    -0.00102985    -0.05277519     0.02440279
    -0.03864416     0.00781362    -0.00918919
     0.00174866     0.02017134    -0.01003122
     0.02164244     0.01360897    -0.00364652
     0.02727525     0.00544554     0.00103366
     0.02060847    -0.00691393     0.00655484
     0.01223232    -0.01500595     0.00943645
     0.00519502    -0.01887284     0.01058772
     0.00296077    -0.01225614     0.00680079
     0.00055246    -0.00217642     0.00140181
     0.01954633    -0.03102589     0.01428881
    -0.00224691    -0.01621159     0.01021728
    -0.01810296     0.00063499    -0.00449726
    -0.00026845     0.00622764    -0.00523983
     0.00860854     0.00420100    -0.00155672
     0.01128178     0.00232649     0.00056751
     0.00870706    -0.00204151     0.00364691
     0.00517344    -0.00468765     0.00505518
     0.00211611    -0.00643823     0.00584815
     0.00113464    -0.00418308     0.00374721
     0.00020004    -0.00073554     0.00065762
     0.16562929    -0.04410499    -0.00336968
     0.18050641    -0.04855552     0.00231357
     0.13696324    -0.03703988     0.00417008
     0.08348117    -0.02264866     0.00343726
     0.04559904    -0.01240490     0.00229321
     0.02387958    -0.00646653     0.00083570
     0.01992740    -0.00533698    -0.00003200
     0.01010666    -0.00239466    -0.00001290
     0.00000000     0.00000000     0.00000000
     0.00000000     0.00000000     0.00000000
     0.00000000     0.00000000     0.00000000
     0.00000000     0.00000000     0.00000000
     0.00000000     0.00000000     0.00000000
     0.00000000     0.00000000     0.00000000
     0.00000000     0.00000000     0.00000000
     0.00000000     0.00000000     0.00000000
     0.00079432     0.00296439     0.00011451
     0.00000000     0.00000000     0.00000000
     0.00000000     0.00000000     0.00000000
     0.00000000     0.00000000     0.00000000
     0.00000000     0.00000000     0.00000000
     0.00000000     0.00000000     0.00000000
     0.00000000     0.00000000     0.00000000
     0.00000000     0.00000000     0.00000000
     0.00000000     0.00000000     0.00000000
     0.00173394     0.00647119     0.00087013
     0.00000000     0.00000000     0.00000000
     0.00000000     0.00000000     0.00000000
     0.00000000     0.00000000     0.00000000
     0.00000000     0.00000000     0.00000000
     0.00000000     0.00000000     0.00000000
     0.00000000     0.00000000     0.00000000
     0.00000000     0.00000000     0.00000000
     0.00000000     0.00000000     0.00000000
     0.00129123     0.00481902     0.00115493
     0.00000000     0.00000000     0.00000000
     0.00000000     0.00000000     0.00000000
     0.00000000     0.00000000     0.00000000
     0.00000000     0.00000000     0.00000000
     0.00000000     0.00000000     0.00000000
     0.00000000     0.00000000     0.00000000
     0.00000000     0.00000000     0.00000000
     0.00000000     0.00000000     0.00000000
     0.00029795     0.00111195     0.00067887
     0.07003627     0.02173002     0.00492526
    -0.04009883     0.01084416     0.00122525
    -0.04282387     0.01143332    -0.00050512
    -0.03003265     0.00795584    -0.00112070
    -0.00649328     0.00162328    -0.00143135
     0.01227691    -0.00335151    -0.00075988
     0.02293375    -0.00614329     0.00002093
     0.02183541    -0.00581680     0.00041657
     0.01026560    -0.00266418     0.00012685
     0.01418757     0.00290422    -0.02733942
     0.17462970    -0.04514166    -0.00858510
     0.18447908    -0.05078956     0.00669120
     0.13320977    -0.03806753     0.01223918
     0.08000509    -0.02339243     0.01021095
     0.04119242    -0.01236201     0.00703089
     0.02333599    -0.00674529     0.00264425
     0.01846057    -0.00494041     0.00001100
     0.00988904    -0.00232041    -0.00002827
     0.00000000     0.00000000     0.00000000
     0.00000000     0.00000000     0.00000000
     0.00000000     0.00000000     0.00000000
     0.00000000     0.00000000     0.00000000
     0.00000000     0.00000000     0.00000000
     0.00000000     0.00000000     0.00000000
     0.00000000     0.00000000     0.00000000
     0.00000000     0.00000000     0.00000000
     0.00082400     0.00307518     0.00046517
     0.00000000     0.00000000     0.00000000
     0.00000000     0.00000000     0.00000000
     0.00000000     0.00000000     0.00000000
     0.00000000     0.00000000     0.00000000
     0.00000000     0.00000000     0.00000000
     0.00000000     0.00000000     0.00000000
     0.00000000     0.00000000     0.00000000
     0.00000000     0.00000000     0.00000000
     0.00183553     0.00685027     0.00381974
     0.00000000     0.00000000     0.00000000
     0.00000000     0.00000000     0.00000000
     0.00000000     0.00000000     0.00000000
     0.00000000     0.00000000     0.00000000
     0.00000000     0.00000000     0.00000000
     0.00000000     0.00000000     0.00000000
     0.00000000     0.00000000     0.00000000
     0.00000000     0.00000000     0.00000000
     0.00142380     0.00531377     0.00510892
     0.00000000     0.00000000     0.00000000
     0.00000000     0.00000000     0.00000000
     0.00000000     0.00000000     0.00000000
     0.00000000     0.00000000     0.00000000
     0.00000000     0.00000000     0.00000000
     0.00000000     0.00000000     0.00000000
     0.00000000     0.00000000     0.00000000
     0.00000000     0.00000000     0.00000000
     0.00039972     0.00149173     0.00300559
     0.07217860     0.02430132     0.00937103
    -0.03759153     0.01097978     0.00467755
    -0.04577668     0.01211197    -0.00078728
    -0.03054644     0.00784037    -0.00152203
    -0.00877692     0.00178799    -0.00280727
     0.01237984    -0.00347964    -0.00063268
     0.02112192    -0.00546002     0.00115497
     0.02242627    -0.00565358     0.00196599
     0.01037057    -0.00260645     0.00056444
     0.02946068     0.01307335    -0.05789283
     0.19839062    -0.04889333    -0.01248810
     0.18410709    -0.05602624     0.01854220
     0.12055435    -0.04086092     0.02422889
     0.06474422    -0.02387464     0.01860578
     0.03304645    -0.01281508     0.01138252
     0.01815896    -0.00629200     0.00413051
     0.01830011    -0.00474899    -0.00040475
     0.00982648    -0.00225414    -0.00014094
     0.00000000     0.00000000     0.00000000
     0.00000000     0.00000000     0.00000000
     0.00000000     0.00000000     0.00000000
     0.00000000     0.00000000     0.00000000
     0.00000000     0.00000000     0.00000000
     0.00000000     0.00000000     0.00000000
     0.00000000     0.00000000     0.00000000
     0.00000000     0.00000000     0.00000000
     0.00085635     0.00319586     0.00032871
     0.00000000     0.00000000     0.00000000
     0.00000000     0.00000000     0.00000000
     0.00000000     0.00000000     0.00000000
     0.00000000     0.00000000     0.00000000
     0.00000000     0.00000000     0.00000000
     0.00000000     0.00000000     0.00000000
     0.00000000     0.00000000     0.00000000
     0.00000000     0.00000000     0.00000000
     0.00186206     0.00694915     0.00511180
     0.00000000     0.00000000     0.00000000
     0.00000000     0.00000000     0.00000000
     0.00000000     0.00000000     0.00000000
     0.00000000     0.00000000     0.00000000
     0.00000000     0.00000000     0.00000000
     0.00000000     0.00000000     0.00000000
     0.00000000     0.00000000     0.00000000
     0.00000000     0.00000000     0.00000000
     0.00161332     0.00602086     0.00712780
     0.00000000     0.00000000     0.00000000
     0.00000000     0.00000000     0.00000000
     0.00000000     0.00000000     0.00000000
     0.00000000     0.00000000     0.00000000
     0.00000000     0.00000000     0.00000000
     0.00000000     0.00000000     0.00000000
     0.00000000     0.00000000     0.00000000
     0.00000000     0.00000000     0.00000000
     0.00062106     0.00231783     0.00427750
     0.09092845     0.03413849     0.01571083
    -0.03865001     0.01494174     0.01288197
    -0.04895013     0.01300503    -0.00031606
    -0.03614763     0.00844389    -0.00342460
    -0.01081530     0.00130774    -0.00445052
     0.00824914    -0.00263171    -0.00113355
     0.02023643    -0.00454526     0.00254550
     0.02010472    -0.00421627     0.00338366
     0.00996356    -0.00229415     0.00086781
     0.05888399     0.02937874    -0.09279026
     0.22549801    -0.05936641    -0.00284573
     0.16656442    -0.06332348     0.03428531
     0.09137407    -0.04194509     0.03230254
     0.04488844    -0.02390358     0.02211060
     0.01970489    -0.01174572     0.01208754
     0.01454626    -0.00592651     0.00382912
     0.01531642    -0.00355592    -0.00099390
     0.00910669    -0.00206287    -0.00025023
     0.00000000     0.00000000     0.00000000
     0.00000000     0.00000000     0.00000000
     0.00000000     0.00000000     0.00000000
     0.00000000     0.00000000     0.00000000
     0.00000000     0.00000000     0.00000000
     0.00000000     0.00000000     0.00000000
     0.00000000     0.00000000     0.00000000
     0.00000000     0.00000000     0.00000000
     0.00069799     0.00260493    -0.00011460
     0.00000000     0.00000000     0.00000000
     0.00000000     0.00000000     0.00000000
     0.00000000     0.00000000     0.00000000
     0.00000000     0.00000000     0.00000000
     0.00000000     0.00000000     0.00000000
     0.00000000     0.00000000     0.00000000
     0.00000000     0.00000000     0.00000000
     0.00000000     0.00000000     0.00000000
     0.00151920     0.00566963     0.00356966
     0.00000000     0.00000000     0.00000000
     0.00000000     0.00000000     0.00000000
     0.00000000     0.00000000     0.00000000
     0.00000000     0.00000000     0.00000000
     0.00000000     0.00000000     0.00000000
     0.00000000     0.00000000     0.00000000
     0.00000000     0.00000000     0.00000000
     0.00000000     0.00000000     0.00000000
     0.00144688     0.00539976     0.00528583
     0.00000000     0.00000000     0.00000000
     0.00000000     0.00000000     0.00000000
     0.00000000     0.00000000     0.00000000
     0.00000000     0.00000000     0.00000000
     0.00000000     0.00000000     0.00000000
     0.00000000     0.00000000     0.00000000
     0.00000000     0.00000000     0.00000000
     0.00000000     0.00000000     0.00000000
     0.00068501     0.00255652     0.00373493
     0.10825565     0.05293399     0.02603996
    -0.04445484     0.02453885     0.02333253
    -0.05589492     0.01512305     0.00023274
    -0.04075767     0.00835922    -0.00466897
    -0.01740720     0.00150358    -0.00581982
     0.00590683    -0.00200732    -0.00077434
     0.01493919    -0.00227407     0.00323451
     0.02006211    -0.00320488     0.00404982
     0.00972345    -0.00206588     0.00090416
     0.10873623     0.03426308    -0.10959344
     0.22609420    -0.07861081     0.02275483
     0.11078481    -0.05890788     0.03827014
     0.05917405    -0.03951347     0.03102169
     0.01915218    -0.01896836     0.01828177
     0.01186200    -0.01030999     0.00941199
     0.00715084    -0.00352816     0.00217057
     0.01441227    -0.00298230    -0.00115020
     0.00805683    -0.00190909    -0.00024867
     0.00000000     0.00000000     0.00000000
     0.00000000     0.00000000     0.00000000
     0.00000000     0.00000000     0.00000000
     0.00000000     0.00000000     0.00000000
     0.00000000     0.00000000     0.00000000
     0.00000000     0.00000000     0.00000000
     0.00000000     0.00000000     0.00000000
     0.00000000     0.00000000     0.00000000
     0.00030761     0.00114803    -0.00041765
     0.00000000     0.00000000     0.00000000
     0.00000000     0.00000000     0.00000000
     0.00000000     0.00000000     0.00000000
     0.00000000     0.00000000     0.00000000
     0.00000000     0.00000000     0.00000000
     0.00000000     0.00000000     0.00000000
     0.00000000     0.00000000     0.00000000
     0.00000000     0.00000000     0.00000000
     0.00080828     0.00301658     0.00106560
     0.00000000     0.00000000     0.00000000
     0.00000000     0.00000000     0.00000000
     0.00000000     0.00000000     0.00000000
     0.00000000     0.00000000     0.00000000
     0.00000000     0.00000000     0.00000000
     0.00000000     0.00000000     0.00000000
     0.00000000     0.00000000     0.00000000
     0.00000000     0.00000000     0.00000000
     0.00087891     0.00328015     0.00216774
     0.00000000     0.00000000     0.00000000
     0.00000000     0.00000000     0.00000000
     0.00000000     0.00000000     0.00000000
     0.00000000     0.00000000     0.00000000
     0.00000000     0.00000000     0.00000000
     0.00000000     0.00000000     0.00000000
     0.00000000     0.00000000     0.00000000
     0.00000000     0.00000000     0.00000000
     0.00047344     0.00176688     0.00212382
     0.10473885     0.07653611     0.04031937
    -0.06221940     0.03606808     0.02549500
    -0.05066026     0.01365434     0.00005010
    -0.04865413     0.00875145    -0.00553748
    -0.01626988    -0.00030862    -0.00613743
    -0.00202085     0.00036120    -0.00022293
     0.01362726    -0.00170280     0.00256737
     0.01348216    -0.00077194     0.00373939
     0.00780510    -0.00154270     0.00071035
     0.06977122     0.03713018    -0.05455603
     0.12137443    -0.04935249     0.01384169
     0.05408220    -0.03550446     0.01754235
     0.02845706    -0.02515181     0.01455052
     0.00774296    -0.01149402     0.00787749
     0.00558404    -0.00659140     0.00423276
     0.00319239    -0.00176815     0.00077368
     0.00783704    -0.00144413    -0.00054505
     0.00573292    -0.00139363    -0.00011778
     0.20502013     0.17811770    -0.15348119
     0.27227788    -0.12191630     0.02594029
     0.12153405    -0.09536517     0.03238532
     0.06067329    -0.07007117     0.02761494
     0.01603316    -0.03271413     0.01455936
     0.01196130    -0.01869653     0.00796839
     0.00879334    -0.00474378     0.00127420
     0.02015753    -0.00321476    -0.00108528
     0.01118114    -0.00256578    -0.00020744
     0.10515175     0.29346932    -0.06802066
    -0.00167211    -0.00935684     0.00247385
    -0.00509400    -0.06582913     0.01092496
    -0.01748638    -0.04914701     0.00872386
    -0.00857525    -0.03224093     0.00555413
    -0.00096776    -0.01463479     0.00246854
     0.01112388    -0.00498846     0.00040315
     0.01788981    -0.00093714    -0.00052531
     0.01099592    -0.00207489     0.00001610
     0.10335778     0.24798290    -0.00025706
    -0.06283834     0.05178071     0.00638188
    -0.07724381    -0.01376876    -0.00447795
    -0.04899385    -0.02402588    -0.00530386
    -0.02671853    -0.01797312    -0.00355255
    -0.00089630    -0.01010573    -0.00142472
     0.01097927    -0.00174285     0.00031405
     0.02128432    -0.00040129     0.00089795
     0.01147273    -0.00201621     0.00032457
     0.13321731     0.17216781     0.02621725
    -0.08838926     0.05916182     0.01863801
    -0.07204495     0.01855803     0.00037000
    -0.07009398     0.00241763    -0.00760811
    -0.02392113    -0.00444829    -0.00527402
    -0.00469012    -0.00205693    -0.00138344
     0.01845652    -0.00095302     0.00212074
     0.01843519     0.00060418     0.00289588
     0.01075981    -0.00200253     0.00057772
     0.05408861     0.05336424     0.01789583
    -0.03502176     0.02223088     0.01083747
    -0.02675554     0.00792441     0.00055721
    -0.02750893     0.00351935    -0.00313977
    -0.00876112    -0.00081430    -0.00265713
    -0.00193863     0.00007408    -0.00033455
     0.00745155    -0.00057852     0.00117629
     0.00677069     0.00013056     0.00162989
     0.00541748    -0.00110478     0.00030255
     0.00000000     0.00000000     0.00000000
     0.00000000     0.00000000     0.00000000
     0.00000000     0.00000000     0.00000000
     0.00000000     0.00000000     0.00000000
     0.00000000     0.00000000     0.00000000
     0.00000000     0.00000000     0.00000000
     0.00000000     0.00000000     0.00000000
     0.00000000     0.00000000     0.00000000
     0.00000000     0.00000000     0.00000000
     0.00000000     0.00000000     0.00000000
     0.00000000     0.00000000     0.00000000
     0.00000000     0.00000000     0.00000000
     0.00000000     0.00000000     0.00000000
     0.00000000     0.00000000     0.00000000
     0.00000000     0.00000000     0.00000000
     0.00000000     0.00000000     0.00000000
     0.00000000     0.00000000     0.00000000
     0.00000000     0.00000000     0.00000000
     0.00000000     0.00000000     0.00000000
     0.00000000     0.00000000     0.00000000
     0.00000000     0.00000000     0.00000000
     0.00000000     0.00000000     0.00000000
     0.00000000     0.00000000     0.00000000
     0.00000000     0.00000000     0.00000000
     0.00000000     0.00000000     0.00000000
     0.00000000     0.00000000     0.00000000
     0.00000000     0.00000000     0.00000000
     0.00000000     0.00000000     0.00000000
     0.00000000     0.00000000     0.00000000
     0.00000000     0.00000000     0.00000000
     0.00000000     0.00000000     0.00000000
     0.00000000     0.00000000     0.00000000
     0.00000000     0.00000000     0.00000000
     0.00000000     0.00000000     0.00000000
     0.00000000     0.00000000     0.00000000
     0.00000000     0.00000000     0.00000000
     0.00000000     0.00000000     0.00000000
     0.00000000     0.00000000     0.00000000
     0.00000000     0.00000000     0.00000000
     0.00000000     0.00000000     0.00000000
     0.00000000     0.00000000     0.00000000
     0.00000000     0.00000000     0.00000000
     0.00000000     0.00000000     0.00000000
     0.00000000     0.00000000     0.00000000
     0.00000000     0.00000000     0.00000000
     0.00000000     0.00000000     0.00000000
     0.00000000     0.00000000     0.00000000
     0.00000000     0.00000000     0.00000000
     0.00000000     0.00000000     0.00000000
     0.00000000     0.00000000     0.00000000
     0.00000000     0.00000000     0.00000000
     0.00000000     0.00000000     0.00000000
     0.00000000     0.00000000     0.00000000
     0.00000000     0.00000000     0.00000000
     0.00000000     0.00000000     0.00000000
     0.00000000     0.00000000     0.00000000
     0.00000000     0.00000000     0.00000000
     0.00000000     0.00000000     0.00000000
     0.00000000     0.00000000     0.00000000
     0.00000000     0.00000000     0.00000000
     0.00000000     0.00000000     0.00000000
     0.00000000     0.00000000     0.00000000
     0.00000000     0.00000000     0.00000000
     0.00000000     0.00000000     0.00000000
     0.00000000     0.00000000     0.00000000
     0.00000000     0.00000000     0.00000000
     0.00000000     0.00000000     0.00000000
     0.00000000     0.00000000     0.00000000
     0.00000000     0.00000000     0.00000000
     0.00000000     0.00000000     0.00000000
     0.00000000     0.00000000     0.00000000
     0.00000000     0.00000000     0.00000000
     0.00000000     0.00000000     0.00000000
     0.00000000     0.00000000     0.00000000
     0.00000000     0.00000000     0.00000000
     0.00000000     0.00000000     0.00000000
     0.00000000     0.00000000     0.00000000
     0.00000000     0.00000000     0.00000000
     0.00000000     0.00000000     0.00000000
     0.00000000     0.00000000     0.00000000
     0.00000000     0.00000000     0.00000000
     0.00000000     0.00000000     0.00000000
     0.00000000     0.00000000     0.00000000
     0.00000000     0.00000000     0.00000000
     0.00000000     0.00000000     0.00000000
     0.00000000     0.00000000     0.00000000
     0.00000000     0.00000000     0.00000000
     0.00000000     0.00000000     0.00000000
     0.00000000     0.00000000     0.00000000
     0.00000000     0.00000000     0.00000000
     0.00000000     0.00000000     0.00000000
     0.00000000     0.00000000     0.00000000
     0.00000000     0.00000000     0.00000000
     0.00000000     0.00000000     0.00000000
     0.00000000     0.00000000     0.00000000
     0.00000000     0.00000000     0.00000000
     0.00000000     0.00000000     0.00000000
     0.00000000     0.00000000     0.00000000
     0.00000000     0.00000000     0.00000000
     0.00000000     0.00000000     0.00000000
     0.00000000     0.00000000     0.00000000
     0.00000000     0.00000000     0.00000000
     0.00000000     0.00000000     0.00000000
     0.00000000     0.00000000     0.00000000
     0.00000000     0.00000000     0.00000000
     0.00000000     0.00000000     0.00000000
     0.00000000     0.00000000     0.00000000
     0.00000000     0.00000000     0.00000000
     0.00000000     0.00000000     0.00000000
     0.00000000     0.00000000     0.00000000
     0.00000000     0.00000000     0.00000000
     0.00000000     0.00000000     0.00000000
     0.00000000     0.00000000     0.00000000
     0.00000000     0.00000000     0.00000000
     0.00000000     0.00000000     0.00000000
     0.00000000     0.00000000     0.00000000
     0.00000000     0.00000000     0.00000000
     0.00000000     0.00000000     0.00000000
     0.00000000     0.00000000     0.00000000
     0.00000000     0.00000000     0.00000000
     0.00000000     0.00000000     0.00000000
     0.00000000     0.00000000     0.00000000
     0.00000000     0.00000000     0.00000000
     0.00000000     0.00000000     0.00000000
     0.00000000     0.00000000     0.00000000
     0.00000000     0.00000000     0.00000000
     0.00000000     0.00000000     0.00000000
     0.00000000     0.00000000     0.00000000
     0.00000000     0.00000000     0.00000000
     0.00000000     0.00000000     0.00000000
     0.00000000     0.00000000     0.00000000
     0.00000000     0.00000000     0.00000000
     0.00000000     0.00000000     0.00000000
     0.00000000     0.00000000     0.00000000
     0.00000000     0.00000000     0.00000000
     0.00000000     0.00000000     0.00000000
     0.00000000     0.00000000     0.00000000
     0.00000000     0.00000000     0.00000000
     0.00000000     0.00000000     0.00000000
     0.00000000     0.00000000     0.00000000
     0.00000000     0.00000000     0.00000000
     0.00000000     0.00000000     0.00000000
     0.00000000     0.00000000     0.00000000
     0.00000000     0.00000000     0.00000000
     0.00000000     0.00000000     0.00000000
     0.00000000     0.00000000     0.00000000
     0.00000000     0.00000000     0.00000000
     0.00000000     0.00000000     0.00000000
     0.00000000     0.00000000     0.00000000
     0.00000000     0.00000000     0.00000000
     0.00000000     0.00000000     0.00000000
     0.00000000     0.00000000     0.00000000
     0.00000000     0.00000000     0.00000000
     0.00000000     0.00000000     0.00000000
     0.00000000     0.00000000     0.00000000
     0.00000000     0.00000000     0.00000000
     0.00000000     0.00000000     0.00000000
     0.00000000     0.00000000     0.00000000
     0.00000000     0.00000000     0.00000000
     0.00000000     0.00000000     0.00000000
     0.00000000     0.00000000     0.00000000
     0.00000000     0.00000000     0.00000000
     0.00000000     0.00000000     0.00000000
     0.00000000     0.00000000     0.00000000
     0.00000000     0.00000000     0.00000000
     0.00000000     0.00000000     0.00000000
     0.00000000     0.00000000     0.00000000
     0.00000000     0.00000000     0.00000000
     0.00000000     0.00000000     0.00000000
     0.00000000     0.00000000     0.00000000
     0.00000000     0.00000000     0.00000000
     0.00000000     0.00000000     0.00000000
     0.00000000     0.00000000     0.00000000
     0.00000000     0.00000000     0.00000000
     0.00000000     0.00000000     0.00000000
     0.00000000     0.00000000     0.00000000
     0.00000000     0.00000000     0.00000000
     0.00000000     0.00000000     0.00000000
     0.00000000     0.00000000     0.00000000
     0.00000000     0.00000000     0.00000000
     0.00000000     0.00000000     0.00000000
     0.00000000     0.00000000     0.00000000
     0.00000000     0.00000000     0.00000000
     0.00000000     0.00000000     0.00000000
     0.00000000     0.00000000     0.00000000
     0.00000000     0.00000000     0.00000000
     0.00000000     0.00000000     0.00000000
     0.00000000     0.00000000     0.00000000
     0.00000000     0.00000000     0.00000000
     0.00000000     0.00000000     0.00000000
     0.00000000     0.00000000     0.00000000
     0.00000000     0.00000000     0.00000000
     0.00000000     0.00000000     0.00000000
     0.00000000     0.00000000     0.00000000
     0.00000000     0.00000000     0.00000000
     0.00000000     0.00000000     0.00000000
     0.00000000     0.00000000     0.00000000
     0.00000000     0.00000000     0.00000000
     0.00000000     0.00000000     0.00000000
     0.00000000     0.00000000     0.00000000
     0.00000000     0.00000000     0.00000000
     0.00000000     0.00000000     0.00000000
     0.00000000     0.00000000     0.00000000
     0.00000000     0.00000000     0.00000000
     0.00000000     0.00000000     0.00000000
     0.00000000     0.00000000     0.00000000
     0.00000000     0.00000000     0.00000000
     0.00000000     0.00000000     0.00000000
     0.00000000     0.00000000     0.00000000
     0.00000000     0.00000000     0.00000000
     0.00000000     0.00000000     0.00000000
     0.00000000     0.00000000     0.00000000
     0.00000000     0.00000000     0.00000000
     0.00000000     0.00000000     0.00000000
     0.00000000     0.00000000     0.00000000
     0.00000000     0.00000000     0.00000000
     0.00000000     0.00000000     0.00000000
     0.00000000     0.00000000     0.00000000
     0.00000000     0.00000000     0.00000000
     0.00000000     0.00000000     0.00000000
     0.00000000     0.00000000     0.00000000
     0.00000000     0.00000000     0.00000000
     0.00000000     0.00000000     0.00000000
     0.00000000     0.00000000     0.00000000
     0.00000000     0.00000000     0.00000000
     0.00000000     0.00000000     0.00000000
     0.00000000     0.00000000     0.00000000
     0.00000000     0.00000000     0.00000000
     0.00000000     0.00000000     0.00000000
     0.00000000     0.00000000     0.00000000
     0.00000000     0.00000000     0.00000000
     0.00000000     0.00000000     0.00000000
     0.00000000     0.00000000     0.00000000
     0.00000000     0.00000000     0.00000000
     0.00000000     0.00000000     0.00000000
     0.00000000     0.00000000     0.00000000
     0.00000000     0.00000000     0.00000000
     0.00000000     0.00000000     0.00000000
     0.00000000     0.00000000     0.00000000
     0.00000000     0.00000000     0.00000000
     0.00000000     0.00000000     0.00000000
     0.00000000     0.00000000     0.00000000
     0.00000000     0.00000000     0.00000000
     0.00000000     0.00000000     0.00000000
     0.00000000     0.00000000     0.00000000
     0.00000000     0.00000000     0.00000000
     0.00000000     0.00000000     0.00000000
     0.00000000     0.00000000     0.00000000
     0.00000000     0.00000000     0.00000000
     0.00000000     0.00000000     0.00000000
     0.00000000     0.00000000     0.00000000
     0.00000000     0.00000000     0.00000000
     0.00000000     0.00000000     0.00000000
     0.00000000     0.00000000     0.00000000
     0.00000000     0.00000000     0.00000000
     0.00000000     0.00000000     0.00000000
     0.00000000     0.00000000     0.00000000
     0.00000000     0.00000000     0.00000000
     0.00000000     0.00000000     0.00000000
     0.00000000     0.00000000     0.00000000
     0.00000000     0.00000000     0.00000000
     0.00000000     0.00000000     0.00000000
     0.00000000     0.00000000     0.00000000
     0.00000000     0.00000000     0.00000000
     0.00000000     0.00000000     0.00000000
     0.00000000     0.00000000     0.00000000
     0.00000000     0.00000000     0.00000000
     0.00000000     0.00000000     0.00000000
     0.00000000     0.00000000     0.00000000
     0.00000000     0.00000000     0.00000000
     0.00000000     0.00000000     0.00000000
     0.00000000     0.00000000     0.00000000
     0.00000000     0.00000000     0.00000000
     0.00000000     0.00000000     0.00000000
     0.00000000     0.00000000     0.00000000
     0.00000000     0.00000000     0.00000000
SCALARS Pressures float
LOOKUP_TABLE default
  2316.39366704
  4614.05847389
  4588.23413706
  4584.92537266
  4579.06692368
  4572.73197460
  4565.81780720
  4583.13514996
  6202.14806620
  4653.42141467
  9241.38657382
  9174.46080431
  9168.30529612
  9156.09086540
  9140.60766336
  9135.31138849
  9155.46204948
  9195.21690989
  4664.46222782
  9249.76029620
  9170.56832501
  9163.62583017
  9150.48801860
  9136.83572170
  9131.99913073
  9138.04551983
  9074.61337376
  4660.66970897
  9245.37285221
  9167.60130680
  9158.06821007
  9146.49491507
  9139.35538113
  9132.92533815
  9137.23498476
  9104.02418971
  4659.72088850
  9245.32994342
  9165.89322555
  9153.32383424
  9144.76374477
  9141.70774257
  9144.32576644
  9172.08835328
  9154.15826416
  4659.50912344
  9245.86800575
  9163.61805165
  9149.21946299
  9142.29205024
  9141.26146007
  9151.25850338
  9195.85544980
  9172.33822900
  4659.74798667
  9245.85588241
  9162.81539309
  9147.29409660
  9141.66301431
  9137.61092484
  9135.60010439
  9141.88663220
  9161.86867899
  4659.54628551
  9247.47156948
  9165.93665117
  9150.22794379
  9141.99960686
  9136.21554625
  9120.84567344
  9105.49137074
  9127.07533008
  4660.67842054
  9250.58863473
  9173.29620016
  9158.57289195
  9147.84865129
  9143.34994531
  9131.50715113
  9121.83721560
  9129.93344778
  4648.82670850
  9241.77546418
  9179.64632076
  9167.95103419
  9160.03233373
  9162.94812703
  9162.85194731
  9161.35012197
  9192.75721097
  2320.97005051
  4616.28123480
  4590.45585382
  4586.02992153
  4583.07941866
  4588.15186882
  4593.94289088
  4598.40110588
  6158.96940708
  2317.16059944
  4615.66258171
  4588.85994393
  4583.90517515
  4577.53754240
  4569.12587750
  4564.98089048
  4581.30418989
  6203.04613177
  4646.26811668
  9236.90648226
  9176.30216457
  9166.45935333
  9153.40754049
  9135.40333138
  9130.70956609
  9150.99765691
  9194.30926561
  4651.29708481
  9240.52735527
  9173.74566413
  9162.46782333
  9149.18905304
  9134.59842075
  9128.96128455
  9133.04337728
  9068.30970383
  4650.95457029
  9239.62349647
  9171.25674617
  9157.81429407
  9146.62710252
  9137.64096972
  9130.70170024
  9131.23828568
  9099.55815943
  4651.29396760
  9240.34108156
  9168.77718759
  9153.12744769
  9145.18446973
  9139.43801010
  9140.81010848
  9168.16134609
  9158.11257322
  4651.00278068
  9240.77906245
  9165.78920889
  9148.56437159
  9141.93542176
  9139.18066663
  9148.45686033
  9192.17321771
  9171.88959968
  4650.02368015
  9239.97085226
  9165.12928864
  9146.44628272
  9140.46570329
  9135.88988744
  9133.08726810
  9139.81092548
  9159.52610284
  4648.77062321
  9241.18472376
  9168.98856443
  9149.50441132
  9140.91061644
  9134.80310620
  9120.92339544
  9102.81441823
  9123.10086742
  4649.09531808
  9243.29769784
  9175.94950724
  9157.34466439
  9146.76570892
  9141.13800588
  9130.61551300
  9115.95465991
  9119.78172001
  4643.36791220
  9239.02592012
  9180.81391358
  9166.37327302
  9158.51674217
  9159.44720650
  9157.94853079
  9152.38842285
  9183.59097767
  2321.49335298
  4617.72011644
  4590.68900612
  4585.42431003
  4582.25494599
  4586.28507876
  4590.28498828
  4591.33750272
  6152.57889477
  2316.35014048
  4614.47895309
  4589.40403980
  4582.40508255
  4575.00931475
  4565.37082553
  4562.76721868
  4571.17481378
  6199.56571428
  4637.14116195
  9230.32177895
  9178.49707896
  9163.99516700
  9149.10282697
  9131.57364565
  9128.77628037
  9145.33053771
  9194.06200665
  4637.69714963
  9231.27663270
  9177.87341225
  9161.32944871
  9147.64918719
  9133.99223474
  9131.10485581
  9139.42726892
  9070.43855244
  4639.07601815
  9232.81516808
  9175.89533630
  9157.82933149
  9147.13768727
  9136.52333978
  9131.22403416
  9130.85027637
  9103.69961680
  4641.49649972
  9234.79453695
  9172.83993211
  9153.79482576
  9145.51749802
  9138.62650907
  9138.25180775
  9160.98545739
  9171.50423399
  4641.68590617
  9234.58173704
  9169.82193691
  9149.42214888
  9141.62086010
  9138.50839105
  9144.67374119
  9182.26852579
  9174.03014465
  4640.81920713
  9233.17235583
  9169.08179250
  9147.08979093
  9138.79873420
  9134.37175934
  9131.86326681
  9138.92875654
  9154.01860499
  4639.29788697
  9233.16972828
  9172.00121155
  9149.75077091
  9138.69529407
  9132.02366580
  9122.18114178
  9099.34436297
  9113.75484914
  4639.36399460
  9234.41875625
  9177.04411978
  9156.40843588
  9144.14889744
  9136.10929278
  9127.59109235
  9103.32583106
  9099.29574448
  4638.07246578
  9233.94066170
  9180.36393252
  9163.82101202
  9154.32199785
  9151.05097419
  9145.46901962
  9133.32202673
  9165.27128512
  2319.54644746
  4616.68783924
  4590.33619979
  4583.79084647
  4579.75503466
  4581.20939502
  4580.74597573
  4577.27360189
  6141.18197433
  2312.44903922
  4612.03878348
  4589.59100036
  4581.61794934
  4573.99698568
  4567.30197909
  4563.48458838
  4567.07530570
  6183.47354539
  4633.60252184
  9227.60574959
  9178.90283046
  9163.02198379
  9148.46278801
  9136.36405474
  9133.10022369
  9147.34420979
  9199.05371064
  4635.58840567
  9230.28317893
  9178.64745432
  9161.33985795
  9149.03097953
  9138.78467426
  9137.44559065
  9157.41854244
  9097.42069489
  4637.02071872
  9231.59305808
  9176.59293967
  9158.73766500
  9148.66669822
  9139.75166756
  9139.20618194
  9145.63397408
  9121.40976590
  4639.99602309
  9233.23335513
  9174.12874186
  9155.78991723
  9146.78811455
  9141.55636424
  9143.88722318
  9160.00862660
  9183.58055572
  4639.40773541
  9232.62212223
  9172.45493409
  9152.44314674
  9143.15118903
  9141.56574482
  9144.71455956
  9174.56636287
  9173.49501605
  4638.31817919
  9230.78868198
  9171.45189038
  9150.13027583
  9140.04213272
  9136.45975903
  9132.47338945
  9137.85807759
  9148.08069488
  4637.04558742
  9229.92112625
  9172.16161019
  9151.47353098
  9139.00543329
  9131.65095234
  9122.86385602
  9101.12529361
  9111.25541198
  4637.22776067
  9230.39690858
  9174.63448846
  9156.03113352
  9142.70481123
  9132.53293318
  9124.32602856
  9096.63102508
  9094.31615549
  4635.02522016
  9229.17821664
  9177.24692906
  9160.88397346
  9150.06561749
  9141.19358833
  9131.15896279
  9110.32826215
  9152.15091059
  2318.52237570
  4614.17936468
  4588.90566809
  4581.65116610
  4576.78870232
  4573.89029799
  4569.42696378
  4560.00652510
  6128.48207351
  2312.04026466
  4611.56143352
  4589.76061956
  4581.18528701
  4574.98958055
  4570.20495575
  4566.67997984
  4570.47366814
  6158.43575446
  4631.56076454
  9225.41923233
  9178.83302973
  9162.47746011
  9150.83641579
  9141.98836996
  9137.48168049
  9151.66521417
  9197.50995123
  4633.50801530
  9227.43777698
  9177.75128326
  9161.63544591
  9151.57964335
  9144.15953872
  9142.97563422
  9162.99054712
  9131.26923299
  4635.46922592
  9228.72366697
  9175.61207677
  9159.97619499
  9151.18282017
  9144.42328501
  9149.34128815
  9162.59219897
  9140.24882329
  4636.81977198
  9228.99833062
  9173.62876855
  9157.68200876
  9149.95042536
  9144.56435047
  9151.53282450
  9173.61616778
  9190.65708509
  4635.88863798
  9228.06160410
  9172.14629203
  9155.06300333
  9146.94133404
  9144.20711668
  9145.97431220
  9169.93641162
  9178.20186996
  4635.36075848
  9226.78913307
  9171.12087925
  9153.09081605
  9143.98298988
  9140.26677483
  9133.17124364
  9135.58893716
  9155.04171976
  4634.37252811
  9225.76249745
  9171.22964149
  9152.93519955
  9142.44975837
  9135.19799658
  9122.04384792
  9105.19774103
  9133.70812726
  4633.84174923
  9225.40876408
  9172.39402399
  9154.82370082
  9143.24169153
  9133.30851814
  9119.75895250
  9091.98578238
  9118.91693436
  4632.69322057
  9224.34624259
  9174.19645336
  9157.26585676
  9146.99705920
  9134.97533928
  9119.59349129
  9087.95993334
  9147.40972276
  2318.41381747
  4612.11780519
  4587.36191878
  4579.30045620
  4574.66305690
  4568.28796960
  4560.31598535
  4542.69639653
  6109.82227528
  1542.63680000
  3073.82434450
  3059.77437814
  3054.03990854
  3050.66377206
  3047.35188264
  3045.18749767
  3046.44874841
  4608.83373702
  2315.54199530
  4611.92206634
  4589.35551581
  4581.14393806
  4576.11434696
  4572.09846117
  4570.10386533
  4576.38490991
  6127.75658210
  2316.55078837
  4612.78402358
  4588.51573956
  4580.97012843
  4576.25280727
  4573.18653929
  4573.67318019
  4580.97865623
  6097.71209812
  2316.90480954
  4613.00870661
  4587.45838062
  4580.28767245
  4576.27416423
  4573.23167807
  4577.12010920
  4585.18770796
  6099.99014616
  2316.88672525
  4612.88340259
  4586.50938399
  4579.22138672
  4575.87721148
  4573.05035649
  4577.25018381
  4592.47582912
  6130.06309628
  2316.91858979
  4612.17615934
  4585.53311178
  4578.08736539
  4574.62160847
  4572.59982632
  4573.10588519
  4583.39308172
  6124.02201784
  2317.71209961
  4612.12989587
  4585.02918927
  4577.25109673
  4573.10539524
  4571.09435012
  4567.27390510
  4567.79200673
  6109.85048870
  2317.62734720
  4611.56216046
  4585.04900401
  4576.82200006
  4572.22880615
  4568.87537696
  4560.86057496
  4553.34807754
  6102.19248271
  2317.22187535
  4611.42723126
  4585.50224815
  4577.14278477
  4571.84439446
  4567.42184451
  4558.16207886
  4543.64453626
  6092.10870296
  2316.78590824
  4610.97049962
  4586.32270361
  4577.80513939
  4572.75286426
  4566.85958216
  4557.38099098
  4539.24033606
  6097.75696681
  1544.57274866
  3073.39570761
  3057.77516168
  3052.04104974
  3049.21887008
  3044.53056304
  3037.76193929
  3023.76869806
  4574.14197731
  9084.45539424
  9110.66279429
  9063.96379089
  9055.18114185
  9069.73952961
  9055.18550301
  9070.78737020
  9063.02628064
  9073.28094172
  9065.47862894
  8857.82764401
  9216.98631069
  9147.40107903
  9049.64878082
  9051.14111805
  9052.39905143
  9054.51998568
  9059.32742465
  9062.72555035
  9066.20180070
  9064.17244050
  9048.88889343
  9195.91241765
  9136.68995595
  9026.93930244
  9020.35983610
  9020.89903092
  9029.05719662
  9041.99045765
  9054.37675220
  9060.32130671
  9063.73689550
  9068.31047559
  9173.82636058
  9118.79475430
  9010.78518167
  8989.24895668
  8993.12769127
  9015.87836146
  9039.87658668
  9058.67559552
  9067.25407368
  9071.42532790
  9076.13657057
  9266.89557785
  9190.96948692
  9065.82531063
  9040.29790284
  9030.52517188
  9042.67048645
  9061.53916025
  9074.91236210
  9082.61109177
  9081.33132055
  9065.75004074
  9368.21368706
  9233.59001338
  9128.62509206
  9095.71647027
  9081.53444982
  9057.84417486
  9079.43858337
  9078.80221748
  9092.23398991
  9084.41952424
  8875.89774865
  9210.33411434
  9103.99988028
  9063.45723963
  9052.35799003
  9066.72743845
  9054.87857533
  9069.50217581
  9062.66846263
  9072.10055572
  9064.85998841
  8863.62926343
  9209.14713235
  9141.88554673
  9048.58722949
  9049.24919176
  9050.97239494
  9053.49655688
  9058.71153992
  9062.05314809
  9065.49569809
  9063.55941186
  9046.88791128
  9191.90701419
  9132.55671149
  9023.52128601
  9018.39368594
  9019.80174828
  9028.81395257
  9042.09865445
  9054.13350725
  9059.98402104
  9063.21426606
  9068.37361354
  9167.82220447
  9115.18748917
  9005.98173751
  8987.74920189
  8994.17406189
  9016.72549284
  9040.41241866
  9058.24841541
  9066.50212511
  9070.31130159
  9075.60418493
  9262.68475801
  9188.38025196
  9062.52486644
  9037.88219657
  9029.82156235
  9042.11639261
  9060.97397107
  9073.55905837
  9081.03223472
  9079.58939580
  9062.98631333
  9365.57898510
  9231.72773540
  9126.41161053
  9090.91296773
  9075.68114603
  9056.29516625
  9077.39950967
  9077.45046687
  9090.13742081
  9082.72588523
  8881.36492476
  9179.14351362
  9087.39924520
  9059.24846470
  9046.98246837
  9061.42570233
  9054.43191171
  9066.74969673
  9061.78717101
  9069.43767923
  9063.51128754
  8886.22625309
  9191.12977585
  9125.91103718
  9044.08961004
  9044.20779568
  9047.70760781
  9051.65837145
  9057.44743139
  9060.95567414
  9064.05855480
  9062.39722855
  9043.43214026
  9180.03441364
  9118.71695733
  9016.16526520
  9014.13259333
  9018.14079148
  9029.24900758
  9042.51946324
  9053.87535086
  9059.23957491
  9062.00247535
  9067.03746307
  9157.41626346
  9106.33009082
  8998.84248698
  8987.03215426
  8997.04650933
  9019.85580540
  9041.04113001
  9057.02161211
  9064.27221286
  9067.55474395
  9072.71467316
  9257.74635927
  9184.61116514
  9055.41233025
  9031.29596019
  9028.04729629
  9041.83483231
  9058.81143224
  9070.03703809
  9076.67895794
  9075.61277318
  9056.11883831
  9357.61298081
  9229.57323414
  9116.53946158
  9075.35967553
  9064.29364359
  9053.57123780
  9072.43436491
  9073.65737641
  9084.61320961
  9078.83783960
  8900.24522901
  9149.50157642
  9072.42198437
  9047.55584288
  9045.01865518
  9055.47725832
  9054.57765269
  9063.10554278
  9061.83463240
  9066.59032613
  9062.42300288
  8951.29097077
  9166.49978650
  9101.25052807
  9032.69629073
  9037.78217518
  9044.39769953
  9049.75469011
  9056.15378606
  9060.15394321
  9062.89321327
  9061.38044872
  9045.62100278
  9163.69881010
  9100.73510778
  9007.43177402
  9010.80069488
  9019.49210203
  9031.30861801
  9043.95926005
  9053.99471375
  9058.94962135
  9060.80309424
  9064.54331368
  9160.90193933
  9108.25087553
  8997.28134423
  8990.90649557
  9004.44093657
  9024.63758224
  9042.54247472
  9055.63473052
  9062.21803302
  9064.63013342
  9068.58466697
  9261.86201201
  9184.93266290
  9044.56076556
  9023.28836443
  9027.98425943
  9040.99074978
  9055.72009912
  9065.35722008
  9071.89061224
  9071.41381522
  9056.05732709
  9345.81976900
  9224.75471854
  9091.58565211
  9055.81943229
  9052.75270903
  9050.39184356
  9065.07173955
  9068.96115261
  9078.04830073
  9074.83565752
  8964.08091283
  9132.22668964
  9052.25659287
  9032.92583900
  9040.47847265
  9049.49362341
  9052.78045532
  9059.55848038
  9061.67360935
  9064.48022411
  9061.56363526
  9001.07313698
  9154.26128280
  9071.26419358
  9019.23815807
  9032.15337993
  9040.03699952
  9047.03217706
  9054.16726294
  9059.08960411
  9061.86568962
  9061.04344234
  9047.91066793
  9174.63257405
  9087.98191391
  9000.09577596
  9010.10888617
  9020.28735970
  9032.88146113
  9045.03790082
  9053.76323026
  9058.70661008
  9060.86608647
  9063.10365171
  9201.60802458
  9116.84521461
  8994.24847871
  8997.91756555
  9010.95924702
  9029.10479086
  9044.11004978
  9054.83257008
  9060.94057974
  9063.53070997
  9065.98211482
  9277.73531599
  9171.07440346
  9025.05460688
  9017.99520829
  9024.94657332
  9039.56091293
  9052.32199360
  9062.00358842
  9068.35790957
  9068.68132169
  9054.48322129
  9325.22385496
  9194.15041125
  9056.25333112
  9036.54477060
  9037.96899635
  9045.39126760
  9057.72364378
  9065.36289834
  9072.99672469
  9071.51014697
  9008.46131747
  9127.29206359
  9037.13074112
  9026.28623330
  9035.34973346
  9047.16878754
  9050.69778103
  9058.18828726
  9060.94165128
  9063.73498471
  9061.06249197
  9002.58595575
  9156.47459030
  9055.47939095
  9013.73727661
  9029.80073538
  9037.14807713
  9045.39858872
  9052.82616132
  9058.40192425
  9061.27246682
  9061.17406114
  9046.55668171
  9194.03474444
  9083.50405988
  8997.55526471
  9010.45403346
  9019.16763267
  9033.07299289
  9044.98935679
  9053.39747244
  9058.34639192
  9061.43929855
  9062.75885071
  9234.42664906
  9118.26863575
  8990.44094956
  9001.83700138
  9011.90920705
  9031.07340382
  9044.26915948
  9054.61766803
  9060.23934263
  9063.71336570
  9065.15244275
  9288.76538834
  9155.71479440
  9012.58792090
  9016.53911781
  9020.90126753
  9039.24769215
  9050.41787155
  9061.16105821
  9066.83913288
  9067.91308824
  9048.86687910
  9311.08985043
  9168.07239628
  9038.21615219
  9026.06056249
  9029.19201958
  9042.39516604
  9054.81210232
  9064.01952802
  9071.08241542
  9069.99241187
  9002.41916643
  8567.43187714
  8517.24610138
  8507.10499763
  8572.98798370
  8622.23296952
  8678.95114112
  8692.66101025
  8415.61378476
  8852.50085795
  8537.58233583
  8484.91582179
  8488.44550800
  8537.74320579
  8602.23732662
  8658.46532953
  8684.49796449
  8671.09987162
  8774.84266388
  8459.19770414
  8405.59518868
  8409.29697359
  8481.64133406
  8566.11552393
  8630.63935852
  8670.91685450
  8688.98508310
  8777.00252151
  8464.68810743
  8341.13582712
  8355.85704893
  8470.19007879
  8569.10586429
  8630.17209744
  8670.23365831
  8690.49572420
  9073.76543304
  8731.60525963
  8475.47539735
  8432.98763174
  8514.63379115
  8594.44227242
  8647.84715366
  8675.62919277
  8663.36476266
  9382.89718479
  8944.49691814
  8627.28397560
  8503.06909442
  8549.67166495
  8600.66218042
  8658.64931154
  8676.28985918
  8397.12228465
  8912.30226827
  8530.44893706
  8503.85200465
  8503.47936773
  8568.60187078
  8623.05331790
  8674.29445100
  8692.82755924
  8464.68086840
  8838.94367054
  8509.18112347
  8474.44497973
  8484.43438590
  8533.70906746
  8599.06124300
  8655.79921037
  8683.16455198
  8672.10959483
  8762.48861912
  8437.40289041
  8388.90449750
  8402.99309021
  8480.83071172
  8562.29225051
  8627.44328326
  8666.96275961
  8685.53022373
  8757.28981483
  8438.37798172
  8331.97129703
  8359.72549772
  8474.50754017
  8568.16106689
  8625.88653797
  8663.99132562
  8682.93299139
  9072.07400261
  8724.17469428
  8471.86511135
  8437.74048662
  8518.30554196
  8594.27908865
  8644.25979602
  8670.48322608
  8662.80574648
  9388.96054098
  8958.48589608
  8612.55866885
  8496.62675416
  8550.44116288
  8601.75137645
  8654.32911289
  8673.40777545
  8451.26763639
  8852.24400330
  8463.55200899
  8487.54991376
  8499.15395546
  8555.31304622
  8621.49205571
  8664.35152686
  8692.21609506
  8572.10619646
  8815.13562432
  8449.30077514
  8451.26505715
  8475.65580320
  8524.74000120
  8592.64032823
  8649.19487080
  8680.39552401
  8678.13103905
  8740.98292729
  8386.69605953
  8355.62444869
  8396.73317087
  8484.30102313
  8556.96555039
  8620.81274930
  8659.20335948
  8673.78313768
  8724.55298537
  8386.04153767
  8320.77226332
  8379.68073393
  8487.38127877
  8568.00074768
  8617.40260386
  8651.68270493
  8668.06833029
  9069.80725288
  8700.54712033
  8460.30630997
  8449.24134193
  8527.56382260
  8593.49353935
  8636.18472612
  8659.60208812
  8650.76040751
  9394.44714427
  8967.35374308
  8575.33679014
  8480.42990679
  8554.80017772
  8601.12808338
  8645.15152836
  8665.67053241
  8528.79454815
  8860.76866466
  8421.16718280
  8482.77508068
  8494.00085318
  8537.34954333
  8611.30161965
  8655.41873515
  8689.71103038
  8524.64134554
  8802.41522989
  8394.13411152
  8428.79416847
  8464.00287908
  8516.88912266
  8586.75662652
  8641.97362639
  8677.35416218
  8659.93605419
  8717.26932210
  8338.61932123
  8342.39829046
  8409.02475035
  8495.56214383
  8560.54564133
  8619.30157551
  8655.28392476
  8672.24449104
  8715.23098582
  8359.33174068
  8333.99268448
  8413.90988812
  8505.74232927
  8572.53365529
  8615.54865555
  8645.15290688
  8661.44081461
  9061.45653731
  8659.15888971
  8437.39860216
  8461.18000931
  8535.54535948
  8591.57168701
  8629.44945055
  8650.65338609
  8635.00019866
  9382.92795205
  8909.79190028
  8516.79516000
  8478.58483809
  8554.30164610
  8596.95571272
  8637.87622339
  8656.57151395
  8496.37698734
  8850.08793372
  8390.24067402
  8450.21914423
  8471.49722874
  8522.21071156
  8595.90656678
  8645.81912292
  8683.95784265
  8533.13072229
  8783.48717687
  8360.64428985
  8405.16062683
  8451.94125572
  8512.07794834
  8582.83151985
  8637.09053199
  8674.37215563
  8659.40190971
  8714.09427357
  8316.43773386
  8348.77237597
  8428.94785163
  8505.66603118
  8569.83973654
  8625.17775340
  8656.56582231
  8668.43919713
  8746.80102849
  8365.71803018
  8353.83244295
  8439.53340557
  8518.62053078
  8578.11463901
  8621.23666909
  8646.72036600
  8660.91253970
  9048.80361459
  8600.20897686
  8405.00182013
  8466.82732972
  8535.19141890
  8589.75145081
  8625.84089869
  8647.20061783
  8607.64437625
  9315.30729932
  8770.80945539
  8439.78139687
  8480.09826887
  8542.52865349
  8593.19662376
  8631.20202494
  8649.30567965
  8444.66897022
  8803.20975804
  8371.78500342
  8419.53004670
  8453.44692420
  8516.13267105
  8588.32033940
  8639.86606838
  8679.93170643
  8647.44319439
  8767.02865946
  8350.84199584
  8391.28889334
  8446.76509589
  8510.18272462
  8581.54528374
  8635.49046159
  8672.99589547
  8682.07447112
  8725.48118317
  8313.42086762
  8351.78326207
  8436.62333745
  8508.78973156
  8574.05031410
  8629.13064637
  8657.96184934
  8657.88032319
  8774.66894794
  8372.78779835
  8358.41727665
  8447.01455625
  8521.69395902
  8579.94719332
  8624.58025630
  8648.75133517
  8659.70985218
  9043.92608815
  8566.45028603
  8387.56423053
  8467.28398319
  8532.44247126
  8589.23070145
  8624.47991013
  8646.96138034
  8584.56243988
  9258.62908590
  8684.26772237
  8398.81269193
  8473.70226121
  8534.84370941
  8591.89741635
  8626.94574560
  8646.28370450
  8448.76007395
     0.00000000
     0.00000000
     0.00000000
     0.00000000
     0.00000000
     0.00000000
     0.00000000
     0.00000000
     0.00000000
     0.00000000
     0.00000000
     0.00000000
     0.00000000
     0.00000000
     0.00000000
     0.00000000
     0.00000000
     0.00000000
     0.00000000
     0.00000000
     0.00000000
     0.00000000
     0.00000000
     0.00000000
     0.00000000
     0.00000000
     0.00000000
     0.00000000
     0.00000000
     0.00000000
     0.00000000
     0.00000000
     0.00000000
     0.00000000
     0.00000000
     0.00000000
     0.00000000
     0.00000000
     0.00000000
     0.00000000
     0.00000000
     0.00000000
     0.00000000
     0.00000000
     0.00000000
     0.00000000
     0.00000000
     0.00000000
     0.00000000
     0.00000000
     0.00000000
     0.00000000
     0.00000000
     0.00000000
     0.00000000
     0.00000000
     0.00000000
     0.00000000
     0.00000000
     0.00000000
     0.00000000
     0.00000000
     0.00000000
     0.00000000
     0.00000000
     0.00000000
     0.00000000
     0.00000000
     0.00000000
     0.00000000
     0.00000000
     0.00000000
     0.00000000
     0.00000000
     0.00000000
     0.00000000
     0.00000000
     0.00000000
     0.00000000
     0.00000000
     0.00000000
     0.00000000
     0.00000000
     0.00000000
     0.00000000
     0.00000000
     0.00000000
     0.00000000
     0.00000000
     0.00000000
     0.00000000
     0.00000000
     0.00000000
     0.00000000
     0.00000000
     0.00000000
     0.00000000
     0.00000000
     0.00000000
     0.00000000
     0.00000000
     0.00000000
     0.00000000
     0.00000000
     0.00000000
     0.00000000
     0.00000000
     0.00000000
     0.00000000
     0.00000000
     0.00000000
     0.00000000
     0.00000000
     0.00000000
     0.00000000
     0.00000000
     0.00000000
     0.00000000
     0.00000000
     0.00000000
     0.00000000
     0.00000000
     0.00000000
     0.00000000
     0.00000000
     0.00000000
     0.00000000
     0.00000000
     0.00000000
     0.00000000
     0.00000000
     0.00000000
     0.00000000
     0.00000000
     0.00000000
     0.00000000
     0.00000000
     0.00000000
     0.00000000
     0.00000000
     0.00000000
     0.00000000
     0.00000000
     0.00000000
     0.00000000
     0.00000000
     0.00000000
     0.00000000
     0.00000000
     0.00000000
     0.00000000
     0.00000000
     0.00000000
     0.00000000
     0.00000000
     0.00000000
     0.00000000
     0.00000000
     0.00000000
     0.00000000
     0.00000000
     0.00000000
     0.00000000
     0.00000000
     0.00000000
     0.00000000
     0.00000000
     0.00000000
     0.00000000
     0.00000000
     0.00000000
     0.00000000
     0.00000000
     0.00000000
     0.00000000
     0.00000000
     0.00000000
     0.00000000
     0.00000000
     0.00000000
     0.00000000
     0.00000000
     0.00000000
     0.00000000
     0.00000000
     0.00000000
     0.00000000
     0.00000000
     0.00000000
     0.00000000
     0.00000000
     0.00000000
     0.00000000
     0.00000000
     0.00000000
     0.00000000
     0.00000000
     0.00000000
     0.00000000
     0.00000000
     0.00000000
     0.00000000
     0.00000000
     0.00000000
     0.00000000
     0.00000000
     0.00000000
     0.00000000
     0.00000000
     0.00000000
     0.00000000
     0.00000000
     0.00000000
     0.00000000
     0.00000000
     0.00000000
     0.00000000
     0.00000000
     0.00000000
     0.00000000
     0.00000000
     0.00000000
     0.00000000
     0.00000000
     0.00000000
     0.00000000
     0.00000000
     0.00000000
     0.00000000
     0.00000000
     0.00000000
     0.00000000
     0.00000000
     0.00000000
     0.00000000
     0.00000000
     0.00000000
     0.00000000
     0.00000000
     0.00000000
     0.00000000
     0.00000000
     0.00000000
     0.00000000
     0.00000000
     0.00000000
     0.00000000
     0.00000000
     0.00000000
     0.00000000
     0.00000000
     0.00000000
     0.00000000
     0.00000000
     0.00000000
     0.00000000
     0.00000000
     0.00000000
     0.00000000
     0.00000000
     0.00000000
     0.00000000
     0.00000000
     0.00000000
     0.00000000
     0.00000000
     0.00000000
     0.00000000
     0.00000000
     0.00000000
     0.00000000
     0.00000000
     0.00000000
     0.00000000
     0.00000000
     0.00000000
VECTORS Displacements float 
     3.72204551    -0.34603005     0.00000000
     3.21175289    -0.40743979     0.00000000
     2.70367738    -0.43352419     0.00000000
     2.19192141    -0.43165637     0.00000000
     1.67906428    -0.40248876     0.00000000
     1.16056462    -0.33119026     0.00000000
     0.63446430    -0.21817527     0.00000000
     0.26699802    -0.04143534    -0.00000000
     0.00000000     0.00000000    -0.00000000
     3.71929067    -0.29242428    -0.00835116
     3.15215462    -0.34766579     0.00000000
     2.61748609    -0.36543309     0.00000000
     2.08410606    -0.36115558     0.00000000
     1.54973843    -0.33035986     0.00000000
     1.02072089    -0.26208413     0.00000000
     0.51471411    -0.14556538     0.00000000
     0.23611363     0.01675156     0.00000000
     0.10232953     0.02958579     0.00000000
     3.71509286    -0.24084429    -0.01062305
     3.12618452    -0.28844445     0.00000000
     2.56087339    -0.29801717     0.00000000
     2.00833329    -0.28891079     0.00000000
     1.46905122    -0.25840070     0.00000000
     0.95658092    -0.19643458     0.00000000
     0.50322779    -0.09442030     0.00000000
     0.25853975     0.01939132     0.00000000
     0.15395891     0.01480554     0.00000000
     3.71194628    -0.18901067    -0.01268796
     3.10813381    -0.22318563     0.00000000
     2.52517819    -0.22716241     0.00000000
     1.96060864    -0.21669537     0.00000000
     1.42072201    -0.19082574     0.00000000
     0.92183512    -0.14291307     0.00000000
     0.49483409    -0.07075259     0.00000000
     0.25981240    -0.00021456     0.00000000
     0.16027058    -0.00606090     0.00000000
     3.70874276    -0.13765745    -0.01381890
     3.09665967    -0.15447627     0.00000000
     2.50277197    -0.15342096     0.00000000
     1.93128338    -0.14438063     0.00000000
     1.39047885    -0.12684545     0.00000000
     0.89631561    -0.09767075     0.00000000
     0.47552201    -0.05814764     0.00000000
     0.22750909    -0.01932678     0.00000000
     0.11464992    -0.01499518     0.00000000
     3.70579000    -0.08638171    -0.01475618
     3.08847577    -0.08376638     0.00000000
     2.48938246    -0.07791277     0.00000000
     1.91390797    -0.07189275     0.00000000
     1.37207061    -0.06455806     0.00000000
     0.87974578    -0.05584476     0.00000000
     0.46251399    -0.04856308     0.00000000
     0.18361646    -0.01450312     0.00000000
     0.00000000     0.00000000    -0.00000000
     3.70296645    -0.03514718    -0.01490698
     3.08495163    -0.01248064     0.00000000
     2.48467515    -0.00200022     0.00000000
     1.90894953     0.00045942     0.00000000
     1.36889292    -0.00358747     0.00000000
     0.88447581    -0.01626107     0.00000000
     0.49015693    -0.04883469     0.00000000
     0.27130402    -0.04252749     0.00000000
     0.15214814    -0.03385562     0.00000000
     3.70049625     0.01608669    -0.01472183
     3.08470225     0.05793733     0.00000000
     2.48921607     0.07290453     0.00000000
     1.91541689     0.07246630     0.00000000
     1.37404526     0.05761968     0.00000000
     0.88729004     0.02202596     0.00000000
     0.49424617    -0.05043511     0.00000000
     0.32078475    -0.08018499     0.00000000
     0.24523554    -0.04487862     0.00000000
     3.69724466     0.06804635    -0.01300311
     3.09045611     0.12563893     0.00000000
     2.50698091     0.14545168     0.00000000
     1.93917431     0.14486723     0.00000000
     1.39102571     0.12290546     0.00000000
     0.88272777     0.06944691     0.00000000
     0.45771076    -0.03773486     0.00000000
     0.29902729    -0.10805909     0.00000000
     0.24858851    -0.05961378     0.00000000
     3.69354241     0.11982633    -0.01029016
     3.10317569     0.18723397     0.00000000
     2.54746175     0.21491327     0.00000000
     1.99334670     0.21857335     0.00000000
     1.44068719     0.19569227     0.00000000
     0.89705063     0.13575657     0.00000000
     0.39578352     0.01284619     0.00000000
     0.21429302    -0.10849670     0.00000000
     0.14162582    -0.04535511     0.00000000
     3.68619663     0.17386933     0.00000000
     3.15225422     0.24934744     0.00000000
     2.61982909     0.28538582     0.00000000
     2.08657429     0.29202431     0.00000000
     1.55137343     0.27215119     0.00000000
     1.01053077     0.21379139     0.00000000
     0.45426182     0.10645946    -0.00000000
     0.16125031    -0.03872038    -0.00000000
     0.00000000     0.00000000    -0.00000000
     3.72182858    -0.34253995     0.13126613
     3.21202662    -0.40424783     0.17432002
     2.70450374    -0.42881324     0.19861918
     2.19344200    -0.42676091     0.21140447
     1.68156192    -0.39770349     0.21503765
     1.16463132    -0.32696434     0.20944762
     0.64111800    -0.21521491     0.19488076
     0.27663154    -0.04260689     0.14752888
     0.00000000     0.00000000     0.00000000
     3.71909945    -0.29138312     0.14544578
     3.15632167    -0.34604655     0.19586788
     2.62356133    -0.36327989     0.22125531
     2.09283035    -0.35877535     0.23577180
     1.56089401    -0.32824156     0.23885730
     1.03372843    -0.26107787     0.22941051
     0.52694715    -0.14888824     0.19576381
     0.23866125     0.01018442     0.13072489
     0.09413788     0.02856015    -0.02736806
     3.71583940    -0.24024788     0.15511425
     3.13131013    -0.28766377     0.21285781
     2.56907084    -0.29729605     0.24098408
     2.01992409    -0.28818249     0.25428712
     1.48271893    -0.25815634     0.25421459
     0.96945428    -0.19753822     0.23666530
     0.50977987    -0.09867189     0.19781016
     0.25448124     0.01547114     0.12877720
     0.13947910     0.01533265    -0.04006324
     3.71265188    -0.18908825     0.16193095
     3.11403085    -0.22295249     0.22467472
     2.53396826    -0.22718546     0.25388496
     1.97277910    -0.21682289     0.26688426
     1.43450673    -0.19126219     0.26434311
     0.93407450    -0.14409410     0.24405012
     0.50007752    -0.07276493     0.20309250
     0.25333049    -0.00054788     0.12891937
     0.14380348    -0.00384015    -0.04449537
     3.70941833    -0.13739565     0.16516890
     3.10181597    -0.15444310     0.23083690
     2.51136533    -0.15363596     0.26046847
     1.94313384    -0.14477038     0.27335420
     1.40397441    -0.12739228     0.26997246
     0.90906419    -0.09823629     0.24953491
     0.48340287    -0.05794331     0.20820184
     0.22462063    -0.01767381     0.13276861
     0.10069345    -0.01207508    -0.03788146
     3.70596836    -0.08621843     0.16489743
     3.09392099    -0.08377477     0.23080153
     2.49758817    -0.07807678     0.26064840
     1.92516595    -0.07221812     0.27327305
     1.38472090    -0.06500433     0.26928086
     0.89181367    -0.05584230     0.24778673
     0.47116947    -0.04729610     0.20873671
     0.18838266    -0.01498982     0.13146667
     0.00000000     0.00000000     0.00000000
     3.70341138    -0.03517880     0.16476965
     3.08989106    -0.01256030     0.23197866
     2.49296440    -0.00208628     0.26209278
     1.92002724     0.00029193     0.27442961
     1.38052464    -0.00373628     0.26894503
     0.89335277    -0.01555479     0.24343937
     0.49090853    -0.04528316     0.19587719
     0.26418885    -0.03991815     0.11240746
     0.14022668    -0.02986721    -0.03097781
     3.70089829     0.01640639     0.16128464
     3.09038178     0.05749316     0.22692489
     2.49752142     0.07273361     0.25726465
     1.92638603     0.07230084     0.26959053
     1.38498681     0.05778759     0.26378401
     0.89414064     0.02391596     0.23695035
     0.49080653    -0.04385494     0.18429293
     0.30696470    -0.07487064     0.09978000
     0.22750056    -0.04025049    -0.04529871
     3.69783317     0.06760181     0.15467302
     3.09561051     0.12440852     0.21601331
     2.51498851     0.14466766     0.24606277
     1.94998464     0.14413220     0.25923922
     1.40258899     0.12280404     0.25622440
     0.89118749     0.07172665     0.23135752
     0.45671871    -0.02879473     0.17866421
     0.28706700    -0.10069125     0.09859102
     0.23167479    -0.05597592    -0.04533435
     3.69331511     0.11903419     0.14581745
     3.10792371     0.18472118     0.19950199
     2.55383650     0.21283400     0.22752226
     2.00226116     0.21619590     0.24287800
     1.45192768     0.19378130     0.24511920
     0.90936876     0.13559337     0.23138572
     0.40464512     0.02025323     0.17970232
     0.21213906    -0.10101339     0.10525172
     0.13212234    -0.04333339    -0.02594355
     3.68645036     0.17061688     0.13249927
     3.15314961     0.24501332     0.17879092
     2.62117026     0.28048659     0.20471540
     2.08892411     0.28693468     0.21873804
     1.55488271     0.26693497     0.22205627
     1.01605790     0.20934370     0.21544307
     0.46192843     0.10429018     0.18807988
     0.16773570    -0.03669179     0.12326735
     0.00000000     0.00000000     0.00000000
     3.72147905    -0.33275756     0.26115758
     3.21311786    -0.39279319     0.34476667
     2.70689698    -0.41513374     0.39190476
     2.19790293    -0.41232289     0.41702885
     1.68883127    -0.38349622     0.42329623
     1.17598097    -0.31470386     0.41201057
     0.66300473    -0.20703945     0.37944659
     0.30298568    -0.04331985     0.28569435
     0.00000000     0.00000000     0.00000000
     3.71919371    -0.28500250     0.29063790
     3.16480511    -0.33703120     0.38766735
     2.63865631    -0.35372058     0.43815451
     2.11436285    -0.34838903     0.46619438
     1.58970868    -0.31889327     0.47200523
     1.06897375    -0.25459375     0.45323876
     0.56214219    -0.15389588     0.38938683
     0.25048015    -0.00326847     0.26949907
     0.07584534     0.02504461    -0.04423892
     3.71712247    -0.23602633     0.31315281
     3.14269954    -0.28063457     0.42251139
     2.59050408    -0.29044749     0.47751192
     2.05104866    -0.28151663     0.50417506
     1.52104370    -0.25330170     0.50488481
     1.00831425    -0.19687266     0.47277265
     0.53647004    -0.10678719     0.39858972
     0.25386292     0.00519847     0.27187902
     0.10688206     0.01446795    -0.06440091
     3.71441229    -0.18570011     0.32896655
     3.12652319    -0.21824871     0.44697852
     2.55823080    -0.22290845     0.50385019
     2.00746015    -0.21310507     0.53041511
     1.47558598    -0.18934983     0.52679056
     0.97344610    -0.14514420     0.48911250
     0.52515543    -0.07766415     0.41166322
     0.24832629    -0.00362419     0.27561276
     0.10568734    -0.00037150    -0.07121028
     3.71019473    -0.13595729     0.33818839
     3.11496198    -0.15185962     0.45973019
     2.53632941    -0.15170719     0.51789912
     1.97845764    -0.14346307     0.54427126
     1.44569975    -0.12736391     0.53891916
     0.95009650    -0.09933453     0.49992508
     0.51449482    -0.05874047     0.42134926
     0.22861361    -0.01595200     0.28254925
     0.06987106    -0.00654708    -0.06011281
     3.70680473    -0.08587691     0.33771716
     3.10646363    -0.08356714     0.46091039
     2.52215797    -0.07825706     0.51917812
     1.95961160    -0.07293072     0.54524151
     1.42477230    -0.06643064     0.53867861
     0.93055746    -0.05651231     0.49729801
     0.50097211    -0.04539803     0.42115923
     0.20503073    -0.01692212     0.27143366
     0.00000000     0.00000000     0.00000000
     3.70370377    -0.03584784     0.33824163
     3.10281350    -0.01489866     0.46198624
     2.51777990    -0.00431321     0.52108841
     1.95423561    -0.00220329     0.54677041
     1.41806306    -0.00590647     0.53804446
     0.92394949    -0.01495049     0.49066516
     0.50070361    -0.03690865     0.40070732
     0.24977794    -0.03299661     0.24478221
     0.10975543    -0.01880319    -0.05450642
     3.70195339     0.01369178     0.32912675
     3.10249373     0.05268655     0.45148558
     2.52159248     0.06822129     0.51045546
     1.95946516     0.06810601     0.53620086
     1.42036097     0.05523949     0.52729100
     0.91945525     0.02717604     0.47802592
     0.49008497    -0.02724095     0.37900932
     0.27385913    -0.05836672     0.22341959
     0.17938978    -0.02641385    -0.07779902
     3.69860524     0.06400117     0.31369546
     3.10686648     0.11672439     0.42902587
     2.53644603     0.13760853     0.48733765
     1.98037926     0.13749686     0.51424902
     1.43718618     0.11862726     0.51006998
     0.91967119     0.07530508     0.46496329
     0.46281434    -0.00675438     0.36480685
     0.26087204    -0.07871657     0.21754021
     0.18733855    -0.04493155    -0.07736803
     3.69356907     0.11311653     0.29188881
     3.11732174     0.17455866     0.39542036
     2.56997339     0.20286386     0.45038240
     2.02508730     0.20564995     0.48018114
     1.48229502     0.18481028     0.48443174
     0.94504661     0.13180335     0.45856018
     0.43541449     0.03681635     0.36184699
     0.20902532    -0.07859592     0.22696595
     0.10961339    -0.04078544    -0.04344272
     3.68740084     0.16118400     0.26322431
     3.15559853     0.23211100     0.35267006
     2.62520613     0.26603371     0.40413352
     2.09553852     0.27182532     0.43120138
     1.56515139     0.25170972     0.43778310
     1.03161364     0.19668719     0.42334910
     0.49029194     0.09724183     0.37040425
     0.20097593    -0.03111300     0.23981923
     0.00000000     0.00000000     0.00000000
     3.72123992    -0.31702813     0.38440278
     3.21498636    -0.37269931     0.50656865
     2.71066154    -0.39296411     0.57511340
     2.20480099    -0.38898226     0.61092780
     1.70000819    -0.36057646     0.61937982
     1.19511010    -0.29552499     0.59951160
     0.69519975    -0.19386360     0.54597660
     0.33953316    -0.04365420     0.40779006
     0.00000000     0.00000000     0.00000000
     3.72035215    -0.27334652     0.43004664
     3.17653079    -0.32040643     0.57072709
     2.66146773    -0.33653784     0.64623862
     2.14681048    -0.33036969     0.68649503
     1.63245997    -0.30231106     0.69347281
     1.12414833    -0.24368352     0.66567299
     0.62316542    -0.15433239     0.57555732
     0.28136697    -0.01837666     0.41677634
     0.05532913     0.01896552    -0.04797438
     3.71926107    -0.22697825     0.46631925
     3.15736701    -0.26723122     0.62359882
     2.62365813    -0.27704430     0.70501671
     2.10015467    -0.26872551     0.74539685
     1.58220086    -0.24295371     0.74748512
     1.07633513    -0.19369103     0.70431923
     0.59478852    -0.11424250     0.60110409
     0.27585675    -0.00787842     0.43219235
     0.07206350     0.01226317    -0.06928481
     3.71523485    -0.18064325     0.49374568
     3.14395763    -0.20876322     0.66093176
     2.59698323    -0.21384258     0.74592442
     2.06468398    -0.20520772     0.78698161
     1.54516196    -0.18376778     0.78407274
     1.04698685    -0.14578992     0.73298134
     0.58560517    -0.08425214     0.62547744
     0.27022608    -0.00944407     0.44367695
     0.06716285     0.00199618    -0.07681248
     3.71170331    -0.13349330     0.50779914
     3.13342462    -0.14687900     0.68205002
     2.57736766    -0.14713201     0.76875591
     2.03875060    -0.14004785     0.81010277
     1.51802500    -0.12578646     0.80456160
     1.02745345    -0.10152465     0.74980324
     0.58142091    -0.06223738     0.63907020
     0.26278190    -0.01698034     0.45214956
     0.04339217    -0.00251748    -0.06646261
     3.70820678    -0.08547601     0.50961070
     3.12519125    -0.08310654     0.68580504
     2.56354399    -0.07821487     0.77300645
     2.02000135    -0.07370867     0.81420344
     1.49616670    -0.06814088     0.80714703
     1.00465769    -0.05934606     0.74894433
     0.56179491    -0.04413064     0.63885949
     0.24325535    -0.01946316     0.42612596
     0.00000000     0.00000000     0.00000000
     3.70488219    -0.03749031     0.50826156
     3.12120708    -0.01904773     0.68516469
     2.55933784    -0.00888270     0.77338128
     2.01433656    -0.00683450     0.81447953
     1.48698998    -0.01009310     0.80579126
     0.98918709    -0.01670364     0.74253828
     0.53902776    -0.02718960     0.61837764
     0.25207187    -0.02465630     0.40787264
     0.07314548    -0.00576924    -0.06597834
     3.70205579     0.00958696     0.49470827
     3.12005946     0.04357665     0.66712867
     2.56148158     0.05912609     0.75527832
     2.01753338     0.05957969     0.79629389
     1.48591823     0.04895182     0.78813055
     0.97790617     0.02802806     0.72376050
     0.51410154    -0.00802168     0.58925639
     0.25167153    -0.03799147     0.38423246
     0.11588520    -0.00681007    -0.08792814
     3.70013197     0.05586989     0.46772770
     3.12128752     0.10324007     0.63251190
     2.57059565     0.12397142     0.71858966
     2.03053908     0.12486374     0.76010052
     1.49669076     0.10925732     0.75710870
     0.97641718     0.07712699     0.69854462
     0.48981178     0.01771874     0.56156390
     0.23993115    -0.04763303     0.36777287
     0.12621307    -0.02608477    -0.08593219
     3.69488521     0.10219199     0.43223415
     3.12946956     0.15753157     0.58170784
     2.59359416     0.18496611     0.66361006
     2.05910163     0.18757220     0.70654853
     1.52659725     0.16910203     0.71175527
     1.00046341     0.12636459     0.67546397
     0.48807245     0.05234579     0.54539789
     0.21869423    -0.05038387     0.37070192
     0.08256963    -0.03221804    -0.04981467
     3.68907658     0.14574563     0.38728916
     3.15937104     0.21110823     0.51769159
     2.63153612     0.24255456     0.59278220
     2.10575255     0.24723172     0.63162585
     1.58107423     0.22751179     0.64063425
     1.05744593     0.17675700     0.61789978
     0.53344588     0.08574742     0.53625523
     0.23951547    -0.02551673     0.35500932
     0.00000000     0.00000000     0.00000000
     3.72194759    -0.29510611     0.49743418
     3.21678781    -0.34547851     0.65567915
     2.71554060    -0.36296590     0.74346369
     2.21305918    -0.35763936     0.78870247
     1.71408768    -0.33026134     0.79724222
     1.21827932    -0.27042244     0.76808663
     0.73245415    -0.17636133     0.68783315
     0.38210930    -0.04440668     0.51369580
     0.00000000     0.00000000     0.00000000
     3.72225929    -0.25609029     0.56199657
     3.19254642    -0.29831296     0.74228142
     2.69111175    -0.31230247     0.84134814
     2.18639545    -0.30566685     0.89230244
     1.68452106    -0.28082975     0.89924062
     1.18981723    -0.22465803     0.85959289
     0.71024001    -0.15377861     0.74727704
     0.33963017    -0.03536271     0.56468357
     0.03482221     0.01467901    -0.03729280
     3.71939200    -0.21604086     0.61562460
     3.17915883    -0.24890114     0.81260236
     2.67006932    -0.25759946     0.92063274
     2.16360154    -0.25048207     0.97429741
     1.66201406    -0.22933310     0.97735740
     1.16847557    -0.18038914     0.92449756
     0.69659887    -0.12599852     0.79578954
     0.33106704    -0.02759030     0.60577359
     0.04347659     0.01391612    -0.05573087
     3.71664047    -0.17398782     0.65326039
     3.16892972    -0.19595593     0.86411774
     2.65292342    -0.20002101     0.97712362
     2.14348384    -0.19293252     1.03381881
     1.64105354    -0.17666311     1.03220672
     1.15307383    -0.13754955     0.96975032
     0.69663949    -0.09720055     0.83499484
     0.32828382    -0.02332268     0.63108166
     0.04010631     0.00667986    -0.06334417
     3.71405143    -0.12983501     0.67494300
     3.16067026    -0.14042687     0.89464179
     2.63896413    -0.13986037     1.01087474
     2.12562638    -0.13413049     1.06848440
     1.62291449    -0.12305430     1.06491409
     1.13852140    -0.09858233     0.99450325
     0.70177901    -0.07208797     0.85299167
     0.33343161    -0.02239972     0.64177784
     0.02933343    -0.00363817    -0.06147457
     3.71080667    -0.08518771     0.67994642
     3.15347135    -0.08265175     0.90322106
     2.62724183    -0.07846388     1.02046133
     2.11013719    -0.07372821     1.07866819
     1.60393248    -0.06920078     1.07361208
     1.11680667    -0.06015301     0.99971292
     0.67704936    -0.05078356     0.85760589
     0.31380478    -0.02045455     0.60099050
     0.00000000     0.00000000     0.00000000
     3.70734427    -0.04046845     0.67583672
     3.14902981    -0.02497936     0.89850557
     2.62210764    -0.01646030     1.01652577
     2.10342846    -0.01328628     1.07504451
     1.59313453    -0.01414190     1.06945886
     1.09768845    -0.02058977     0.99376000
     0.64121884    -0.02616956     0.84244279
     0.28763613    -0.01123059     0.61111664
     0.03968246     0.00991087    -0.06087978
     3.70361243     0.00354250     0.65505485
     3.14585739     0.03117062     0.87129523
     2.62005410     0.04431737     0.98884774
     2.09979173     0.04676834     1.04623471
     1.58633342     0.04066202     1.04254096
     1.07984627     0.02094617     0.96810723
     0.60571053     0.00398929     0.80875030
     0.25833024    -0.01133127     0.59537534
     0.05879727     0.00361330    -0.07268832
     3.70059400     0.04558520     0.61793953
     3.14536125     0.08486426     0.82318400
     2.62099473     0.10360423     0.93652044
     2.10032583     0.10524974     0.99283637
     1.58331942     0.09511467     0.99207396
     1.07102891     0.06439597     0.92539254
     0.57734675     0.03566616     0.76439673
     0.24214336    -0.01286874     0.55690084
     0.06462646    -0.01287375    -0.06740063
     3.69782130     0.08578897     0.56465069
     3.14690415     0.13568353     0.75447777
     2.62571504     0.16022574     0.86122978
     2.10205332     0.16243387     0.91548196
     1.58328001     0.14870961     0.92067698
     1.06875621     0.10942042     0.87251289
     0.57044623     0.06445332     0.71875024
     0.23675270    -0.01109814     0.53345488
     0.05239223    -0.02264016    -0.04200957
     3.69202484     0.12452039     0.50091691
     3.16367590     0.18299851     0.67059775
     2.63966799     0.21110934     0.76662621
     2.11826337     0.21449781     0.81619325
     1.60078457     0.19595049     0.82650936
     1.08678615     0.15083582     0.79562491
     0.58213492     0.07132393     0.68761692
     0.28718216    -0.01637053     0.47051421
     0.00000000     0.00000000     0.00000000
     3.72319056    -0.26721340     0.59819789
     3.21853834    -0.31219742     0.78857574
     2.72024516    -0.32596138     0.89292085
     2.22229935    -0.31984089     0.94601504
     1.72821069    -0.29362432     0.95445082
     1.24139459    -0.24037143     0.91142629
     0.77087040    -0.15628123     0.80650690
     0.42549819    -0.04393822     0.60295172
     0.00000000     0.00000000     0.00000000
     3.72147178    -0.23680432     0.68635838
     3.22011465    -0.27302960     0.90137419
     2.72470684    -0.28332326     1.02071870
     2.22992246    -0.27666415     1.07978386
     1.74172100    -0.25244858     1.08656958
     1.26119793    -0.20610934     1.03109584
     0.80139326    -0.13463825     0.89936685
     0.46685213    -0.04184469     0.68094979
     0.00000000     0.00000000     0.00000000
     3.72000148    -0.20261959     0.75643118
     3.22082156    -0.22915192     0.99316874
     2.72695158    -0.23635403     1.12295195
     2.23636389    -0.22931526     1.18850719
     1.75050435    -0.20795906     1.19056139
     1.27821747    -0.16993625     1.12637039
     0.81989516    -0.11036806     0.97196167
     0.50099142    -0.04018611     0.73438224
     0.00000000     0.00000000     0.00000000
     3.71901128    -0.16469413     0.80743190
     3.21949449    -0.18247873     1.06034862
     2.72766692    -0.18542620     1.19926686
     2.23804103    -0.17940196     1.26793408
     1.75660147    -0.16129320     1.26779604
     1.28428737    -0.13240679     1.19404225
     0.83411834    -0.08657721     1.02340155
     0.52101072    -0.03505971     0.76722846
     0.00000000     0.00000000     0.00000000
     3.71723134    -0.12541442     0.83841755
     3.21688671    -0.13273797     1.10257351
     2.72461690    -0.13319799     1.24638775
     2.23666433    -0.12638887     1.31895015
     1.75446759    -0.11485224     1.31408268
     1.28643624    -0.09298882     1.23848509
     0.82470479    -0.06317713     1.04795614
     0.53392079    -0.02834671     0.77478813
     0.00000000     0.00000000     0.00000000
     3.71451175    -0.08467645     0.84937244
     3.21230753    -0.08288978     1.11801009
     2.71866027    -0.07844449     1.26472239
     2.22968449    -0.07418020     1.33825021
     1.74700798    -0.06564746     1.33291368
     1.27725462    -0.05695117     1.25263187
     0.81797742    -0.03586811     1.06193667
     0.50481323    -0.01841747     0.72943929
     0.00000000     0.00000000     0.00000000
     3.71102855    -0.04468615     0.83990691
     3.20578863    -0.03195389     1.10657036
     2.70972614    -0.02512383     1.25334452
     2.21733331    -0.02001914     1.32624207
     1.73329086    -0.01948833     1.32218361
     1.26036476    -0.01759950     1.24138329
     0.79827616    -0.01739389     1.04518471
     0.49791380    -0.00259262     0.76562197
     0.00000000     0.00000000     0.00000000
     3.70685432    -0.00507486     0.80978118
     3.19824170     0.01689268     1.06892269
     2.69697160     0.02831220     1.21149146
     2.20183768     0.03154490     1.28405424
     1.71144946     0.02765116     1.28032505
     1.23836940     0.01762264     1.20488180
     0.76544484     0.00248616     1.00354376
     0.47744428    -0.00060724     0.75861570
     0.00000000     0.00000000     0.00000000
     3.70267622     0.03235558     0.75982916
     3.18906123     0.06387872     1.00458312
     2.68314635     0.07898190     1.14139857
     2.18061050     0.08174983     1.20986837
     1.68676200     0.07234465     1.21094334
     1.20312799     0.05197228     1.13837701
     0.72988512     0.01937853     0.95161156
     0.43265736    -0.00121437     0.71112266
     0.00000000     0.00000000     0.00000000
     3.69951949     0.06663158     0.68964654
     3.17999294     0.10738908     0.91586548
     2.66672597     0.12645654     1.04218050
     2.15857460     0.12846061     1.10608698
     1.65530757     0.11390343     1.11093809
     1.16422105     0.08395757     1.04869745
     0.67923791     0.03218242     0.88402019
     0.38381097    -0.00764904     0.64925035
     0.00000000     0.00000000     0.00000000
     3.69685709     0.09721550     0.60140835
     3.16873802     0.15079423     0.80116113
     2.64950985     0.17337786     0.91568723
     2.13291837     0.17563306     0.97362884
     1.62004471     0.15846194     0.98353326
     1.11471222     0.11922411     0.93888099
     0.61852026     0.05317938     0.80148173
     0.32239890    -0.01386795     0.59030788
     0.00000000     0.00000000     0.00000000
     0.00000000     0.00000000     0.00000000
     0.00000000     0.00000000    -0.00000000
     0.00000000     0.00000000    -0.00000000
     0.00000000     0.00000000    -0.00000000
     0.00000000     0.00000000    -0.00000000
     0.00000000     0.00000000    -0.00000000
     0.00000000     0.00000000    -0.00000000
     0.00000000     0.00000000    -0.00000000
     0.00000000     0.00000000    -0.00000000
     0.00000000     0.00000000    -0.00000000
     0.00000000     0.00000000    -0.00000000
     0.07512429    -0.01300486     0.00000000
     0.11178207     0.02045021     0.00000000
     0.11303785     0.00219589     0.00000000
     0.10304192     0.00302102     0.00000000
     0.08998635     0.00243357     0.00000000
     0.07564632     0.00057400     0.00000000
     0.06101859    -0.00218871     0.00000000
     0.04642355    -0.00539785     0.00000000
     0.03198684    -0.00853522     0.00000000
     0.01775138    -0.01136326     0.00000000
     0.00000000     0.00000000    -0.00000000
     0.22618958    -0.01919544     0.00000000
     0.23067840     0.02356748     0.00000000
     0.22066539     0.02640126     0.00000000
     0.19322871     0.02908441     0.00000000
     0.16187079     0.02747880     0.00000000
     0.13079184     0.02243539     0.00000000
     0.10075994     0.01612062     0.00000000
     0.07197352     0.00933050     0.00000000
     0.04467681     0.00244142     0.00000000
     0.01953008    -0.00244958     0.00000000
     0.00000000     0.00000000    -0.00000000
     0.27501527    -0.04485957     0.00000000
     0.25796195     0.00529018     0.00000000
     0.23002351     0.04622772     0.00000000
     0.19462232     0.05440390     0.00000000
     0.16038130     0.05069857     0.00000000
     0.12770039     0.04420064     0.00000000
     0.09688556     0.03663048     0.00000000
     0.06771846     0.02886227     0.00000000
     0.04019851     0.02130580     0.00000000
     0.01574468     0.01266073     0.00000000
     0.00000000     0.00000000    -0.00000000
     0.13988978    -0.03165473     0.00000000
     0.15719904    -0.01441769     0.00000000
     0.11623026     0.04129070     0.00000000
     0.09555235     0.04154323     0.00000000
     0.07833594     0.03958421     0.00000000
     0.06312593     0.03581276     0.00000000
     0.04891790     0.03183236     0.00000000
     0.03524853     0.02783915     0.00000000
     0.02200370     0.02363160     0.00000000
     0.00907264     0.01908145     0.00000000
     0.00000000     0.00000000    -0.00000000
     0.00000000     0.00000000    -0.00000000
     0.00000000     0.00000000    -0.00000000
     0.00000000     0.00000000    -0.00000000
     0.00000000     0.00000000    -0.00000000
     0.00000000     0.00000000    -0.00000000
     0.00000000     0.00000000    -0.00000000
     0.00000000     0.00000000    -0.00000000
     0.00000000     0.00000000    -0.00000000
     0.00000000     0.00000000    -0.00000000
     0.00000000     0.00000000    -0.00000000
     0.00000000     0.00000000    -0.00000000
     0.00000000     0.00000000     0.00000000
     0.00000000     0.00000000     0.00000000
     0.00000000     0.00000000     0.00000000
     0.00000000     0.00000000     0.00000000
     0.00000000     0.00000000     0.00000000
     0.00000000     0.00000000     0.00000000
     0.00000000     0.00000000     0.00000000
     0.00000000     0.00000000     0.00000000
     0.00000000     0.00000000     0.00000000
     0.00000000     0.00000000     0.00000000
     0.00000000     0.00000000     0.00000000
     0.06775105    -0.01288438    -0.00417264
     0.10472207     0.01877813    -0.00883030
     0.10491802     0.00131795     0.00206189
     0.09540491     0.00239891     0.00497845
     0.08343156     0.00198437     0.00580565
     0.07034419     0.00038917     0.00590634
     0.05698823    -0.00208318     0.00577753
     0.04360615    -0.00501263     0.00557610
     0.03030399    -0.00791684     0.00520997
     0.01704302    -0.01068797     0.00425565
     0.00000000     0.00000000     0.00000000
     0.20959105    -0.01871030    -0.02042340
     0.21806087     0.02183854    -0.01059138
     0.20776438     0.02445291     0.00500831
     0.18137639     0.02700015     0.01158126
     0.15186339     0.02559028     0.01359155
     0.12292474     0.02097531     0.01351148
     0.09505392     0.01516610     0.01278843
     0.06828273     0.00886032     0.01178678
     0.04274229     0.00238553     0.01010786
     0.01889810    -0.00229592     0.00671184
     0.00000000     0.00000000     0.00000000
     0.25637035    -0.04275530    -0.02342708
     0.24459995     0.00448793    -0.00915812
     0.21689437     0.04374064     0.00557640
     0.18276403     0.05133729     0.01284628
     0.15047632     0.04779212     0.01461612
     0.12001818     0.04172209     0.01419484
     0.09141157     0.03468335     0.01320280
     0.06427440     0.02744821     0.01203345
     0.03849701     0.02038739     0.01026463
     0.01527752     0.01220579     0.00681377
     0.00000000     0.00000000     0.00000000
     0.12716598    -0.02844599    -0.00870518
     0.14704235    -0.01389719    -0.00582025
     0.10708295     0.03863712     0.00615807
     0.08787564     0.03854416     0.00725457
     0.07219667     0.03685230     0.00676619
     0.05844239     0.03342736     0.00606072
     0.04556634     0.02980659     0.00553862
     0.03308673     0.02615449     0.00518488
     0.02090712     0.02229094     0.00480304
     0.00881210     0.01815817     0.00395182
     0.00000000     0.00000000     0.00000000
     0.00000000     0.00000000     0.00000000
     0.00000000     0.00000000     0.00000000
     0.00000000     0.00000000     0.00000000
     0.00000000     0.00000000     0.00000000
     0.00000000     0.00000000     0.00000000
     0.00000000     0.00000000     0.00000000
     0.00000000     0.00000000     0.00000000
     0.00000000     0.00000000     0.00000000
     0.00000000     0.00000000     0.00000000
     0.00000000     0.00000000     0.00000000
     0.00000000     0.00000000     0.00000000
     0.00000000     0.00000000     0.00000000
     0.00000000     0.00000000     0.00000000
     0.00000000     0.00000000     0.00000000
     0.00000000     0.00000000     0.00000000
     0.00000000     0.00000000     0.00000000
     0.00000000     0.00000000     0.00000000
     0.00000000     0.00000000     0.00000000
     0.00000000     0.00000000     0.00000000
     0.00000000     0.00000000     0.00000000
     0.00000000     0.00000000     0.00000000
     0.00000000     0.00000000     0.00000000
     0.05008278    -0.01376475    -0.00409076
     0.08666269     0.01396467    -0.01385677
     0.08412739    -0.00093162     0.00407464
     0.07612020     0.00075949     0.00831093
     0.06707790     0.00089486     0.00939273
     0.05721971     0.00006207     0.00948676
     0.04703996    -0.00169462     0.00928539
     0.03671783    -0.00396129     0.00902042
     0.02620046    -0.00622456     0.00853244
     0.01537880    -0.00882710     0.00717092
     0.00000000     0.00000000     0.00000000
     0.16430969    -0.01748615    -0.03077792
     0.18264283     0.01641778    -0.01847560
     0.17103591     0.01884871     0.00950741
     0.14774211     0.02107770     0.01992197
     0.12361587     0.02035362     0.02259669
     0.10079575     0.01705143     0.02215888
     0.07898350     0.01263610     0.02093082
     0.05786852     0.00766874     0.01942217
     0.03723073     0.00236164     0.01692224
     0.01711638    -0.00169931     0.01156059
     0.00000000     0.00000000     0.00000000
     0.20458887    -0.03590589    -0.03698488
     0.20656788     0.00275795    -0.01628746
     0.17930427     0.03650128     0.01081629
     0.14901043     0.04243840     0.02237749
     0.12252628     0.03936603     0.02444788
     0.09849826     0.03454005     0.02335587
     0.07610224     0.02899479     0.02165421
     0.05465144     0.02328388     0.01986275
     0.03374140     0.01760739     0.01721411
     0.01405729     0.01075058     0.01176015
     0.00000000     0.00000000     0.00000000
     0.09454912    -0.01973767    -0.01062852
     0.12068906    -0.01196445    -0.00932080
     0.08391931     0.03156339     0.01071637
     0.06866430     0.03104427     0.01188746
     0.05706410     0.03006466     0.01080786
     0.04708827     0.02747775     0.00961404
     0.03748604     0.02474816     0.00882563
     0.02794572     0.02197989     0.00834026
     0.01837298     0.01888797     0.00784030
     0.00835069     0.01577010     0.00664911
     0.00000000     0.00000000     0.00000000
     0.00000000     0.00000000     0.00000000
     0.00000000     0.00000000     0.00000000
     0.00000000     0.00000000     0.00000000
     0.00000000     0.00000000     0.00000000
     0.00000000     0.00000000     0.00000000
     0.00000000     0.00000000     0.00000000
     0.00000000     0.00000000     0.00000000
     0.00000000     0.00000000     0.00000000
     0.00000000     0.00000000     0.00000000
     0.00000000     0.00000000     0.00000000
     0.00000000     0.00000000     0.00000000
     0.00000000     0.00000000     0.00000000
     0.00000000     0.00000000     0.00000000
     0.00000000     0.00000000     0.00000000
     0.00000000     0.00000000     0.00000000
     0.00000000     0.00000000     0.00000000
     0.00000000     0.00000000     0.00000000
     0.00000000     0.00000000     0.00000000
     0.00000000     0.00000000     0.00000000
     0.00000000     0.00000000     0.00000000
     0.00000000     0.00000000     0.00000000
     0.00000000     0.00000000     0.00000000
     0.02491200    -0.01543595     0.00430546
     0.05978278     0.00661104    -0.01290827
     0.05390127    -0.00378729     0.00548884
     0.04898347    -0.00132057     0.00861823
     0.04429290    -0.00014179     0.00940768
     0.03880515    -0.00023342     0.00947915
     0.03285862    -0.00115091     0.00930351
     0.02661646    -0.00252990     0.00908347
     0.02019197    -0.00410585     0.00881403
     0.01273728    -0.00612578     0.00789898
     0.00000000     0.00000000     0.00000000
     0.09853756    -0.01708287    -0.02226389
     0.12780063     0.00770509    -0.02013559
     0.11379027     0.00998831     0.01258936
     0.09643874     0.01191907     0.02149021
     0.08140031     0.01277338     0.02309932
     0.06795182     0.01125829     0.02232219
     0.05501736     0.00878503     0.02108560
     0.04211501     0.00573275     0.01978670
     0.02886939     0.00208763     0.01784176
     0.01421483    -0.00088535     0.01302507
     0.00000000     0.00000000     0.00000000
     0.12661000    -0.02574981    -0.03041225
     0.14637016    -0.00009643    -0.01825769
     0.11970822     0.02459129     0.01475037
     0.09672446     0.02845359     0.02456094
     0.08044211     0.02649027     0.02514374
     0.06639708     0.02369902     0.02360729
     0.05314774     0.02042941     0.02187297
     0.03999091     0.01696818     0.02028742
     0.02639839     0.01350021     0.01819935
     0.01199085     0.00847097     0.01329316
     0.00000000     0.00000000     0.00000000
     0.05175927    -0.01038371    -0.00257511
     0.08310973    -0.00870593    -0.00922031
     0.05126680     0.02153240     0.01251848
     0.04204396     0.02077826     0.01201873
     0.03662274     0.02042157     0.01052382
     0.03149661     0.01906795     0.00941709
     0.02611758     0.01752770     0.00872327
     0.02042499     0.01589228     0.00833198
     0.01451774     0.01415806     0.00806435
     0.00750242     0.01215705     0.00731833
     0.00000000     0.00000000     0.00000000
     0.00000000     0.00000000     0.00000000
     0.00000000     0.00000000     0.00000000
     0.00000000     0.00000000     0.00000000
     0.00000000     0.00000000     0.00000000
     0.00000000     0.00000000     0.00000000
     0.00000000     0.00000000     0.00000000
     0.00000000     0.00000000     0.00000000
     0.00000000     0.00000000     0.00000000
     0.00000000     0.00000000     0.00000000
     0.00000000     0.00000000     0.00000000
     0.00000000     0.00000000     0.00000000
     0.00000000     0.00000000     0.00000000
     0.00000000     0.00000000     0.00000000
     0.00000000     0.00000000     0.00000000
     0.00000000     0.00000000     0.00000000
     0.00000000     0.00000000     0.00000000
     0.00000000     0.00000000     0.00000000
     0.00000000     0.00000000     0.00000000
     0.00000000     0.00000000     0.00000000
     0.00000000     0.00000000     0.00000000
     0.00000000     0.00000000     0.00000000
     0.00000000     0.00000000     0.00000000
    -0.00593363    -0.02345549     0.02441034
     0.02486660     0.00058609    -0.00585559
     0.01928228    -0.00479404     0.00431904
     0.01964459    -0.00091663     0.00541568
     0.01950771    -0.00031846     0.00585475
     0.01828785    -0.00014256     0.00588893
     0.01647986    -0.00046519     0.00580104
     0.01432304    -0.00100802     0.00573414
     0.01198117    -0.00139027     0.00552494
     0.00985936    -0.00308433     0.00580862
     0.00000000     0.00000000     0.00000000
     0.01957533    -0.01585761     0.01327772
     0.05712155    -0.00240761    -0.01201459
     0.04311107     0.00041354     0.01074195
     0.03743687     0.00347718     0.01313752
     0.03403502     0.00499521     0.01383926
     0.03086482     0.00490573     0.01329428
     0.02711976     0.00425523     0.01271781
     0.02280847     0.00325185     0.01220412
     0.01789222     0.00173451     0.01131917
     0.01121113     0.00003233     0.01006613
     0.00000000     0.00000000     0.00000000
     0.02839262    -0.00990383     0.00857024
     0.06652405    -0.00473481    -0.01070642
     0.04383264     0.00849159     0.01302929
     0.03600393     0.01115118     0.01506301
     0.03296112     0.01128150     0.01498979
     0.02988274     0.01105362     0.01403279
     0.02617963     0.01024832     0.01319336
     0.02181827     0.00911857     0.01253598
     0.01667432     0.00795864     0.01157678
     0.00990096     0.00593080     0.01030491
     0.00000000     0.00000000     0.00000000
     0.00118688     0.00356316     0.01792392
     0.03726695    -0.00658360    -0.00397259
     0.01369707     0.00883831     0.00932570
     0.01509485     0.00778220     0.00684032
     0.01518615     0.00920831     0.00625187
     0.01452123     0.00920810     0.00562795
     0.01305453     0.00894194     0.00532138
     0.01113969     0.00846539     0.00518757
     0.00911727     0.00765207     0.00499961
     0.00662528     0.00804210     0.00535212
     0.00000000     0.00000000     0.00000000
     0.00000000     0.00000000     0.00000000
     0.00000000     0.00000000     0.00000000
     0.00000000     0.00000000     0.00000000
     0.00000000     0.00000000     0.00000000
     0.00000000     0.00000000     0.00000000
     0.00000000     0.00000000     0.00000000
     0.00000000     0.00000000     0.00000000
     0.00000000     0.00000000     0.00000000
     0.00000000     0.00000000     0.00000000
     0.00000000     0.00000000     0.00000000
     0.00000000     0.00000000     0.00000000
     0.00000000     0.00000000     0.00000000
     0.00000000     0.00000000     0.00000000
     0.00000000     0.00000000     0.00000000
     0.00000000     0.00000000     0.00000000
     0.00000000     0.00000000     0.00000000
     0.00000000     0.00000000     0.00000000
     0.00000000     0.00000000     0.00000000
     0.00000000     0.00000000     0.00000000
     0.00000000     0.00000000     0.00000000
     0.00000000     0.00000000     0.00000000
     0.00000000     0.00000000     0.00000000
     0.00000000     0.00000000     0.00000000
     0.00000000     0.00000000     0.00000000
     0.00000000     0.00000000     0.00000000
     0.00000000     0.00000000     0.00000000
     0.00000000     0.00000000     0.00000000
     0.00000000     0.00000000     0.00000000
     0.00000000     0.00000000     0.00000000
     0.00000000     0.00000000     0.00000000
     0.00000000     0.00000000     0.00000000
     0.00000000     0.00000000     0.00000000
     0.00000000     0.00000000     0.00000000
     0.00000000     0.00000000     0.00000000
     0.00000000     0.00000000     0.00000000
     0.00000000     0.00000000     0.00000000
     0.00000000     0.00000000     0.00000000
     0.00000000     0.00000000     0.00000000
     0.00000000     0.00000000     0.00000000
     0.00000000     0.00000000     0.00000000
     0.00000000     0.00000000     0.00000000
     0.00000000     0.00000000     0.00000000
     0.00000000     0.00000000     0.00000000
     0.00000000     0.00000000     0.00000000
     0.00000000     0.00000000     0.00000000
     0.00000000     0.00000000     0.00000000
     0.00000000     0.00000000     0.00000000
     0.00000000     0.00000000     0.00000000
     0.00000000     0.00000000     0.00000000
     0.00000000     0.00000000     0.00000000
     0.00000000     0.00000000     0.00000000
     0.00000000     0.00000000     0.00000000
     0.00000000     0.00000000     0.00000000
     0.00000000     0.00000000     0.00000000
     0.00000000     0.00000000     0.00000000
     0.00000000     0.00000000     0.00000000
     0.00000000     0.00000000     0.00000000
     0.00000000     0.00000000     0.00000000
     0.00000000     0.00000000     0.00000000
     0.00000000     0.00000000     0.00000000
     0.00000000     0.00000000     0.00000000
     0.00000000     0.00000000     0.00000000
     0.00000000     0.00000000     0.00000000
     0.00000000     0.00000000     0.00000000
     0.00000000     0.00000000     0.00000000
     0.00000000     0.00000000     0.00000000
     0.00000000     0.00000000     0.00000000
     0.00000000     0.00000000     0.00000000
     0.00000000     0.00000000     0.00000000
     0.00000000     0.00000000     0.00000000
     0.00000000     0.00000000     0.00000000
     0.00000000     0.00000000     0.00000000
     0.00000000     0.00000000     0.00000000
     0.00000000     0.00000000     0.00000000
     0.00000000     0.00000000     0.00000000
     0.00000000     0.00000000     0.00000000
     0.00000000     0.00000000     0.00000000
     0.00000000     0.00000000     0.00000000
     0.00000000     0.00000000     0.00000000
     0.00000000     0.00000000     0.00000000
     0.00000000     0.00000000     0.00000000
     0.00000000     0.00000000     0.00000000
     0.00000000     0.00000000     0.00000000
     0.00000000     0.00000000     0.00000000
     0.00000000     0.00000000     0.00000000
     0.14452980    -0.02201628     0.00000000
     0.13497665    -0.02622925     0.00000000
     0.10846936    -0.02013388     0.00000000
     0.08281440    -0.01425647     0.00000000
     0.06156460    -0.00893339     0.00000000
     0.04383993    -0.00438346     0.00000000
     0.02834003    -0.00045975     0.00000000
     0.01445912     0.00366492     0.00000000
     0.00000000     0.00000000     0.00000000
     0.19974554    -0.02728277     0.00000000
     0.18597173    -0.04308967     0.00000000
     0.15210027    -0.03898905     0.00000000
     0.11768168    -0.03027472     0.00000000
     0.08729889    -0.02166462     0.00000000
     0.06077878    -0.01404805     0.00000000
     0.03707431    -0.00720439     0.00000000
     0.01577865    -0.00140704     0.00000000
     0.00000000     0.00000000     0.00000000
     0.19170124    -0.02101388     0.00000000
     0.17142988    -0.04909400     0.00000000
     0.13857063    -0.04635648     0.00000000
     0.10749555    -0.03771947     0.00000000
     0.08010538    -0.02912695     0.00000000
     0.05582978    -0.02144010     0.00000000
     0.03363188    -0.01471595     0.00000000
     0.01351476    -0.00829117     0.00000000
     0.00000000     0.00000000     0.00000000
     0.11947024    -0.01291920     0.00000000
     0.09469187    -0.03571933     0.00000000
     0.07629935    -0.03182678     0.00000000
     0.06038682    -0.02723879     0.00000000
     0.04654604    -0.02239382     0.00000000
     0.03377034    -0.01812882     0.00000000
     0.02158992    -0.01412472     0.00000000
     0.00961043    -0.01085664     0.00000000
     0.00000000     0.00000000     0.00000000
     0.00000000     0.00000000     0.00000000
     0.00000000     0.00000000     0.00000000
     0.00000000     0.00000000     0.00000000
     0.00000000     0.00000000     0.00000000
     0.00000000     0.00000000     0.00000000
     0.00000000     0.00000000     0.00000000
     0.00000000     0.00000000     0.00000000
     0.00000000     0.00000000     0.00000000
     0.00000000     0.00000000     0.00000000
     0.00000000     0.00000000     0.00000000
     0.00000000     0.00000000     0.00000000
     0.00000000     0.00000000     0.00000000
     0.00000000     0.00000000     0.00000000
     0.00000000     0.00000000     0.00000000
     0.00000000     0.00000000     0.00000000
     0.00000000     0.00000000     0.00000000
     0.00000000     0.00000000     0.00000000
     0.00000000     0.00000000     0.00000000
     0.12929632    -0.02059646    -0.01196879
     0.11873042    -0.02277476     0.00710486
     0.09636403    -0.01825168     0.00907659
     0.07480558    -0.01313596     0.00709305
     0.05646993    -0.00841209     0.00514393
     0.04073157    -0.00423976     0.00393314
     0.02665749    -0.00059590     0.00324801
     0.01382133     0.00332455     0.00264695
     0.00000000     0.00000000     0.00000000
     0.18201749    -0.02617026    -0.01793905
     0.16742860    -0.03894455     0.00674069
     0.13744218    -0.03530769     0.01102651
     0.10739894    -0.02774238     0.01002513
     0.08063471    -0.02011049     0.00794504
     0.05682273    -0.01321920     0.00638181
     0.03510646    -0.00689358     0.00522942
     0.01516614    -0.00142868     0.00356072
     0.00000000     0.00000000     0.00000000
     0.17559154    -0.02074519    -0.01769698
     0.15496646    -0.04480436     0.00564881
     0.12576778    -0.04206621     0.01033357
     0.09849892    -0.03452658     0.00908431
     0.07423453    -0.02695970     0.00724495
     0.05233220    -0.02007085     0.00590201
     0.03191985    -0.01393468     0.00492311
     0.01303783    -0.00792811     0.00339029
     0.00000000     0.00000000     0.00000000
     0.10861778    -0.01344291    -0.00928254
     0.08474391    -0.03224302     0.00472005
     0.06897988    -0.02864239     0.00559713
     0.05529012    -0.02478076     0.00450205
     0.04310964    -0.02059549     0.00351843
     0.03159314    -0.01683082     0.00295911
     0.02044031    -0.01321671     0.00265741
     0.00929107    -0.01025415     0.00232060
     0.00000000     0.00000000     0.00000000
     0.00000000     0.00000000     0.00000000
     0.00000000     0.00000000     0.00000000
     0.00000000     0.00000000     0.00000000
     0.00000000     0.00000000     0.00000000
     0.00000000     0.00000000     0.00000000
     0.00000000     0.00000000     0.00000000
     0.00000000     0.00000000     0.00000000
     0.00000000     0.00000000     0.00000000
     0.00000000     0.00000000     0.00000000
     0.00000000     0.00000000     0.00000000
     0.00000000     0.00000000     0.00000000
     0.00000000     0.00000000     0.00000000
     0.00000000     0.00000000     0.00000000
     0.00000000     0.00000000     0.00000000
     0.00000000     0.00000000     0.00000000
     0.00000000     0.00000000     0.00000000
     0.00000000     0.00000000     0.00000000
     0.00000000     0.00000000     0.00000000
     0.09429940    -0.01698157    -0.01507274
     0.08130867    -0.01489718     0.01071817
     0.06852452    -0.01380592     0.01348138
     0.05635865    -0.01063563     0.01062088
     0.04460395    -0.00728592     0.00787507
     0.03341945    -0.00396819     0.00617948
     0.02267022    -0.00100472     0.00524075
     0.01234782     0.00237851     0.00442719
     0.00000000     0.00000000     0.00000000
     0.13821222    -0.02340486    -0.02549823
     0.12134852    -0.02848650     0.01080882
     0.10059235    -0.02599320     0.01711484
     0.08128349    -0.02139787     0.01539158
     0.06346889    -0.01621290     0.01232640
     0.04646183    -0.01112362     0.01012562
     0.02984872    -0.00612590     0.00854875
     0.01352485    -0.00156959     0.00605037
     0.00000000     0.00000000     0.00000000
     0.13589453    -0.02029740    -0.02644252
     0.11427088    -0.03412692     0.00935539
     0.09360687    -0.03130159     0.01612015
     0.07568717    -0.02640261     0.01404030
     0.05916003    -0.02134449     0.01130056
     0.04322151    -0.01644463     0.00940691
     0.02739401    -0.01180311     0.00807655
     0.01181520    -0.00688590     0.00578066
     0.00000000     0.00000000     0.00000000
     0.08339223    -0.01441023    -0.01327739
     0.06186000    -0.02426327     0.00739400
     0.05202128    -0.02140933     0.00848814
     0.04348806    -0.01907624     0.00687468
     0.03507051    -0.01635405     0.00546973
     0.02645648    -0.01373621     0.00469932
     0.01773239    -0.01100431     0.00431391
     0.00862126    -0.00873707     0.00389871
     0.00000000     0.00000000     0.00000000
     0.00000000     0.00000000     0.00000000
     0.00000000     0.00000000     0.00000000
     0.00000000     0.00000000     0.00000000
     0.00000000     0.00000000     0.00000000
     0.00000000     0.00000000     0.00000000
     0.00000000     0.00000000     0.00000000
     0.00000000     0.00000000     0.00000000
     0.00000000     0.00000000     0.00000000
     0.00000000     0.00000000     0.00000000
     0.00000000     0.00000000     0.00000000
     0.00000000     0.00000000     0.00000000
     0.00000000     0.00000000     0.00000000
     0.00000000     0.00000000     0.00000000
     0.00000000     0.00000000     0.00000000
     0.00000000     0.00000000     0.00000000
     0.00000000     0.00000000     0.00000000
     0.00000000     0.00000000     0.00000000
     0.00000000     0.00000000     0.00000000
     0.05521008    -0.01135287    -0.00838029
     0.04083919    -0.00688581     0.00970447
     0.03819733    -0.00864799     0.01175863
     0.03506247    -0.00760085     0.00953752
     0.02990550    -0.00561056     0.00737868
     0.02363757    -0.00339190     0.00601882
     0.01709669    -0.00128926     0.00531449
     0.01013987     0.00116643     0.00482460
     0.00000000     0.00000000     0.00000000
     0.08487827    -0.01871720    -0.01972883
     0.06611723    -0.01567514     0.01106296
     0.05653175    -0.01482774     0.01580974
     0.04953557    -0.01374418     0.01405196
     0.04177572    -0.01118571     0.01154726
     0.03267422    -0.00823042     0.00984930
     0.02260304    -0.00491741     0.00875501
     0.01110950    -0.00167317     0.00671921
     0.00000000     0.00000000     0.00000000
     0.08620233    -0.01887871    -0.02297370
     0.06431394    -0.02042914     0.01022497
     0.05410867    -0.01817778     0.01502483
     0.04725097    -0.01645230     0.01296239
     0.03964202    -0.01423890     0.01067816
     0.03082530    -0.01161617     0.00921584
     0.02100002    -0.00890169     0.00831687
     0.00994027    -0.00538960     0.00645741
     0.00000000     0.00000000     0.00000000
     0.05298727    -0.01414840    -0.01108330
     0.03524050    -0.01477803     0.00738371
     0.03191813    -0.01287003     0.00769618
     0.02877146    -0.01213821     0.00638294
     0.02437876    -0.01098454     0.00525626
     0.01917312    -0.00957141     0.00464187
     0.01369529    -0.00803592     0.00440542
     0.00748963    -0.00658032     0.00427464
     0.00000000     0.00000000     0.00000000
     0.00000000     0.00000000     0.00000000
     0.00000000     0.00000000     0.00000000
     0.00000000     0.00000000     0.00000000
     0.00000000     0.00000000     0.00000000
     0.00000000     0.00000000     0.00000000
     0.00000000     0.00000000     0.00000000
     0.00000000     0.00000000     0.00000000
     0.00000000     0.00000000     0.00000000
     0.00000000     0.00000000     0.00000000
     0.00000000     0.00000000     0.00000000
     0.00000000     0.00000000     0.00000000
     0.00000000     0.00000000     0.00000000
     0.00000000     0.00000000     0.00000000
     0.00000000     0.00000000     0.00000000
     0.00000000     0.00000000     0.00000000
     0.00000000     0.00000000     0.00000000
     0.00000000     0.00000000     0.00000000
     0.00000000     0.00000000     0.00000000
     0.02330936    -0.00558437     0.00125280
     0.01340958    -0.00215388     0.00501419
     0.01545802    -0.00442061     0.00626270
     0.01633613    -0.00411313     0.00524943
     0.01504466    -0.00320010     0.00433108
     0.01254723    -0.00209863     0.00371997
     0.00969662    -0.00125538     0.00333350
     0.00748085     0.00004873     0.00347148
     0.00000000     0.00000000     0.00000000
     0.03508910    -0.01422643    -0.00560845
     0.02036092    -0.00409752     0.00699078
     0.02036585    -0.00627807     0.00838202
     0.02150842    -0.00656344     0.00760294
     0.02034525    -0.00582739     0.00658506
     0.01731363    -0.00465024     0.00594869
     0.01339612    -0.00320632     0.00547288
     0.00839609    -0.00163196     0.00506788
     0.00000000     0.00000000     0.00000000
     0.03708755    -0.01629876    -0.00967518
     0.02080850    -0.00647149     0.00713180
     0.02030988    -0.00699542     0.00798594
     0.02112540    -0.00742533     0.00710145
     0.01969088    -0.00713874     0.00615059
     0.01661026    -0.00620119     0.00561463
     0.01269386    -0.00512286     0.00522606
     0.00779997    -0.00363935     0.00491133
     0.00000000     0.00000000     0.00000000
     0.02354650    -0.01203099    -0.00511527
     0.01322265    -0.00550762     0.00476191
     0.01427084    -0.00541258     0.00420050
     0.01402176    -0.00572267     0.00368286
     0.01254728    -0.00553203     0.00315765
     0.01033287    -0.00501520     0.00290980
     0.00801783    -0.00420413     0.00276519
     0.00598122    -0.00413981     0.00309263
     0.00000000     0.00000000     0.00000000
     0.00000000     0.00000000     0.00000000
     0.00000000     0.00000000     0.00000000
     0.00000000     0.00000000     0.00000000
     0.00000000     0.00000000     0.00000000
     0.00000000     0.00000000     0.00000000
     0.00000000     0.00000000     0.00000000
     0.00000000     0.00000000     0.00000000
     0.00000000     0.00000000     0.00000000
     0.00000000     0.00000000     0.00000000
     0.00000000     0.00000000     0.00000000
     0.00000000     0.00000000     0.00000000
     0.00000000     0.00000000     0.00000000
     0.00000000     0.00000000     0.00000000
     0.00000000     0.00000000     0.00000000
     0.00000000     0.00000000     0.00000000
     0.00000000     0.00000000     0.00000000
     0.00000000     0.00000000     0.00000000
     0.00000000     0.00000000     0.00000000
     0.00000000     0.00000000     0.00000000
     0.00000000     0.00000000     0.00000000
     0.00000000     0.00000000     0.00000000
     0.00000000     0.00000000     0.00000000
     0.00000000     0.00000000     0.00000000
     0.00000000     0.00000000     0.00000000
     0.00000000     0.00000000     0.00000000
     0.00000000     0.00000000     0.00000000
     0.00000000     0.00000000     0.00000000
     0.00000000     0.00000000     0.00000000
     0.00000000     0.00000000     0.00000000
     0.00000000     0.00000000     0.00000000
     0.00000000     0.00000000     0.00000000
     0.00000000     0.00000000     0.00000000
     0.00000000     0.00000000     0.00000000
     0.00000000     0.00000000     0.00000000
     0.00000000     0.00000000     0.00000000
     0.00000000     0.00000000     0.00000000
     0.00000000     0.00000000     0.00000000
     0.00000000     0.00000000     0.00000000
     0.00000000     0.00000000     0.00000000
     0.00000000     0.00000000     0.00000000
     0.00000000     0.00000000     0.00000000
     0.00000000     0.00000000     0.00000000
     0.00000000     0.00000000     0.00000000
     0.00000000     0.00000000     0.00000000
     0.00000000     0.00000000     0.00000000
     0.00000000     0.00000000     0.00000000
     0.00000000     0.00000000     0.00000000
     0.00000000     0.00000000     0.00000000
     0.00000000     0.00000000     0.00000000
     0.00000000     0.00000000     0.00000000
     0.00000000     0.00000000     0.00000000
     0.00000000     0.00000000     0.00000000
     0.00000000     0.00000000     0.00000000
     0.00000000     0.00000000     0.00000000
     0.00000000     0.00000000     0.00000000
     0.00000000     0.00000000     0.00000000
     0.00000000     0.00000000     0.00000000
     0.00000000     0.00000000     0.00000000
     0.00000000     0.00000000     0.00000000
     0.00000000     0.00000000     0.00000000
     0.00000000     0.00000000     0.00000000
     0.00000000     0.00000000     0.00000000
     0.00000000     0.00000000     0.00000000
     4.11194776    -0.34326977     0.00000000
     3.72163145    -0.47255667     0.00000000
     3.21290196    -0.53800153     0.00000000
     2.70088358    -0.57091125     0.00000000
     2.18801022    -0.57650157     0.00000000
     1.67545990    -0.55535374     0.00000000
     1.15965012    -0.50391743     0.00000000
     0.64971616    -0.39459231     0.00000000
     0.29351759    -0.31138216     0.00000000
     0.00000000     0.00000000     0.00000000
     4.11226725    -0.33976042     0.12872063
     3.72226906    -0.46704158     0.19721822
     3.21347239    -0.53213214     0.23857383
     2.70192785    -0.56432327     0.26495487
     2.18958559    -0.56954380     0.27935815
     1.67782180    -0.54828643     0.28499398
     1.16308412    -0.49723388     0.28303784
     0.65518488    -0.38887451     0.27350469
     0.29883090    -0.30469889     0.25156589
     0.00000000     0.00000000     0.17952361
     4.11274311    -0.32991744     0.25341962
     3.72329033    -0.45195179     0.38783268
     3.21510348    -0.51491737     0.47174657
     2.70495230    -0.54497882     0.52223452
     2.19435158    -0.54881658     0.55047729
     1.68463234    -0.52756031     0.56062576
     1.17387843    -0.47705520     0.55559757
     0.67115669    -0.37190555     0.53477840
     0.31542149    -0.28887469     0.48942735
     0.00000000     0.00000000     0.34261657
     4.11292550    -0.31410578     0.37287830
     3.72439590    -0.42793614     0.56969640
     3.21776046    -0.48675848     0.69246082
     2.70972879    -0.51363237     0.76534114
     2.20194458    -0.51545362     0.80524016
     1.69570122    -0.49379863     0.81842964
     1.19165154    -0.44418762     0.80777007
     0.69869982    -0.34594373     0.77198863
     0.34341543    -0.26470912     0.69573801
     0.00000000     0.00000000     0.47750201
     4.11345919    -0.29229548     0.48343982
     3.72538665    -0.39526053     0.73784275
     3.22090545    -0.44858487     0.89502928
     2.71605766    -0.47135518     0.98786825
     2.21142427    -0.47088975     1.03734388
     1.71041735    -0.44877308     1.05059255
     1.21328309    -0.40103684     1.03225232
     0.72917277    -0.31233672     0.97451367
     0.37183852    -0.23435443     0.86070079
     0.00000000     0.00000000     0.57649467
     4.11390715    -0.26595194     0.58157262
     3.72568342    -0.35645796     0.88662659
     3.22456254    -0.40113575     1.07497780
     2.72250769    -0.41980995     1.18474473
     2.22252899    -0.41697242     1.24121350
     1.72598651    -0.39481420     1.25295866
     1.23622188    -0.35097405     1.22404962
     0.75625355    -0.27194391     1.13845557
     0.39555619    -0.20223107     0.98293203
     0.00000000     0.00000000     0.63748761
     4.11241172    -0.23637606     0.66596660
     3.72686871    -0.31030020     1.01376417
     3.22722663    -0.34657194     1.22811706
     2.72909736    -0.36026307     1.35180338
     2.23234294    -0.35592445     1.41350765
     1.74151623    -0.33490159     1.42366352
     1.25755567    -0.29476299     1.37780053
     0.78421270    -0.22930419     1.26583222
     0.41482046    -0.16465620     1.07014285
     0.00000000     0.00000000     0.67196466
     4.11047685    -0.20142368     0.73535902
     3.72638221    -0.25878757     1.11694461
     3.22924281    -0.28543321     1.35139386
     2.73318983    -0.29521273     1.48608703
     2.24094806    -0.28923276     1.55207463
     1.75253667    -0.27104344     1.55975050
     1.27653926    -0.23570854     1.49538805
     0.80458146    -0.18356647     1.36294842
     0.42643739    -0.12953283     1.12440595
     0.00000000     0.00000000     0.65854946
     4.10888796    -0.16469347     0.78505900
     3.72492333    -0.20220503     1.19313243
     3.22873363    -0.22052408     1.44237921
     2.73518942    -0.22485960     1.58528469
     2.24429962    -0.21962763     1.65488408
     1.76027286    -0.20354788     1.65827526
     1.28510728    -0.17658673     1.58382793
     0.81736550    -0.13680538     1.43270322
     0.42247098    -0.09763736     1.15825391
     0.00000000     0.00000000     0.61627541
     4.10728331    -0.12475449     0.81563672
     3.72211661    -0.14439203     1.23980968
     3.22607783    -0.15131826     1.49953781
     2.73252064    -0.15262312     1.64783751
     2.24355197    -0.14612593     1.71936052
     1.75910585    -0.13597664     1.72099894
     1.28792359    -0.11484605     1.63783513
     0.80776360    -0.09087985     1.48530304
     0.40082480    -0.06893425     1.16815211
     0.00000000     0.00000000     0.56333728
     4.10501647    -0.08551461     0.82611449
     3.71803783    -0.08355948     1.25702984
     3.22038228    -0.08178390     1.52146518
     2.72576121    -0.07722461     1.67248356
     2.23600376    -0.07307178     1.74517963
     1.75124275    -0.06486808     1.74607754
     1.27808078    -0.05647805     1.65957821
     0.80331110    -0.03971653     1.50495100
     0.35179020    -0.04208072     1.16180261
     0.00000000     0.00000000     0.48436499
     4.10221147    -0.04472323     0.81658548
     3.71263129    -0.02430060     1.24405577
     3.21168520    -0.01062320     1.50783554
     2.71478797    -0.00298418     1.65848565
     2.22180288     0.00230903     1.73172547
     1.73571125     0.00364996     1.73339759
     1.25968608     0.00599913     1.64742809
     0.78157619     0.00290752     1.49244130
     0.38828810    -0.00555947     1.18107896
     0.00000000     0.00000000     0.65562721
     4.09933002    -0.00634566     0.78713202
     3.70580550     0.03496552     1.20103755
     3.20106069     0.05813284     1.45834430
     2.69891860     0.07154123     1.60622057
     2.20313662     0.07516215     1.67799671
     1.71091867     0.07387080     1.68402351
     1.23352319     0.06411333     1.59996958
     0.74909774     0.05149837     1.45104945
     0.39781873     0.01942127     1.16876637
     0.00000000     0.00000000     0.70847011
     4.09636654     0.03109619     0.73773835
     3.69894569     0.09036912     1.12855209
     3.18790824     0.12501801     1.37403027
     2.68122738     0.14263872     1.51514022
     2.17802286     0.14703139     1.58561266
     1.68161452     0.14129093     1.59460401
     1.19365759     0.12283203     1.52496824
     0.70832256     0.09784352     1.38607244
     0.38106429     0.04710600     1.14371375
     0.00000000     0.00000000     0.75231700
     4.09442441     0.06461728     0.66952612
     3.69108971     0.14166159     1.02859157
     3.17464654     0.18691904     1.25600934
     2.66063283     0.20974231     1.38772524
     2.15154552     0.21476806     1.45480091
     1.64616910     0.20594307     1.47111408
     1.15369658     0.17989523     1.42044711
     0.66302499     0.14064279     1.30459062
     0.35905866     0.08207494     1.10748731
     0.00000000     0.00000000     0.78637883
     4.09205040     0.09356010     0.58394159
     3.68499779     0.18583374     0.90302878
     3.16285579     0.24026019     1.10705129
     2.64297388     0.26780894     1.22363467
     2.12650315     0.27438714     1.28561749
     1.61477701     0.26297440     1.30058232
     1.11085825     0.23000994     1.26930677
     0.61594363     0.17586688     1.17023815
     0.31701074     0.11456207     1.01417537
     0.00000000     0.00000000     0.74345889
     4.08880948     0.11847664     0.48581626
     3.68234973     0.22582591     0.75027402
     3.15550918     0.29126964     0.91905567
     2.63187246     0.32232725     1.01796571
     2.11055180     0.33097713     1.07162213
     1.59349690     0.31744308     1.08604718
     1.08325743     0.28146483     1.06284218
     0.58505349     0.20989307     0.99300149
     0.29989007     0.13866471     0.88979928
     0.00000000     0.00000000     0.65575537
     4.08541678     0.14049952     0.37455676
     3.67825982     0.26009794     0.57902632
     3.14875036     0.33183159     0.71173749
     2.62151409     0.36751797     0.78934781
     2.09618455     0.37870930     0.83259641
     1.57298201     0.36634932     0.84705794
     1.05477012     0.32888338     0.83183212
     0.54779030     0.24650277     0.79386798
     0.26860521     0.18062902     0.72233282
     0.00000000     0.00000000     0.53121854
     4.08342444     0.15614826     0.25456884
     3.67483490     0.28476094     0.39468371
     3.14353922     0.36175374     0.48524530
     2.61375393     0.40075221     0.53894965
     2.08501170     0.41410751     0.56944509
     1.55687884     0.40344663     0.58084920
     1.02898264     0.36536231     0.57304766
     0.51094166     0.27771035     0.55252555
     0.24227979     0.21430587     0.50807746
     0.00000000     0.00000000     0.37405598
     4.08181784     0.16579210     0.12933838
     3.67280154     0.29990863     0.20080531
     3.14019117     0.38013618     0.24578468
     2.60887777     0.42130503     0.27337122
     2.07790705     0.43631767     0.28929189
     1.54689696     0.42654912     0.29531637
     1.01406283     0.38898309     0.29216217
     0.49036960     0.29984189     0.28302771
     0.23147896     0.23947911     0.26080763
     0.00000000     0.00000000     0.19374146
     4.08102865     0.16929366     0.00000000
     3.67218500     0.30509484     0.00000000
     3.13900008     0.38629961     0.00000000
     2.60727886     0.42823239     0.00000000
     2.07538051     0.44392237     0.00000000
     1.54369766     0.43433152     0.00000000
     1.00885936     0.39695794     0.00000000
     0.48479152     0.30852312     0.00000000
     0.22808970     0.24936608     0.00000000
     0.00000000     0.00000000     0.00000000
     4.20147848    -0.21223019     0.00000000
     4.21114375    -0.18703387     0.00000000
     4.21817796    -0.16231457     0.00000000
     4.22292155    -0.13702317     0.00000000
     4.22510270    -0.11177613     0.00000000
     4.22477022    -0.08645568     0.00000000
     4.22225807    -0.06116524     0.00000000
     4.21751293    -0.03603989     0.00000000
     4.21066922    -0.01081297     0.00000000
     4.20191700     0.01382135     0.00000000
     4.19043840     0.03902297     0.00000000
     4.20164787    -0.21071195     0.06167794
     4.21045597    -0.18658925     0.06787168
     4.21720414    -0.16204170     0.07268579
     4.22160223    -0.13710901     0.07613706
     4.22379685    -0.11167482     0.07769630
     4.22353573    -0.08639029     0.07754016
     4.22098282    -0.06118276     0.07729229
     4.21622190    -0.03584864     0.07526240
     4.20974219    -0.01101190     0.07143070
     4.20125032     0.01349808     0.06661126
     4.19065861     0.03761338     0.06085709
     4.20177290    -0.20623533     0.12395053
     4.20901228    -0.18362393     0.13829932
     4.21454058    -0.16004074     0.14929283
     4.21834239    -0.13550514     0.15691144
     4.21998942    -0.11101283     0.16109843
     4.21982612    -0.08624539     0.16050465
     4.21729805    -0.06150525     0.16060875
     4.21317870    -0.03712744     0.15587928
     4.20732599    -0.01264090     0.14782616
     4.20006551     0.01089101     0.13679765
     4.19106822     0.03342711     0.12275957
     4.20174927    -0.19869442     0.18362598
     4.20695482    -0.17791082     0.20619623
     4.21090464    -0.15559224     0.22423212
     4.21296640    -0.13297320     0.23755884
     4.21405686    -0.10978378     0.24405315
     4.21362039    -0.08604853     0.24452677
     4.21153424    -0.06230241     0.24347449
     4.20807402    -0.03911587     0.23640591
     4.20406106    -0.01647677     0.22253232
     4.19849309     0.00583763     0.20435702
     4.19162699     0.02637820     0.18224035
     4.20186542    -0.18794002     0.23859495
     4.20447373    -0.16938477     0.27066383
     4.20540072    -0.15001074     0.29715275
     4.20585736    -0.12958292     0.31579227
     4.20573148    -0.10800844     0.32627108
     4.20510187    -0.08586146     0.32835482
     4.20339551    -0.06378085     0.32570223
     4.20131105    -0.04211849     0.31463551
     4.19890925    -0.02156524     0.29542832
     4.19648237    -0.00205890     0.26858186
     4.19250535     0.01634167     0.23676708
     4.20180850    -0.17445825     0.28794913
     4.20041259    -0.15969305     0.33109308
     4.19866543    -0.14320718     0.36601098
     4.19694377    -0.12520038     0.39134570
     4.19538593    -0.10559197     0.40704274
     4.19415503    -0.08594885     0.41213293
     4.19328480    -0.06567661     0.40653631
     4.19289942    -0.04653443     0.39065479
     4.19275817    -0.02823201     0.36466518
     4.19297331    -0.01161144     0.32931648
     4.19324904     0.00320158     0.28597856
