# vtk DataFile Version 3.0
Example VTK
ASCII
DATASET UNSTRUCTURED_GRID
POINTS  1589 float
 -0.122157570841E+02 -0.418599559176E+01  0.114091418292E-26
 -0.102100643627E+02 -0.578123725327E+01  0.375443068913E-26
 -0.818101594042E+01 -0.674681834461E+01  0.444522633846E-26
 -0.614837562242E+01 -0.735732454303E+01  0.485631768987E-26
 -0.410607658076E+01 -0.767970756885E+01  0.506484163101E-26
 -0.206007168184E+01 -0.775775747668E+01  0.505937246763E-26
 -0.147268301768E-01 -0.758005909015E+01  0.406945719611E-26
  0.129138568458E+01 -0.713452940912E+01  0.278045068892E-26
  0.255688000000E+01 -0.652469000000E+01  0.187588827069E-26
 -0.122248421847E+02 -0.334924385752E+01  0.122804102905E-01
 -0.101836944036E+02 -0.464612554647E+01  0.000000000000E+00
 -0.818481939042E+01 -0.542807416480E+01  0.000000000000E+00
 -0.617852005627E+01 -0.592054562553E+01  0.000000000000E+00
 -0.416978452103E+01 -0.618070709735E+01  0.000000000000E+00
 -0.216266991229E+01 -0.623686073213E+01  0.000000000000E+00
 -0.159724449739E+00 -0.609383350071E+01  0.000000000000E+00
  0.117890935772E+01 -0.583791051561E+01  0.000000000000E+00
  0.252988965368E+01 -0.545234578056E+01  0.000000000000E+00
 -0.122274358580E+02 -0.251185481778E+01  0.108997890405E-01
 -0.101883944606E+02 -0.349854123504E+01  0.000000000000E+00
 -0.819153159547E+01 -0.409735906227E+01  0.000000000000E+00
 -0.620373458998E+01 -0.447162852544E+01  0.000000000000E+00
 -0.421850017040E+01 -0.466600460176E+01  0.000000000000E+00
 -0.223704247026E+01 -0.470266944464E+01  0.000000000000E+00
 -0.263233897349E+00 -0.458073134817E+01  0.000000000000E+00
  0.115164588877E+01 -0.450943689608E+01  0.000000000000E+00
  0.256753552641E+01 -0.435155727853E+01  0.000000000000E+00
 -0.122295903152E+02 -0.167631520346E+01  0.905787780864E-02
 -0.101910446621E+02 -0.235270873146E+01  0.000000000000E+00
 -0.819971397752E+01 -0.276304468056E+01  0.000000000000E+00
 -0.622059582992E+01 -0.301760882573E+01  0.000000000000E+00
 -0.424489430316E+01 -0.314696189629E+01  0.000000000000E+00
 -0.226801323718E+01 -0.316381758492E+01  0.000000000000E+00
 -0.287072343426E+00 -0.306394802852E+01  0.000000000000E+00
  0.120870040006E+01 -0.317806277831E+01  0.000000000000E+00
  0.271256534078E+01 -0.324507746163E+01  0.000000000000E+00
 -0.122301762667E+02 -0.840841699835E+00  0.681180379782E-02
 -0.101934659008E+02 -0.120725183737E+01  0.000000000000E+00
 -0.820433511589E+01 -0.142773613616E+01  0.000000000000E+00
 -0.622867668056E+01 -0.156276089655E+01  0.000000000000E+00
 -0.425297775511E+01 -0.162899519779E+01  0.000000000000E+00
 -0.226618716743E+01 -0.163175948186E+01  0.000000000000E+00
 -0.254324878572E+00 -0.156374913158E+01  0.000000000000E+00
  0.134637128209E+01 -0.187167702907E+01  0.000000000000E+00
  0.295098068594E+01 -0.215781626073E+01  0.000000000000E+00
 -0.122292822541E+02 -0.563320923014E-02  0.586248232117E-02
 -0.101924497544E+02 -0.619833113968E-01  0.000000000000E+00
 -0.820483515206E+01 -0.916372561354E-01  0.000000000000E+00
 -0.623160590835E+01 -0.107014749648E+00  0.000000000000E+00
 -0.425700637317E+01 -0.112570606769E+00  0.000000000000E+00
 -0.226530874853E+01 -0.105919121499E+00  0.000000000000E+00
 -0.236106351137E+00 -0.855836522601E-01  0.000000000000E+00
  0.152657612844E+01 -0.626032964577E+00  0.000000000000E+00
  0.333333000000E+01 -0.112691000000E+01  0.537400013032E-26
 -0.122262044610E+02  0.829641809770E+00  0.601484603175E-02
 -0.101887694960E+02  0.108408920620E+01  0.000000000000E+00
 -0.820314967150E+01  0.124706505247E+01  0.000000000000E+00
 -0.623618822052E+01  0.135270398052E+01  0.000000000000E+00
 -0.427496462147E+01  0.141025061596E+01  0.000000000000E+00
 -0.230989688881E+01  0.142641774980E+01  0.000000000000E+00
 -0.333455646370E+00  0.141505462965E+01  0.000000000000E+00
  0.122108323260E+01  0.911612014450E+00  0.000000000000E+00
  0.280350805672E+01  0.451426616158E+00  0.000000000000E+00
 -0.122215504098E+02  0.166498656170E+01  0.750794071833E-02
 -0.101803616647E+02  0.223217057359E+01  0.000000000000E+00
 -0.819359495914E+01  0.259014609586E+01  0.000000000000E+00
 -0.622683633242E+01  0.281898823227E+01  0.000000000000E+00
 -0.426990488929E+01  0.294330462092E+01  0.000000000000E+00
 -0.231752584502E+01  0.297788698789E+01  0.000000000000E+00
 -0.362304548675E+00  0.293603804590E+01  0.000000000000E+00
  0.100092873349E+01  0.246770836100E+01  0.000000000000E+00
  0.239516072990E+01  0.199001449658E+01  0.000000000000E+00
 -0.122151020377E+02  0.250024025870E+01  0.876213906878E-02
 -0.101703842146E+02  0.338286819838E+01  0.000000000000E+00
 -0.817729451906E+01  0.393784881877E+01  0.000000000000E+00
 -0.620093039360E+01  0.429007139824E+01  0.000000000000E+00
 -0.423118608795E+01  0.448239286853E+01  0.000000000000E+00
 -0.226506871564E+01  0.453625636281E+01  0.000000000000E+00
 -0.300026249775E+00  0.446352645397E+01  0.000000000000E+00
  0.908879056408E+00  0.401628271836E+01  0.000000000000E+00
  0.212987576500E+01  0.352325502284E+01  0.000000000000E+00
 -0.122071772328E+02  0.333663348639E+01  0.931884225109E-02
 -0.101585687932E+02  0.453895140693E+01  0.000000000000E+00
 -0.816174502705E+01  0.528798870327E+01  0.000000000000E+00
 -0.616388255665E+01  0.576107893933E+01  0.000000000000E+00
 -0.416539025191E+01  0.601968418604E+01  0.000000000000E+00
 -0.216451403060E+01  0.608855641526E+01  0.000000000000E+00
 -0.155693350107E+00  0.597929646083E+01  0.000000000000E+00
  0.930233962789E+00  0.554685739810E+01  0.000000000000E+00
  0.203441756298E+01  0.501760044638E+01  0.000000000000E+00
 -0.121932959840E+02  0.417269503284E+01  0.101059902703E-26
 -0.101817265809E+02  0.568778240047E+01  0.353479793406E-26
 -0.815618453604E+01  0.662876161354E+01  0.425870200345E-26
 -0.612655364025E+01  0.722407077516E+01  0.464069796092E-26
 -0.409083436926E+01  0.754709215661E+01  0.481360951808E-26
 -0.205305291701E+01  0.763067838576E+01  0.479013920607E-26
 -0.125564463940E-01  0.747877708266E+01  0.357345347602E-26
  0.983646758029E+00  0.706275049022E+01  0.240687119957E-26
  0.195297000000E+01  0.652469000000E+01  0.182887616345E-26
 -0.122153602919E+02 -0.413475400821E+01  0.665726526951E+00
 -0.102090895424E+02 -0.570690496964E+01  0.910041590378E+00
 -0.818146284092E+01 -0.666486972128E+01  0.106050452825E+01
 -0.614832366076E+01 -0.726622824290E+01  0.115614531112E+01
 -0.410568577289E+01 -0.758538398481E+01  0.120654391543E+01
 -0.205988654647E+01 -0.766258654090E+01  0.121726071394E+01
 -0.147568378440E-01 -0.748778852877E+01  0.119237493988E+01
  0.129748238884E+01 -0.705566471905E+01  0.106915154663E+01
  0.256440000000E+01 -0.647239000000E+01  0.677093000000E+00
 -0.122239214507E+02 -0.332641066385E+01  0.738030244614E+00
 -0.101847505800E+02 -0.461043695882E+01  0.101053337910E+01
 -0.818350474930E+01 -0.539021033232E+01  0.118094867744E+01
 -0.617546648265E+01 -0.587783247585E+01  0.128477013511E+01
 -0.416418889707E+01 -0.613517684626E+01  0.134362915096E+01
 -0.215357803861E+01 -0.619191924516E+01  0.136086024086E+01
 -0.144685321446E+00 -0.605003060718E+01  0.133987926862E+01
  0.120050081253E+01 -0.580284382422E+01  0.120932783603E+01
  0.254931941857E+01 -0.543673163271E+01  0.796953084883E+00
 -0.122275297394E+02 -0.250663566135E+01  0.794727539875E+00
 -0.101885839609E+02 -0.348704569484E+01  0.108858851027E+01
 -0.818998135203E+01 -0.408545500839E+01  0.127299791048E+01
 -0.619971841942E+01 -0.445753311504E+01  0.138778026164E+01
 -0.420992232759E+01 -0.465115879853E+01  0.145220071942E+01
 -0.222145239817E+01 -0.468868137483E+01  0.147329313823E+01
 -0.238054148817E+00 -0.456784053728E+01  0.145009705539E+01
  0.118322049122E+01 -0.450255482738E+01  0.131212062972E+01
  0.259402399867E+01 -0.435482728811E+01  0.881669780864E+00
 -0.122292630169E+02 -0.167804898295E+01  0.830872412267E+00
 -0.101915118130E+02 -0.235201210902E+01  0.114153365011E+01
 -0.819789606183E+01 -0.276250060123E+01  0.133597002526E+01
 -0.621569441961E+01 -0.301644075941E+01  0.145718310196E+01
 -0.423528052257E+01 -0.314597884898E+01  0.152518905724E+01
 -0.225188149353E+01 -0.316416057572E+01  0.154606387108E+01
 -0.262167724820E+00 -0.306604342021E+01  0.152163720534E+01
  0.124022338093E+01 -0.318463055062E+01  0.137577333751E+01
  0.273938446140E+01 -0.325335602073E+01  0.917727061053E+00
 -0.122301049858E+02 -0.843523501601E+00  0.847632821822E+00
 -0.101935754491E+02 -0.120818359516E+01  0.116662155537E+01
 -0.820237140096E+01 -0.142857061830E+01  0.136609376434E+01
 -0.622363613549E+01 -0.156324173213E+01  0.148987940427E+01
 -0.424398449845E+01 -0.162988777309E+01  0.155855284337E+01
 -0.225295934898E+01 -0.163402081899E+01  0.157681632717E+01
 -0.236846270341E+00 -0.156813149483E+01  0.154985764246E+01
  0.136910003606E+01 -0.187949234118E+01  0.139842871750E+01
  0.297170776294E+01 -0.216330363226E+01  0.903585135479E+00
 -0.122291658051E+02 -0.576905907655E-02  0.844297683597E+00
 -0.101927508512E+02 -0.599653256804E-01  0.116315076614E+01
 -0.820287320947E+01 -0.887139731937E-01  0.136212343545E+01
 -0.622662785941E+01 -0.103384057804E+00  0.148551393728E+01
 -0.424863606222E+01 -0.108947774741E+00  0.155308933467E+01
 -0.225441307129E+01 -0.103314835703E+00  0.156983806941E+01
 -0.225064687812E+00 -0.843209036732E-01  0.153426235278E+01
  0.153300317075E+01 -0.624911801062E+00  0.136121406988E+01
  0.333333000000E+01 -0.112691000000E+01  0.833333000000E+00
 -0.122260113087E+02  0.831985347791E+00  0.846356914664E+00
 -0.101887303728E+02  0.108920734306E+01  0.116542199051E+01
 -0.820106671091E+01  0.125370979096E+01  0.136430167600E+01
 -0.623078836711E+01  0.136047293521E+01  0.148873161164E+01
 -0.426529842193E+01  0.141837500331E+01  0.155821620736E+01
 -0.229552618974E+01  0.143415817954E+01  0.157958331683E+01
 -0.313861636588E+00  0.142049705931E+01  0.155186469502E+01
  0.123958455515E+01  0.915265903340E+00  0.142125493872E+01
  0.282054790819E+01  0.429928581024E+00  0.986311409608E+00
 -0.122210532682E+02  0.166647981007E+01  0.828370459505E+00
 -0.101804740261E+02  0.223589313219E+01  0.113842578027E+01
 -0.819142208558E+01  0.259498634936E+01  0.133110625442E+01
 -0.622127860139E+01  0.282473190555E+01  0.145297493837E+01
 -0.425941795375E+01  0.294941984813E+01  0.152154997196E+01
 -0.230059873953E+01  0.298364823985E+01  0.154332767382E+01
 -0.337565999639E+00  0.293885980814E+01  0.152063086527E+01
  0.102848075351E+01  0.247119165612E+01  0.141697440887E+01
  0.242103754245E+01  0.197195469924E+01  0.107321903047E+01
 -0.122149368695E+02  0.249474137286E+01  0.791029306044E+00
 -0.101705699359E+02  0.337621821685E+01  0.108252377082E+01
 -0.817565222630E+01  0.393036871374E+01  0.126296926955E+01
 -0.619625587731E+01  0.428222450414E+01  0.137832681941E+01
 -0.422203470900E+01  0.447434537852E+01  0.144265314493E+01
 -0.224997621287E+01  0.452759162730E+01  0.146381344636E+01
 -0.277778014726E+00  0.445206824937E+01  0.144284532592E+01
  0.935692847375E+00  0.401033745338E+01  0.135103429609E+01
  0.215476461496E+01  0.351342818830E+01  0.106563709015E+01
 -0.122065732624E+02  0.331378698869E+01  0.733618951508E+00
 -0.101602191366E+02  0.450884542031E+01  0.999745282889E+00
 -0.816130650260E+01  0.525293470172E+01  0.116520673546E+01
 -0.616123255747E+01  0.572341060226E+01  0.126931028381E+01
 -0.416005022067E+01  0.598047585376E+01  0.132776261748E+01
 -0.215621771200E+01  0.604859721891E+01  0.134459111804E+01
 -0.143886346970E+00  0.593803554663E+01  0.132360823987E+01
  0.947828098524E+00  0.551475138198E+01  0.122667246183E+01
  0.205099491696E+01  0.500083965247E+01  0.954522034562E+00
 -0.121935154706E+02  0.412130140950E+01  0.660010552430E+00
 -0.101822411722E+02  0.561854350529E+01  0.894866222198E+00
 -0.815653459754E+01  0.654800494352E+01  0.104276876648E+01
 -0.612650829963E+01  0.713648415642E+01  0.113495845290E+01
 -0.409075213380E+01  0.745588075652E+01  0.118467211517E+01
 -0.205299101551E+01  0.753835599957E+01  0.119866317508E+01
 -0.121461915578E-01  0.738773983635E+01  0.117653323130E+01
  0.991360862123E+00  0.698003667336E+01  0.106645905381E+01
  0.196387000000E+01  0.646426000000E+01  0.786055000000E+00
 -0.122153531749E+02 -0.398197199848E+01  0.131079701461E+01
 -0.102089657301E+02 -0.549409421349E+01  0.179474765663E+01
 -0.818260415550E+01 -0.642042296878E+01  0.209313964616E+01
 -0.614781201494E+01 -0.699720746947E+01  0.228017094396E+01
 -0.410482409644E+01 -0.730594497260E+01  0.237761514694E+01
 -0.205973103307E+01 -0.738063871963E+01  0.240220541292E+01
 -0.144275271222E-01 -0.721415342828E+01  0.235421194183E+01
  0.131308181354E+01 -0.682168715463E+01  0.211245700378E+01
  0.258678000000E+01 -0.631679000000E+01  0.133751000000E+01
 -0.122223959396E+02 -0.322300908607E+01  0.145891366167E+01
 -0.101866573404E+02 -0.446319348486E+01  0.200276685002E+01
 -0.818314171948E+01 -0.521993952433E+01  0.233887809729E+01
 -0.617070749289E+01 -0.568978558122E+01  0.254519486113E+01
 -0.415280773965E+01 -0.593958965865E+01  0.266151240362E+01
 -0.213304682801E+01 -0.599572026138E+01  0.269410069701E+01
 -0.110855202921E+00 -0.585702560840E+01  0.264915404271E+01
  0.125465879109E+01 -0.564117463260E+01  0.238834077668E+01
  0.260286161113E+01 -0.533820883223E+01  0.157018345661E+01
 -0.122263238517E+02 -0.244086688644E+01  0.157256963832E+01
 -0.101890302506E+02 -0.339117723147E+01  0.216355706196E+01
 -0.818786262876E+01 -0.397247741965E+01  0.252850450367E+01
 -0.619080446924E+01 -0.433291499532E+01  0.275579121327E+01
 -0.418968210435E+01 -0.452190702435E+01  0.288165683374E+01
 -0.218497551555E+01 -0.455970301339E+01  0.292053452801E+01
 -0.179097137577E+00 -0.444215346452E+01  0.287154935188E+01
  0.126208142647E+01 -0.440234116970E+01  0.259246610526E+01
  0.266840277305E+01 -0.429881395055E+01  0.173501757970E+01
 -0.122286168678E+02 -0.164009914396E+01  0.164969868475E+01
 -0.101915633424E+02 -0.229390788707E+01  0.227318902206E+01
 -0.819361903864E+01 -0.269262813805E+01  0.265911915405E+01
 -0.620324223218E+01 -0.293946143770E+01  0.289925497550E+01
 -0.421096973137E+01 -0.306659224161E+01  0.303293717942E+01
 -0.221169367122E+01 -0.308641161585E+01  0.307163326239E+01
 -0.201075021969E+00 -0.299343890670E+01  0.301980052678E+01
  0.132046706427E+01 -0.313272014632E+01  0.272332861517E+01
  0.281488066970E+01 -0.322715536239E+01  0.180733735997E+01
 -0.122298987102E+02 -0.826473280636E+00  0.168761783304E+01
 -0.101938474452E+02 -0.117888881356E+01  0.232743420395E+01
 -0.819751563209E+01 -0.139182537041E+01  0.272417135488E+01
 -0.621012405268E+01 -0.152238804265E+01  0.296976982976E+01
 -0.421995705453E+01 -0.158822930628E+01  0.310572512360E+01
 -0.221793192313E+01 -0.159480278126E+01  0.314136663760E+01
 -0.191532797952E+00 -0.153424686790E+01  0.308554505212E+01
  0.142736150299E+01 -0.186021582751E+01  0.277775133210E+01
  0.302757314606E+01 -0.215626422760E+01  0.178570468264E+01
 -0.122291489424E+02 -0.626804563606E-02  0.168519465356E+01
 -0.101931092971E+02 -0.549548836645E-01  0.232471603600E+01
 -0.819796304345E+01 -0.802550013833E-01  0.272137747488E+01
 -0.621300178715E+01 -0.929045531836E-01  0.296668704259E+01
 -0.422533567638E+01 -0.983360111375E-01  0.310124077973E+01
 -0.222371501529E+01 -0.948096353035E-01  0.313508021866E+01
 -0.192917656428E+00 -0.783468396586E-01  0.306671075111E+01
  0.155231235651E+01 -0.619937170252E+00  0.272366669687E+01
  0.333333000000E+01 -0.112691000000E+01  0.166667000000E+01
 -0.122257117642E+02  0.814067786771E+00  0.168558298172E+01
 -0.101890643556E+02  0.107001337313E+01  0.232504617753E+01
 -0.819597285888E+01  0.123361408515E+01  0.272077623998E+01
 -0.621600235145E+01  0.134024212424E+01  0.296740934766E+01
 -0.423809992446E+01  0.139731342262E+01  0.310470549643E+01
 -0.225436963111E+01  0.141191958860E+01  0.314554978353E+01
 -0.257119673047E+00  0.139372571048E+01  0.308963583916E+01
  0.129877180576E+01  0.886587937702E+00  0.282836478210E+01
  0.286761594594E+01  0.378811558560E+00  0.196198289536E+01
 -0.122203788147E+02  0.162775182777E+01  0.164579958306E+01
 -0.101804518958E+02  0.218757407673E+01  0.226700111829E+01
 -0.818681769991E+01  0.254003645526E+01  0.265015024978E+01
 -0.620730404764E+01  0.276637065205E+01  0.289117125224E+01
 -0.423181825918E+01  0.288853374060E+01  0.302552215145E+01
 -0.225520499532E+01  0.292086380579E+01  0.306627375039E+01
 -0.270583680435E+00  0.287041085957E+01  0.301873615189E+01
  0.111143144509E+01  0.240565141113E+01  0.280864191212E+01
  0.249897603117E+01  0.189722682549E+01  0.212311079889E+01
 -0.122137709138E+02  0.242840047796E+01  0.156688048346E+01
 -0.101707818759E+02  0.328962530517E+01  0.215136284076E+01
 -0.817284770709E+01  0.382962404493E+01  0.250960586630E+01
 -0.618576717533E+01  0.417344559603E+01  0.273748117973E+01
 -0.419993658970E+01  0.436109333832E+01  0.286330129946E+01
 -0.221287511936E+01  0.441154902991E+01  0.290324238609E+01
 -0.222347908747E+00  0.433072416328E+01  0.285964644925E+01
  0.101217108985E+01  0.390151222330E+01  0.267403677399E+01
  0.223286694002E+01  0.342412079838E+01  0.210319338632E+01
 -0.122056511251E+02  0.321012946106E+01  0.145154498621E+01
 -0.101630526224E+02  0.437048290686E+01  0.198084681072E+01
 -0.816136521616E+01  0.509161861708E+01  0.230881638886E+01
 -0.615623476277E+01  0.554856898380E+01  0.251500377841E+01
 -0.414868739952E+01  0.579859169757E+01  0.263037088316E+01
 -0.213753727117E+01  0.586409746519E+01  0.266333030397E+01
 -0.116951513232E+00  0.575145673694E+01  0.262009302055E+01
  0.996308887122E+00  0.535008856805E+01  0.242789796622E+01
  0.210295346157E+01  0.488707986157E+01  0.188618006292E+01
 -0.121946505652E+02  0.396807022660E+01  0.130201861175E+01
 -0.101836915036E+02  0.541230915242E+01  0.176693921733E+01
 -0.815773500906E+01  0.630840222421E+01  0.205867191745E+01
 -0.612650278458E+01  0.687624769729E+01  0.224103515949E+01
 -0.409088994425E+01  0.718480247053E+01  0.234029911876E+01
 -0.205287736425E+01  0.726398776997E+01  0.236800359463E+01
 -0.112623149217E-01  0.711741664274E+01  0.232417065292E+01
  0.101411518911E+01  0.673466453190E+01  0.210647427130E+01
  0.199630000000E+01  0.628446000000E+01  0.155276000000E+01
 -0.122162537160E+02 -0.373120031858E+01  0.192240219717E+01
 -0.102105821426E+02 -0.514976591456E+01  0.263463613393E+01
 -0.818411503407E+01 -0.601970381907E+01  0.307236434603E+01
 -0.614747864109E+01 -0.656207328824E+01  0.334356245381E+01
 -0.410450716590E+01 -0.685420991525E+01  0.349017029233E+01
 -0.205962018180E+01 -0.692364512788E+01  0.352814713357E+01
 -0.134615708438E-01 -0.676579524333E+01  0.345790383276E+01
  0.133729047652E+01 -0.643882266373E+01  0.310518007321E+01
  0.262348000000E+01 -0.606170000000E+01  0.196500000000E+01
 -0.122211105039E+02 -0.304212384795E+01  0.215277090005E+01
 -0.101902462015E+02 -0.421139704370E+01  0.295924993064E+01
 -0.818537942435E+01 -0.492416323831E+01  0.345144748065E+01
 -0.616587524612E+01 -0.536965049350E+01  0.375650548932E+01
 -0.413853822394E+01 -0.560759086628E+01  0.392508664271E+01
 -0.210731693597E+01 -0.566079417895E+01  0.397181835111E+01
 -0.707188359243E-01 -0.552409540629E+01  0.390168929710E+01
  0.132328409479E+01 -0.535835094233E+01  0.351533630688E+01
  0.267782347225E+01 -0.515993761413E+01  0.230428893974E+01
 -0.122246043965E+02 -0.231709961156E+01  0.233234975833E+01
 -0.101890655401E+02 -0.321600865469E+01  0.321169830974E+01
 -0.818539085091E+01 -0.376451581816E+01  0.374923355483E+01
 -0.617916720271E+01 -0.410742953254E+01  0.408341887030E+01
 -0.416445641168E+01 -0.428766033770E+01  0.426597772935E+01
 -0.214162206854E+01 -0.432430785982E+01  0.431848744656E+01
 -0.112603775076E+00 -0.421086566671E+01  0.424306994151E+01
  0.135563280253E+01 -0.421110861387E+01  0.382433485257E+01
  0.276900714940E+01 -0.418432710503E+01  0.254456582412E+01
 -0.122276485591E+02 -0.156364999811E+01  0.245668682541E+01
 -0.101915320351E+02 -0.218164467432E+01  0.338581829937E+01
 -0.818825978751E+01 -0.255792559190E+01  0.395674044834E+01
 -0.618696812294E+01 -0.279283635084E+01  0.431100204847E+01
 -0.417964626683E+01 -0.291405959928E+01  0.450662414765E+01
 -0.216202405351E+01 -0.293476816039E+01  0.455959448522E+01
 -0.130024690314E+00 -0.284847811111E+01  0.447814907271E+01
  0.141452732064E+01 -0.301929773064E+01  0.403107032587E+01
  0.291250737389E+01 -0.316565323259E+01  0.265731598353E+01
 -0.122296167453E+02 -0.790458618541E+00  0.252258869055E+01
 -0.101940526614E+02 -0.112082746213E+01  0.347719421629E+01
 -0.819108201538E+01 -0.131988367306E+01  0.406610994954E+01
 -0.619200354380E+01 -0.144345410765E+01  0.442931114733E+01
 -0.418689807281E+01 -0.150628893181E+01  0.463040701635E+01
 -0.217060741140E+01 -0.151448019589E+01  0.468291830682E+01
 -0.133412490491E+00 -0.146026020410E+01  0.459742287655E+01
  0.149662639286E+01 -0.180745783717E+01  0.413208134641E+01
  0.309453516383E+01 -0.213361982598E+01  0.264141538930E+01
 -0.122290962969E+02 -0.704061864729E-02  0.252718687809E+01
 -0.101934950940E+02 -0.469776795927E-01  0.348382094491E+01
 -0.819095865694E+01 -0.660866793714E-01  0.407466939147E+01
 -0.619391487603E+01 -0.757663210808E-01  0.443859617074E+01
 -0.419139512068E+01 -0.805022275894E-01  0.463893493974E+01
 -0.217657097056E+01 -0.786213615187E-01  0.469084068505E+01
 -0.141500137334E+00 -0.649312648352E-01  0.459510741902E+01
  0.158510269921E+01 -0.608741476382E+00  0.408820587830E+01
  0.333333000000E+01 -0.112691000000E+01  0.250000000000E+01
 -0.122256009519E+02  0.776481325882E+00  0.251979842951E+01
 -0.101899476244E+02  0.102785712129E+01  0.347342619602E+01
 -0.818956497396E+01  0.118922933834E+01  0.406124851849E+01
 -0.619561289315E+01  0.129454747762E+01  0.442553476759E+01
 -0.419898860111E+01  0.134912015075E+01  0.462798715238E+01
 -0.219446067668E+01  0.136240925360E+01  0.468559522487E+01
 -0.175348356484E+00  0.134003227220E+01  0.460130146037E+01
  0.138660313481E+01  0.832478321259E+00  0.421072532832E+01
  0.293819258011E+01  0.303193145906E+00  0.291834098075E+01
 -0.122199072982E+02  0.155010227341E+01  0.245134263139E+01
 -0.101822490144E+02  0.209025214623E+01  0.337682605914E+01
 -0.818225474280E+01  0.242987981494E+01  0.394481488611E+01
 -0.618931049793E+01  0.264899893078E+01  0.429980793159E+01
 -0.419403231864E+01  0.276516298896E+01  0.449538274587E+01
 -0.219208974995E+01  0.279473723763E+01  0.455103076439E+01
 -0.178945022405E+00  0.273989726406E+01  0.447611180309E+01
  0.122832434876E+01  0.228227114151E+01  0.415785021558E+01
  0.261519967534E+01  0.177438886218E+01  0.313066369237E+01
 -0.122129870126E+02  0.230375493427E+01  0.232486918509E+01
 -0.101724579465E+02  0.312616472670E+01  0.319516136767E+01
 -0.817148528984E+01  0.364077310370E+01  0.372444799842E+01
 -0.617350057173E+01  0.397063579732E+01  0.405895793242E+01
 -0.417060337138E+01  0.414818960516E+01  0.424181947887E+01
 -0.216244599310E+01  0.419400200901E+01  0.429733272897E+01
 -0.147997914173E+00  0.410967425363E+01  0.422937752176E+01
  0.112071999701E+01  0.370093194926E+01  0.394850436613E+01
  0.235384475431E+01  0.326063621401E+01  0.308781324942E+01
 -0.122051083016E+02  0.302871494430E+01  0.214340454709E+01
 -0.101662598905E+02  0.412780434008E+01  0.292826648810E+01
 -0.816266048700E+01  0.480950135055E+01  0.341015464350E+01
 -0.614985382075E+01  0.524397814723E+01  0.371474992468E+01
 -0.413273787248E+01  0.547983060111E+01  0.388361267662E+01
 -0.211195400258E+01  0.554044223818E+01  0.393129745812E+01
 -0.803507390286E-01  0.542762877529E+01  0.386524950941E+01
  0.106747503417E+01  0.505870503053E+01  0.358378386945E+01
  0.218227350030E+01  0.468006890336E+01  0.277673884216E+01
 -0.121967444664E+02  0.371732770508E+01  0.191168979266E+01
 -0.101856704804E+02  0.507407069184E+01  0.259667816813E+01
 -0.815946192029E+01  0.591658465097E+01  0.302384501667E+01
 -0.612751073347E+01  0.645060334668E+01  0.329176849029E+01
 -0.409126178288E+01  0.674128868168E+01  0.343957688098E+01
 -0.205289798780E+01  0.681487437804E+01  0.348121081161E+01
 -0.110627116130E-01  0.667485422923E+01  0.341578402836E+01
  0.105156407731E+01  0.633439881709E+01  0.309554618965E+01
  0.204947000000E+01  0.598972000000E+01  0.228122000000E+01
 -0.122178383194E+02 -0.338922418141E+01  0.248519537495E+01
 -0.102143172300E+02 -0.467851330037E+01  0.341030409815E+01
 -0.818616752043E+01 -0.547424851332E+01  0.397431341466E+01
 -0.614911854084E+01 -0.596808632969E+01  0.432724242094E+01
 -0.410769657063E+01 -0.623198841606E+01  0.451969777622E+01
 -0.205740383834E+01 -0.629337804598E+01  0.457067101653E+01
 -0.107789146579E-01 -0.614789082510E+01  0.447846999595E+01
  0.137207346890E+01 -0.591384983398E+01  0.402010162248E+01
  0.267357000000E+01 -0.571343000000E+01  0.254410000000E+01
 -0.122205263868E+02 -0.278857499857E+01  0.280842062988E+01
 -0.101973379367E+02 -0.385762079315E+01  0.386211577777E+01
 -0.818953027993E+01 -0.451228312779E+01  0.449815771497E+01
 -0.615983810750E+01 -0.492173940283E+01  0.489414261425E+01
 -0.412258430871E+01 -0.513977212527E+01  0.511176844898E+01
 -0.208347941058E+01 -0.518635516229E+01  0.517178767690E+01
 -0.329632510825E-01 -0.506064110494E+01  0.507760238546E+01
  0.139282796878E+01 -0.496442615096E+01  0.457645395917E+01
  0.276181969337E+01 -0.490457434339E+01  0.299127664930E+01
 -0.122232112651E+02 -0.213893645024E+01  0.306405273411E+01
 -0.101936861565E+02 -0.296398095560E+01  0.421856219154E+01
 -0.818847785759E+01 -0.346974080603E+01  0.491788223068E+01
 -0.616785802315E+01 -0.378424944816E+01  0.535275142861E+01
 -0.413694687413E+01 -0.395038076670E+01  0.558875872293E+01
 -0.209923201618E+01 -0.398432397459E+01  0.565173426394E+01
 -0.513580286399E-01 -0.388275047036E+01  0.555137990562E+01
  0.143915104403E+01 -0.393493482244E+01  0.500441182903E+01
  0.287253479592E+01 -0.400996632174E+01  0.330938899354E+01
 -0.122261163048E+02 -0.145097252791E+01  0.324642962490E+01
 -0.101937277074E+02 -0.201704570573E+01  0.446980578399E+01
 -0.818889293149E+01 -0.236450215371E+01  0.521477238256E+01
 -0.617144110139E+01 -0.258054742805E+01  0.567691613241E+01
 -0.414505830042E+01 -0.269248933015E+01  0.593279573164E+01
 -0.211028428623E+01 -0.271141799535E+01  0.599804579190E+01
 -0.610707714959E-01 -0.263757407754E+01  0.588710478459E+01
  0.149686665357E+01 -0.284646675768E+01  0.530149318293E+01
  0.300798749715E+01 -0.306227648491E+01  0.347380352605E+01
 -0.122278938755E+02 -0.736434170349E+00  0.334996988465E+01
 -0.101939916391E+02 -0.103455130384E+01  0.461154906316E+01
 -0.818863962039E+01 -0.121591103050E+01  0.538276820704E+01
 -0.617297269688E+01 -0.132830665784E+01  0.585717942347E+01
 -0.414913834467E+01 -0.138604292649E+01  0.612205472442E+01
 -0.211641311207E+01 -0.139398211329E+01  0.619223639136E+01
 -0.675293479770E-01 -0.134798536721E+01  0.607794162646E+01
  0.156571892728E+01 -0.171953695533E+01  0.546362268081E+01
  0.315398520601E+01 -0.209312162828E+01  0.348125398989E+01
 -0.122274267308E+02 -0.816561768286E-02  0.337123488588E+01
 -0.101925491391E+02 -0.345015047283E-01  0.464043497484E+01
 -0.818735767217E+01 -0.459546198837E-01  0.541730679850E+01
 -0.617295767576E+01 -0.521761759732E-01  0.589479612226E+01
 -0.415022562911E+01 -0.550532065423E-01  0.616011957492E+01
 -0.211840984464E+01 -0.532488710411E-01  0.623031090704E+01
 -0.721879835423E-01 -0.425645377221E-01  0.611474843638E+01
  0.162979019377E+01 -0.592720817626E+00  0.545728939268E+01
  0.333333000000E+01 -0.112691000000E+01  0.333333000000E+01
 -0.122246215351E+02  0.720267516095E+00  0.334666820795E+01
 -0.101910327298E+02  0.966101531899E+00  0.460581459179E+01
 -0.818684628574E+01  0.112493623588E+01  0.537599152871E+01
 -0.617399523722E+01  0.122514611495E+01  0.585122919818E+01
 -0.415384024504E+01  0.127773598808E+01  0.611724455043E+01
 -0.212521600218E+01  0.129035913533E+01  0.618962312077E+01
 -0.801857308630E-01  0.126630280558E+01  0.607651122547E+01
  0.149065397820E+01  0.753957862999E+00  0.556321450655E+01
  0.301913924538E+01  0.213688190232E+00  0.385549448950E+01
 -0.122193316482E+02  0.143540048154E+01  0.323992573132E+01
 -0.101860287899E+02  0.194938546053E+01  0.445708811849E+01
 -0.818332605621E+01  0.227280369929E+01  0.520014817247E+01
 -0.617047973809E+01  0.247784681383E+01  0.566265162444E+01
 -0.415032546727E+01  0.258566897980E+01  0.591628360093E+01
 -0.212221372548E+01  0.261145842962E+01  0.598334078436E+01
 -0.789113278772E-01  0.255831858837E+01  0.587876516654E+01
  0.135356103120E+01  0.211284815670E+01  0.545989214905E+01
  0.274503724806E+01  0.161138037304E+01  0.409263207729E+01
 -0.122132320720E+02  0.212428261883E+01  0.305508840071E+01
 -0.101826549911E+02  0.289548447808E+01  0.419882083648E+01
 -0.817823545158E+01  0.337651470351E+01  0.488921639460E+01
 -0.616113299658E+01  0.368164238821E+01  0.532455293786E+01
 -0.413803058369E+01  0.384632398156E+01  0.555994590546E+01
 -0.210687288230E+01  0.388545065579E+01  0.562788872135E+01
 -0.643481743541E-01  0.380497016458E+01  0.553417302858E+01
  0.124223125181E+01  0.342896277551E+01  0.516059037601E+01
  0.249202887510E+01  0.303157216650E+01  0.401170667662E+01
 -0.122067017344E+02  0.277437039289E+01  0.279783996542E+01
 -0.101765893088E+02  0.378594446375E+01  0.382877613619E+01
 -0.816952903505E+01  0.441562474268E+01  0.445371664696E+01
 -0.614460757467E+01  0.481707136051E+01  0.484950107534E+01
 -0.411599650064E+01  0.503153732932E+01  0.506973331852E+01
 -0.208418973359E+01  0.508251156616E+01  0.513184267749E+01
 -0.371999999813E-01  0.497759486604E+01  0.504154710689E+01
  0.116057769396E+01  0.466309152280E+01  0.467415986268E+01
  0.228425032266E+01  0.438224806213E+01  0.361295690877E+01
 -0.121997837987E+02  0.337526146963E+01  0.247362852613E+01
 -0.101878834790E+02  0.461244573889E+01  0.336042446850E+01
 -0.816237388729E+01  0.538082882123E+01  0.391290068711E+01
 -0.612999041446E+01  0.586836976917E+01  0.426205012354E+01
 -0.409259109764E+01  0.613029607272E+01  0.445487330375E+01
 -0.205290321100E+01  0.619489217769E+01  0.450864568804E+01
 -0.113820961863E-01  0.606717648534E+01  0.442392581772E+01
  0.110221894465E+01  0.578959120430E+01  0.400924741780E+01
  0.212207000000E+01  0.558730000000E+01  0.295352000000E+01
 -0.122194337647E+02 -0.296495221807E+01  0.298664041769E+01
 -0.102159079613E+02 -0.409445656152E+01  0.410100881709E+01
 -0.819017322787E+01 -0.479107839652E+01  0.477657570689E+01
 -0.615131450955E+01 -0.522336421551E+01  0.520161252257E+01
 -0.410685524520E+01 -0.545433215460E+01  0.543268549580E+01
 -0.205722729909E+01 -0.550662842507E+01  0.549419972952E+01
 -0.903123429869E-02 -0.537796819667E+01  0.538868844499E+01
  0.142042704497E+01 -0.526080573655E+01  0.483418138813E+01
  0.273585000000E+01 -0.528053000000E+01  0.306056000000E+01
 -0.122203473375E+02 -0.246818771463E+01  0.341490859306E+01
 -0.102186040645E+02 -0.340930313455E+01  0.469093548984E+01
 -0.819087151221E+01 -0.399270520784E+01  0.546336872724E+01
 -0.615248431247E+01 -0.435726890275E+01  0.594346608702E+01
 -0.410752875986E+01 -0.454866214078E+01  0.620697592715E+01
 -0.205638026500E+01 -0.458959193391E+01  0.627951816956E+01
 -0.638595088455E-02 -0.448029706951E+01  0.616198137917E+01
  0.147272057400E+01 -0.447062038411E+01  0.554837623289E+01
  0.283639000000E+01 -0.458160000000E+01  0.363581000000E+01
 -0.122212088065E+02 -0.191049776730E+01  0.376042352196E+01
 -0.102227790305E+02 -0.263834573153E+01  0.516287110817E+01
 -0.819162746442E+01 -0.309070014564E+01  0.601723810557E+01
 -0.615078136985E+01 -0.337805680948E+01  0.654684500521E+01
 -0.410795858158E+01 -0.353201534707E+01  0.683212406278E+01
 -0.205383507997E+01 -0.356185725689E+01  0.690788908395E+01
 -0.344925221484E-02 -0.347200678177E+01  0.678394424434E+01
  0.152851287366E+01 -0.358277947009E+01  0.611613537369E+01
  0.295176000000E+01 -0.377956000000E+01  0.404840000000E+01
 -0.122225040366E+02 -0.130444812314E+01  0.401391621794E+01
 -0.102251087893E+02 -0.180246511991E+01  0.550581681569E+01
 -0.819275411753E+01 -0.211218376887E+01  0.641834550588E+01
 -0.615013946099E+01 -0.230744487117E+01  0.698339756474E+01
 -0.410238192446E+01 -0.241325152283E+01  0.729562626433E+01
 -0.205259540770E+01 -0.243821764680E+01  0.737623211165E+01
 -0.162255025288E-02 -0.237059053538E+01  0.723800090144E+01
  0.158745759362E+01 -0.261999507602E+01  0.652319484878E+01
  0.307680000000E+01 -0.291030000000E+01  0.427989000000E+01
 -0.122223687021E+02 -0.665569496543E+00  0.416797461818E+01
 -0.102254622464E+02 -0.921334554284E+00  0.571394235120E+01
 -0.819316000927E+01 -0.108128166031E+01  0.666022065226E+01
 -0.614939495878E+01 -0.118155630337E+01  0.724437833825E+01
 -0.410053283519E+01 -0.123508657065E+01  0.757003419185E+01
 -0.205136810744E+01 -0.124563425935E+01  0.765771570753E+01
  0.850934671887E-03 -0.121175786078E+01  0.751768764345E+01
  0.165061989800E+01 -0.160958586106E+01  0.675764279736E+01
  0.320592000000E+01 -0.201270000000E+01  0.431991000000E+01
 -0.122211709413E+02 -0.968111988462E-02  0.421857443428E+01
 -0.102242275115E+02 -0.181128123816E-01  0.578137663063E+01
 -0.819224531787E+01 -0.234289422943E-01  0.673842427861E+01
 -0.614849883466E+01 -0.256856804365E-01  0.732924093194E+01
 -0.409992073260E+01 -0.252550219859E-01  0.765784176965E+01
 -0.205013698955E+01 -0.209942236455E-01  0.774792559842E+01
  0.186909691348E-02 -0.168569545829E-01  0.761034624994E+01
  0.171234995827E+01 -0.577409187908E+00  0.680995395106E+01
  0.333333000000E+01 -0.112691000000E+01  0.416667000000E+01
 -0.122203756062E+02  0.646431435993E+00  0.416444909480E+01
 -0.102214041184E+02  0.884947328914E+00  0.570601424461E+01
 -0.818970794264E+01  0.103305441070E+01  0.665087407631E+01
 -0.614668094607E+01  0.112899665587E+01  0.723555363418E+01
 -0.409951219817E+01  0.118295720833E+01  0.756070279815E+01
 -0.205033236036E+01  0.119963738326E+01  0.764912305505E+01
  0.159626978109E-02  0.117606986490E+01  0.750902055875E+01
  0.160046109729E+01  0.664657013318E+00  0.687592024157E+01
  0.311477000000E+01  0.846185000000E-01  0.477384000000E+01
 -0.122171741536E+02  0.128632269385E+01  0.400705307743E+01
 -0.102169538151E+02  0.176405256429E+01  0.548979534225E+01
 -0.818599690598E+01  0.206223105056E+01  0.640042753944E+01
 -0.614497339236E+01  0.225171952134E+01  0.696526154469E+01
 -0.409995450956E+01  0.235909714583E+01  0.727418553208E+01
 -0.205288500177E+01  0.238817292308E+01  0.735484019867E+01
 -0.200651641132E-02  0.233102216310E+01  0.722204300906E+01
  0.148595248868E+01  0.189853369406E+01  0.670230633486E+01
  0.287533000000E+01  0.141185000000E+01  0.502046000000E+01
 -0.122129000088E+02  0.189356353575E+01  0.375079741569E+01
 -0.102106803205E+02  0.259734680349E+01  0.513776270052E+01
 -0.818083432733E+01  0.303658989612E+01  0.598408076522E+01
 -0.614552084096E+01  0.331763481673E+01  0.651149493770E+01
 -0.409918972240E+01  0.346638711868E+01  0.679835384056E+01
 -0.205566363553E+01  0.350026473795E+01  0.687997818312E+01
 -0.227728295450E-02  0.342164808193E+01  0.675858506794E+01
  0.137605715183E+01  0.307809957269E+01  0.629302621417E+01
  0.263311000000E+01  0.275453000000E+01  0.488788000000E+01
 -0.122097877445E+02  0.245272706960E+01  0.340355499668E+01
 -0.102051207458E+02  0.336767303966E+01  0.465566830452E+01
 -0.817681162813E+01  0.393030989936E+01  0.541847406330E+01
 -0.614162622533E+01  0.428595058781E+01  0.589983265722E+01
 -0.409830988534E+01  0.447736069016E+01  0.616475124795E+01
 -0.205310010032E+01  0.452227017277E+01  0.624001066638E+01
 -0.408512727546E-02  0.442531061522E+01  0.612761595118E+01
  0.127267038925E+01  0.416706607157E+01  0.566700100491E+01
  0.240640000000E+01  0.401125000000E+01  0.438612000000E+01
 -0.122051907238E+02  0.295032628050E+01  0.297491104826E+01
 -0.101936338404E+02  0.404180970924E+01  0.404767956250E+01
 -0.816899277789E+01  0.471534511906E+01  0.471344878275E+01
 -0.613450078072E+01  0.514099541695E+01  0.513626493099E+01
 -0.409506800561E+01  0.537100747411E+01  0.536842396663E+01
 -0.205314872643E+01  0.542658332163E+01  0.543254613537E+01
 -0.908045452769E-02  0.531309284223E+01  0.533230758048E+01
  0.117225167943E+01  0.511893924960E+01  0.483874047238E+01
  0.221231000000E+01  0.508710000000E+01  0.355309000000E+01
  0.500000000000E+01 -0.169037000000E+01  0.489859000003E-15
  0.527591000000E+01 -0.788220000000E+00  0.391887000001E-15
  0.575887000000E+01 -0.658810000000E+00  0.391887000001E-15
  0.624183000000E+01 -0.529401000000E+00  0.391887000001E-15
  0.672480000000E+01 -0.399991000000E+00  0.391887000001E-15
  0.720776000000E+01 -0.270582000000E+00  0.391887000000E-15
  0.769072000000E+01 -0.141172000000E+00  0.391887000000E-15
  0.817369000000E+01 -0.117629000000E-01  0.391887000000E-15
  0.865665000000E+01  0.117647000000E+00  0.391887000000E-15
  0.913961000000E+01  0.247056000000E+00  0.391887000000E-15
  0.962257000000E+01  0.376466000000E+00  0.391887000000E-15
  0.447702920297E+01 -0.126173104948E+00  0.391887000000E-15
  0.477945201522E+01  0.414474986517E+00  0.313510000000E-15
  0.525837898954E+01  0.572367629563E+00  0.313510000000E-15
  0.575549708962E+01  0.701502735573E+00  0.313510000000E-15
  0.625782475257E+01  0.832292919993E+00  0.313510000000E-15
  0.676230300079E+01  0.964787079803E+00  0.313510000000E-15
  0.726728730904E+01  0.109850363198E+01  0.313510000000E-15
  0.777225329100E+01  0.123282221383E+01  0.313510000000E-15
  0.827698953578E+01  0.136699099775E+01  0.313510000000E-15
  0.878144447924E+01  0.150068458681E+01  0.313510000000E-15
  0.929129000000E+01  0.161285000000E+01  0.313510000001E-15
  0.383933667143E+01  0.141510178605E+01  0.293915000000E-15
  0.427317321130E+01  0.164153179928E+01  0.235132000000E-15
  0.476853793426E+01  0.177091665051E+01  0.235132000000E-15
  0.529079827986E+01  0.189815483280E+01  0.235132000000E-15
  0.581962265413E+01  0.203086331038E+01  0.235132000000E-15
  0.634861813404E+01  0.216822346852E+01  0.235132000000E-15
  0.687641543692E+01  0.230730284082E+01  0.235132000000E-15
  0.740255199141E+01  0.244700679947E+01  0.235132000000E-15
  0.792658319537E+01  0.258681668792E+01  0.235132000000E-15
  0.844747549836E+01  0.272357071162E+01  0.235132000000E-15
  0.896000000000E+01  0.284924000000E+01  0.235132000001E-15
  0.336031933525E+01  0.299408483438E+01  0.195943000000E-15
  0.390493761188E+01  0.290547512406E+01  0.156755000000E-15
  0.442588377232E+01  0.297838753877E+01  0.156755000000E-15
  0.495916700835E+01  0.309747769475E+01  0.156755000000E-15
  0.549182569792E+01  0.323304438431E+01  0.156755000000E-15
  0.602286611919E+01  0.337237224991E+01  0.156755000000E-15
  0.655158447557E+01  0.351315225639E+01  0.156755000000E-15
  0.707809895364E+01  0.365419578348E+01  0.156755000000E-15
  0.760230806551E+01  0.379491053539E+01  0.156755000000E-15
  0.812201629705E+01  0.393726020877E+01  0.156755000000E-15
  0.862871000000E+01  0.408562000000E+01  0.156755000001E-15
  0.314410633375E+01  0.453030834389E+01  0.979717000000E-16
  0.372060173389E+01  0.417382041680E+01  0.783774000000E-16
  0.425994738328E+01  0.422357851820E+01  0.783774000000E-16
  0.477209773248E+01  0.435297724881E+01  0.783774000000E-16
  0.528030441239E+01  0.448559299880E+01  0.783774000000E-16
  0.578612116904E+01  0.462077308292E+01  0.783774000000E-16
  0.629067878352E+01  0.475623679293E+01  0.783774000000E-16
  0.679452357904E+01  0.489171497132E+01  0.783774000000E-16
  0.729775896509E+01  0.502751612152E+01  0.783774000000E-16
  0.780052602912E+01  0.516381918804E+01  0.783774000000E-16
  0.829742000000E+01  0.532201000000E+01  0.783774000006E-16
  0.292945000000E+01  0.603704000000E+01  0.186583503559E-26
  0.361947000000E+01  0.539371000000E+01  0.104879911540E-26
  0.410243000000E+01  0.552311000000E+01  0.309414096370E-27
  0.458539000000E+01  0.565252000000E+01  0.462255229821E-27
  0.506835000000E+01  0.578193000000E+01  0.477155457283E-27
  0.555132000000E+01  0.591134000000E+01  0.477649407292E-27
  0.603428000000E+01  0.604075000000E+01  0.472335705858E-27
  0.651724000000E+01  0.617016000000E+01  0.465705609305E-27
  0.700021000000E+01  0.629957000000E+01  0.457530405027E-27
  0.748317000000E+01  0.642898000000E+01  0.414107858202E-27
  0.796613000000E+01  0.655839000000E+01  0.147419889448E-27
  0.498725000000E+01 -0.164280000000E+01  0.625738000000E+00
  0.526571000000E+01 -0.750165000000E+00  0.500590000000E+00
  0.574867000000E+01 -0.620756000000E+00  0.500590000000E+00
  0.623164000000E+01 -0.491346000000E+00  0.500590000000E+00
  0.671460000000E+01 -0.361937000000E+00  0.500590000000E+00
  0.719756000000E+01 -0.232527000000E+00  0.500590000000E+00
  0.768053000000E+01 -0.103118000000E+00  0.500590000000E+00
  0.816349000000E+01  0.262920000000E-01  0.500590000000E+00
  0.864645000000E+01  0.155702000000E+00  0.500590000000E+00
  0.912941000000E+01  0.285111000000E+00  0.500590000000E+00
  0.961238000000E+01  0.414521000000E+00  0.500590000000E+00
  0.448404093360E+01 -0.121613738160E+00  0.786568111264E+00
  0.478709844107E+01  0.420704518995E+00  0.637657282873E+00
  0.526794274122E+01  0.578153472657E+00  0.617539712429E+00
  0.576492697471E+01  0.706896512680E+00  0.611743229377E+00
  0.626598210094E+01  0.837426701505E+00  0.609885161693E+00
  0.676879265251E+01  0.969535867909E+00  0.609541198753E+00
  0.727197392754E+01  0.110281303147E+01  0.609672962808E+00
  0.777517719493E+01  0.123671269365E+01  0.609948927750E+00
  0.827826669912E+01  0.137053195792E+01  0.610482706891E+00
  0.878129474439E+01  0.150414026082E+01  0.611902217119E+00
  0.929009000000E+01  0.161731000000E+01  0.618286000000E+00
  0.386153097606E+01  0.141143564673E+01  0.884884046288E+00
  0.429006748582E+01  0.164168474471E+01  0.700091592484E+00
  0.478604705736E+01  0.177173327481E+01  0.675395080607E+00
  0.530737939373E+01  0.189933811587E+01  0.664636429074E+00
  0.583399809078E+01  0.203183423609E+01  0.660852431038E+00
  0.636017680956E+01  0.216862122526E+01  0.660508860613E+00
  0.688497928706E+01  0.230699109390E+01  0.661323353829E+00
  0.740827767782E+01  0.244600054008E+01  0.662668307550E+00
  0.792979737536E+01  0.258521328200E+01  0.665098856197E+00
  0.844882624192E+01  0.272167018845E+01  0.670146522044E+00
  0.896044000000E+01  0.284757000000E+01  0.680162000000E+00
  0.338528294115E+01  0.299305731475E+01  0.885837693812E+00
  0.392247281516E+01  0.290798879712E+01  0.696620364730E+00
  0.444318893088E+01  0.298326766118E+01  0.674033962471E+00
  0.497507569561E+01  0.310330461182E+01  0.662614977830E+00
  0.550525452268E+01  0.323874915412E+01  0.659382259325E+00
  0.603331594561E+01  0.337753126281E+01  0.659583238162E+00
  0.655894346840E+01  0.351759417956E+01  0.660791372425E+00
  0.708257524613E+01  0.365789282865E+01  0.662370780025E+00
  0.760429607756E+01  0.379790284543E+01  0.664922776972E+00
  0.812222731912E+01  0.393958702561E+01  0.670036790999E+00
  0.862826000000E+01  0.408729000000E+01  0.680162000000E+00
  0.316236091735E+01  0.452116149102E+01  0.788104204252E+00
  0.373546083482E+01  0.416849882212E+01  0.630780161050E+00
  0.427373091107E+01  0.422262843521E+01  0.611128643673E+00
  0.478414710470E+01  0.435268211579E+01  0.608400966732E+00
  0.529034450733E+01  0.448502774075E+01  0.608531133954E+00
  0.579413994219E+01  0.461975856284E+01  0.609309313997E+00
  0.629678454046E+01  0.475473873525E+01  0.609961865299E+00
  0.679890477659E+01  0.488973506256E+01  0.610431891387E+00
  0.730057151365E+01  0.502503909507E+01  0.610983186174E+00
  0.780209604741E+01  0.516072904266E+01  0.612274550066E+00
  0.829861000000E+01  0.531755000000E+01  0.618286000000E+00
  0.294219000000E+01  0.598947000000E+01  0.625738000000E+00
  0.362966000000E+01  0.535565000000E+01  0.500590000000E+00
  0.411263000000E+01  0.548506000000E+01  0.500590000000E+00
  0.459559000000E+01  0.561447000000E+01  0.500590000000E+00
  0.507855000000E+01  0.574388000000E+01  0.500590000000E+00
  0.556151000000E+01  0.587329000000E+01  0.500590000000E+00
  0.604448000000E+01  0.600270000000E+01  0.500590000000E+00
  0.652744000000E+01  0.613211000000E+01  0.500590000000E+00
  0.701040000000E+01  0.626152000000E+01  0.500590000000E+00
  0.749337000000E+01  0.639093000000E+01  0.500590000000E+00
  0.797633000000E+01  0.652034000000E+01  0.500590000000E+00
  0.494933000000E+01 -0.150127000000E+01  0.123607000000E+01
  0.523537000000E+01 -0.636938000000E+00  0.988854000000E+00
  0.571833000000E+01 -0.507528000000E+00  0.988854000000E+00
  0.620130000000E+01 -0.378118000000E+00  0.988854000000E+00
  0.668426000000E+01 -0.248709000000E+00  0.988854000000E+00
  0.716722000000E+01 -0.119299000000E+00  0.988854000000E+00
  0.765019000000E+01  0.101101000000E-01  0.988854000000E+00
  0.813315000000E+01  0.139520000000E+00  0.988854000000E+00
  0.861611000000E+01  0.268929000000E+00  0.988854000000E+00
  0.909907000000E+01  0.398339000000E+00  0.988854000000E+00
  0.958204000000E+01  0.527748000000E+00  0.988854000000E+00
  0.448885803768E+01 -0.611631418452E-01  0.155130276753E+01
  0.479704195550E+01  0.476017553614E+00  0.125675755119E+01
  0.528333825343E+01  0.631234812633E+00  0.122154490726E+01
  0.577937449734E+01  0.758959699325E+00  0.121282706492E+01
  0.627669350852E+01  0.888742552369E+00  0.121036905695E+01
  0.677491783869E+01  0.101963908007E+01  0.121006554098E+01
  0.727345961344E+01  0.115182436003E+01  0.121031639551E+01
  0.777214036187E+01  0.128471171809E+01  0.121070166682E+01
  0.827109555064E+01  0.141756046293E+01  0.121142198307E+01
  0.877049381261E+01  0.155091137498E+01  0.121345258215E+01
  0.927681000000E+01  0.166687000000E+01  0.122425000000E+01
  0.391891512588E+01  0.142483406196E+01  0.174108826507E+01
  0.433442587534E+01  0.166136269204E+01  0.138385833152E+01
  0.483286885099E+01  0.179268597483E+01  0.133793023846E+01
  0.535103083831E+01  0.192109398971E+01  0.132056224205E+01
  0.587079257715E+01  0.205273833343E+01  0.131538941604E+01
  0.638856094859E+01  0.218767935490E+01  0.131544852686E+01
  0.690476416176E+01  0.232402490119E+01  0.131694174392E+01
  0.741987983212E+01  0.246107455423E+01  0.131900739316E+01
  0.793426486889E+01  0.259857095575E+01  0.132264926881E+01
  0.844784432700E+01  0.273412632248E+01  0.133064817176E+01
  0.895686000000E+01  0.286093000000E+01  0.134800000000E+01
  0.346352761476E+01  0.296682856606E+01  0.174244175711E+01
  0.397890654409E+01  0.289707960418E+01  0.137842261596E+01
  0.449931684128E+01  0.298001753962E+01  0.133540632501E+01
  0.502653654361E+01  0.310255675290E+01  0.131692348343E+01
  0.554900517990E+01  0.323747198358E+01  0.131286422560E+01
  0.606807663461E+01  0.337458173142E+01  0.131389251627E+01
  0.658482550850E+01  0.351253617069E+01  0.131604742279E+01
  0.710021142118E+01  0.365063661542E+01  0.131849502667E+01
  0.761482121089E+01  0.378863188189E+01  0.132233164988E+01
  0.812757904988E+01  0.392837403371E+01  0.133043831100E+01
  0.863184000000E+01  0.407393000000E+01  0.134800000000E+01
  0.322168656885E+01  0.445045671497E+01  0.155152518029E+01
  0.378435447628E+01  0.411596092026E+01  0.124540159629E+01
  0.431951231630E+01  0.418278809522E+01  0.121121463899E+01
  0.482508943304E+01  0.431387571544E+01  0.120766541673E+01
  0.532581628779E+01  0.444533563430E+01  0.120841053303E+01
  0.582421947629E+01  0.457898194080E+01  0.120985034394E+01
  0.632209140726E+01  0.471269965983E+01  0.121087098735E+01
  0.681985807731E+01  0.484641361533E+01  0.121153213526E+01
  0.731763339301E+01  0.498058068506E+01  0.121226359214E+01
  0.781605627182E+01  0.511475573852E+01  0.121408414665E+01
  0.831189000000E+01  0.526799000000E+01  0.122425000000E+01
  0.298012000000E+01  0.584793000000E+01  0.123607000000E+01
  0.366000000000E+01  0.524242000000E+01  0.988854000000E+00
  0.414296000000E+01  0.537183000000E+01  0.988854000000E+00
  0.462593000000E+01  0.550124000000E+01  0.988854000000E+00
  0.510889000000E+01  0.563065000000E+01  0.988854000000E+00
  0.559185000000E+01  0.576006000000E+01  0.988854000000E+00
  0.607482000000E+01  0.588947000000E+01  0.988854000000E+00
  0.655778000000E+01  0.601888000000E+01  0.988854000000E+00
  0.704074000000E+01  0.614829000000E+01  0.988854000000E+00
  0.752371000000E+01  0.627770000000E+01  0.988854000000E+00
  0.800667000000E+01  0.640711000000E+01  0.988854000000E+00
  0.488716000000E+01 -0.126925000000E+01  0.181596000000E+01
  0.518564000000E+01 -0.451325000000E+00  0.145277000000E+01
  0.566860000000E+01 -0.321916000000E+00  0.145277000000E+01
  0.615156000000E+01 -0.192506000000E+00  0.145277000000E+01
  0.663453000000E+01 -0.630967000000E-01  0.145277000000E+01
  0.711749000000E+01  0.663128000000E-01  0.145277000000E+01
  0.760045000000E+01  0.195722000000E+00  0.145277000000E+01
  0.808341000000E+01  0.325132000000E+00  0.145277000000E+01
  0.856638000000E+01  0.454541000000E+00  0.145277000000E+01
  0.904934000000E+01  0.583951000000E+00  0.145277000000E+01
  0.953230000000E+01  0.713360000000E+00  0.145277000000E+01
  0.449007868032E+01  0.533126561572E-01  0.227389293040E+01
  0.480937833856E+01  0.578003548975E+00  0.184005759538E+01
  0.530314807283E+01  0.729287561648E+00  0.180016292039E+01
  0.579588101057E+01  0.855744810728E+00  0.179334329099E+01
  0.628656015186E+01  0.983554519287E+00  0.179173501420E+01
  0.677805933581E+01  0.111322797301E+01  0.179155726396E+01
  0.727011081414E+01  0.124405520510E+01  0.179182779016E+01
  0.776258003461E+01  0.137556178649E+01  0.179216457375E+01
  0.825530526610E+01  0.150735139995E+01  0.179256591112E+01
  0.874958902097E+01  0.163981077594E+01  0.179393005723E+01
  0.925190000000E+01  0.175986000000E+01  0.180586000000E+01
  0.400448937588E+01  0.145800753402E+01  0.254008581680E+01
  0.440474066001E+01  0.170027468832E+01  0.203310052524E+01
  0.490776160223E+01  0.183346373572E+01  0.197600757267E+01
  0.541895120077E+01  0.196279523116E+01  0.196071926364E+01
  0.592592256690E+01  0.209203227605E+01  0.195750909751E+01
  0.643006184612E+01  0.222423839196E+01  0.195827060136E+01
  0.693315253983E+01  0.235763868250E+01  0.195991253371E+01
  0.743603755582E+01  0.249179354333E+01  0.196174050506E+01
  0.793935723874E+01  0.262678791720E+01  0.196459237806E+01
  0.844474844328E+01  0.276071654107E+01  0.197180952590E+01
  0.894940000000E+01  0.288877000000E+01  0.199149000000E+01
  0.358711420741E+01  0.292020914058E+01  0.253986358950E+01
  0.407290790658E+01  0.287405356608E+01  0.202811938061E+01
  0.459312479945E+01  0.296972062972E+01  0.197293932695E+01
  0.511095818759E+01  0.309522709004E+01  0.195660552370E+01
  0.561880471847E+01  0.322879533052E+01  0.195491938170E+01
  0.612334215826E+01  0.336291763634E+01  0.195670047256E+01
  0.662659308284E+01  0.349750130997E+01  0.195899615703E+01
  0.712963934030E+01  0.363224932471E+01  0.196118998904E+01
  0.763330418614E+01  0.376694282986E+01  0.196422073704E+01
  0.813814878287E+01  0.390395160377E+01  0.197153726847E+01
  0.863930000000E+01  0.404608000000E+01  0.199149000000E+01
  0.331318705891E+01  0.432379526735E+01  0.226943642965E+01
  0.386308856248E+01  0.401932175108E+01  0.182848013801E+01
  0.439314606207E+01  0.410478802627E+01  0.178967239319E+01
  0.489051426277E+01  0.423632649836E+01  0.178861717773E+01
  0.538194421132E+01  0.436704444475E+01  0.179017292096E+01
  0.587303362615E+01  0.449880577144E+01  0.179156612815E+01
  0.636445715589E+01  0.463071799830E+01  0.179250431334E+01
  0.685631832227E+01  0.476269838565E+01  0.179305722913E+01
  0.734846987949E+01  0.489479413041E+01  0.179345454582E+01
  0.784228911937E+01  0.502726264570E+01  0.179461407639E+01
  0.833681000000E+01  0.517500000000E+01  0.180586000000E+01
  0.304229000000E+01  0.561592000000E+01  0.181596000000E+01
  0.370974000000E+01  0.505681000000E+01  0.145277000000E+01
  0.419270000000E+01  0.518622000000E+01  0.145277000000E+01
  0.467566000000E+01  0.531563000000E+01  0.145277000000E+01
  0.515863000000E+01  0.544504000000E+01  0.145277000000E+01
  0.564159000000E+01  0.557445000000E+01  0.145277000000E+01
  0.612455000000E+01  0.570386000000E+01  0.145277000000E+01
  0.660751000000E+01  0.583327000000E+01  0.145277000000E+01
  0.709048000000E+01  0.596268000000E+01  0.145277000000E+01
  0.757344000000E+01  0.609209000000E+01  0.145277000000E+01
  0.805640000000E+01  0.622150000000E+01  0.145277000000E+01
  0.480228000000E+01 -0.952469000000E+00  0.235114000000E+01
  0.511773000000E+01 -0.197899000000E+00  0.188091000000E+01
  0.560069000000E+01 -0.684892000000E-01  0.188091000000E+01
  0.608366000000E+01  0.609204000000E-01  0.188091000000E+01
  0.656662000000E+01  0.190330000000E+00  0.188091000000E+01
  0.704958000000E+01  0.319739000000E+00  0.188091000000E+01
  0.753255000000E+01  0.449149000000E+00  0.188091000000E+01
  0.801551000000E+01  0.578558000000E+00  0.188091000000E+01
  0.849847000000E+01  0.707968000000E+00  0.188091000000E+01
  0.898143000000E+01  0.837378000000E+00  0.188091000000E+01
  0.946440000000E+01  0.966787000000E+00  0.188091000000E+01
  0.447963894032E+01  0.220256140238E+00  0.294093415747E+01
  0.482201003797E+01  0.722329874722E+00  0.237246780563E+01
  0.532226657891E+01  0.867024600023E+00  0.234522515983E+01
  0.580585071577E+01  0.989088581599E+00  0.234388355461E+01
  0.628896676354E+01  0.111782408877E+01  0.234284350074E+01
  0.677367660568E+01  0.124684708077E+01  0.234283076926E+01
  0.725929013090E+01  0.137672238470E+01  0.234295018356E+01
  0.774548902868E+01  0.150692591736E+01  0.234305254489E+01
  0.823198451192E+01  0.163689523990E+01  0.234336155287E+01
  0.871815469712E+01  0.176886702789E+01  0.234292376026E+01
  0.921608000000E+01  0.189354000000E+01  0.235170000000E+01
  0.409923584429E+01  0.151354803770E+01  0.326034141995E+01
  0.449573263334E+01  0.175771102086E+01  0.262714151298E+01
  0.500416216021E+01  0.189156496619E+01  0.258315782596E+01
  0.549803495607E+01  0.201813676924E+01  0.257991556856E+01
  0.598722431960E+01  0.214571363032E+01  0.257841960885E+01
  0.647561869965E+01  0.227549008177E+01  0.257917727202E+01
  0.696465933480E+01  0.240597721193E+01  0.257998068942E+01
  0.745441831061E+01  0.253696135528E+01  0.258072505053E+01
  0.794501671286E+01  0.266870020236E+01  0.258204039640E+01
  0.843825286047E+01  0.280069626805E+01  0.258390852370E+01
  0.893831000000E+01  0.293018000000E+01  0.259920000000E+01
  0.373109950738E+01  0.285703617385E+01  0.325741014134E+01
  0.419787141269E+01  0.283921187357E+01  0.262438680150E+01
  0.471734962360E+01  0.295280355071E+01  0.258059302821E+01
  0.521316218350E+01  0.308057832042E+01  0.257748024347E+01
  0.570153199208E+01  0.321064676610E+01  0.257704868634E+01
  0.618967455805E+01  0.334073056360E+01  0.257832212462E+01
  0.667855522115E+01  0.347151671936E+01  0.257945819982E+01
  0.716831386358E+01  0.360270272812E+01  0.258037864415E+01
  0.765916767979E+01  0.373389219828E+01  0.258178262237E+01
  0.815243160936E+01  0.386636321723E+01  0.258367128312E+01
  0.865040000000E+01  0.400468000000E+01  0.259920000000E+01
  0.342147965066E+01  0.414422331145E+01  0.293114050218E+01
  0.396552339179E+01  0.388131003224E+01  0.236498178976E+01
  0.448674550037E+01  0.399029732147E+01  0.233868259979E+01
  0.496777755168E+01  0.412292683789E+01  0.234175447921E+01
  0.545089875219E+01  0.425061687499E+01  0.234221776803E+01
  0.593510544785E+01  0.438025705016E+01  0.234305293944E+01
  0.642047073236E+01  0.451016073696E+01  0.234347347532E+01
  0.690647873147E+01  0.464034082775E+01  0.234366938516E+01
  0.739262384777E+01  0.477100739564E+01  0.234395951785E+01
  0.787947658410E+01  0.489983598351E+01  0.234343878807E+01
  0.837263000000E+01  0.504132000000E+01  0.235170000000E+01
  0.312717000000E+01  0.529913000000E+01  0.235114000000E+01
  0.377764000000E+01  0.480338000000E+01  0.188091000000E+01
  0.426060000000E+01  0.493279000000E+01  0.188091000000E+01
  0.474357000000E+01  0.506220000000E+01  0.188091000000E+01
  0.522653000000E+01  0.519161000000E+01  0.188091000000E+01
  0.570949000000E+01  0.532102000000E+01  0.188091000000E+01
  0.619246000000E+01  0.545043000000E+01  0.188091000000E+01
  0.667542000000E+01  0.557984000000E+01  0.188091000000E+01
  0.715838000000E+01  0.570925000000E+01  0.188091000000E+01
  0.764135000000E+01  0.583866000000E+01  0.188091000000E+01
  0.812431000000E+01  0.596807000000E+01  0.188091000000E+01
  0.469677000000E+01 -0.558718000000E+00  0.282843000000E+01
  0.503333000000E+01  0.117102000000E+00  0.226274000000E+01
  0.551629000000E+01  0.246512000000E+00  0.226274000000E+01
  0.599925000000E+01  0.375921000000E+00  0.226274000000E+01
  0.648222000000E+01  0.505331000000E+00  0.226274000000E+01
  0.696518000000E+01  0.634740000000E+00  0.226274000000E+01
  0.744814000000E+01  0.764150000000E+00  0.226274000000E+01
  0.793110000000E+01  0.893559000000E+00  0.226274000000E+01
  0.841407000000E+01  0.102297000000E+01  0.226274000000E+01
  0.889703000000E+01  0.115238000000E+01  0.226274000000E+01
  0.937999000000E+01  0.128179000000E+01  0.226274000000E+01
  0.443473000000E+01  0.419249000000E+00  0.356403000000E+01
  0.482369000000E+01  0.899475000000E+00  0.285122000000E+01
  0.530665000000E+01  0.102888000000E+01  0.285122000000E+01
  0.578962000000E+01  0.115829000000E+01  0.285122000000E+01
  0.627258000000E+01  0.128770000000E+01  0.285122000000E+01
  0.675554000000E+01  0.141711000000E+01  0.285122000000E+01
  0.723851000000E+01  0.154652000000E+01  0.285122000000E+01
  0.772147000000E+01  0.167593000000E+01  0.285122000000E+01
  0.820443000000E+01  0.180534000000E+01  0.285122000000E+01
  0.868739000000E+01  0.193475000000E+01  0.285122000000E+01
  0.917036000000E+01  0.206416000000E+01  0.285122000000E+01
  0.412668000000E+01  0.156892000000E+01  0.395075000000E+01
  0.457725000000E+01  0.181921000000E+01  0.316060000000E+01
  0.506021000000E+01  0.194862000000E+01  0.316060000000E+01
  0.554317000000E+01  0.207803000000E+01  0.316060000000E+01
  0.602614000000E+01  0.220744000000E+01  0.316060000000E+01
  0.650910000000E+01  0.233685000000E+01  0.316060000000E+01
  0.699206000000E+01  0.246626000000E+01  0.316060000000E+01
  0.747503000000E+01  0.259567000000E+01  0.316060000000E+01
  0.795799000000E+01  0.272508000000E+01  0.316060000000E+01
  0.844095000000E+01  0.285449000000E+01  0.316060000000E+01
  0.892392000000E+01  0.298390000000E+01  0.316060000000E+01
  0.380277000000E+01  0.277775000000E+01  0.395075000000E+01
  0.431812000000E+01  0.278628000000E+01  0.316060000000E+01
  0.480109000000E+01  0.291569000000E+01  0.316060000000E+01
  0.528405000000E+01  0.304509000000E+01  0.316060000000E+01
  0.576701000000E+01  0.317450000000E+01  0.316060000000E+01
  0.624998000000E+01  0.330391000000E+01  0.316060000000E+01
  0.673294000000E+01  0.343332000000E+01  0.316060000000E+01
  0.721590000000E+01  0.356273000000E+01  0.316060000000E+01
  0.769886000000E+01  0.369214000000E+01  0.316060000000E+01
  0.818183000000E+01  0.382155000000E+01  0.316060000000E+01
  0.866479000000E+01  0.395096000000E+01  0.316060000000E+01
  0.349472000000E+01  0.392742000000E+01  0.356403000000E+01
  0.407168000000E+01  0.370601000000E+01  0.285122000000E+01
  0.455465000000E+01  0.383542000000E+01  0.285122000000E+01
  0.503761000000E+01  0.396483000000E+01  0.285122000000E+01
  0.552057000000E+01  0.409424000000E+01  0.285122000000E+01
  0.600353000000E+01  0.422365000000E+01  0.285122000000E+01
  0.648650000000E+01  0.435306000000E+01  0.285122000000E+01
  0.696946000000E+01  0.448247000000E+01  0.285122000000E+01
  0.745242000000E+01  0.461188000000E+01  0.285122000000E+01
  0.793539000000E+01  0.474129000000E+01  0.285122000000E+01
  0.841835000000E+01  0.487070000000E+01  0.285122000000E+01
  0.323267000000E+01  0.490538000000E+01  0.282843000000E+01
  0.386205000000E+01  0.448838000000E+01  0.226274000000E+01
  0.434501000000E+01  0.461779000000E+01  0.226274000000E+01
  0.482797000000E+01  0.474720000000E+01  0.226274000000E+01
  0.531093000000E+01  0.487661000000E+01  0.226274000000E+01
  0.579390000000E+01  0.500602000000E+01  0.226274000000E+01
  0.627686000000E+01  0.513543000000E+01  0.226274000000E+01
  0.675982000000E+01  0.526484000000E+01  0.226274000000E+01
  0.724279000000E+01  0.539425000000E+01  0.226274000000E+01
  0.772575000000E+01  0.552366000000E+01  0.226274000000E+01
  0.820871000000E+01  0.565307000000E+01  0.226274000000E+01
  0.560370000000E+01 -0.185213000000E+01  0.275546000000E-15
  0.620741000000E+01 -0.201389000000E+01  0.275546000000E-15
  0.681111000000E+01 -0.217566000000E+01  0.275546000000E-15
  0.741481000000E+01 -0.233742000000E+01  0.275546000000E-15
  0.801852000000E+01 -0.249918000000E+01  0.275546000000E-15
  0.862222000000E+01 -0.266094000000E+01  0.275546000000E-15
  0.922593000000E+01 -0.282270000000E+01  0.275546000000E-15
  0.982963000000E+01 -0.298447000000E+01  0.275546000000E-15
  0.454689248619E+01 -0.253280647996E+01  0.220436000000E-15
  0.515986899683E+01 -0.268148528950E+01  0.220436000000E-15
  0.580048217029E+01 -0.285339188251E+01  0.220436000000E-15
  0.644273578926E+01 -0.302341183029E+01  0.220436000000E-15
  0.707967277619E+01 -0.319329702886E+01  0.220436000000E-15
  0.771193803475E+01 -0.336219156117E+01  0.220436000000E-15
  0.834117820856E+01 -0.353024854951E+01  0.220436000000E-15
  0.896815511348E+01 -0.369880062195E+01  0.220436000000E-15
  0.959669000000E+01 -0.385380000000E+01  0.220436000000E-15
  0.421127544097E+01 -0.338079261674E+01  0.165327000000E-15
  0.483397150046E+01 -0.352363279224E+01  0.165327000000E-15
  0.548896688922E+01 -0.369184519787E+01  0.165327000000E-15
  0.614715901462E+01 -0.386657759966E+01  0.165327000000E-15
  0.680042811000E+01 -0.404160836996E+01  0.165327000000E-15
  0.744844465814E+01 -0.421548610841E+01  0.165327000000E-15
  0.809240094046E+01 -0.438841033117E+01  0.165327000000E-15
  0.873264130857E+01 -0.455968881145E+01  0.165327000000E-15
  0.936375000000E+01 -0.472313000000E+01  0.165327000000E-15
  0.398297343413E+01 -0.425601116121E+01  0.110218000000E-15
  0.461376550410E+01 -0.438016404956E+01  0.110218000000E-15
  0.527020641528E+01 -0.454649792371E+01  0.110218000000E-15
  0.592536577977E+01 -0.472175283025E+01  0.110218000000E-15
  0.657584793308E+01 -0.489711594660E+01  0.110218000000E-15
  0.722171410328E+01 -0.507140464419E+01  0.110218000000E-15
  0.786426091410E+01 -0.524436532522E+01  0.110218000000E-15
  0.850327724972E+01 -0.541692032879E+01  0.110218000000E-15
  0.913082000000E+01 -0.559247000000E+01  0.110218000000E-15
  0.385773160719E+01 -0.514735825917E+01  0.551091000000E-16
  0.450103437816E+01 -0.526629307378E+01  0.551091000000E-16
  0.513651454065E+01 -0.543661353656E+01  0.551091000000E-16
  0.576955692937E+01 -0.560604629215E+01  0.551091000000E-16
  0.639898227354E+01 -0.577613258732E+01  0.551091000000E-16
  0.702616467435E+01 -0.594522343091E+01  0.551091000000E-16
  0.765194567449E+01 -0.611392716873E+01  0.551091000000E-16
  0.827712167320E+01 -0.628133364765E+01  0.551091000000E-16
  0.889788000000E+01 -0.646180000000E+01  0.551091000004E-16
  0.383531000000E+01 -0.603704000000E+01  0.128759295229E-26
  0.443902000000E+01 -0.619880000000E+01  0.311800954965E-27
  0.504272000000E+01 -0.636056000000E+01  0.371233962122E-27
  0.564643000000E+01 -0.652232000000E+01  0.357143052886E-27
  0.625013000000E+01 -0.668408000000E+01  0.340428767875E-27
  0.685383000000E+01 -0.684585000000E+01  0.324583730961E-27
  0.745754000000E+01 -0.700761000000E+01  0.313034065689E-27
  0.806124000000E+01 -0.716937000000E+01  0.287179789103E-27
  0.866494000000E+01 -0.733113000000E+01  0.103625658023E-27
  0.499283000000E+01 -0.171713000000E+01  0.351978000000E+00
  0.559653000000E+01 -0.187889000000E+01  0.351978000000E+00
  0.620024000000E+01 -0.204065000000E+01  0.351978000000E+00
  0.680394000000E+01 -0.220241000000E+01  0.351978000000E+00
  0.740764000000E+01 -0.236418000000E+01  0.351978000000E+00
  0.801135000000E+01 -0.252594000000E+01  0.351978000000E+00
  0.861505000000E+01 -0.268770000000E+01  0.351978000000E+00
  0.921876000000E+01 -0.284946000000E+01  0.351978000000E+00
  0.982246000000E+01 -0.301122000000E+01  0.351978000000E+00
  0.456510676739E+01 -0.253640839117E+01  0.460382029743E+00
  0.518019010998E+01 -0.268938275125E+01  0.426749649561E+00
  0.581663700729E+01 -0.285921724649E+01  0.422011112325E+00
  0.645376898635E+01 -0.302822953368E+01  0.424147167845E+00
  0.708670458619E+01 -0.319725000093E+01  0.426784465083E+00
  0.771602703666E+01 -0.336553867523E+01  0.428466181319E+00
  0.834306796583E+01 -0.353314378647E+01  0.429421673320E+00
  0.896836147186E+01 -0.370134565969E+01  0.430312730600E+00
  0.959585000000E+01 -0.385693000000E+01  0.434732000000E+00
  0.423502882333E+01 -0.338032893065E+01  0.512364837224E+00
  0.485892358812E+01 -0.352800322248E+01  0.469733357694E+00
  0.550988157582E+01 -0.369583268919E+01  0.462401726945E+00
  0.616264197039E+01 -0.386910537858E+01  0.462816300099E+00
  0.681097444699E+01 -0.404279161552E+01  0.465555752907E+00
  0.745500828459E+01 -0.421558062271E+01  0.467743184476E+00
  0.809586897377E+01 -0.438770002350E+01  0.469462344569E+00
  0.873395276548E+01 -0.455846217926E+01  0.472204292502E+00
  0.936407000000E+01 -0.472196000000E+01  0.478239000000E+00
  0.400388590823E+01 -0.425774831328E+01  0.508296007287E+00
  0.463544628442E+01 -0.438699117736E+01  0.471625091546E+00
  0.528816741551E+01 -0.455361180826E+01  0.462947270169E+00
  0.593861967095E+01 -0.472755539000E+01  0.463838897950E+00
  0.658477996918E+01 -0.490156722395E+01  0.466270239772E+00
  0.722704092244E+01 -0.507471487312E+01  0.468224678478E+00
  0.786675205086E+01 -0.524679125457E+01  0.469756123373E+00
  0.850374909717E+01 -0.541868659993E+01  0.472360027994E+00
  0.913050000000E+01 -0.559364000000E+01  0.478239000000E+00
  0.387331145957E+01 -0.514431019082E+01  0.454349381841E+00
  0.451639381107E+01 -0.526791567062E+01  0.427942462821E+00
  0.514888869954E+01 -0.543824213326E+01  0.425459762720E+00
  0.577884141306E+01 -0.560674265769E+01  0.426869123838E+00
  0.640567104385E+01 -0.577589008934E+01  0.428514529168E+00
  0.703072829715E+01 -0.594423159403E+01  0.429491659938E+00
  0.765475732528E+01 -0.611231232171E+01  0.430032809137E+00
  0.827850758883E+01 -0.627921065420E+01  0.430647521863E+00
  0.889872000000E+01 -0.645867000000E+01  0.434732000000E+00
  0.384248000000E+01 -0.601028000000E+01  0.351978000000E+00
  0.444619000000E+01 -0.617204000000E+01  0.351978000000E+00
  0.504989000000E+01 -0.633380000000E+01  0.351978000000E+00
  0.565359000000E+01 -0.649556000000E+01  0.351978000000E+00
  0.625730000000E+01 -0.665733000000E+01  0.351978000000E+00
  0.686100000000E+01 -0.681909000000E+01  0.351978000000E+00
  0.746471000000E+01 -0.698085000000E+01  0.351978000000E+00
  0.806841000000E+01 -0.714261000000E+01  0.351978000000E+00
  0.867211000000E+01 -0.730437000000E+01  0.351978000000E+00
  0.497150000000E+01 -0.179674000000E+01  0.695288000000E+00
  0.557520000000E+01 -0.195850000000E+01  0.695288000000E+00
  0.617891000000E+01 -0.212026000000E+01  0.695288000000E+00
  0.678261000000E+01 -0.228203000000E+01  0.695288000000E+00
  0.738631000000E+01 -0.244379000000E+01  0.695288000000E+00
  0.799002000000E+01 -0.260555000000E+01  0.695288000000E+00
  0.859372000000E+01 -0.276731000000E+01  0.695288000000E+00
  0.919742000000E+01 -0.292907000000E+01  0.695288000000E+00
  0.980113000000E+01 -0.309084000000E+01  0.695288000000E+00
  0.460129008643E+01 -0.257282698749E+01  0.900317033103E+00
  0.522231486721E+01 -0.273586540638E+01  0.847633027182E+00
  0.584823752866E+01 -0.290057780209E+01  0.840940796203E+00
  0.647285784389E+01 -0.306702975376E+01  0.844467139677E+00
  0.709616942945E+01 -0.323383464116E+01  0.848444440238E+00
  0.771853244358E+01 -0.340076368090E+01  0.850849136340E+00
  0.834029270818E+01 -0.356724382207E+01  0.852172957531E+00
  0.896148058578E+01 -0.373455994427E+01  0.853367840229E+00
  0.958652000000E+01 -0.389178000000E+01  0.860798000000E+00
  0.429341029166E+01 -0.339252859680E+01  0.100224271992E+01
  0.492127823531E+01 -0.355226425961E+01  0.932925909701E+00
  0.556189232006E+01 -0.371883152158E+01  0.922075451359E+00
  0.620049154312E+01 -0.388813845270E+01  0.923354130198E+00
  0.683581892267E+01 -0.405824296219E+01  0.927738491974E+00
  0.746936079412E+01 -0.422826148562E+01  0.930936367591E+00
  0.810202660651E+01 -0.439827034647E+01  0.933342200574E+00
  0.873416312051E+01 -0.456755227982E+01  0.937485904454E+00
  0.936155000000E+01 -0.473135000000E+01  0.947812000000E+00
  0.406237352871E+01 -0.425035795994E+01  0.996773251268E+00
  0.469650936884E+01 -0.439297335039E+01  0.935740218785E+00
  0.533960299138E+01 -0.455995156060E+01  0.922660937228E+00
  0.597753059082E+01 -0.473057416284E+01  0.924742312403E+00
  0.661207134774E+01 -0.490105331288E+01  0.928728367734E+00
  0.724481693301E+01 -0.507120578706E+01  0.931627147371E+00
  0.787692010621E+01 -0.524089670701E+01  0.933776200267E+00
  0.850834745693E+01 -0.541101654533E+01  0.937721498575E+00
  0.913302000000E+01 -0.558424000000E+01  0.947812000000E+00
  0.391897589360E+01 -0.510957608415E+01  0.892575110150E+00
  0.456170856715E+01 -0.524517917227E+01  0.849029930616E+00
  0.518661444287E+01 -0.541500171184E+01  0.845800519412E+00
  0.580872518796E+01 -0.558117523672E+01  0.848341316099E+00
  0.642904790081E+01 -0.574814221222E+01  0.850967760223E+00
  0.704906140898E+01 -0.591461249990E+01  0.852385438336E+00
  0.766882847151E+01 -0.608123787980E+01  0.853121150186E+00
  0.828900672711E+01 -0.624697424528E+01  0.853905623583E+00
  0.890806000000E+01 -0.642382000000E+01  0.860798000000E+00
  0.386382000000E+01 -0.593067000000E+01  0.695288000000E+00
  0.446752000000E+01 -0.609243000000E+01  0.695288000000E+00
  0.507122000000E+01 -0.625419000000E+01  0.695288000000E+00
  0.567493000000E+01 -0.641595000000E+01  0.695288000000E+00
  0.627863000000E+01 -0.657771000000E+01  0.695288000000E+00
  0.688233000000E+01 -0.673948000000E+01  0.695288000000E+00
  0.748604000000E+01 -0.690124000000E+01  0.695288000000E+00
  0.808974000000E+01 -0.706300000000E+01  0.695288000000E+00
  0.869345000000E+01 -0.722476000000E+01  0.695288000000E+00
  0.493653000000E+01 -0.192725000000E+01  0.102148000000E+01
  0.554023000000E+01 -0.208901000000E+01  0.102148000000E+01
  0.614394000000E+01 -0.225077000000E+01  0.102148000000E+01
  0.674764000000E+01 -0.241254000000E+01  0.102148000000E+01
  0.735134000000E+01 -0.257430000000E+01  0.102148000000E+01
  0.795505000000E+01 -0.273606000000E+01  0.102148000000E+01
  0.855875000000E+01 -0.289782000000E+01  0.102148000000E+01
  0.916245000000E+01 -0.305958000000E+01  0.102148000000E+01
  0.976616000000E+01 -0.322134000000E+01  0.102148000000E+01
  0.464030504352E+01 -0.264363468312E+01  0.130674010803E+01
  0.526807324364E+01 -0.281524282480E+01  0.125559205344E+01
  0.588070924987E+01 -0.297433527606E+01  0.125103532987E+01
  0.649041941033E+01 -0.313706401083E+01  0.125458760281E+01
  0.710309918040E+01 -0.330178885877E+01  0.125790777691E+01
  0.771744230257E+01 -0.346693331257E+01  0.125992873134E+01
  0.833221902092E+01 -0.363202833224E+01  0.126092449922E+01
  0.894774256934E+01 -0.379778859803E+01  0.126159549800E+01
  0.956900000000E+01 -0.395716000000E+01  0.126974000000E+01
  0.436897096599E+01 -0.342097045192E+01  0.145404366889E+01
  0.500308833942E+01 -0.359227418979E+01  0.138231922567E+01
  0.562938387462E+01 -0.375645381875E+01  0.137477857080E+01
  0.624850065196E+01 -0.392004512422E+01  0.137699160118E+01
  0.686738479082E+01 -0.408595015828E+01  0.138095145816E+01
  0.748770274235E+01 -0.425250244634E+01  0.138358391046E+01
  0.810925314204E+01 -0.441974161974E+01  0.138529700353E+01
  0.873309601735E+01 -0.458684988034E+01  0.138870773275E+01
  0.935631000000E+01 -0.475093000000E+01  0.140026000000E+01
  0.414492919407E+01 -0.423751946572E+01  0.145033871813E+01
  0.478289480615E+01 -0.439537500307E+01  0.138474054700E+01
  0.541248293712E+01 -0.456149111614E+01  0.137480977160E+01
  0.603210965284E+01 -0.472760771747E+01  0.137799268911E+01
  0.665145638325E+01 -0.489344048427E+01  0.138169968906E+01
  0.727184120138E+01 -0.505980789257E+01  0.138414483492E+01
  0.789343786091E+01 -0.522623019945E+01  0.138567116090E+01
  0.851690868813E+01 -0.539396573345E+01  0.138891912823E+01
  0.913827000000E+01 -0.556467000000E+01  0.140026000000E+01
  0.398614056854E+01 -0.504662407229E+01  0.130222346017E+01
  0.462823064002E+01 -0.519659751229E+01  0.125590324658E+01
  0.524249341941E+01 -0.536456699554E+01  0.125483828916E+01
  0.585337187088E+01 -0.552814355092E+01  0.125773409144E+01
  0.646601851508E+01 -0.569216732240E+01  0.126007163119E+01
  0.707968051713E+01 -0.585652297660E+01  0.126132555021E+01
  0.769357202698E+01 -0.602102902505E+01  0.126183971409E+01
  0.830855282168E+01 -0.618533581160E+01  0.126215048687E+01
  0.892558000000E+01 -0.635843000000E+01  0.126974000000E+01
  0.389879000000E+01 -0.580016000000E+01  0.102148000000E+01
  0.450249000000E+01 -0.596192000000E+01  0.102148000000E+01
  0.510619000000E+01 -0.612368000000E+01  0.102148000000E+01
  0.570990000000E+01 -0.628544000000E+01  0.102148000000E+01
  0.631360000000E+01 -0.644720000000E+01  0.102148000000E+01
  0.691730000000E+01 -0.660897000000E+01  0.102148000000E+01
  0.752101000000E+01 -0.677073000000E+01  0.102148000000E+01
  0.812471000000E+01 -0.693249000000E+01  0.102148000000E+01
  0.872841000000E+01 -0.709425000000E+01  0.102148000000E+01
  0.488878000000E+01 -0.210544000000E+01  0.132252000000E+01
  0.549249000000E+01 -0.226720000000E+01  0.132252000000E+01
  0.609619000000E+01 -0.242896000000E+01  0.132252000000E+01
  0.669989000000E+01 -0.259073000000E+01  0.132252000000E+01
  0.730360000000E+01 -0.275249000000E+01  0.132252000000E+01
  0.790730000000E+01 -0.291425000000E+01  0.132252000000E+01
  0.851100000000E+01 -0.307601000000E+01  0.132252000000E+01
  0.911471000000E+01 -0.323777000000E+01  0.132252000000E+01
  0.971841000000E+01 -0.339954000000E+01  0.132252000000E+01
  0.466845505237E+01 -0.275066305218E+01  0.167520358009E+01
  0.530079525332E+01 -0.291971268264E+01  0.164329020992E+01
  0.589755463020E+01 -0.307378135370E+01  0.164334252887E+01
  0.649809882338E+01 -0.323639688485E+01  0.164488654382E+01
  0.710356717402E+01 -0.339926946474E+01  0.164647520535E+01
  0.771131535159E+01 -0.356277791283E+01  0.164740292139E+01
  0.831977700518E+01 -0.372582208983E+01  0.164798040053E+01
  0.892717139118E+01 -0.388970720264E+01  0.164765280064E+01
  0.954381000000E+01 -0.405116000000E+01  0.165354000000E+01
  0.444700648398E+01 -0.346875188386E+01  0.185864586571E+01
  0.508662773322E+01 -0.364228964181E+01  0.181288245124E+01
  0.569012803645E+01 -0.380056127721E+01  0.181391133695E+01
  0.629209651556E+01 -0.396107610750E+01  0.181446606258E+01
  0.689796946281E+01 -0.412389411158E+01  0.181637279077E+01
  0.750708394675E+01 -0.428742510672E+01  0.181736841933E+01
  0.811767667416E+01 -0.445150911167E+01  0.181815247155E+01
  0.873010170642E+01 -0.461583087099E+01  0.181880634845E+01
  0.934851000000E+01 -0.478004000000E+01  0.182756000000E+01
  0.423861571553E+01 -0.422318676815E+01  0.185817620001E+01
  0.488062361436E+01 -0.439123704810E+01  0.181366549591E+01
  0.548651808243E+01 -0.455391417905E+01  0.181354552502E+01
  0.608925761765E+01 -0.471474536669E+01  0.181485615466E+01
  0.669595654623E+01 -0.487680355519E+01  0.181666613106E+01
  0.730539363717E+01 -0.504003811253E+01  0.181762939179E+01
  0.791618259699E+01 -0.520354834333E+01  0.181834137755E+01
  0.852860180413E+01 -0.536777462138E+01  0.181891766745E+01
  0.914607000000E+01 -0.553555000000E+01  0.182756000000E+01
  0.406781682327E+01 -0.495863832890E+01  0.167378093033E+01
  0.470693618236E+01 -0.512175655557E+01  0.164269301657E+01
  0.530347143095E+01 -0.528630737597E+01  0.164511766467E+01
  0.590691148777E+01 -0.544604787319E+01  0.164634417847E+01
  0.651314238655E+01 -0.560804628515E+01  0.164763316275E+01
  0.712098386687E+01 -0.577057572435E+01  0.164820551555E+01
  0.772900242660E+01 -0.593372956901E+01  0.164854737036E+01
  0.833647912085E+01 -0.609557519807E+01  0.164803699624E+01
  0.895076000000E+01 -0.626444000000E+01  0.165354000000E+01
  0.394653000000E+01 -0.562197000000E+01  0.132252000000E+01
  0.455024000000E+01 -0.578373000000E+01  0.132252000000E+01
  0.515394000000E+01 -0.594549000000E+01  0.132252000000E+01
  0.575764000000E+01 -0.610725000000E+01  0.132252000000E+01
  0.636135000000E+01 -0.626901000000E+01  0.132252000000E+01
  0.696505000000E+01 -0.643078000000E+01  0.132252000000E+01
  0.756875000000E+01 -0.659254000000E+01  0.132252000000E+01
  0.817246000000E+01 -0.675430000000E+01  0.132252000000E+01
  0.877616000000E+01 -0.691606000000E+01  0.132252000000E+01
  0.482944000000E+01 -0.232692000000E+01  0.159099000000E+01
  0.543314000000E+01 -0.248869000000E+01  0.159099000000E+01
  0.603684000000E+01 -0.265045000000E+01  0.159099000000E+01
  0.664055000000E+01 -0.281221000000E+01  0.159099000000E+01
  0.724425000000E+01 -0.297397000000E+01  0.159099000000E+01
  0.784795000000E+01 -0.313573000000E+01  0.159099000000E+01
  0.845166000000E+01 -0.329750000000E+01  0.159099000000E+01
  0.905536000000E+01 -0.345926000000E+01  0.159099000000E+01
  0.965906000000E+01 -0.362102000000E+01  0.159099000000E+01
  0.468204000000E+01 -0.287703000000E+01  0.200476000000E+01
  0.528574000000E+01 -0.303879000000E+01  0.200476000000E+01
  0.588944000000E+01 -0.320055000000E+01  0.200476000000E+01
  0.649315000000E+01 -0.336232000000E+01  0.200476000000E+01
  0.709685000000E+01 -0.352408000000E+01  0.200476000000E+01
  0.770055000000E+01 -0.368584000000E+01  0.200476000000E+01
  0.830426000000E+01 -0.384760000000E+01  0.200476000000E+01
  0.890796000000E+01 -0.400936000000E+01  0.200476000000E+01
  0.951166000000E+01 -0.417113000000E+01  0.200476000000E+01
  0.450876000000E+01 -0.352372000000E+01  0.222230000000E+01
  0.511246000000E+01 -0.368548000000E+01  0.222230000000E+01
  0.571616000000E+01 -0.384724000000E+01  0.222230000000E+01
  0.631987000000E+01 -0.400900000000E+01  0.222230000000E+01
  0.692357000000E+01 -0.417077000000E+01  0.222230000000E+01
  0.752727000000E+01 -0.433253000000E+01  0.222230000000E+01
  0.813098000000E+01 -0.449429000000E+01  0.222230000000E+01
  0.873468000000E+01 -0.465605000000E+01  0.222230000000E+01
  0.933838000000E+01 -0.481781000000E+01  0.222230000000E+01
  0.432656000000E+01 -0.420369000000E+01  0.222230000000E+01
  0.493026000000E+01 -0.436545000000E+01  0.222230000000E+01
  0.553397000000E+01 -0.452721000000E+01  0.222230000000E+01
  0.613767000000E+01 -0.468897000000E+01  0.222230000000E+01
  0.674137000000E+01 -0.485074000000E+01  0.222230000000E+01
  0.734508000000E+01 -0.501250000000E+01  0.222230000000E+01
  0.794878000000E+01 -0.517426000000E+01  0.222230000000E+01
  0.855248000000E+01 -0.533602000000E+01  0.222230000000E+01
  0.915619000000E+01 -0.549778000000E+01  0.222230000000E+01
  0.415328000000E+01 -0.485038000000E+01  0.200476000000E+01
  0.475698000000E+01 -0.501214000000E+01  0.200476000000E+01
  0.536069000000E+01 -0.517390000000E+01  0.200476000000E+01
  0.596439000000E+01 -0.533566000000E+01  0.200476000000E+01
  0.656809000000E+01 -0.549742000000E+01  0.200476000000E+01
  0.717180000000E+01 -0.565919000000E+01  0.200476000000E+01
  0.777550000000E+01 -0.582095000000E+01  0.200476000000E+01
  0.837920000000E+01 -0.598271000000E+01  0.200476000000E+01
  0.898291000000E+01 -0.614447000000E+01  0.200476000000E+01
  0.400588000000E+01 -0.540048000000E+01  0.159099000000E+01
  0.460958000000E+01 -0.556224000000E+01  0.159099000000E+01
  0.521329000000E+01 -0.572401000000E+01  0.159099000000E+01
  0.581699000000E+01 -0.588577000000E+01  0.159099000000E+01
  0.642069000000E+01 -0.604753000000E+01  0.159099000000E+01
  0.702440000000E+01 -0.620929000000E+01  0.159099000000E+01
  0.762810000000E+01 -0.637105000000E+01  0.159099000000E+01
  0.823180000000E+01 -0.653282000000E+01  0.159099000000E+01
  0.883551000000E+01 -0.669458000000E+01  0.159099000000E+01
 -0.137002077485E+02 -0.401631865011E+01  0.000000000000E+00
 -0.121676382639E+02 -0.618992484555E+01  0.000000000000E+00
 -0.101603248918E+02 -0.771340172134E+01  0.000000000000E+00
 -0.814697616994E+01 -0.866679353244E+01  0.000000000000E+00
 -0.612531968681E+01 -0.925164013739E+01  0.000000000000E+00
 -0.409515355167E+01 -0.957344900643E+01  0.000000000000E+00
 -0.206026770981E+01 -0.965461932361E+01  0.000000000000E+00
 -0.325776609471E-01 -0.950331369565E+01  0.000000000000E+00
  0.130557593946E+01 -0.906479291886E+01  0.000000000000E+00
  0.264934000000E+01 -0.852255000000E+01  0.000000000000E+00
 -0.137013042684E+02 -0.396736747753E+01  0.635985640357E+00
 -0.121694311891E+02 -0.611675757950E+01  0.982143894977E+00
 -0.101630437022E+02 -0.762026422967E+01  0.122179687629E+01
 -0.814758209152E+01 -0.856371508831E+01  0.136867324969E+01
 -0.612572723102E+01 -0.914396804535E+01  0.146100146786E+01
 -0.409496954544E+01 -0.946161833013E+01  0.150867371987E+01
 -0.206028011653E+01 -0.954077260699E+01  0.151992950624E+01
 -0.322249859319E-01 -0.938840742390E+01  0.149704281999E+01
  0.131180989580E+01 -0.896496609251E+01  0.136324242924E+01
  0.265940000000E+01 -0.845929000000E+01  0.902011833730E+00
 -0.137038737027E+02 -0.382153177818E+01  0.125776620229E+01
 -0.121726042258E+02 -0.589392661586E+01  0.194023456597E+01
 -0.101677868255E+02 -0.734157911715E+01  0.240903615540E+01
 -0.814988435654E+01 -0.825437005871E+01  0.269867217287E+01
 -0.612644115477E+01 -0.881813536432E+01  0.287808486289E+01
 -0.409472944708E+01 -0.912381260831E+01  0.297444548079E+01
 -0.206022702728E+01 -0.919813272064E+01  0.299921667933E+01
 -0.314186637940E-01 -0.904574068754E+01  0.295500116440E+01
  0.133111112688E+01 -0.866771379411E+01  0.269088910596E+01
  0.268944000000E+01 -0.827083000000E+01  0.178479222724E+01
 -0.137064429828E+02 -0.358157528752E+01  0.184619554938E+01
 -0.121761718956E+02 -0.552475783380E+01  0.284739648537E+01
 -0.101725210075E+02 -0.688619459027E+01  0.353207714787E+01
 -0.815325099434E+01 -0.774330229573E+01  0.395606522294E+01
 -0.612703615466E+01 -0.827369518099E+01  0.421738916653E+01
 -0.409424420122E+01 -0.855902255600E+01  0.436202094056E+01
 -0.206019377143E+01 -0.862778233324E+01  0.440094469871E+01
 -0.306027681764E-01 -0.848420370669E+01  0.433910454899E+01
  0.136213825971E+01 -0.818273309214E+01  0.394955721285E+01
  0.273896000000E+01 -0.796106000000E+01  0.262838162308E+01
 -0.137096510104E+02 -0.325326442544E+01  0.238809930050E+01
 -0.121793158831E+02 -0.502022262380E+01  0.368238813116E+01
 -0.101771575634E+02 -0.626255698063E+01  0.456513043768E+01
 -0.815622623276E+01 -0.704223001728E+01  0.511115911247E+01
 -0.612745817890E+01 -0.752881091125E+01  0.545243493733E+01
 -0.409392220751E+01 -0.779165885400E+01  0.563888357247E+01
 -0.205982486072E+01 -0.785254378608E+01  0.568949153673E+01
 -0.303163786645E-01 -0.771840686506E+01  0.561216109507E+01
  0.140278920875E+01 -0.752330045050E+01  0.510911432686E+01
  0.280715000000E+01 -0.753640000000E+01  0.341447593433E+01
 -0.137114866632E+02 -0.284594127937E+01  0.287019243701E+01
 -0.121839420430E+02 -0.439229842337E+01  0.442633586305E+01
 -0.101835393727E+02 -0.548256223000E+01  0.548461009340E+01
 -0.816103478038E+01 -0.617089491708E+01  0.613942375767E+01
 -0.613249277737E+01 -0.659778609561E+01  0.654989606752E+01
 -0.409662184219E+01 -0.682661850952E+01  0.677320447913E+01
 -0.205852295987E+01 -0.687854787993E+01  0.683416456779E+01
 -0.231028220138E-01 -0.675871426321E+01  0.674299281834E+01
  0.145156669773E+01 -0.670588875162E+01  0.614368078200E+01
  0.289295000000E+01 -0.700555000000E+01  0.412736639184E+01
 -0.137106902638E+02 -0.236762228078E+01  0.328231092941E+01
 -0.121914344908E+02 -0.365669112366E+01  0.506026384278E+01
 -0.101882473413E+02 -0.456899882179E+01  0.626700387827E+01
 -0.816586910247E+01 -0.514445806494E+01  0.701824344820E+01
 -0.613859064491E+01 -0.549969218668E+01  0.748965421700E+01
 -0.409873662044E+01 -0.569028887769E+01  0.774629771442E+01
 -0.205703850400E+01 -0.573100601341E+01  0.781684106637E+01
 -0.163740627887E-01 -0.562873589888E+01  0.771168173183E+01
  0.151845879163E+01 -0.571225883417E+01  0.705895792744E+01
  0.303424000000E+01 -0.614055000000E+01  0.495068548016E+01
 -0.137103945688E+02 -0.183015382056E+01  0.361374797219E+01
 -0.121959699714E+02 -0.283063111973E+01  0.556908664863E+01
 -0.101935240616E+02 -0.354010686999E+01  0.689241839581E+01
 -0.816816255287E+01 -0.398846559293E+01  0.771912194950E+01
 -0.613781282175E+01 -0.426907877845E+01  0.824008737148E+01
 -0.409744069171E+01 -0.441547654611E+01  0.852942535677E+01
 -0.205831460266E+01 -0.444468094572E+01  0.861002848069E+01
 -0.129917885610E-01 -0.436011018515E+01  0.849170566171E+01
  0.159105164504E+01 -0.459192858059E+01  0.779651488603E+01
  0.320142000000E+01 -0.513372000000E+01  0.558356815551E+01
 -0.137115292038E+02 -0.124807091655E+01  0.385538932760E+01
 -0.121977130760E+02 -0.193258995141E+01  0.594030414055E+01
 -0.101989628120E+02 -0.241938953178E+01  0.735039648221E+01
 -0.817236527936E+01 -0.272577513948E+01  0.822710448811E+01
 -0.613564574996E+01 -0.292144910847E+01  0.877772729508E+01
 -0.409538531733E+01 -0.302708176435E+01  0.908370216310E+01
 -0.205331065263E+01 -0.304824504056E+01  0.917775932270E+01
 -0.170578117145E-01 -0.298364683412E+01  0.905880958908E+01
  0.166651311042E+01 -0.337287508500E+01  0.833395387332E+01
  0.339046000000E+01 -0.402099000000E+01  0.599974515904E+01
 -0.137123499209E+02 -0.635516210677E+00  0.400167389344E+01
 -0.121989601490E+02 -0.985376754301E+00  0.616505214960E+01
 -0.102016847861E+02 -0.123607048688E+01  0.762829749676E+01
 -0.817476607194E+01 -0.139273954505E+01  0.853513086211E+01
 -0.613694010326E+01 -0.149183439423E+01  0.910661525180E+01
 -0.409420487031E+01 -0.154569144819E+01  0.941929734289E+01
 -0.205135756920E+01 -0.155709254274E+01  0.951517828849E+01
 -0.129899588723E-01 -0.152206011244E+01  0.939676387201E+01
  0.174713714404E+01 -0.208301550578E+01  0.865992226073E+01
  0.359729000000E+01 -0.284101000000E+01  0.618063146890E+01
 -0.137129854764E+02 -0.872441595248E-02  0.404961043870E+01
 -0.121981701777E+02 -0.135122796363E-01  0.623867659029E+01
 -0.102011821467E+02 -0.204457074891E-01  0.771915206732E+01
 -0.817443760027E+01 -0.244716627730E-01  0.863637009729E+01
 -0.613630523172E+01 -0.260673555638E-01  0.921461476484E+01
 -0.409407818054E+01 -0.251514615565E-01  0.953256809263E+01
 -0.205000232146E+01 -0.209069766471E-01  0.962947679774E+01
 -0.117209392594E-01 -0.189969496229E-01  0.950835895352E+01
  0.183152056193E+01 -0.753440586740E+00  0.876927528833E+01
  0.381812000000E+01 -0.163350000000E+01  0.611387308164E+01
 -0.137097833229E+02  0.619437793528E+00  0.399878479707E+01
 -0.121950638430E+02  0.958214736785E+00  0.615935898299E+01
 -0.101974308494E+02  0.119446534046E+01  0.762122411739E+01
 -0.817110306045E+01  0.134299228528E+01  0.852838007884E+01
 -0.613402883811E+01  0.143897192686E+01  0.909963739065E+01
 -0.409268807947E+01  0.149445761762E+01  0.941441229011E+01
 -0.205021539223E+01  0.151327550809E+01  0.951180424117E+01
 -0.145341292657E-01  0.148408952701E+01  0.939544358468E+01
  0.168496286853E+01  0.855669565434E+00  0.882539342121E+01
  0.346924000000E+01  0.119503000000E+00  0.683496384356E+01
 -0.137080802590E+02  0.123248146249E+01  0.384937090093E+01
 -0.121903499304E+02  0.190640116527E+01  0.592838319011E+01
 -0.101905289904E+02  0.237553443268E+01  0.733580863336E+01
 -0.816462365392E+01  0.267413486300E+01  0.821156398356E+01
 -0.613047991780E+01  0.286489232468E+01  0.876359231716E+01
 -0.409414921215E+01  0.296916594278E+01  0.907399686023E+01
 -0.205318927875E+01  0.298996868326E+01  0.916891318775E+01
 -0.139421796994E-01  0.294058199257E+01  0.904906330055E+01
  0.153816640769E+01  0.244408275934E+01  0.858484921589E+01
  0.311159000000E+01  0.194949000000E+01  0.703193102479E+01
 -0.137058319251E+02  0.181548271818E+01  0.360492627524E+01
 -0.121848837159E+02  0.280409579472E+01  0.555123452406E+01
 -0.101806442205E+02  0.349437965952E+01  0.686843842114E+01
 -0.815924812116E+01  0.392867115484E+01  0.769358487237E+01
 -0.612780966261E+01  0.420253215294E+01  0.821380861677E+01
 -0.409651654141E+01  0.434951644357E+01  0.850205555439E+01
 -0.205221154044E+01  0.438338275800E+01  0.858296072868E+01
 -0.133651086007E-01  0.431048801241E+01  0.847016538344E+01
  0.139804872122E+01  0.395512359529E+01  0.805073047111E+01
  0.276762000000E+01  0.373421000000E+01  0.672039563714E+01
 -0.137039333575E+02  0.235309151476E+01  0.327278454001E+01
 -0.121760238604E+02  0.363294926575E+01  0.503570918998E+01
 -0.101699461689E+02  0.451786827039E+01  0.622545825112E+01
 -0.815222763328E+01  0.507685274257E+01  0.696973339199E+01
 -0.612493512961E+01  0.542808352406E+01  0.743878519067E+01
 -0.409075638864E+01  0.561869009598E+01  0.769728574773E+01
 -0.205187170350E+01  0.566433265858E+01  0.777254625488E+01
 -0.186184183665E-01  0.557276897237E+01  0.767277178762E+01
  0.126036235075E+01  0.533782154111E+01  0.723292721355E+01
  0.245735000000E+01  0.536055000000E+01  0.593291424745E+01
 -0.137027410013E+02  0.283437590973E+01  0.286040382138E+01
 -0.121712750632E+02  0.437154407307E+01  0.439936344451E+01
 -0.101649940453E+02  0.542971035795E+01  0.544056058300E+01
 -0.814253049775E+01  0.609755270205E+01  0.609171578146E+01
 -0.611769124360E+01  0.651943979852E+01  0.650098988789E+01
 -0.408589565922E+01  0.674738161991E+01  0.672632619516E+01
 -0.205128257009E+01  0.680445768855E+01  0.679158096593E+01
 -0.274943302040E-01  0.669538392160E+01  0.670511743697E+01
  0.114583905532E+01  0.654690047738E+01  0.618396777087E+01
  0.219858000000E+01  0.672672000000E+01  0.474813835454E+01
 -0.137005253520E+02  0.324295148352E+01  0.237816039141E+01
 -0.121693198052E+02  0.500043892424E+01  0.365785166327E+01
 -0.101612952708E+02  0.620563943263E+01  0.452436904678E+01
 -0.813937518739E+01  0.696433282639E+01  0.506631712290E+01
 -0.611262804384E+01  0.744257227632E+01  0.540932965463E+01
 -0.408343201929E+01  0.770477523948E+01  0.559835272096E+01
 -0.205328352155E+01  0.777113507884E+01  0.565191645752E+01
 -0.276118406871E-01  0.764892279022E+01  0.557572278684E+01
  0.106985163890E+01  0.740462198667E+01  0.513799834794E+01
  0.208004000000E+01  0.735507000000E+01  0.393027055911E+01
 -0.136965762507E+02  0.357074303350E+01  0.183803079526E+01
 -0.121655664561E+02  0.550385999746E+01  0.282597956892E+01
 -0.101565788650E+02  0.682468438181E+01  0.349571198111E+01
 -0.813613747201E+01  0.765626377635E+01  0.391388921267E+01
 -0.611131532384E+01  0.817953230190E+01  0.417765648078E+01
 -0.408292924976E+01  0.846446368284E+01  0.432447344636E+01
 -0.205314319179E+01  0.853859493767E+01  0.436621100737E+01
 -0.262481850704E-01  0.840746537901E+01  0.430664655150E+01
  0.100554603406E+01  0.809614017612E+01  0.396738580296E+01
  0.198540000000E+01  0.785780000000E+01  0.302645616344E+01
 -0.136937578009E+02  0.381115586176E+01  0.125177107840E+01
 -0.121631487491E+02  0.587204355361E+01  0.192370898628E+01
 -0.101527770206E+02  0.727728134856E+01  0.238145971821E+01
 -0.813336704633E+01  0.816286677924E+01  0.266595181182E+01
 -0.611015080266E+01  0.872022568641E+01  0.284356311108E+01
 -0.408283997665E+01  0.902435288635E+01  0.294254984435E+01
 -0.205321978827E+01  0.910359924704E+01  0.297082101575E+01
 -0.266785530306E-01  0.896583690530E+01  0.293145595153E+01
  0.957678934386E+00  0.860607880954E+01  0.270015394085E+01
  0.191647000000E+01  0.822453000000E+01  0.205561640206E+01
 -0.136915101717E+02  0.395777115379E+01  0.633340125520E+00
 -0.121619558924E+02  0.609562183839E+01  0.973279521623E+00
 -0.101501813992E+02  0.755264963375E+01  0.120557798768E+01
 -0.813141542532E+01  0.847101542085E+01  0.135046411017E+01
 -0.610915464982E+01  0.904871119472E+01  0.143962029670E+01
 -0.408276691860E+01  0.936509377163E+01  0.148937665532E+01
 -0.205343837616E+01  0.944813644693E+01  0.150362220425E+01
 -0.278103145173E-01  0.930779999779E+01  0.148413621639E+01
  0.926717251398E+00  0.891775195372E+01  0.136692157686E+01
  0.187456000000E+01  0.844766000000E+01  0.103927566057E+01
 -0.136905628848E+02  0.400674181181E+01  0.000000000000E+00
 -0.121613699127E+02  0.617072769561E+01  0.000000000000E+00
 -0.101492886733E+02  0.764517372991E+01  0.000000000000E+00
 -0.813062048263E+01  0.857397059935E+01  0.000000000000E+00
 -0.610886639107E+01  0.915871867514E+01  0.000000000000E+00
 -0.408266498407E+01  0.947942978846E+01  0.000000000000E+00
 -0.205353880047E+01  0.956385144816E+01  0.000000000000E+00
 -0.284161943933E-01  0.942286225629E+01  0.000000000000E+00
  0.916466876695E+00  0.902254560341E+01  0.000000000000E+00
  0.186051000000E+01  0.852255000000E+01  0.000000000000E+00
 -0.140841022415E+02 -0.200652964398E+01  0.000000000000E+00
 -0.141240080153E+02 -0.160838722370E+01  0.000000000000E+00
 -0.141534603219E+02 -0.120837804136E+01  0.000000000000E+00
 -0.141738740833E+02 -0.808025694225E+00  0.000000000000E+00
 -0.141854556992E+02 -0.406812114144E+00  0.000000000000E+00
 -0.141886664805E+02 -0.528995825953E-02  0.000000000000E+00
 -0.141840226080E+02  0.396341901328E+00  0.000000000000E+00
 -0.141711712540E+02  0.797830486168E+00  0.000000000000E+00
 -0.141497486481E+02  0.119865827927E+01  0.000000000000E+00
 -0.141194326154E+02  0.159912203041E+01  0.000000000000E+00
 -0.140789760849E+02  0.199821870816E+01  0.000000000000E+00
 -0.140844462784E+02 -0.198174910053E+01  0.319174152027E+00
 -0.141216617844E+02 -0.159707935814E+01  0.355386409465E+00
 -0.141500183867E+02 -0.120554409210E+01  0.382737073841E+00
 -0.141697371349E+02 -0.808545237788E+00  0.400464059921E+00
 -0.141811975270E+02 -0.407907335541E+00  0.408998236228E+00
 -0.141844862547E+02 -0.529604433293E-02  0.407697733951E+00
 -0.141797686591E+02  0.397377076117E+00  0.408811155724E+00
 -0.141670777369E+02  0.798336087554E+00  0.400147017683E+00
 -0.141463528266E+02  0.119578328110E+01  0.382344199464E+00
 -0.141171790685E+02  0.158793877726E+01  0.355104564952E+00
 -0.140792049630E+02  0.197340640528E+01  0.318911821454E+00
 -0.140848710590E+02 -0.190826066425E+01  0.627956737364E+00
 -0.141163702728E+02 -0.154682415737E+01  0.700268033839E+00
 -0.141409940743E+02 -0.117311647189E+01  0.756316511351E+00
 -0.141585054291E+02 -0.789457024827E+00  0.794554795241E+00
 -0.141685088293E+02 -0.399095146783E+00  0.813617237849E+00
 -0.141716672156E+02 -0.534437710140E-02  0.812978963371E+00
 -0.141671119996E+02  0.388535806869E+00  0.813460927476E+00
 -0.141559096273E+02  0.779155709795E+00  0.794336151531E+00
 -0.141374993098E+02  0.116324854286E+01  0.756063721625E+00
 -0.141121119264E+02  0.153765835187E+01  0.700049875360E+00
 -0.140796987429E+02  0.189985945716E+01  0.627719184189E+00
 -0.140850634369E+02 -0.178839563705E+01  0.921046234204E+00
 -0.141083953676E+02 -0.145939024129E+01  0.103290801241E+01
 -0.141268942978E+02 -0.111242658855E+01  0.112032861312E+01
 -0.141399452462E+02 -0.751418496757E+00  0.118126446837E+01
 -0.141476286421E+02 -0.380822189144E+00  0.121386162486E+01
 -0.141501068391E+02 -0.535369350661E-02  0.121678407215E+01
 -0.141461895375E+02  0.370199308925E+00  0.121370806335E+01
 -0.141373348484E+02  0.741078089794E+00  0.118106367529E+01
 -0.141234667738E+02  0.110238458654E+01  0.112006812015E+01
 -0.141043683574E+02  0.144983134838E+01  0.103244716666E+01
 -0.140803013947E+02  0.177955021131E+01  0.920476279126E+00
 -0.140851254130E+02 -0.162496182958E+01  0.119154736143E+01
 -0.140976836029E+02 -0.133694750052E+01  0.134684461656E+01
 -0.141076303231E+02 -0.102547445702E+01  0.146998154466E+01
 -0.141145039191E+02 -0.695700506407E+00  0.155786623567E+01
 -0.141184943578E+02 -0.353714905418E+00  0.160808749260E+01
 -0.141197585962E+02 -0.535109046616E-02  0.161903350250E+01
 -0.141169819585E+02  0.343040230771E+00  0.160786079944E+01
 -0.141117906077E+02  0.685287971383E+00  0.155747524108E+01
 -0.141041562636E+02  0.101528292705E+01  0.146953766945E+01
 -0.140937481643E+02  0.132700809485E+01  0.134620967077E+01
 -0.140807717467E+02  0.161541635343E+01  0.119065835948E+01
 -0.140849155643E+02 -0.142139096898E+01  0.143201811824E+01
 -0.140845261901E+02 -0.118261450329E+01  0.163696476133E+01
 -0.140836659442E+02 -0.914276907235E+00  0.180152986713E+01
 -0.140822075150E+02 -0.623873458788E+00  0.192206651121E+01
 -0.140812605212E+02 -0.318403997476E+00  0.199579539151E+01
 -0.140804282899E+02 -0.549969575070E-02  0.202045026491E+01
 -0.140796248570E+02  0.307624033092E+00  0.199528420454E+01
 -0.140795902287E+02  0.613197382138E+00  0.192134565393E+01
 -0.140801363674E+02  0.903963834020E+00  0.180068782281E+01
 -0.140803757723E+02  0.117226989653E+01  0.163604089745E+01
 -0.140805829447E+02  0.141136981198E+01  0.143101870433E+01
CELLS       1130     10170
8      0      9     10      1     99    108    109    100
8     99    108    109    100    198    207    208    199
8    198    207    208    199    297    306    307    298
8    297    306    307    298    396    405    406    397
8    396    405    406    397    495    504    505    496
8      9     18     19     10    108    117    118    109
8    108    117    118    109    207    216    217    208
8    207    216    217    208    306    315    316    307
8    306    315    316    307    405    414    415    406
8    405    414    415    406    504    513    514    505
8     18     27     28     19    117    126    127    118
8    117    126    127    118    216    225    226    217
8    216    225    226    217    315    324    325    316
8    315    324    325    316    414    423    424    415
8    414    423    424    415    513    522    523    514
8     27     36     37     28    126    135    136    127
8    126    135    136    127    225    234    235    226
8    225    234    235    226    324    333    334    325
8    324    333    334    325    423    432    433    424
8    423    432    433    424    522    531    532    523
8     36     45     46     37    135    144    145    136
8    135    144    145    136    234    243    244    235
8    234    243    244    235    333    342    343    334
8    333    342    343    334    432    441    442    433
8    432    441    442    433    531    540    541    532
8     45     54     55     46    144    153    154    145
8    144    153    154    145    243    252    253    244
8    243    252    253    244    342    351    352    343
8    342    351    352    343    441    450    451    442
8    441    450    451    442    540    549    550    541
8     54     63     64     55    153    162    163    154
8    153    162    163    154    252    261    262    253
8    252    261    262    253    351    360    361    352
8    351    360    361    352    450    459    460    451
8    450    459    460    451    549    558    559    550
8     63     72     73     64    162    171    172    163
8    162    171    172    163    261    270    271    262
8    261    270    271    262    360    369    370    361
8    360    369    370    361    459    468    469    460
8    459    468    469    460    558    567    568    559
8     72     81     82     73    171    180    181    172
8    171    180    181    172    270    279    280    271
8    270    279    280    271    369    378    379    370
8    369    378    379    370    468    477    478    469
8    468    477    478    469    567    576    577    568
8     81     90     91     82    180    189    190    181
8    180    189    190    181    279    288    289    280
8    279    288    289    280    378    387    388    379
8    378    387    388    379    477    486    487    478
8    477    486    487    478    576    585    586    577
8      1     10     11      2    100    109    110    101
8    100    109    110    101    199    208    209    200
8    199    208    209    200    298    307    308    299
8    298    307    308    299    397    406    407    398
8    397    406    407    398    496    505    506    497
8     10     19     20     11    109    118    119    110
8    109    118    119    110    208    217    218    209
8    208    217    218    209    307    316    317    308
8    307    316    317    308    406    415    416    407
8    406    415    416    407    505    514    515    506
8     19     28     29     20    118    127    128    119
8    118    127    128    119    217    226    227    218
8    217    226    227    218    316    325    326    317
8    316    325    326    317    415    424    425    416
8    415    424    425    416    514    523    524    515
8     28     37     38     29    127    136    137    128
8    127    136    137    128    226    235    236    227
8    226    235    236    227    325    334    335    326
8    325    334    335    326    424    433    434    425
8    424    433    434    425    523    532    533    524
8     37     46     47     38    136    145    146    137
8    136    145    146    137    235    244    245    236
8    235    244    245    236    334    343    344    335
8    334    343    344    335    433    442    443    434
8    433    442    443    434    532    541    542    533
8     46     55     56     47    145    154    155    146
8    145    154    155    146    244    253    254    245
8    244    253    254    245    343    352    353    344
8    343    352    353    344    442    451    452    443
8    442    451    452    443    541    550    551    542
8     55     64     65     56    154    163    164    155
8    154    163    164    155    253    262    263    254
8    253    262    263    254    352    361    362    353
8    352    361    362    353    451    460    461    452
8    451    460    461    452    550    559    560    551
8     64     73     74     65    163    172    173    164
8    163    172    173    164    262    271    272    263
8    262    271    272    263    361    370    371    362
8    361    370    371    362    460    469    470    461
8    460    469    470    461    559    568    569    560
8     73     82     83     74    172    181    182    173
8    172    181    182    173    271    280    281    272
8    271    280    281    272    370    379    380    371
8    370    379    380    371    469    478    479    470
8    469    478    479    470    568    577    578    569
8     82     91     92     83    181    190    191    182
8    181    190    191    182    280    289    290    281
8    280    289    290    281    379    388    389    380
8    379    388    389    380    478    487    488    479
8    478    487    488    479    577    586    587    578
8      2     11     12      3    101    110    111    102
8    101    110    111    102    200    209    210    201
8    200    209    210    201    299    308    309    300
8    299    308    309    300    398    407    408    399
8    398    407    408    399    497    506    507    498
8     11     20     21     12    110    119    120    111
8    110    119    120    111    209    218    219    210
8    209    218    219    210    308    317    318    309
8    308    317    318    309    407    416    417    408
8    407    416    417    408    506    515    516    507
8     20     29     30     21    119    128    129    120
8    119    128    129    120    218    227    228    219
8    218    227    228    219    317    326    327    318
8    317    326    327    318    416    425    426    417
8    416    425    426    417    515    524    525    516
8     29     38     39     30    128    137    138    129
8    128    137    138    129    227    236    237    228
8    227    236    237    228    326    335    336    327
8    326    335    336    327    425    434    435    426
8    425    434    435    426    524    533    534    525
8     38     47     48     39    137    146    147    138
8    137    146    147    138    236    245    246    237
8    236    245    246    237    335    344    345    336
8    335    344    345    336    434    443    444    435
8    434    443    444    435    533    542    543    534
8     47     56     57     48    146    155    156    147
8    146    155    156    147    245    254    255    246
8    245    254    255    246    344    353    354    345
8    344    353    354    345    443    452    453    444
8    443    452    453    444    542    551    552    543
8     56     65     66     57    155    164    165    156
8    155    164    165    156    254    263    264    255
8    254    263    264    255    353    362    363    354
8    353    362    363    354    452    461    462    453
8    452    461    462    453    551    560    561    552
8     65     74     75     66    164    173    174    165
8    164    173    174    165    263    272    273    264
8    263    272    273    264    362    371    372    363
8    362    371    372    363    461    470    471    462
8    461    470    471    462    560    569    570    561
8     74     83     84     75    173    182    183    174
8    173    182    183    174    272    281    282    273
8    272    281    282    273    371    380    381    372
8    371    380    381    372    470    479    480    471
8    470    479    480    471    569    578    579    570
8     83     92     93     84    182    191    192    183
8    182    191    192    183    281    290    291    282
8    281    290    291    282    380    389    390    381
8    380    389    390    381    479    488    489    480
8    479    488    489    480    578    587    588    579
8      3     12     13      4    102    111    112    103
8    102    111    112    103    201    210    211    202
8    201    210    211    202    300    309    310    301
8    300    309    310    301    399    408    409    400
8    399    408    409    400    498    507    508    499
8     12     21     22     13    111    120    121    112
8    111    120    121    112    210    219    220    211
8    210    219    220    211    309    318    319    310
8    309    318    319    310    408    417    418    409
8    408    417    418    409    507    516    517    508
8     21     30     31     22    120    129    130    121
8    120    129    130    121    219    228    229    220
8    219    228    229    220    318    327    328    319
8    318    327    328    319    417    426    427    418
8    417    426    427    418    516    525    526    517
8     30     39     40     31    129    138    139    130
8    129    138    139    130    228    237    238    229
8    228    237    238    229    327    336    337    328
8    327    336    337    328    426    435    436    427
8    426    435    436    427    525    534    535    526
8     39     48     49     40    138    147    148    139
8    138    147    148    139    237    246    247    238
8    237    246    247    238    336    345    346    337
8    336    345    346    337    435    444    445    436
8    435    444    445    436    534    543    544    535
8     48     57     58     49    147    156    157    148
8    147    156    157    148    246    255    256    247
8    246    255    256    247    345    354    355    346
8    345    354    355    346    444    453    454    445
8    444    453    454    445    543    552    553    544
8     57     66     67     58    156    165    166    157
8    156    165    166    157    255    264    265    256
8    255    264    265    256    354    363    364    355
8    354    363    364    355    453    462    463    454
8    453    462    463    454    552    561    562    553
8     66     75     76     67    165    174    175    166
8    165    174    175    166    264    273    274    265
8    264    273    274    265    363    372    373    364
8    363    372    373    364    462    471    472    463
8    462    471    472    463    561    570    571    562
8     75     84     85     76    174    183    184    175
8    174    183    184    175    273    282    283    274
8    273    282    283    274    372    381    382    373
8    372    381    382    373    471    480    481    472
8    471    480    481    472    570    579    580    571
8     84     93     94     85    183    192    193    184
8    183    192    193    184    282    291    292    283
8    282    291    292    283    381    390    391    382
8    381    390    391    382    480    489    490    481
8    480    489    490    481    579    588    589    580
8      4     13     14      5    103    112    113    104
8    103    112    113    104    202    211    212    203
8    202    211    212    203    301    310    311    302
8    301    310    311    302    400    409    410    401
8    400    409    410    401    499    508    509    500
8     13     22     23     14    112    121    122    113
8    112    121    122    113    211    220    221    212
8    211    220    221    212    310    319    320    311
8    310    319    320    311    409    418    419    410
8    409    418    419    410    508    517    518    509
8     22     31     32     23    121    130    131    122
8    121    130    131    122    220    229    230    221
8    220    229    230    221    319    328    329    320
8    319    328    329    320    418    427    428    419
8    418    427    428    419    517    526    527    518
8     31     40     41     32    130    139    140    131
8    130    139    140    131    229    238    239    230
8    229    238    239    230    328    337    338    329
8    328    337    338    329    427    436    437    428
8    427    436    437    428    526    535    536    527
8     40     49     50     41    139    148    149    140
8    139    148    149    140    238    247    248    239
8    238    247    248    239    337    346    347    338
8    337    346    347    338    436    445    446    437
8    436    445    446    437    535    544    545    536
8     49     58     59     50    148    157    158    149
8    148    157    158    149    247    256    257    248
8    247    256    257    248    346    355    356    347
8    346    355    356    347    445    454    455    446
8    445    454    455    446    544    553    554    545
8     58     67     68     59    157    166    167    158
8    157    166    167    158    256    265    266    257
8    256    265    266    257    355    364    365    356
8    355    364    365    356    454    463    464    455
8    454    463    464    455    553    562    563    554
8     67     76     77     68    166    175    176    167
8    166    175    176    167    265    274    275    266
8    265    274    275    266    364    373    374    365
8    364    373    374    365    463    472    473    464
8    463    472    473    464    562    571    572    563
8     76     85     86     77    175    184    185    176
8    175    184    185    176    274    283    284    275
8    274    283    284    275    373    382    383    374
8    373    382    383    374    472    481    482    473
8    472    481    482    473    571    580    581    572
8     85     94     95     86    184    193    194    185
8    184    193    194    185    283    292    293    284
8    283    292    293    284    382    391    392    383
8    382    391    392    383    481    490    491    482
8    481    490    491    482    580    589    590    581
8      5     14     15      6    104    113    114    105
8    104    113    114    105    203    212    213    204
8    203    212    213    204    302    311    312    303
8    302    311    312    303    401    410    411    402
8    401    410    411    402    500    509    510    501
8     14     23     24     15    113    122    123    114
8    113    122    123    114    212    221    222    213
8    212    221    222    213    311    320    321    312
8    311    320    321    312    410    419    420    411
8    410    419    420    411    509    518    519    510
8     23     32     33     24    122    131    132    123
8    122    131    132    123    221    230    231    222
8    221    230    231    222    320    329    330    321
8    320    329    330    321    419    428    429    420
8    419    428    429    420    518    527    528    519
8     32     41     42     33    131    140    141    132
8    131    140    141    132    230    239    240    231
8    230    239    240    231    329    338    339    330
8    329    338    339    330    428    437    438    429
8    428    437    438    429    527    536    537    528
8     41     50     51     42    140    149    150    141
8    140    149    150    141    239    248    249    240
8    239    248    249    240    338    347    348    339
8    338    347    348    339    437    446    447    438
8    437    446    447    438    536    545    546    537
8     50     59     60     51    149    158    159    150
8    149    158    159    150    248    257    258    249
8    248    257    258    249    347    356    357    348
8    347    356    357    348    446    455    456    447
8    446    455    456    447    545    554    555    546
8     59     68     69     60    158    167    168    159
8    158    167    168    159    257    266    267    258
8    257    266    267    258    356    365    366    357
8    356    365    366    357    455    464    465    456
8    455    464    465    456    554    563    564    555
8     68     77     78     69    167    176    177    168
8    167    176    177    168    266    275    276    267
8    266    275    276    267    365    374    375    366
8    365    374    375    366    464    473    474    465
8    464    473    474    465    563    572    573    564
8     77     86     87     78    176    185    186    177
8    176    185    186    177    275    284    285    276
8    275    284    285    276    374    383    384    375
8    374    383    384    375    473    482    483    474
8    473    482    483    474    572    581    582    573
8     86     95     96     87    185    194    195    186
8    185    194    195    186    284    293    294    285
8    284    293    294    285    383    392    393    384
8    383    392    393    384    482    491    492    483
8    482    491    492    483    581    590    591    582
8      6     15     16      7    105    114    115    106
8    105    114    115    106    204    213    214    205
8    204    213    214    205    303    312    313    304
8    303    312    313    304    402    411    412    403
8    402    411    412    403    501    510    511    502
8     15     24     25     16    114    123    124    115
8    114    123    124    115    213    222    223    214
8    213    222    223    214    312    321    322    313
8    312    321    322    313    411    420    421    412
8    411    420    421    412    510    519    520    511
8     24     33     34     25    123    132    133    124
8    123    132    133    124    222    231    232    223
8    222    231    232    223    321    330    331    322
8    321    330    331    322    420    429    430    421
8    420    429    430    421    519    528    529    520
8     33     42     43     34    132    141    142    133
8    132    141    142    133    231    240    241    232
8    231    240    241    232    330    339    340    331
8    330    339    340    331    429    438    439    430
8    429    438    439    430    528    537    538    529
8     42     51     52     43    141    150    151    142
8    141    150    151    142    240    249    250    241
8    240    249    250    241    339    348    349    340
8    339    348    349    340    438    447    448    439
8    438    447    448    439    537    546    547    538
8     51     60     61     52    150    159    160    151
8    150    159    160    151    249    258    259    250
8    249    258    259    250    348    357    358    349
8    348    357    358    349    447    456    457    448
8    447    456    457    448    546    555    556    547
8     60     69     70     61    159    168    169    160
8    159    168    169    160    258    267    268    259
8    258    267    268    259    357    366    367    358
8    357    366    367    358    456    465    466    457
8    456    465    466    457    555    564    565    556
8     69     78     79     70    168    177    178    169
8    168    177    178    169    267    276    277    268
8    267    276    277    268    366    375    376    367
8    366    375    376    367    465    474    475    466
8    465    474    475    466    564    573    574    565
8     78     87     88     79    177    186    187    178
8    177    186    187    178    276    285    286    277
8    276    285    286    277    375    384    385    376
8    375    384    385    376    474    483    484    475
8    474    483    484    475    573    582    583    574
8     87     96     97     88    186    195    196    187
8    186    195    196    187    285    294    295    286
8    285    294    295    286    384    393    394    385
8    384    393    394    385    483    492    493    484
8    483    492    493    484    582    591    592    583
8      7     16     17      8    106    115    116    107
8    106    115    116    107    205    214    215    206
8    205    214    215    206    304    313    314    305
8    304    313    314    305    403    412    413    404
8    403    412    413    404    502    511    512    503
8     16     25     26     17    115    124    125    116
8    115    124    125    116    214    223    224    215
8    214    223    224    215    313    322    323    314
8    313    322    323    314    412    421    422    413
8    412    421    422    413    511    520    521    512
8     25     34     35     26    124    133    134    125
8    124    133    134    125    223    232    233    224
8    223    232    233    224    322    331    332    323
8    322    331    332    323    421    430    431    422
8    421    430    431    422    520    529    530    521
8     34     43     44     35    133    142    143    134
8    133    142    143    134    232    241    242    233
8    232    241    242    233    331    340    341    332
8    331    340    341    332    430    439    440    431
8    430    439    440    431    529    538    539    530
8     43     52     53     44    142    151    152    143
8    142    151    152    143    241    250    251    242
8    241    250    251    242    340    349    350    341
8    340    349    350    341    439    448    449    440
8    439    448    449    440    538    547    548    539
8     52     61     62     53    151    160    161    152
8    151    160    161    152    250    259    260    251
8    250    259    260    251    349    358    359    350
8    349    358    359    350    448    457    458    449
8    448    457    458    449    547    556    557    548
8     61     70     71     62    160    169    170    161
8    160    169    170    161    259    268    269    260
8    259    268    269    260    358    367    368    359
8    358    367    368    359    457    466    467    458
8    457    466    467    458    556    565    566    557
8     70     79     80     71    169    178    179    170
8    169    178    179    170    268    277    278    269
8    268    277    278    269    367    376    377    368
8    367    376    377    368    466    475    476    467
8    466    475    476    467    565    574    575    566
8     79     88     89     80    178    187    188    179
8    178    187    188    179    277    286    287    278
8    277    286    287    278    376    385    386    377
8    376    385    386    377    475    484    485    476
8    475    484    485    476    574    583    584    575
8     88     97     98     89    187    196    197    188
8    187    196    197    188    286    295    296    287
8    286    295    296    287    385    394    395    386
8    385    394    395    386    484    493    494    485
8    484    493    494    485    583    592    593    584
8     53     62    605    594    152    161    671    660
8    152    161    671    660    251    260    737    726
8    251    260    737    726    350    359    803    792
8    350    359    803    792    449    458    869    858
8    449    458    869    858    548    557    935    924
8     62     71    616    605    161    170    682    671
8    161    170    682    671    260    269    748    737
8    260    269    748    737    359    368    814    803
8    359    368    814    803    458    467    880    869
8    458    467    880    869    557    566    946    935
8     71     80    627    616    170    179    693    682
8    170    179    693    682    269    278    759    748
8    269    278    759    748    368    377    825    814
8    368    377    825    814    467    476    891    880
8    467    476    891    880    566    575    957    946
8     80     89    638    627    179    188    704    693
8    179    188    704    693    278    287    770    759
8    278    287    770    759    377    386    836    825
8    377    386    836    825    476    485    902    891
8    476    485    902    891    575    584    968    957
8     89     98    649    638    188    197    715    704
8    188    197    715    704    287    296    781    770
8    287    296    781    770    386    395    847    836
8    386    395    847    836    485    494    913    902
8    485    494    913    902    584    593    979    968
8      8     17   1025   1034    107    116   1079   1088
8    107    116   1079   1088    206    215   1133   1142
8    206    215   1133   1142    305    314   1187   1196
8    305    314   1187   1196    404    413   1241   1250
8    404    413   1241   1250    503    512   1295   1304
8     17     26   1016   1025    116    125   1070   1079
8    116    125   1070   1079    215    224   1124   1133
8    215    224   1124   1133    314    323   1178   1187
8    314    323   1178   1187    413    422   1232   1241
8    413    422   1232   1241    512    521   1286   1295
8     26     35   1007   1016    125    134   1061   1070
8    125    134   1061   1070    224    233   1115   1124
8    224    233   1115   1124    323    332   1169   1178
8    323    332   1169   1178    422    431   1223   1232
8    422    431   1223   1232    521    530   1277   1286
8     35     44    998   1007    134    143   1052   1061
8    134    143   1052   1061    233    242   1106   1115
8    233    242   1106   1115    332    341   1160   1169
8    332    341   1160   1169    431    440   1214   1223
8    431    440   1214   1223    530    539   1268   1277
8     44     53    594    998    143    152   1043   1052
8    143    152   1043   1052    242    251   1097   1106
8    242    251   1097   1106    341    350   1151   1160
8    341    350   1151   1160    440    449   1205   1214
8    440    449   1205   1214    539    548   1259   1268
8    594    605    606    595    660    671    672    661
8    660    671    672    661    726    737    738    727
8    726    737    738    727    792    803    804    793
8    792    803    804    793    858    869    870    859
8    858    869    870    859    924    935    936    925
8    605    616    617    606    671    682    683    672
8    671    682    683    672    737    748    749    738
8    737    748    749    738    803    814    815    804
8    803    814    815    804    869    880    881    870
8    869    880    881    870    935    946    947    936
8    616    627    628    617    682    693    694    683
8    682    693    694    683    748    759    760    749
8    748    759    760    749    814    825    826    815
8    814    825    826    815    880    891    892    881
8    880    891    892    881    946    957    958    947
8    627    638    639    628    693    704    705    694
8    693    704    705    694    759    770    771    760
8    759    770    771    760    825    836    837    826
8    825    836    837    826    891    902    903    892
8    891    902    903    892    957    968    969    958
8    638    649    650    639    704    715    716    705
8    704    715    716    705    770    781    782    771
8    770    781    782    771    836    847    848    837
8    836    847    848    837    902    913    914    903
8    902    913    914    903    968    979    980    969
8    595    606    607    596    661    672    673    662
8    661    672    673    662    727    738    739    728
8    727    738    739    728    793    804    805    794
8    793    804    805    794    859    870    871    860
8    859    870    871    860    925    936    937    926
8    606    617    618    607    672    683    684    673
8    672    683    684    673    738    749    750    739
8    738    749    750    739    804    815    816    805
8    804    815    816    805    870    881    882    871
8    870    881    882    871    936    947    948    937
8    617    628    629    618    683    694    695    684
8    683    694    695    684    749    760    761    750
8    749    760    761    750    815    826    827    816
8    815    826    827    816    881    892    893    882
8    881    892    893    882    947    958    959    948
8    628    639    640    629    694    705    706    695
8    694    705    706    695    760    771    772    761
8    760    771    772    761    826    837    838    827
8    826    837    838    827    892    903    904    893
8    892    903    904    893    958    969    970    959
8    639    650    651    640    705    716    717    706
8    705    716    717    706    771    782    783    772
8    771    782    783    772    837    848    849    838
8    837    848    849    838    903    914    915    904
8    903    914    915    904    969    980    981    970
8    596    607    608    597    662    673    674    663
8    662    673    674    663    728    739    740    729
8    728    739    740    729    794    805    806    795
8    794    805    806    795    860    871    872    861
8    860    871    872    861    926    937    938    927
8    607    618    619    608    673    684    685    674
8    673    684    685    674    739    750    751    740
8    739    750    751    740    805    816    817    806
8    805    816    817    806    871    882    883    872
8    871    882    883    872    937    948    949    938
8    618    629    630    619    684    695    696    685
8    684    695    696    685    750    761    762    751
8    750    761    762    751    816    827    828    817
8    816    827    828    817    882    893    894    883
8    882    893    894    883    948    959    960    949
8    629    640    641    630    695    706    707    696
8    695    706    707    696    761    772    773    762
8    761    772    773    762    827    838    839    828
8    827    838    839    828    893    904    905    894
8    893    904    905    894    959    970    971    960
8    640    651    652    641    706    717    718    707
8    706    717    718    707    772    783    784    773
8    772    783    784    773    838    849    850    839
8    838    849    850    839    904    915    916    905
8    904    915    916    905    970    981    982    971
8    597    608    609    598    663    674    675    664
8    663    674    675    664    729    740    741    730
8    729    740    741    730    795    806    807    796
8    795    806    807    796    861    872    873    862
8    861    872    873    862    927    938    939    928
8    608    619    620    609    674    685    686    675
8    674    685    686    675    740    751    752    741
8    740    751    752    741    806    817    818    807
8    806    817    818    807    872    883    884    873
8    872    883    884    873    938    949    950    939
8    619    630    631    620    685    696    697    686
8    685    696    697    686    751    762    763    752
8    751    762    763    752    817    828    829    818
8    817    828    829    818    883    894    895    884
8    883    894    895    884    949    960    961    950
8    630    641    642    631    696    707    708    697
8    696    707    708    697    762    773    774    763
8    762    773    774    763    828    839    840    829
8    828    839    840    829    894    905    906    895
8    894    905    906    895    960    971    972    961
8    641    652    653    642    707    718    719    708
8    707    718    719    708    773    784    785    774
8    773    784    785    774    839    850    851    840
8    839    850    851    840    905    916    917    906
8    905    916    917    906    971    982    983    972
8    598    609    610    599    664    675    676    665
8    664    675    676    665    730    741    742    731
8    730    741    742    731    796    807    808    797
8    796    807    808    797    862    873    874    863
8    862    873    874    863    928    939    940    929
8    609    620    621    610    675    686    687    676
8    675    686    687    676    741    752    753    742
8    741    752    753    742    807    818    819    808
8    807    818    819    808    873    884    885    874
8    873    884    885    874    939    950    951    940
8    620    631    632    621    686    697    698    687
8    686    697    698    687    752    763    764    753
8    752    763    764    753    818    829    830    819
8    818    829    830    819    884    895    896    885
8    884    895    896    885    950    961    962    951
8    631    642    643    632    697    708    709    698
8    697    708    709    698    763    774    775    764
8    763    774    775    764    829    840    841    830
8    829    840    841    830    895    906    907    896
8    895    906    907    896    961    972    973    962
8    642    653    654    643    708    719    720    709
8    708    719    720    709    774    785    786    775
8    774    785    786    775    840    851    852    841
8    840    851    852    841    906    917    918    907
8    906    917    918    907    972    983    984    973
8    599    610    611    600    665    676    677    666
8    665    676    677    666    731    742    743    732
8    731    742    743    732    797    808    809    798
8    797    808    809    798    863    874    875    864
8    863    874    875    864    929    940    941    930
8    610    621    622    611    676    687    688    677
8    676    687    688    677    742    753    754    743
8    742    753    754    743    808    819    820    809
8    808    819    820    809    874    885    886    875
8    874    885    886    875    940    951    952    941
8    621    632    633    622    687    698    699    688
8    687    698    699    688    753    764    765    754
8    753    764    765    754    819    830    831    820
8    819    830    831    820    885    896    897    886
8    885    896    897    886    951    962    963    952
8    632    643    644    633    698    709    710    699
8    698    709    710    699    764    775    776    765
8    764    775    776    765    830    841    842    831
8    830    841    842    831    896    907    908    897
8    896    907    908    897    962    973    974    963
8    643    654    655    644    709    720    721    710
8    709    720    721    710    775    786    787    776
8    775    786    787    776    841    852    853    842
8    841    852    853    842    907    918    919    908
8    907    918    919    908    973    984    985    974
8    600    611    612    601    666    677    678    667
8    666    677    678    667    732    743    744    733
8    732    743    744    733    798    809    810    799
8    798    809    810    799    864    875    876    865
8    864    875    876    865    930    941    942    931
8    611    622    623    612    677    688    689    678
8    677    688    689    678    743    754    755    744
8    743    754    755    744    809    820    821    810
8    809    820    821    810    875    886    887    876
8    875    886    887    876    941    952    953    942
8    622    633    634    623    688    699    700    689
8    688    699    700    689    754    765    766    755
8    754    765    766    755    820    831    832    821
8    820    831    832    821    886    897    898    887
8    886    897    898    887    952    963    964    953
8    633    644    645    634    699    710    711    700
8    699    710    711    700    765    776    777    766
8    765    776    777    766    831    842    843    832
8    831    842    843    832    897    908    909    898
8    897    908    909    898    963    974    975    964
8    644    655    656    645    710    721    722    711
8    710    721    722    711    776    787    788    777
8    776    787    788    777    842    853    854    843
8    842    853    854    843    908    919    920    909
8    908    919    920    909    974    985    986    975
8    601    612    613    602    667    678    679    668
8    667    678    679    668    733    744    745    734
8    733    744    745    734    799    810    811    800
8    799    810    811    800    865    876    877    866
8    865    876    877    866    931    942    943    932
8    612    623    624    613    678    689    690    679
8    678    689    690    679    744    755    756    745
8    744    755    756    745    810    821    822    811
8    810    821    822    811    876    887    888    877
8    876    887    888    877    942    953    954    943
8    623    634    635    624    689    700    701    690
8    689    700    701    690    755    766    767    756
8    755    766    767    756    821    832    833    822
8    821    832    833    822    887    898    899    888
8    887    898    899    888    953    964    965    954
8    634    645    646    635    700    711    712    701
8    700    711    712    701    766    777    778    767
8    766    777    778    767    832    843    844    833
8    832    843    844    833    898    909    910    899
8    898    909    910    899    964    975    976    965
8    645    656    657    646    711    722    723    712
8    711    722    723    712    777    788    789    778
8    777    788    789    778    843    854    855    844
8    843    854    855    844    909    920    921    910
8    909    920    921    910    975    986    987    976
8    602    613    614    603    668    679    680    669
8    668    679    680    669    734    745    746    735
8    734    745    746    735    800    811    812    801
8    800    811    812    801    866    877    878    867
8    866    877    878    867    932    943    944    933
8    613    624    625    614    679    690    691    680
8    679    690    691    680    745    756    757    746
8    745    756    757    746    811    822    823    812
8    811    822    823    812    877    888    889    878
8    877    888    889    878    943    954    955    944
8    624    635    636    625    690    701    702    691
8    690    701    702    691    756    767    768    757
8    756    767    768    757    822    833    834    823
8    822    833    834    823    888    899    900    889
8    888    899    900    889    954    965    966    955
8    635    646    647    636    701    712    713    702
8    701    712    713    702    767    778    779    768
8    767    778    779    768    833    844    845    834
8    833    844    845    834    899    910    911    900
8    899    910    911    900    965    976    977    966
8    646    657    658    647    712    723    724    713
8    712    723    724    713    778    789    790    779
8    778    789    790    779    844    855    856    845
8    844    855    856    845    910    921    922    911
8    910    921    922    911    976    987    988    977
8    603    614    615    604    669    680    681    670
8    669    680    681    670    735    746    747    736
8    735    746    747    736    801    812    813    802
8    801    812    813    802    867    878    879    868
8    867    878    879    868    933    944    945    934
8    614    625    626    615    680    691    692    681
8    680    691    692    681    746    757    758    747
8    746    757    758    747    812    823    824    813
8    812    823    824    813    878    889    890    879
8    878    889    890    879    944    955    956    945
8    625    636    637    626    691    702    703    692
8    691    702    703    692    757    768    769    758
8    757    768    769    758    823    834    835    824
8    823    834    835    824    889    900    901    890
8    889    900    901    890    955    966    967    956
8    636    647    648    637    702    713    714    703
8    702    713    714    703    768    779    780    769
8    768    779    780    769    834    845    846    835
8    834    845    846    835    900    911    912    901
8    900    911    912    901    966    977    978    967
8    647    658    659    648    713    724    725    714
8    713    724    725    714    779    790    791    780
8    779    790    791    780    845    856    857    846
8    845    856    857    846    911    922    923    912
8    911    922    923    912    977    988    989    978
8    998    594    990    999   1052   1043   1044   1053
8   1052   1043   1044   1053   1106   1097   1098   1107
8   1106   1097   1098   1107   1160   1151   1152   1161
8   1160   1151   1152   1161   1214   1205   1206   1215
8   1214   1205   1206   1215   1268   1259   1260   1269
8   1007    998    999   1008   1061   1052   1053   1062
8   1061   1052   1053   1062   1115   1106   1107   1116
8   1115   1106   1107   1116   1169   1160   1161   1170
8   1169   1160   1161   1170   1223   1214   1215   1224
8   1223   1214   1215   1224   1277   1268   1269   1278
8   1016   1007   1008   1017   1070   1061   1062   1071
8   1070   1061   1062   1071   1124   1115   1116   1125
8   1124   1115   1116   1125   1178   1169   1170   1179
8   1178   1169   1170   1179   1232   1223   1224   1233
8   1232   1223   1224   1233   1286   1277   1278   1287
8   1025   1016   1017   1026   1079   1070   1071   1080
8   1079   1070   1071   1080   1133   1124   1125   1134
8   1133   1124   1125   1134   1187   1178   1179   1188
8   1187   1178   1179   1188   1241   1232   1233   1242
8   1241   1232   1233   1242   1295   1286   1287   1296
8   1034   1025   1026   1035   1088   1079   1080   1089
8   1088   1079   1080   1089   1142   1133   1134   1143
8   1142   1133   1134   1143   1196   1187   1188   1197
8   1196   1187   1188   1197   1250   1241   1242   1251
8   1250   1241   1242   1251   1304   1295   1296   1305
8    999    990    991   1000   1053   1044   1045   1054
8   1053   1044   1045   1054   1107   1098   1099   1108
8   1107   1098   1099   1108   1161   1152   1153   1162
8   1161   1152   1153   1162   1215   1206   1207   1216
8   1215   1206   1207   1216   1269   1260   1261   1270
8   1008    999   1000   1009   1062   1053   1054   1063
8   1062   1053   1054   1063   1116   1107   1108   1117
8   1116   1107   1108   1117   1170   1161   1162   1171
8   1170   1161   1162   1171   1224   1215   1216   1225
8   1224   1215   1216   1225   1278   1269   1270   1279
8   1017   1008   1009   1018   1071   1062   1063   1072
8   1071   1062   1063   1072   1125   1116   1117   1126
8   1125   1116   1117   1126   1179   1170   1171   1180
8   1179   1170   1171   1180   1233   1224   1225   1234
8   1233   1224   1225   1234   1287   1278   1279   1288
8   1026   1017   1018   1027   1080   1071   1072   1081
8   1080   1071   1072   1081   1134   1125   1126   1135
8   1134   1125   1126   1135   1188   1179   1180   1189
8   1188   1179   1180   1189   1242   1233   1234   1243
8   1242   1233   1234   1243   1296   1287   1288   1297
8   1035   1026   1027   1036   1089   1080   1081   1090
8   1089   1080   1081   1090   1143   1134   1135   1144
8   1143   1134   1135   1144   1197   1188   1189   1198
8   1197   1188   1189   1198   1251   1242   1243   1252
8   1251   1242   1243   1252   1305   1296   1297   1306
8   1000    991    992   1001   1054   1045   1046   1055
8   1054   1045   1046   1055   1108   1099   1100   1109
8   1108   1099   1100   1109   1162   1153   1154   1163
8   1162   1153   1154   1163   1216   1207   1208   1217
8   1216   1207   1208   1217   1270   1261   1262   1271
8   1009   1000   1001   1010   1063   1054   1055   1064
8   1063   1054   1055   1064   1117   1108   1109   1118
8   1117   1108   1109   1118   1171   1162   1163   1172
8   1171   1162   1163   1172   1225   1216   1217   1226
8   1225   1216   1217   1226   1279   1270   1271   1280
8   1018   1009   1010   1019   1072   1063   1064   1073
8   1072   1063   1064   1073   1126   1117   1118   1127
8   1126   1117   1118   1127   1180   1171   1172   1181
8   1180   1171   1172   1181   1234   1225   1226   1235
8   1234   1225   1226   1235   1288   1279   1280   1289
8   1027   1018   1019   1028   1081   1072   1073   1082
8   1081   1072   1073   1082   1135   1126   1127   1136
8   1135   1126   1127   1136   1189   1180   1181   1190
8   1189   1180   1181   1190   1243   1234   1235   1244
8   1243   1234   1235   1244   1297   1288   1289   1298
8   1036   1027   1028   1037   1090   1081   1082   1091
8   1090   1081   1082   1091   1144   1135   1136   1145
8   1144   1135   1136   1145   1198   1189   1190   1199
8   1198   1189   1190   1199   1252   1243   1244   1253
8   1252   1243   1244   1253   1306   1297   1298   1307
8   1001    992    993   1002   1055   1046   1047   1056
8   1055   1046   1047   1056   1109   1100   1101   1110
8   1109   1100   1101   1110   1163   1154   1155   1164
8   1163   1154   1155   1164   1217   1208   1209   1218
8   1217   1208   1209   1218   1271   1262   1263   1272
8   1010   1001   1002   1011   1064   1055   1056   1065
8   1064   1055   1056   1065   1118   1109   1110   1119
8   1118   1109   1110   1119   1172   1163   1164   1173
8   1172   1163   1164   1173   1226   1217   1218   1227
8   1226   1217   1218   1227   1280   1271   1272   1281
8   1019   1010   1011   1020   1073   1064   1065   1074
8   1073   1064   1065   1074   1127   1118   1119   1128
8   1127   1118   1119   1128   1181   1172   1173   1182
8   1181   1172   1173   1182   1235   1226   1227   1236
8   1235   1226   1227   1236   1289   1280   1281   1290
8   1028   1019   1020   1029   1082   1073   1074   1083
8   1082   1073   1074   1083   1136   1127   1128   1137
8   1136   1127   1128   1137   1190   1181   1182   1191
8   1190   1181   1182   1191   1244   1235   1236   1245
8   1244   1235   1236   1245   1298   1289   1290   1299
8   1037   1028   1029   1038   1091   1082   1083   1092
8   1091   1082   1083   1092   1145   1136   1137   1146
8   1145   1136   1137   1146   1199   1190   1191   1200
8   1199   1190   1191   1200   1253   1244   1245   1254
8   1253   1244   1245   1254   1307   1298   1299   1308
8   1002    993    994   1003   1056   1047   1048   1057
8   1056   1047   1048   1057   1110   1101   1102   1111
8   1110   1101   1102   1111   1164   1155   1156   1165
8   1164   1155   1156   1165   1218   1209   1210   1219
8   1218   1209   1210   1219   1272   1263   1264   1273
8   1011   1002   1003   1012   1065   1056   1057   1066
8   1065   1056   1057   1066   1119   1110   1111   1120
8   1119   1110   1111   1120   1173   1164   1165   1174
8   1173   1164   1165   1174   1227   1218   1219   1228
8   1227   1218   1219   1228   1281   1272   1273   1282
8   1020   1011   1012   1021   1074   1065   1066   1075
8   1074   1065   1066   1075   1128   1119   1120   1129
8   1128   1119   1120   1129   1182   1173   1174   1183
8   1182   1173   1174   1183   1236   1227   1228   1237
8   1236   1227   1228   1237   1290   1281   1282   1291
8   1029   1020   1021   1030   1083   1074   1075   1084
8   1083   1074   1075   1084   1137   1128   1129   1138
8   1137   1128   1129   1138   1191   1182   1183   1192
8   1191   1182   1183   1192   1245   1236   1237   1246
8   1245   1236   1237   1246   1299   1290   1291   1300
8   1038   1029   1030   1039   1092   1083   1084   1093
8   1092   1083   1084   1093   1146   1137   1138   1147
8   1146   1137   1138   1147   1200   1191   1192   1201
8   1200   1191   1192   1201   1254   1245   1246   1255
8   1254   1245   1246   1255   1308   1299   1300   1309
8   1003    994    995   1004   1057   1048   1049   1058
8   1057   1048   1049   1058   1111   1102   1103   1112
8   1111   1102   1103   1112   1165   1156   1157   1166
8   1165   1156   1157   1166   1219   1210   1211   1220
8   1219   1210   1211   1220   1273   1264   1265   1274
8   1012   1003   1004   1013   1066   1057   1058   1067
8   1066   1057   1058   1067   1120   1111   1112   1121
8   1120   1111   1112   1121   1174   1165   1166   1175
8   1174   1165   1166   1175   1228   1219   1220   1229
8   1228   1219   1220   1229   1282   1273   1274   1283
8   1021   1012   1013   1022   1075   1066   1067   1076
8   1075   1066   1067   1076   1129   1120   1121   1130
8   1129   1120   1121   1130   1183   1174   1175   1184
8   1183   1174   1175   1184   1237   1228   1229   1238
8   1237   1228   1229   1238   1291   1282   1283   1292
8   1030   1021   1022   1031   1084   1075   1076   1085
8   1084   1075   1076   1085   1138   1129   1130   1139
8   1138   1129   1130   1139   1192   1183   1184   1193
8   1192   1183   1184   1193   1246   1237   1238   1247
8   1246   1237   1238   1247   1300   1291   1292   1301
8   1039   1030   1031   1040   1093   1084   1085   1094
8   1093   1084   1085   1094   1147   1138   1139   1148
8   1147   1138   1139   1148   1201   1192   1193   1202
8   1201   1192   1193   1202   1255   1246   1247   1256
8   1255   1246   1247   1256   1309   1300   1301   1310
8   1004    995    996   1005   1058   1049   1050   1059
8   1058   1049   1050   1059   1112   1103   1104   1113
8   1112   1103   1104   1113   1166   1157   1158   1167
8   1166   1157   1158   1167   1220   1211   1212   1221
8   1220   1211   1212   1221   1274   1265   1266   1275
8   1013   1004   1005   1014   1067   1058   1059   1068
8   1067   1058   1059   1068   1121   1112   1113   1122
8   1121   1112   1113   1122   1175   1166   1167   1176
8   1175   1166   1167   1176   1229   1220   1221   1230
8   1229   1220   1221   1230   1283   1274   1275   1284
8   1022   1013   1014   1023   1076   1067   1068   1077
8   1076   1067   1068   1077   1130   1121   1122   1131
8   1130   1121   1122   1131   1184   1175   1176   1185
8   1184   1175   1176   1185   1238   1229   1230   1239
8   1238   1229   1230   1239   1292   1283   1284   1293
8   1031   1022   1023   1032   1085   1076   1077   1086
8   1085   1076   1077   1086   1139   1130   1131   1140
8   1139   1130   1131   1140   1193   1184   1185   1194
8   1193   1184   1185   1194   1247   1238   1239   1248
8   1247   1238   1239   1248   1301   1292   1293   1302
8   1040   1031   1032   1041   1094   1085   1086   1095
8   1094   1085   1086   1095   1148   1139   1140   1149
8   1148   1139   1140   1149   1202   1193   1194   1203
8   1202   1193   1194   1203   1256   1247   1248   1257
8   1256   1247   1248   1257   1310   1301   1302   1311
8   1005    996    997   1006   1059   1050   1051   1060
8   1059   1050   1051   1060   1113   1104   1105   1114
8   1113   1104   1105   1114   1167   1158   1159   1168
8   1167   1158   1159   1168   1221   1212   1213   1222
8   1221   1212   1213   1222   1275   1266   1267   1276
8   1014   1005   1006   1015   1068   1059   1060   1069
8   1068   1059   1060   1069   1122   1113   1114   1123
8   1122   1113   1114   1123   1176   1167   1168   1177
8   1176   1167   1168   1177   1230   1221   1222   1231
8   1230   1221   1222   1231   1284   1275   1276   1285
8   1023   1014   1015   1024   1077   1068   1069   1078
8   1077   1068   1069   1078   1131   1122   1123   1132
8   1131   1122   1123   1132   1185   1176   1177   1186
8   1185   1176   1177   1186   1239   1230   1231   1240
8   1239   1230   1231   1240   1293   1284   1285   1294
8   1032   1023   1024   1033   1086   1077   1078   1087
8   1086   1077   1078   1087   1140   1131   1132   1141
8   1140   1131   1132   1141   1194   1185   1186   1195
8   1194   1185   1186   1195   1248   1239   1240   1249
8   1248   1239   1240   1249   1302   1293   1294   1303
8   1041   1032   1033   1042   1095   1086   1087   1096
8   1095   1086   1087   1096   1149   1140   1141   1150
8   1149   1140   1141   1150   1203   1194   1195   1204
8   1203   1194   1195   1204   1257   1248   1249   1258
8   1257   1248   1249   1258   1311   1302   1303   1312
8      0   1314   1324     99      1   1315   1325    100
8     99   1324   1334    198    100   1325   1335    199
8    198   1334   1344    297    199   1335   1345    298
8    297   1344   1354    396    298   1345   1355    397
8    396   1354   1364    495    397   1355   1365    496
8    495   1364   1374    504    496   1365   1375    505
8    504   1374   1384    513    505   1375   1385    514
8    513   1384   1394    522    514   1385   1395    523
8    522   1394   1404    531    523   1395   1405    532
8    531   1404   1414    540    532   1405   1415    541
8    540   1414   1424    549    541   1415   1425    550
8    549   1424   1434    558    550   1425   1435    559
8    558   1434   1444    567    559   1435   1445    568
8    567   1444   1454    576    568   1445   1455    577
8    576   1454   1464    585    577   1455   1465    586
8     90    189   1504   1514     91    190   1505   1515
8    189    288   1494   1504    190    289   1495   1505
8    288    387   1484   1494    289    388   1485   1495
8    387    486   1474   1484    388    487   1475   1485
8    486    585   1464   1474    487    586   1465   1475
8      1   1315   1325    100      2   1316   1326    101
8    100   1325   1335    199    101   1326   1336    200
8    199   1335   1345    298    200   1336   1346    299
8    298   1345   1355    397    299   1346   1356    398
8    397   1355   1365    496    398   1356   1366    497
8    496   1365   1375    505    497   1366   1376    506
8    505   1375   1385    514    506   1376   1386    515
8    514   1385   1395    523    515   1386   1396    524
8    523   1395   1405    532    524   1396   1406    533
8    532   1405   1415    541    533   1406   1416    542
8    541   1415   1425    550    542   1416   1426    551
8    550   1425   1435    559    551   1426   1436    560
8    559   1435   1445    568    560   1436   1446    569
8    568   1445   1455    577    569   1446   1456    578
8    577   1455   1465    586    578   1456   1466    587
8     91    190   1505   1515     92    191   1506   1516
8    190    289   1495   1505    191    290   1496   1506
8    289    388   1485   1495    290    389   1486   1496
8    388    487   1475   1485    389    488   1476   1486
8    487    586   1465   1475    488    587   1466   1476
8      2   1316   1326    101      3   1317   1327    102
8    101   1326   1336    200    102   1327   1337    201
8    200   1336   1346    299    201   1337   1347    300
8    299   1346   1356    398    300   1347   1357    399
8    398   1356   1366    497    399   1357   1367    498
8    497   1366   1376    506    498   1367   1377    507
8    506   1376   1386    515    507   1377   1387    516
8    515   1386   1396    524    516   1387   1397    525
8    524   1396   1406    533    525   1397   1407    534
8    533   1406   1416    542    534   1407   1417    543
8    542   1416   1426    551    543   1417   1427    552
8    551   1426   1436    560    552   1427   1437    561
8    560   1436   1446    569    561   1437   1447    570
8    569   1446   1456    578    570   1447   1457    579
8    578   1456   1466    587    579   1457   1467    588
8     92    191   1506   1516     93    192   1507   1517
8    191    290   1496   1506    192    291   1497   1507
8    290    389   1486   1496    291    390   1487   1497
8    389    488   1476   1486    390    489   1477   1487
8    488    587   1466   1476    489    588   1467   1477
8      3   1317   1327    102      4   1318   1328    103
8    102   1327   1337    201    103   1328   1338    202
8    201   1337   1347    300    202   1338   1348    301
8    300   1347   1357    399    301   1348   1358    400
8    399   1357   1367    498    400   1358   1368    499
8    498   1367   1377    507    499   1368   1378    508
8    507   1377   1387    516    508   1378   1388    517
8    516   1387   1397    525    517   1388   1398    526
8    525   1397   1407    534    526   1398   1408    535
8    534   1407   1417    543    535   1408   1418    544
8    543   1417   1427    552    544   1418   1428    553
8    552   1427   1437    561    553   1428   1438    562
8    561   1437   1447    570    562   1438   1448    571
8    570   1447   1457    579    571   1448   1458    580
8    579   1457   1467    588    580   1458   1468    589
8     93    192   1507   1517     94    193   1508   1518
8    192    291   1497   1507    193    292   1498   1508
8    291    390   1487   1497    292    391   1488   1498
8    390    489   1477   1487    391    490   1478   1488
8    489    588   1467   1477    490    589   1468   1478
8      4   1318   1328    103      5   1319   1329    104
8    103   1328   1338    202    104   1329   1339    203
8    202   1338   1348    301    203   1339   1349    302
8    301   1348   1358    400    302   1349   1359    401
8    400   1358   1368    499    401   1359   1369    500
8    499   1368   1378    508    500   1369   1379    509
8    508   1378   1388    517    509   1379   1389    518
8    517   1388   1398    526    518   1389   1399    527
8    526   1398   1408    535    527   1399   1409    536
8    535   1408   1418    544    536   1409   1419    545
8    544   1418   1428    553    545   1419   1429    554
8    553   1428   1438    562    554   1429   1439    563
8    562   1438   1448    571    563   1439   1449    572
8    571   1448   1458    580    572   1449   1459    581
8    580   1458   1468    589    581   1459   1469    590
8     94    193   1508   1518     95    194   1509   1519
8    193    292   1498   1508    194    293   1499   1509
8    292    391   1488   1498    293    392   1489   1499
8    391    490   1478   1488    392    491   1479   1489
8    490    589   1468   1478    491    590   1469   1479
8      5   1319   1329    104      6   1320   1330    105
8    104   1329   1339    203    105   1330   1340    204
8    203   1339   1349    302    204   1340   1350    303
8    302   1349   1359    401    303   1350   1360    402
8    401   1359   1369    500    402   1360   1370    501
8    500   1369   1379    509    501   1370   1380    510
8    509   1379   1389    518    510   1380   1390    519
8    518   1389   1399    527    519   1390   1400    528
8    527   1399   1409    536    528   1400   1410    537
8    536   1409   1419    545    537   1410   1420    546
8    545   1419   1429    554    546   1420   1430    555
8    554   1429   1439    563    555   1430   1440    564
8    563   1439   1449    572    564   1440   1450    573
8    572   1449   1459    581    573   1450   1460    582
8    581   1459   1469    590    582   1460   1470    591
8     95    194   1509   1519     96    195   1510   1520
8    194    293   1499   1509    195    294   1500   1510
8    293    392   1489   1499    294    393   1490   1500
8    392    491   1479   1489    393    492   1480   1490
8    491    590   1469   1479    492    591   1470   1480
8      6   1320   1330    105      7   1321   1331    106
8    105   1330   1340    204    106   1331   1341    205
8    204   1340   1350    303    205   1341   1351    304
8    303   1350   1360    402    304   1351   1361    403
8    402   1360   1370    501    403   1361   1371    502
8    501   1370   1380    510    502   1371   1381    511
8    510   1380   1390    519    511   1381   1391    520
8    519   1390   1400    528    520   1391   1401    529
8    528   1400   1410    537    529   1401   1411    538
8    537   1410   1420    546    538   1411   1421    547
8    546   1420   1430    555    547   1421   1431    556
8    555   1430   1440    564    556   1431   1441    565
8    564   1440   1450    573    565   1441   1451    574
8    573   1450   1460    582    574   1451   1461    583
8    582   1460   1470    591    583   1461   1471    592
8     96    195   1510   1520     97    196   1511   1521
8    195    294   1500   1510    196    295   1501   1511
8    294    393   1490   1500    295    394   1491   1501
8    393    492   1480   1490    394    493   1481   1491
8    492    591   1470   1480    493    592   1471   1481
8      7   1321   1331    106      8   1322   1332    107
8    106   1331   1341    205    107   1332   1342    206
8    205   1341   1351    304    206   1342   1352    305
8    304   1351   1361    403    305   1352   1362    404
8    403   1361   1371    502    404   1362   1372    503
8    502   1371   1381    511    503   1372   1382    512
8    511   1381   1391    520    512   1382   1392    521
8    520   1391   1401    529    521   1392   1402    530
8    529   1401   1411    538    530   1402   1412    539
8    538   1411   1421    547    539   1412   1422    548
8    547   1421   1431    556    548   1422   1432    557
8    556   1431   1441    565    557   1432   1442    566
8    565   1441   1451    574    566   1442   1452    575
8    574   1451   1461    583    575   1452   1462    584
8    583   1461   1471    592    584   1462   1472    593
8     97    196   1511   1521     98    197   1512   1522
8    196    295   1501   1511    197    296   1502   1512
8    295    394   1491   1501    296    395   1492   1502
8    394    493   1481   1491    395    494   1482   1492
8    493    592   1471   1481    494    593   1472   1482
8   1523   1524      9      0   1534   1535    108     99
8   1534   1535    108     99   1545   1546    207    198
8   1545   1546    207    198   1556   1557    306    297
8   1556   1557    306    297   1567   1568    405    396
8   1567   1568    405    396   1578   1579    504    495
8   1524   1525     18      9   1535   1536    117    108
8   1535   1536    117    108   1546   1547    216    207
8   1546   1547    216    207   1557   1558    315    306
8   1557   1558    315    306   1568   1569    414    405
8   1568   1569    414    405   1579   1580    513    504
8   1525   1526     27     18   1536   1537    126    117
8   1536   1537    126    117   1547   1548    225    216
8   1547   1548    225    216   1558   1559    324    315
8   1558   1559    324    315   1569   1570    423    414
8   1569   1570    423    414   1580   1581    522    513
8   1526   1527     36     27   1537   1538    135    126
8   1537   1538    135    126   1548   1549    234    225
8   1548   1549    234    225   1559   1560    333    324
8   1559   1560    333    324   1570   1571    432    423
8   1570   1571    432    423   1581   1582    531    522
8   1527   1528     45     36   1538   1539    144    135
8   1538   1539    144    135   1549   1550    243    234
8   1549   1550    243    234   1560   1561    342    333
8   1560   1561    342    333   1571   1572    441    432
8   1571   1572    441    432   1582   1583    540    531
8   1528   1529     54     45   1539   1540    153    144
8   1539   1540    153    144   1550   1551    252    243
8   1550   1551    252    243   1561   1562    351    342
8   1561   1562    351    342   1572   1573    450    441
8   1572   1573    450    441   1583   1584    549    540
8   1529   1530     63     54   1540   1541    162    153
8   1540   1541    162    153   1551   1552    261    252
8   1551   1552    261    252   1562   1563    360    351
8   1562   1563    360    351   1573   1574    459    450
8   1573   1574    459    450   1584   1585    558    549
8   1530   1531     72     63   1541   1542    171    162
8   1541   1542    171    162   1552   1553    270    261
8   1552   1553    270    261   1563   1564    369    360
8   1563   1564    369    360   1574   1575    468    459
8   1574   1575    468    459   1585   1586    567    558
8   1531   1532     81     72   1542   1543    180    171
8   1542   1543    180    171   1553   1554    279    270
8   1553   1554    279    270   1564   1565    378    369
8   1564   1565    378    369   1575   1576    477    468
8   1575   1576    477    468   1586   1587    576    567
8   1532   1533     90     81   1543   1544    189    180
8   1543   1544    189    180   1554   1555    288    279
8   1554   1555    288    279   1565   1566    387    378
8   1565   1566    387    378   1576   1577    486    477
8   1576   1577    486    477   1587   1588    585    576
8   1523   1313   1323   1534      0   1314   1324     99
8   1534   1323   1333   1545     99   1324   1334    198
8   1545   1333   1343   1556    198   1334   1344    297
8   1556   1343   1353   1567    297   1344   1354    396
8   1567   1353   1363   1578    396   1354   1364    495
8   1578   1363   1373   1579    495   1364   1374    504
8   1579   1373   1383   1580    504   1374   1384    513
8   1580   1383   1393   1581    513   1384   1394    522
8   1581   1393   1403   1582    522   1394   1404    531
8   1582   1403   1413   1583    531   1404   1414    540
8   1583   1413   1423   1584    540   1414   1424    549
8   1584   1423   1433   1585    549   1424   1434    558
8   1585   1433   1443   1586    558   1434   1444    567
8   1586   1443   1453   1587    567   1444   1454    576
8   1587   1453   1463   1588    576   1454   1464    585
8   1533   1544   1503   1513     90    189   1504   1514
8   1544   1555   1493   1503    189    288   1494   1504
8   1555   1566   1483   1493    288    387   1484   1494
8   1566   1577   1473   1483    387    486   1474   1484
8   1577   1588   1463   1473    486    585   1464   1474
CELL_TYPES  1130
12
12
12
12
12
12
12
12
12
12
12
12
12
12
12
12
12
12
12
12
12
12
12
12
12
12
12
12
12
12
12
12
12
12
12
12
12
12
12
12
12
12
12
12
12
12
12
12
12
12
12
12
12
12
12
12
12
12
12
12
12
12
12
12
12
12
12
12
12
12
12
12
12
12
12
12
12
12
12
12
12
12
12
12
12
12
12
12
12
12
12
12
12
12
12
12
12
12
12
12
12
12
12
12
12
12
12
12
12
12
12
12
12
12
12
12
12
12
12
12
12
12
12
12
12
12
12
12
12
12
12
12
12
12
12
12
12
12
12
12
12
12
12
12
12
12
12
12
12
12
12
12
12
12
12
12
12
12
12
12
12
12
12
12
12
12
12
12
12
12
12
12
12
12
12
12
12
12
12
12
12
12
12
12
12
12
12
12
12
12
12
12
12
12
12
12
12
12
12
12
12
12
12
12
12
12
12
12
12
12
12
12
12
12
12
12
12
12
12
12
12
12
12
12
12
12
12
12
12
12
12
12
12
12
12
12
12
12
12
12
12
12
12
12
12
12
12
12
12
12
12
12
12
12
12
12
12
12
12
12
12
12
12
12
12
12
12
12
12
12
12
12
12
12
12
12
12
12
12
12
12
12
12
12
12
12
12
12
12
12
12
12
12
12
12
12
12
12
12
12
12
12
12
12
12
12
12
12
12
12
12
12
12
12
12
12
12
12
12
12
12
12
12
12
12
12
12
12
12
12
12
12
12
12
12
12
12
12
12
12
12
12
12
12
12
12
12
12
12
12
12
12
12
12
12
12
12
12
12
12
12
12
12
12
12
12
12
12
12
12
12
12
12
12
12
12
12
12
12
12
12
12
12
12
12
12
12
12
12
12
12
12
12
12
12
12
12
12
12
12
12
12
12
12
12
12
12
12
12
12
12
12
12
12
12
12
12
12
12
12
12
12
12
12
12
12
12
12
12
12
12
12
12
12
12
12
12
12
12
12
12
12
12
12
12
12
12
12
12
12
12
12
12
12
12
12
12
12
12
12
12
12
12
12
12
12
12
12
12
12
12
12
12
12
12
12
12
12
12
12
12
12
12
12
12
12
12
12
12
12
12
12
12
12
12
12
12
12
12
12
12
12
12
12
12
12
12
12
12
12
12
12
12
12
12
12
12
12
12
12
12
12
12
12
12
12
12
12
12
12
12
12
12
12
12
12
12
12
12
12
12
12
12
12
12
12
12
12
12
12
12
12
12
12
12
12
12
12
12
12
12
12
12
12
12
12
12
12
12
12
12
12
12
12
12
12
12
12
12
12
12
12
12
12
12
12
12
12
12
12
12
12
12
12
12
12
12
12
12
12
12
12
12
12
12
12
12
12
12
12
12
12
12
12
12
12
12
12
12
12
12
12
12
12
12
12
12
12
12
12
12
12
12
12
12
12
12
12
12
12
12
12
12
12
12
12
12
12
12
12
12
12
12
12
12
12
12
12
12
12
12
12
12
12
12
12
12
12
12
12
12
12
12
12
12
12
12
12
12
12
12
12
12
12
12
12
12
12
12
12
12
12
12
12
12
12
12
12
12
12
12
12
12
12
12
12
12
12
12
12
12
12
12
12
12
12
12
12
12
12
12
12
12
12
12
12
12
12
12
12
12
12
12
12
12
12
12
12
12
12
12
12
12
12
12
12
12
12
12
12
12
12
12
12
12
12
12
12
12
12
12
12
12
12
12
12
12
12
12
12
12
12
12
12
12
12
12
12
12
12
12
12
12
12
12
12
12
12
12
12
12
12
12
12
12
12
12
12
12
12
12
12
12
12
12
12
12
12
12
12
12
12
12
12
12
12
12
12
12
12
12
12
12
12
12
12
12
12
12
12
12
12
12
12
12
12
12
12
12
12
12
12
12
12
12
12
12
12
12
12
12
12
12
12
12
12
12
12
12
12
12
12
12
12
12
12
12
12
12
12
12
12
12
12
12
12
12
12
12
12
12
12
12
12
12
12
12
12
12
12
12
12
12
12
12
12
12
12
12
12
12
12
12
12
12
12
12
12
12
12
12
12
12
12
12
12
12
12
12
12
12
12
12
12
12
12
12
12
12
12
12
12
12
12
12
12
12
12
12
12
12
12
12
12
12
12
12
12
12
12
12
12
12
12
12
12
12
12
12
12
12
12
12
12
12
12
12
12
12
12
12
12
12
12
12
12
12
12
12
12
12
12
12
12
12
12
12
12
12
12
12
12
12
12
12
12
12
12
12
12
12
12
12
12
12
12
12
12
12
12
12
12
12
12
12
12
12
12
12
12
12
12
12
12
12
12
12
12
12
12
12
12
12
12
12
12
12
12
12
12
12
12
12
12
12
12
12
12
12
12
12
12
12
12
12
12
12
12
12
12
12
12
12
12
12
12
12
12
12
12
12
12
12
12
12
12
12
12
12
12
12
12
12
12
12
12
12
12
12
12
12
12
12
12
12
12
12
12
12
12
12
12
12
12
12
12
12
12
12
12
12
12
12
12
12
12
12
12
12
12
12
12
12
12
12
12
12
12
12
12
POINT_DATA      1589
VECTORS Velocities float 
     0.00000000     0.00000000     0.00000000
     0.00000000     0.00000000     0.00000000
     0.00000000     0.00000000     0.00000000
     0.00000000     0.00000000     0.00000000
     0.00000000     0.00000000     0.00000000
     0.00000000     0.00000000     0.00000000
     0.00000000     0.00000000     0.00000000
     0.00000000     0.00000000     0.00000000
     0.00000000     0.00000000     0.00000000
     0.00000000     0.00000000     0.00000000
  -124.25513549   115.67843553     0.00000000
   -75.31134184    -1.83819225     0.00000000
  -101.87480497    42.85625555     0.00000000
  -237.65079014    11.66424516     0.00000000
  -301.20090220     8.31872158     0.00000000
  -378.24229145   -60.00783810     0.00000000
  -459.66424933   -40.22549321     0.00000000
  -590.30743803  -123.34041340     0.00000000
     0.00000000     0.00000000     0.00000000
  -222.18927711    37.87528222     0.00000000
  -123.40172916    50.19392960     0.00000000
  -111.35179099    37.52822255     0.00000000
  -252.71858721    46.57078085     0.00000000
  -246.64553282    38.04234449     0.00000000
  -285.51696465   106.80357016     0.00000000
   -78.57678057    54.67859286     0.00000000
   205.28771408   192.31482761     0.00000000
     0.00000000     0.00000000     0.00000000
  -224.95837637   -54.30202563     0.00000000
  -119.46270577   102.69720712     0.00000000
   -49.69837357    48.69474232     0.00000000
  -108.15145715    -7.30134771     0.00000000
   -90.91571014    23.16744736     0.00000000
    36.12768060    23.06979570     0.00000000
   123.56343705    94.35027168     0.00000000
   139.90608143   184.75458926     0.00000000
     0.00000000     0.00000000     0.00000000
  -165.88890212   -81.32808371     0.00000000
   -79.45517308   132.36481841     0.00000000
    31.59956325    76.22489676     0.00000000
   -54.35351163    13.37207699     0.00000000
   -44.44495610  -124.83570040     0.00000000
     7.91586288  -100.63742744     0.00000000
    97.73047149   161.94266376     0.00000000
   373.91170168    38.98278712     0.00000000
     0.00000000     0.00000000     0.00000000
  -180.77266770   -91.22333184     0.00000000
   -62.23816594    64.48228704     0.00000000
   -11.57162190   103.86921281     0.00000000
    16.78437179    17.94429831     0.00000000
   -89.83663724   -38.72802109     0.00000000
  -138.13858531   -85.98489195     0.00000000
    58.08630154   182.18063307     0.00000000
     0.00000000     0.00000000     0.00000000
     0.00000000     0.00000000     0.00000000
  -131.63587829  -100.48572500     0.00000000
   -77.95384594   -35.01079994     0.00000000
    79.70502105    49.92376680     0.00000000
   -51.55630422    -5.72348268     0.00000000
   105.40920216   -18.85915419     0.00000000
  -103.26482201   105.52279011     0.00000000
   122.71625565  -318.89718950     0.00000000
   229.83644037   263.77530282     0.00000000
     0.00000000     0.00000000     0.00000000
  -186.35508194   -97.80266590     0.00000000
  -112.41780568   -80.34305342     0.00000000
   -54.00539597   -53.38261803     0.00000000
   -79.95135747     2.64655860     0.00000000
   -33.03486105  -102.52802644     0.00000000
   130.16991140   158.69793814     0.00000000
   -21.53710879  -293.88916468     0.00000000
   -56.74676446   239.32330707     0.00000000
     0.00000000     0.00000000     0.00000000
  -156.07773546   -97.50958380     0.00000000
  -150.21584675   -94.77622381     0.00000000
  -158.78735034   -78.75570817     0.00000000
  -184.43037712   -54.20620189     0.00000000
   -87.84006204   -23.55797073     0.00000000
    -5.78369259   -29.68654885     0.00000000
    97.86045785     5.53080073     0.00000000
    26.88926764    65.47025863     0.00000000
     0.00000000     0.00000000     0.00000000
   -66.07237857   -99.67735260     0.00000000
  -111.31158875   -37.60181923     0.00000000
  -162.00131931   -57.61143301     0.00000000
  -264.89737977   -38.36023059     0.00000000
  -312.84279309   -25.00834619     0.00000000
  -374.53021235    47.17008700     0.00000000
  -414.02898605   140.85214843     0.00000000
  -323.11341994   292.76157848     0.00000000
     0.00000000     0.00000000     0.00000000
     0.00000000     0.00000000     0.00000000
     0.00000000     0.00000000     0.00000000
     0.00000000     0.00000000     0.00000000
     0.00000000     0.00000000     0.00000000
     0.00000000     0.00000000     0.00000000
     0.00000000     0.00000000     0.00000000
     0.00000000     0.00000000     0.00000000
     0.00000000     0.00000000     0.00000000
     0.00000000     0.00000000     0.00000000
     0.00000000     0.00000000     0.00000000
     0.00000000     0.00000000     0.00000000
     0.00000000     0.00000000     0.00000000
     0.00000000     0.00000000     0.00000000
     0.00000000     0.00000000     0.00000000
     0.00000000     0.00000000     0.00000000
     0.00000000     0.00000000     0.00000000
     0.00000000     0.00000000     0.00000000
     0.00000000     0.00000000     0.00000000
   -17.95437388   -19.57303941    70.05443269
   -85.76507687    41.58832163   -61.75326476
  -110.32585697    25.27926687    87.99958533
  -146.13059142    13.10930225    18.35977427
  -224.28920776    31.42182543    46.05175692
  -275.75018581     0.72912810   -21.98918619
  -382.12573747   -52.85157174   -28.81991943
  -605.59645478  -146.13541764   -59.55406713
     0.00000000     0.00000000     0.00000000
     7.57756638    35.82581018   171.77021982
   -86.76391867    11.88935559  -115.61053544
   -90.19519009    40.49841848    94.70329726
  -121.01039066    23.46756798   -15.72684860
  -105.75182456   -39.66825759    29.42792724
   -87.61041100    35.11786516   -79.94148635
  -149.32026874    67.71590886  -139.01280261
   186.25921028   -24.92515810  -178.45944316
     0.00000000     0.00000000     0.00000000
    75.12956515    17.01078946   126.23025371
    49.70756560   -91.40745361   -90.93250861
   -62.99967561   121.54724124    61.74513669
   -10.40716713   -29.80108832   -15.90010019
   -50.39818438    20.13607234    58.50839901
    76.63522154  -139.94545091    54.06091340
   196.19444306   168.78586218   -89.94133097
    32.64861388   -43.04215038   -53.79126384
     0.00000000     0.00000000     0.00000000
    97.02182126   -61.16305863   110.06889260
    36.71689484  -116.30140008   -88.99197199
    78.83522204    77.17012002    32.04949107
    19.99542671    39.08725964   -46.82232799
    44.81122307    12.41652522    65.41377600
    46.56160627  -151.36208470  -121.84369669
   106.47015288   123.37170631     5.96240867
   328.96118769   -33.95870470   -96.99669106
     0.00000000     0.00000000     0.00000000
    21.37258362   -87.54826869    83.82339073
    21.06140095  -108.83763197   -58.74691960
   -12.57350895    76.05430549    40.89193232
    78.15566208    50.19442354   -46.47797873
    38.58399659    12.24452882    13.54174481
   -52.30264000   -68.79644432   -94.35691808
    -1.03408359    71.36390139   -38.35389568
     0.00000000     0.00000000     0.00000000
     0.00000000     0.00000000     0.00000000
    42.17182125  -101.04500589    93.15687628
    -9.16365759   -88.48713873   -64.15038600
    15.41322158    87.37274605    65.94875436
    45.11759951    48.95051918    -2.21133356
    63.50286136    -7.58511674    43.27685459
   -17.09789791   139.62761458   -46.91934852
   119.12638994  -264.03305646    23.66442321
   164.41107095   253.56860560   -81.35694889
     0.00000000     0.00000000     0.00000000
   -25.77455824  -117.23469347    67.14683836
   -91.46603331   -80.92414677   -59.91734557
   -67.14920559   -21.84127371    93.53833745
   109.29084715    61.38512894    -9.51983958
   -61.49158852   -45.44371447    25.70404213
   120.67524151   205.33051922   -75.74814805
    39.17592087  -301.03022278   -46.90128953
   -20.00589839   250.96660408  -121.31600921
     0.00000000     0.00000000     0.00000000
   -20.66480086   -60.35928851    93.88093297
  -138.61184411   -97.95536814   -57.11490709
  -163.47571524   -61.51969222    43.42080669
  -150.97230805   -56.31061705   -37.87858802
   -92.05280844    20.67291862    11.64043915
   -24.50002072    16.01479156   -93.78900402
    73.79609873   -42.18763809   138.33202582
    67.33236556    68.04046224  -236.98630754
     0.00000000     0.00000000     0.00000000
   -31.31737920     6.11201746    14.41874347
  -108.35601203   -66.52815382    -7.04654034
  -188.18600780   -55.31966871    27.98837942
  -220.11138605   -40.39416868    -3.30985153
  -302.90411925   -24.98845941    13.70766696
  -296.69540305    47.14040540    -5.85625455
  -357.20160716   172.05743813   -17.99994380
  -314.37686413   283.97648982   -12.50422275
     0.00000000     0.00000000     0.00000000
     0.00000000     0.00000000     0.00000000
     0.00000000     0.00000000     0.00000000
     0.00000000     0.00000000     0.00000000
     0.00000000     0.00000000     0.00000000
     0.00000000     0.00000000     0.00000000
     0.00000000     0.00000000     0.00000000
     0.00000000     0.00000000     0.00000000
     0.00000000     0.00000000     0.00000000
     0.00000000     0.00000000     0.00000000
     0.00000000     0.00000000     0.00000000
     0.00000000     0.00000000     0.00000000
     0.00000000     0.00000000     0.00000000
     0.00000000     0.00000000     0.00000000
     0.00000000     0.00000000     0.00000000
     0.00000000     0.00000000     0.00000000
     0.00000000     0.00000000     0.00000000
     0.00000000     0.00000000     0.00000000
     0.00000000     0.00000000     0.00000000
    29.56830450    32.64461337    95.13471790
   -12.49205866     1.14297675    -8.06461803
   -27.37042245    24.34084543    57.00980233
    -8.00733816    39.22722231    61.79429584
    61.03479302   -26.68004118   -10.62707183
    42.62107440    35.18878395   -11.17151831
  -167.32697388   -44.14764676     6.11296852
  -665.96561510   -94.79559773   -37.41402228
     0.00000000     0.00000000     0.00000000
    35.28182364    30.82254392    91.87681135
    61.26030194   -45.02615553    23.70355888
    16.04208408    37.31292411    31.95287960
    11.83372665    32.61216807    48.49412501
    29.98656424    13.99321422    -5.00968850
   125.63471115   -46.83041119    29.51446119
  -121.58729007   150.29713925   -60.44072537
   -13.72391183   -97.77972980  -210.43603329
     0.00000000     0.00000000     0.00000000
    56.09205103    17.74609522   121.18369411
   113.84171083  -105.23440781    29.48338974
    86.26108667    66.80348285    34.85877597
    81.61177211   -36.47397450     7.06798243
   110.77167188    84.35630797    -7.36460027
    93.35072759  -108.24112314     6.68475384
   169.64421913   237.20661898  -119.90790694
   -48.27868198  -170.01333357  -125.55793314
     0.00000000     0.00000000     0.00000000
    72.42043754   -33.95733961    79.20746902
    88.83799222  -103.58304254    -2.15284585
    85.92952722    46.21044744    21.40231437
   110.19511283   -53.61766371   -33.30825154
    89.71561491   100.10491344    47.85801487
   150.60304811  -118.46204856  -122.98248141
   160.14841780   158.01857282    42.12307294
   310.69796935   -65.30245749  -151.64666264
     0.00000000     0.00000000     0.00000000
    22.28743546   -70.26574468    81.15933211
    45.72474562  -102.75506471   -24.44426553
    31.43345908    13.21401056   -16.19321422
    35.46651606   -34.87230517   -27.17683644
   101.33409268    62.49069617   -13.55292203
     7.68206398   -61.11683153   -85.07585334
    63.06279007    69.83602424  -111.81863473
     0.00000000     0.00000000     0.00000000
     0.00000000     0.00000000     0.00000000
    35.55005152   -83.90635902    63.90215873
   -11.79776078   -98.28705704   -16.68344993
    30.15241249   -30.12077984    42.12030829
    -4.56813091    37.02233336   -54.86368493
   106.14649122   -55.92449334    55.04944348
     1.13301488   181.92172509   -96.57328810
   144.43428713  -250.71759287   -37.96454961
   128.06126767   254.50185123  -111.08354647
     0.00000000     0.00000000     0.00000000
   -37.72451245   -85.31322685    70.76445724
   -67.13490936   -89.14803696     0.66009239
   -47.16264378   -52.81701352    35.38278842
    67.02072932    48.47977809    15.40046849
    57.83291840   -36.86862912    81.60999469
    47.00130799   107.20969353   -70.87607745
   131.65190565  -246.62376883   -93.54063350
    50.80515482   276.99648941  -199.99412164
     0.00000000     0.00000000     0.00000000
   -19.68759442   -45.50148606    44.36226482
  -105.24664231   -85.64739673    12.10236456
  -119.34379927   -53.98888352     4.73459543
  -132.79641317   -41.12630827    27.23882403
   -78.01643268    19.68208210    -6.94274596
  -176.36477591     6.33032153   -44.19212165
   -63.09001731    12.60001256   -93.20408840
    54.25037072   173.29904674  -241.45407323
     0.00000000     0.00000000     0.00000000
   -20.94000506   -46.88378507    51.51208222
   -94.66305873   -39.21850961    17.99213650
  -138.88864833   -65.41129488    12.36751835
  -216.24816645   -30.91402889    21.21196023
  -276.87978111   -27.34637225     8.10898207
  -324.71221757    81.19065337    30.73005875
  -370.80398743   179.42610424    19.38445830
  -357.93428894   251.73576217    33.61437223
     0.00000000     0.00000000     0.00000000
     0.00000000     0.00000000     0.00000000
     0.00000000     0.00000000     0.00000000
     0.00000000     0.00000000     0.00000000
     0.00000000     0.00000000     0.00000000
     0.00000000     0.00000000     0.00000000
     0.00000000     0.00000000     0.00000000
     0.00000000     0.00000000     0.00000000
     0.00000000     0.00000000     0.00000000
     0.00000000     0.00000000     0.00000000
     0.00000000     0.00000000     0.00000000
     0.00000000     0.00000000     0.00000000
     0.00000000     0.00000000     0.00000000
     0.00000000     0.00000000     0.00000000
     0.00000000     0.00000000     0.00000000
     0.00000000     0.00000000     0.00000000
     0.00000000     0.00000000     0.00000000
     0.00000000     0.00000000     0.00000000
     0.00000000     0.00000000     0.00000000
     0.17479920    23.45259292    35.62274464
    31.89263287    -9.57382322    39.60670028
    78.84495699   -13.31924744    20.66303429
   102.90637991    27.41302005    48.61922329
    94.14855908   -19.40042352   -33.54847339
   101.26970358    24.80779419     4.45272518
   218.26685326    -7.74627378   -19.39472582
  -549.08318191    -2.53931200   -12.64211528
     0.00000000     0.00000000     0.00000000
    23.87816720    41.65917308    70.48143883
    90.88760040   -52.46231330    47.04603570
    89.47469204    17.59638122    43.74439227
   151.68995977   -19.65333137    27.03673008
    81.93029991    45.49187385    -2.89915449
   180.24375511   -39.45918459   -20.07746020
    76.41502517    80.32928610    62.17326673
   -10.39428556   128.69626873  -181.87302754
     0.00000000     0.00000000     0.00000000
    30.56845856    34.38798073    78.46030224
    99.91722028   -89.58127603    43.76289649
   118.06414271    58.95473762    36.12645571
   126.16337879   -74.13912383    17.95296722
   143.17744717    96.17617246   -11.07413028
   123.93001074  -117.96627144   -26.92867733
    90.75120823   249.75980137  -107.54373366
   -56.75174442   -54.59061580  -156.33804453
     0.00000000     0.00000000     0.00000000
    79.86620529   -17.47888879    89.78723161
    77.55854494   -78.22266476     6.64962200
   101.23424953    18.19090384    42.80459335
   109.22995126   -55.30556682   -36.97582946
   129.75646002    59.05239286    27.43697754
   103.97162517  -101.00982534   -62.94239782
   256.20838590   163.43498582    13.10209194
   298.52334896   -79.12850509   -55.30572746
     0.00000000     0.00000000     0.00000000
    37.95288521   -47.42676987    54.38418675
    59.49927608   -59.14204072     9.25339243
    66.21889340   -61.40236103    19.57336557
    77.97942541   -29.44472867   -38.22437593
    97.47735681    13.92615492    -2.07306564
   -15.63306880   -24.73813940   -76.10779833
    -4.53451297   160.39019888  -194.55854599
     0.00000000     0.00000000     0.00000000
     0.00000000     0.00000000     0.00000000
     8.34626077   -64.55725442    65.93281606
    21.78397995   -69.76337940     9.28992875
    25.23987605   -99.68580527    20.10136135
    51.00581154   -13.78985824   -63.14759836
    70.58911316   -59.79283620    12.40643995
    57.36627732   129.13982628   -61.37849412
    45.06386514  -112.11092468    26.36914736
    74.97766294   321.66596270   -96.29097343
     0.00000000     0.00000000     0.00000000
    -9.93074602   -63.45395347    47.14046269
     6.96917964   -80.36647717    22.64367943
   -42.47809892   -85.14632579     9.91886260
    34.42387861   -52.52906059   -18.37733239
     5.39622091   -12.12003801    60.21920689
   103.01507703   112.81381272   -17.71778272
    11.13212012  -209.04994135   -94.89830049
    24.53308703   357.33228077  -280.80616570
     0.00000000     0.00000000     0.00000000
     4.56361043   -43.66280780    67.05786060
   -26.35474158   -69.22657621    25.92020169
   -77.17760134   -60.43263154    25.20050686
   -78.97612540   -78.40642366    29.07133147
   -29.53166452    31.07533878    32.06559820
    61.05051972     5.63348332   -54.45297240
  -160.81579466   -11.42349978   -67.69452175
  -119.29724881   204.11282139  -208.27796536
     0.00000000     0.00000000     0.00000000
   -17.34081766   -34.52870469    42.83173880
    -9.47349033   -32.11438289    42.54817745
   -93.69626181   -46.96566490    15.00771164
  -118.68736733   -31.93372556    26.94976443
  -211.95644855   -29.29097014    41.01028365
  -228.56577325     4.76598995    48.42698736
  -350.30166090   141.04295755   114.05121023
  -442.20012462   204.76818920    53.69925412
     0.00000000     0.00000000     0.00000000
     0.00000000     0.00000000     0.00000000
     0.00000000     0.00000000     0.00000000
     0.00000000     0.00000000     0.00000000
     0.00000000     0.00000000     0.00000000
     0.00000000     0.00000000     0.00000000
     0.00000000     0.00000000     0.00000000
     0.00000000     0.00000000     0.00000000
     0.00000000     0.00000000     0.00000000
     0.00000000     0.00000000     0.00000000
     0.00000000     0.00000000     0.00000000
     0.00000000     0.00000000     0.00000000
     0.00000000     0.00000000     0.00000000
     0.00000000     0.00000000     0.00000000
     0.00000000     0.00000000     0.00000000
     0.00000000     0.00000000     0.00000000
     0.00000000     0.00000000     0.00000000
     0.00000000     0.00000000     0.00000000
     0.00000000     0.00000000     0.00000000
    -0.08074234    18.37418035    18.51122572
    62.41030922   -20.05427335    29.70030090
   107.27498950    -3.63605745    23.10941450
   100.28727061    -3.76878142    14.45014828
   111.80203698    -8.38751181   -13.24894655
    53.01902467    26.34816634     3.51866028
   196.82158371     4.39908748   -54.70472216
  -233.35836112    30.78490726    59.31126384
     0.00000000     0.00000000     0.00000000
    17.38361281    18.15434255    28.07496509
    85.89510208   -48.59693610    25.94483585
   102.70146772    27.32745400    38.59431298
   122.99565673   -27.13550560     6.23729744
   112.90500189    42.27219013    28.64002358
   115.81861324   -42.83427707   -74.22395152
   124.92006685    79.42930059    51.80544949
    47.55207626   214.64838492   -89.89130869
     0.00000000     0.00000000     0.00000000
    29.36086973    33.08185290    58.42975479
    84.65080671   -63.52461780    23.64870461
   108.73229966    41.52999117    32.15097174
   112.56279027   -47.64850444     0.75895585
   129.97805616    63.77436212     7.81505815
    87.76439605   -54.29485654   -13.01925922
    49.26747369   106.64584859   -65.33123791
    13.65235783    67.25078330  -140.33953692
     0.00000000     0.00000000     0.00000000
    69.67453797    14.56526364    59.87237926
    86.51473622   -40.20966030    21.57078302
   104.14168857    13.10792314    36.99591010
   127.70215596   -33.91209078    -4.13323599
    80.27714859    50.28207093     1.29104325
   188.04341129   -72.35295612   -22.97252547
    60.20746083   221.21292174   -17.44117757
   434.83543304   -56.48530237  -189.67334223
     0.00000000     0.00000000     0.00000000
    85.98621795   -37.19783720    64.65010876
   112.14860116     8.27338636    27.77592891
   130.73986705   -39.41301632    45.89469026
    95.64103692    14.10441413   -24.69159198
   122.10232543   -17.13991632     7.15314331
   -46.33655640    15.08736107   -23.75505328
   -70.76188330   192.02816751  -134.51385011
     0.00000000     0.00000000     0.00000000
     0.00000000     0.00000000     0.00000000
    17.05907598   -56.74847347    46.58422645
    54.83591675    19.32637397    14.84040856
    83.25927888   -64.95605370    33.77737083
    58.33001501    25.66161375   -52.60659081
    74.07201019   -84.48288826    50.09773449
    24.49560706   166.70570781  -101.02041900
   169.34963184  -221.69879962   130.85923593
   -40.44400810   248.69839549  -210.71041665
     0.00000000     0.00000000     0.00000000
    32.70789587   -38.39798238    48.10213987
    58.35704739     2.76423199     9.47942726
    71.00676750   -67.73805474    41.33686690
    30.63039666   -10.93724993   -42.96582756
    46.51608931   -89.84424322    57.50342971
    61.31047673   153.40892527   -82.28876500
    46.49721479  -152.86804125    30.45428255
   -43.59120754   191.41580937  -282.81000483
     0.00000000     0.00000000     0.00000000
     3.67999151   -34.41540153    35.82605019
    42.13859221   -19.83653226    27.33143019
    32.03755710   -47.40552701    41.71025780
     8.47761661   -56.67307315     1.71655259
    20.33149186   -62.11540175    75.27375229
    99.01546615    76.35924289   -83.60713143
   157.30388303  -115.59115600    23.62268098
  -232.53220195    18.17232181  -103.16644027
     0.00000000     0.00000000     0.00000000
    45.46605024     1.25022912    52.67262633
    37.14605097   -22.65233604    23.50430653
    54.76251169    -8.02674328    49.35603933
   -33.68903707   -55.29101649     7.61419696
   -25.79956205   -20.52649565    68.11794533
    10.58826016     0.03075836   -38.82743166
    71.99646238   -16.45277653    22.40858612
  -429.86567311   191.57717953    86.92326358
     0.00000000     0.00000000     0.00000000
     0.00000000     0.00000000     0.00000000
     0.00000000     0.00000000     0.00000000
     0.00000000     0.00000000     0.00000000
     0.00000000     0.00000000     0.00000000
     0.00000000     0.00000000     0.00000000
     0.00000000     0.00000000     0.00000000
     0.00000000     0.00000000     0.00000000
     0.00000000     0.00000000     0.00000000
     0.00000000     0.00000000     0.00000000
     0.00000000     0.00000000     0.00000000
     0.00000000     0.00000000     0.00000000
     0.00000000     0.00000000     0.00000000
     0.00000000     0.00000000     0.00000000
     0.00000000     0.00000000     0.00000000
     0.00000000     0.00000000     0.00000000
     0.00000000     0.00000000     0.00000000
     0.00000000     0.00000000     0.00000000
     0.00000000     0.00000000     0.00000000
     0.00000000     0.00000000     0.00000000
     0.00000000     0.00000000     0.00000000
     0.00000000     0.00000000     0.00000000
     0.00000000     0.00000000     0.00000000
     0.00000000     0.00000000     0.00000000
     0.00000000     0.00000000     0.00000000
     0.00000000     0.00000000     0.00000000
     0.00000000     0.00000000     0.00000000
     0.00000000     0.00000000     0.00000000
     0.00000000     0.00000000     0.00000000
     0.00000000     0.00000000     0.00000000
     0.00000000     0.00000000     0.00000000
     0.00000000     0.00000000     0.00000000
     0.00000000     0.00000000     0.00000000
     0.00000000     0.00000000     0.00000000
     0.00000000     0.00000000     0.00000000
     0.00000000     0.00000000     0.00000000
     0.00000000     0.00000000     0.00000000
     0.00000000     0.00000000     0.00000000
     0.00000000     0.00000000     0.00000000
     0.00000000     0.00000000     0.00000000
     0.00000000     0.00000000     0.00000000
     0.00000000     0.00000000     0.00000000
     0.00000000     0.00000000     0.00000000
     0.00000000     0.00000000     0.00000000
     0.00000000     0.00000000     0.00000000
     0.00000000     0.00000000     0.00000000
     0.00000000     0.00000000     0.00000000
     0.00000000     0.00000000     0.00000000
     0.00000000     0.00000000     0.00000000
     0.00000000     0.00000000     0.00000000
     0.00000000     0.00000000     0.00000000
     0.00000000     0.00000000     0.00000000
     0.00000000     0.00000000     0.00000000
     0.00000000     0.00000000     0.00000000
     0.00000000     0.00000000     0.00000000
     0.00000000     0.00000000     0.00000000
     0.00000000     0.00000000     0.00000000
     0.00000000     0.00000000     0.00000000
     0.00000000     0.00000000     0.00000000
     0.00000000     0.00000000     0.00000000
     0.00000000     0.00000000     0.00000000
     0.00000000     0.00000000     0.00000000
     0.00000000     0.00000000     0.00000000
     0.00000000     0.00000000     0.00000000
     0.00000000     0.00000000     0.00000000
     0.00000000     0.00000000     0.00000000
     0.00000000     0.00000000     0.00000000
     0.00000000     0.00000000     0.00000000
     0.00000000     0.00000000     0.00000000
     0.00000000     0.00000000     0.00000000
     0.00000000     0.00000000     0.00000000
     0.00000000     0.00000000     0.00000000
     0.00000000     0.00000000     0.00000000
     0.00000000     0.00000000     0.00000000
     0.00000000     0.00000000     0.00000000
     0.00000000     0.00000000     0.00000000
     0.00000000     0.00000000     0.00000000
     0.00000000     0.00000000     0.00000000
     0.00000000     0.00000000     0.00000000
     0.00000000     0.00000000     0.00000000
     0.00000000     0.00000000     0.00000000
     0.00000000     0.00000000     0.00000000
     0.00000000     0.00000000     0.00000000
     0.00000000     0.00000000     0.00000000
     0.00000000     0.00000000     0.00000000
     0.00000000     0.00000000     0.00000000
     0.00000000     0.00000000     0.00000000
     0.00000000     0.00000000     0.00000000
     0.00000000     0.00000000     0.00000000
     0.00000000     0.00000000     0.00000000
     0.00000000     0.00000000     0.00000000
     0.00000000     0.00000000     0.00000000
     0.00000000     0.00000000     0.00000000
     0.00000000     0.00000000     0.00000000
     0.00000000     0.00000000     0.00000000
     0.00000000     0.00000000     0.00000000
     0.00000000     0.00000000     0.00000000
     0.00000000     0.00000000     0.00000000
     0.00000000     0.00000000     0.00000000
     0.00000000     0.00000000     0.00000000
     0.00000000     0.00000000     0.00000000
     0.00000000     0.00000000     0.00000000
     0.00000000     0.00000000     0.00000000
     0.00000000     0.00000000     0.00000000
     0.00000000     0.00000000     0.00000000
     0.00000000     0.00000000     0.00000000
     0.00000000     0.00000000     0.00000000
     0.00000000     0.00000000     0.00000000
     0.00000000     0.00000000     0.00000000
     0.00000000     0.00000000     0.00000000
     0.00000000     0.00000000     0.00000000
     0.00000000     0.00000000     0.00000000
     0.00000000     0.00000000     0.00000000
     0.00000000     0.00000000     0.00000000
     0.00000000     0.00000000     0.00000000
     0.00000000     0.00000000     0.00000000
     0.00000000     0.00000000     0.00000000
     0.00000000     0.00000000     0.00000000
     0.00000000     0.00000000     0.00000000
    19.40377000   -63.73685228     0.00000000
   -92.83927351    53.11158415     0.00000000
  -115.58895619    -5.80279766     0.00000000
  -101.93410424   -44.54383312     0.00000000
  -128.05041513   -17.39220332     0.00000000
   -71.90243268   -99.91694098     0.00000000
   -95.00617373     3.25494086     0.00000000
   -53.53142132   -72.06495286     0.00000000
   -58.50446906     2.54509467     0.00000000
   -33.86207223   -40.11996143     0.00000000
   -27.20049200    -7.28833600     0.00000000
   -67.18633411   375.58814552     0.00000000
  -108.09325347    47.55821030     0.00000000
   -85.84239460   -12.73880363     0.00000000
   -90.84400624   -30.15209578     0.00000000
  -110.56615985   -38.60136092     0.00000000
   -89.68295445  -103.95583197     0.00000000
   -78.33398046  -107.32450601     0.00000000
   -17.32890250  -109.12980069     0.00000000
   -34.64091408   -48.45279069     0.00000000
    -9.50501629   -42.06712914     0.00000000
   -40.80071600   -10.93250400     0.00000000
   103.38364391   447.63382360     0.00000000
    74.13650376   389.60373787     0.00000000
  -100.45297155    77.11885619     0.00000000
  -138.31539891    86.80235732     0.00000000
   -84.35484316  -112.40206022     0.00000000
     2.16907016   -55.89202303     0.00000000
    29.19210166  -174.10407328     0.00000000
    19.64794780  -105.51008130     0.00000000
     0.56856450  -104.37879854     0.00000000
   -25.31327473   -19.20964357     0.00000000
   -40.80071600   -10.93250400     0.00000000
  -112.08708409   264.50949869     0.00000000
    39.03832863   272.64025200     0.00000000
   152.46107502   199.95690925     0.00000000
   251.64168176   151.38609813     0.00000000
   240.09673490     8.63051378     0.00000000
   210.19310162    -0.73932082     0.00000000
   133.09164948   -38.28800311     0.00000000
    88.23985449   -33.76352623     0.00000000
    12.91179080   -48.48152073     0.00000000
   -10.09127108    -4.46838857     0.00000000
   -27.20049200    -7.28833600     0.00000000
     0.00000000     0.00000000     0.00000000
     0.00000000     0.00000000     0.00000000
     0.00000000     0.00000000     0.00000000
     0.00000000     0.00000000     0.00000000
     0.00000000     0.00000000     0.00000000
     0.00000000     0.00000000     0.00000000
     0.00000000     0.00000000     0.00000000
     0.00000000     0.00000000     0.00000000
     0.00000000     0.00000000     0.00000000
     0.00000000     0.00000000     0.00000000
     0.00000000     0.00000000     0.00000000
     0.00000000     0.00000000     0.00000000
     0.00000000     0.00000000     0.00000000
     0.00000000     0.00000000     0.00000000
     0.00000000     0.00000000     0.00000000
     0.00000000     0.00000000     0.00000000
     0.00000000     0.00000000     0.00000000
     0.00000000     0.00000000     0.00000000
     0.00000000     0.00000000     0.00000000
     0.00000000     0.00000000     0.00000000
     0.00000000     0.00000000     0.00000000
     0.00000000     0.00000000     0.00000000
    51.92501354   -76.13864152    68.82709897
   -74.83815300    50.50481821    43.42541196
  -108.80187083   -14.89100211   -16.34408825
  -109.20830827   -56.86155347    39.59521131
  -122.06447320   -24.49531660   -15.73502924
   -80.24496066   -95.61280897    28.95159914
   -90.24272569    -5.69006411   -20.42979093
   -54.65701772   -70.51296377    16.80010116
   -58.15694408    -6.52253525   -17.58714147
   -29.02254026   -38.25255768    -1.76422734
   -25.68728800    -6.88287600     0.00000000
  -105.36752864   327.37530192   144.55993737
  -135.92134186   -10.61234710    20.59422928
   -95.13594327    29.86610576    24.11330324
  -103.17297343   -37.72368967     2.43681483
  -103.27304284   -22.38579455     9.78768408
   -95.03810185  -120.97299712   -14.25340846
   -57.95740672   -94.79204299    19.42983892
   -27.28200741  -119.83875823     5.55257598
   -12.36727882   -45.87456617    17.38549997
   -25.67806240   -45.67424609     9.01285320
   -38.87140400   -10.41554800     0.00000000
    48.13549719   462.10343701    28.16692599
     4.15232192   327.74629810    45.65083430
   -85.74714794    60.75592760     0.22404087
  -143.35463868    93.27246070   -90.80244925
   -17.99066146  -100.03687940   -28.49988820
   -11.92754340   -63.56108199   -24.74223275
    55.47357299  -164.91556620   -14.60739244
    14.29594422  -101.83098438     8.40742516
    15.36939082  -100.33974869    14.21218059
   -34.76692730   -13.36764034    12.42074349
   -38.87140400   -10.41554800     0.00000000
  -117.60509880   233.44029155    75.29036048
    21.85592021   224.85594833    64.06058066
   184.65807619   176.75827219    12.69974288
   227.38207939   104.13692878    31.11910610
   258.76468377     8.84807122    -5.93250640
   188.31549006   -11.51240673    22.31694643
   148.66881562   -32.98288131     4.19901222
    69.28937190   -39.31815906    19.86494658
    31.72533110   -42.68673071    13.72125268
   -31.34333002    -6.32964587    14.15689497
   -25.68728800    -6.88287600     0.00000000
     0.00000000     0.00000000     0.00000000
     0.00000000     0.00000000     0.00000000
     0.00000000     0.00000000     0.00000000
     0.00000000     0.00000000     0.00000000
     0.00000000     0.00000000     0.00000000
     0.00000000     0.00000000     0.00000000
     0.00000000     0.00000000     0.00000000
     0.00000000     0.00000000     0.00000000
     0.00000000     0.00000000     0.00000000
     0.00000000     0.00000000     0.00000000
     0.00000000     0.00000000     0.00000000
     0.00000000     0.00000000     0.00000000
     0.00000000     0.00000000     0.00000000
     0.00000000     0.00000000     0.00000000
     0.00000000     0.00000000     0.00000000
     0.00000000     0.00000000     0.00000000
     0.00000000     0.00000000     0.00000000
     0.00000000     0.00000000     0.00000000
     0.00000000     0.00000000     0.00000000
     0.00000000     0.00000000     0.00000000
     0.00000000     0.00000000     0.00000000
     0.00000000     0.00000000     0.00000000
     3.77534265  -123.16106260   124.72078848
   -54.94718847    34.91057080    91.55040528
  -109.54141065   -18.87461711     2.19806943
  -104.16154961   -59.51729601    75.47152469
  -133.27552927   -21.75006409   -21.37826945
   -78.88884785   -85.23116595    46.65719351
   -88.85712180   -15.13275036   -27.97344931
   -51.64578367   -69.01863568    27.32108346
   -48.31401203   -15.92623916   -22.16078684
   -32.09883868   -40.79994479    -6.47741519
   -21.85814400    -5.85688400     0.00000000
  -123.13847532   315.19673804   233.35777591
  -159.23879164   -44.48578327   -26.70980497
  -140.18324217    36.68027778    22.46197527
  -117.80449448   -45.23294797   -33.35696381
  -122.71468787   -35.46638422    10.31994510
   -78.54073061  -113.73642435   -34.93840344
   -70.38505588   -96.10221142    38.37562536
   -11.68859597  -106.81625758    -1.43773999
   -26.03361699   -49.68445508    30.38239771
    -4.52461244   -41.22456266    13.70796542
   -33.32260800    -8.92878800     0.00000000
    17.83718852   481.44638508    70.06734384
     6.42954753   316.86294404   117.07938511
   -98.07322530    27.44974974   -47.36715433
   -57.87218663    67.68381009  -129.33931162
   -23.98093659  -113.72802871   -22.21432190
    42.43867120   -71.16926891   -51.65187996
    50.29929265  -152.42703004    -1.15232552
    30.21793738  -100.56903004    19.99045242
     3.76431982   -87.73593481    35.40830266
   -22.74082904   -10.20121208    18.42705281
   -33.32260800    -8.92878800     0.00000000
  -158.81649956   248.11667815   118.70427632
    32.48272331   191.01968379   103.21638412
   164.01836048    95.80213986   -16.33771200
   277.14648330    73.16404748    31.72593126
   240.86301897    -4.33372801    -1.65115760
   211.07644226   -17.03880713    21.92789071
   140.00152053   -37.91877709    11.40084818
    94.90150540   -36.65393805    33.69284102
     8.52640185   -42.83398895    44.00705040
   -16.30572433    -2.28314487    20.42671315
   -21.85814400    -5.85688400     0.00000000
     0.00000000     0.00000000     0.00000000
     0.00000000     0.00000000     0.00000000
     0.00000000     0.00000000     0.00000000
     0.00000000     0.00000000     0.00000000
     0.00000000     0.00000000     0.00000000
     0.00000000     0.00000000     0.00000000
     0.00000000     0.00000000     0.00000000
     0.00000000     0.00000000     0.00000000
     0.00000000     0.00000000     0.00000000
     0.00000000     0.00000000     0.00000000
     0.00000000     0.00000000     0.00000000
     0.00000000     0.00000000     0.00000000
     0.00000000     0.00000000     0.00000000
     0.00000000     0.00000000     0.00000000
     0.00000000     0.00000000     0.00000000
     0.00000000     0.00000000     0.00000000
     0.00000000     0.00000000     0.00000000
     0.00000000     0.00000000     0.00000000
     0.00000000     0.00000000     0.00000000
     0.00000000     0.00000000     0.00000000
     0.00000000     0.00000000     0.00000000
     0.00000000     0.00000000     0.00000000
   -20.33699701  -176.99635698   225.09159188
  -106.67986379    37.50722290    51.93572603
  -105.48237645    -7.24946104    88.79641024
  -140.10985772     0.77822916    60.56266900
  -110.69994187   -21.12137738    -5.61291988
   -95.25393967   -44.75932275    45.98129156
   -78.50076086   -18.45707292   -23.56279491
   -52.33686686   -45.52253178    30.56756298
   -39.51399613   -14.05368784   -17.92344884
   -18.73722933   -35.99168412    -7.59140011
   -15.99479200    -4.28577600     0.00000000
  -126.69439503   200.64679112   331.07118176
  -185.62465403   -97.43171931  -140.44777962
  -151.74836355    27.32365415    88.98932974
  -172.42739375   -91.84903277   -96.08790271
  -120.42356314   -22.91424325    18.00526635
  -112.67264722  -116.94768061   -35.67392148
   -69.02746248   -65.76293270    31.67777870
   -38.48566090   -90.86184160    -4.17766944
   -14.92845184   -34.84014509    20.54434447
   -12.76161401   -41.08780779    15.58152681
   -24.55041600    -6.57826400     0.00000000
    31.49843107   436.49756458   197.77941466
     5.18011193   194.47290199    73.66119537
     4.11216949    15.64294613   -80.72246748
   -96.56796136    -1.97673950   -75.44292792
   -12.78766684  -125.16457289   -68.23571456
    -9.81137203   -98.22711263    -9.92044027
     9.37766814  -145.84181341     4.59510922
   -17.67228658   -82.80524717    46.94256571
    -3.08123681   -72.28171554    28.44979246
   -24.06393045    -2.36807443    18.08438770
   -24.55041600    -6.57826400     0.00000000
  -164.85913245   205.53768206   145.19734564
    84.51782834   112.49896396    43.73002839
   278.84944797   133.17364012   -48.60524701
   258.51215201    56.13666947    47.44672265
   259.74108255    -2.73078950   -25.88433986
   183.38531916   -29.81649808    34.90113122
   122.58909904   -35.99834447     5.24935548
    27.53816278   -49.43002823    74.17505051
    -5.97043694   -46.14241396    48.10863082
   -29.72778969    -4.21540557    21.72784858
   -15.99479200    -4.28577600     0.00000000
     0.00000000     0.00000000     0.00000000
     0.00000000     0.00000000     0.00000000
     0.00000000     0.00000000     0.00000000
     0.00000000     0.00000000     0.00000000
     0.00000000     0.00000000     0.00000000
     0.00000000     0.00000000     0.00000000
     0.00000000     0.00000000     0.00000000
     0.00000000     0.00000000     0.00000000
     0.00000000     0.00000000     0.00000000
     0.00000000     0.00000000     0.00000000
     0.00000000     0.00000000     0.00000000
     0.00000000     0.00000000     0.00000000
     0.00000000     0.00000000     0.00000000
     0.00000000     0.00000000     0.00000000
     0.00000000     0.00000000     0.00000000
     0.00000000     0.00000000     0.00000000
     0.00000000     0.00000000     0.00000000
     0.00000000     0.00000000     0.00000000
     0.00000000     0.00000000     0.00000000
     0.00000000     0.00000000     0.00000000
     0.00000000     0.00000000     0.00000000
     0.00000000     0.00000000     0.00000000
   -41.61670131   -43.53970748   419.29300905
  -181.54546375   -48.03944363   -13.98177147
  -174.76421984    48.21912260   111.57907163
   -90.93863090   -20.82258424    -0.12915015
  -115.95195977     1.65306357    21.57554679
   -79.62992257   -24.44804883    15.37271080
   -70.97600619   -13.04386596    -6.97667636
   -48.26156362   -20.79924879    13.96094128
   -20.73575608   -11.61010393   -11.44753914
   -19.64058158   -15.79838104    -2.40583309
    -8.52728800    -2.28487600     0.00000000
   -84.01615049   284.33495812   341.08809447
  -181.50688735  -126.00274425  -146.71140992
  -161.32606261    40.25346232   124.42868121
  -139.54237346   -46.41967843  -105.00848020
  -147.77210252   -22.87584657    53.21846233
  -111.65072166   -64.08022179   -48.28050012
   -87.05816142   -48.62893201    31.50869036
   -41.04573279   -48.64474414   -20.46414815
   -38.35734330   -31.27137768    13.43256480
    -8.30976424   -19.78188601     3.74298331
   -13.17685600    -3.53073600     0.00000000
  -144.80592396   500.30282089   283.35587477
    44.22090796   -37.08070170  -101.75618828
   -52.95561200    44.76322207    60.50238864
   -82.26851192   -45.52758421  -107.78808823
  -109.89898034  -113.60883793    12.42824196
   -95.20991121   -97.92813727   -28.11085474
   -70.71841811  -106.49804751    34.41172780
   -51.28613743   -59.49584850     9.88150697
   -21.24368389   -53.43799621    18.91329402
   -16.54139148   -18.32465179     4.72560722
   -13.17685600    -3.53073600     0.00000000
  -251.20312532   194.30348409   134.20779349
   117.64164438    66.65107489   -75.15001839
   156.90749950    57.61406426    37.10480635
   207.07712294    21.01599676     0.14286806
   128.27442933   -13.95947479    27.69185553
    30.12112597   -43.70085502     7.61576958
   -46.71039881   -49.17516346    29.16008711
   -39.53520041   -62.86841473    45.69824013
   -25.47391386   -39.09516730    33.14414554
   -10.62227935   -18.92345100    15.97820707
    -8.52728800    -2.28487600     0.00000000
     0.00000000     0.00000000     0.00000000
     0.00000000     0.00000000     0.00000000
     0.00000000     0.00000000     0.00000000
     0.00000000     0.00000000     0.00000000
     0.00000000     0.00000000     0.00000000
     0.00000000     0.00000000     0.00000000
     0.00000000     0.00000000     0.00000000
     0.00000000     0.00000000     0.00000000
     0.00000000     0.00000000     0.00000000
     0.00000000     0.00000000     0.00000000
     0.00000000     0.00000000     0.00000000
     0.00000000     0.00000000     0.00000000
     0.00000000     0.00000000     0.00000000
     0.00000000     0.00000000     0.00000000
     0.00000000     0.00000000     0.00000000
     0.00000000     0.00000000     0.00000000
     0.00000000     0.00000000     0.00000000
     0.00000000     0.00000000     0.00000000
     0.00000000     0.00000000     0.00000000
     0.00000000     0.00000000     0.00000000
     0.00000000     0.00000000     0.00000000
     0.00000000     0.00000000     0.00000000
     0.00000000     0.00000000     0.00000000
     0.00000000     0.00000000     0.00000000
     0.00000000     0.00000000     0.00000000
     0.00000000     0.00000000     0.00000000
     0.00000000     0.00000000     0.00000000
     0.00000000     0.00000000     0.00000000
     0.00000000     0.00000000     0.00000000
     0.00000000     0.00000000     0.00000000
     0.00000000     0.00000000     0.00000000
     0.00000000     0.00000000     0.00000000
     0.00000000     0.00000000     0.00000000
     0.00000000     0.00000000     0.00000000
     0.00000000     0.00000000     0.00000000
     0.00000000     0.00000000     0.00000000
     0.00000000     0.00000000     0.00000000
     0.00000000     0.00000000     0.00000000
     0.00000000     0.00000000     0.00000000
     0.00000000     0.00000000     0.00000000
     0.00000000     0.00000000     0.00000000
     0.00000000     0.00000000     0.00000000
     0.00000000     0.00000000     0.00000000
     0.00000000     0.00000000     0.00000000
     0.00000000     0.00000000     0.00000000
     0.00000000     0.00000000     0.00000000
     0.00000000     0.00000000     0.00000000
     0.00000000     0.00000000     0.00000000
     0.00000000     0.00000000     0.00000000
     0.00000000     0.00000000     0.00000000
     0.00000000     0.00000000     0.00000000
     0.00000000     0.00000000     0.00000000
     0.00000000     0.00000000     0.00000000
     0.00000000     0.00000000     0.00000000
     0.00000000     0.00000000     0.00000000
     0.00000000     0.00000000     0.00000000
     0.00000000     0.00000000     0.00000000
     0.00000000     0.00000000     0.00000000
     0.00000000     0.00000000     0.00000000
     0.00000000     0.00000000     0.00000000
     0.00000000     0.00000000     0.00000000
     0.00000000     0.00000000     0.00000000
     0.00000000     0.00000000     0.00000000
     0.00000000     0.00000000     0.00000000
     0.00000000     0.00000000     0.00000000
     0.00000000     0.00000000     0.00000000
     0.00000000     0.00000000     0.00000000
     0.00000000     0.00000000     0.00000000
     0.00000000     0.00000000     0.00000000
     0.00000000     0.00000000     0.00000000
     0.00000000     0.00000000     0.00000000
     0.00000000     0.00000000     0.00000000
     0.00000000     0.00000000     0.00000000
     0.00000000     0.00000000     0.00000000
     0.00000000     0.00000000     0.00000000
     0.00000000     0.00000000     0.00000000
     0.00000000     0.00000000     0.00000000
     0.00000000     0.00000000     0.00000000
     0.00000000     0.00000000     0.00000000
     0.00000000     0.00000000     0.00000000
     0.00000000     0.00000000     0.00000000
     0.00000000     0.00000000     0.00000000
     0.00000000     0.00000000     0.00000000
     0.00000000     0.00000000     0.00000000
     0.00000000     0.00000000     0.00000000
    26.76362496  -322.09001589     0.00000000
  -224.00514032   -10.05198455     0.00000000
  -312.93152668   121.15074436     0.00000000
  -294.81006540    98.26851267     0.00000000
  -260.74885848   143.07909653     0.00000000
  -188.48827316   134.08051653     0.00000000
  -109.54337835   123.81434213     0.00000000
   -12.10513641   101.72196956     0.00000000
     0.00000000     0.00000000     0.00000000
    48.87011240  -586.94348633     0.00000000
    63.96317041  -266.90842384     0.00000000
  -131.85977068   -30.39404465     0.00000000
  -203.36701685     7.77003324     0.00000000
   -82.25476008   144.84461053     0.00000000
    55.45214485   155.22721313     0.00000000
    97.85699152   149.66623268     0.00000000
    88.30079541   159.95512455     0.00000000
     0.00000000     0.00000000     0.00000000
   110.58768995  -751.57497494     0.00000000
  -105.77954359  -378.17108246     0.00000000
  -239.02941666  -109.92514756     0.00000000
  -154.67934847    43.38202325     0.00000000
    49.51724890   124.89712947     0.00000000
   146.91140713   138.43407820     0.00000000
   181.58259500   107.52745164     0.00000000
    97.65685992   115.16553881     0.00000000
     0.00000000     0.00000000     0.00000000
    25.47182073  -390.26677997     0.00000000
   501.32270407  -389.33338938     0.00000000
   633.76854282  -220.74024265     0.00000000
   606.10054548  -118.86617500     0.00000000
   462.86066565   -27.01304110     0.00000000
   355.98222038   -22.82030493     0.00000000
   210.21214845    20.40108504     0.00000000
   109.43476460    16.44159000     0.00000000
     0.00000000     0.00000000     0.00000000
     0.00000000     0.00000000     0.00000000
     0.00000000     0.00000000     0.00000000
     0.00000000     0.00000000     0.00000000
     0.00000000     0.00000000     0.00000000
     0.00000000     0.00000000     0.00000000
     0.00000000     0.00000000     0.00000000
     0.00000000     0.00000000     0.00000000
     0.00000000     0.00000000     0.00000000
     0.00000000     0.00000000     0.00000000
     0.00000000     0.00000000     0.00000000
     0.00000000     0.00000000     0.00000000
     0.00000000     0.00000000     0.00000000
     0.00000000     0.00000000     0.00000000
     0.00000000     0.00000000     0.00000000
     0.00000000     0.00000000     0.00000000
     0.00000000     0.00000000     0.00000000
     0.00000000     0.00000000     0.00000000
     0.00000000     0.00000000     0.00000000
   -22.49545911  -306.43843657     0.82396022
  -253.92168566    47.09279143   184.24314946
  -312.21738442   108.71889140   -65.90250526
  -285.33692985    91.93082619    74.90707101
  -283.78574489   106.85888857   -21.29189972
  -184.88349921   150.13176090    53.37121860
  -120.10848474   106.68704923     1.54143214
   -21.91628501    91.37835564    26.94999051
     0.00000000     0.00000000     0.00000000
   -69.69367875  -612.49580117   -45.37656184
     8.89930912  -168.03451930    69.91140949
  -198.24180385   -82.64612776   -19.54858771
  -183.95245896    99.09664121   -82.32538770
   -33.40580610    99.05046213   -88.07666794
    68.22343992   187.02683270   -33.30664046
   110.30529031   139.32065221   -13.69746451
    79.37915195   160.72757877    57.45316151
     0.00000000     0.00000000     0.00000000
    11.39649940  -793.70711421    28.59621917
  -180.48117595  -330.95264652   149.71037513
  -174.55046177  -107.40101454    36.56306200
    40.44506512    58.86032104   -35.50930195
   157.70861236   121.73907975   -59.91631715
   221.98629667   112.98565058   -36.23693871
   192.13973398   117.87580634   -13.80404597
   112.12527425   105.56036697    60.66932034
     0.00000000     0.00000000     0.00000000
    26.94715619  -472.10250576   -24.52633461
   489.53630046  -336.09540262    29.22239813
   642.17358904  -181.98310814    32.81161102
   562.99607705   -98.38547212    34.01190885
   461.57025394   -30.68093379     9.38740520
   302.71072585    -2.55427606    12.19586573
   219.25283855    10.05579550     8.30074273
    56.29357248    29.64751541    53.59098466
     0.00000000     0.00000000     0.00000000
     0.00000000     0.00000000     0.00000000
     0.00000000     0.00000000     0.00000000
     0.00000000     0.00000000     0.00000000
     0.00000000     0.00000000     0.00000000
     0.00000000     0.00000000     0.00000000
     0.00000000     0.00000000     0.00000000
     0.00000000     0.00000000     0.00000000
     0.00000000     0.00000000     0.00000000
     0.00000000     0.00000000     0.00000000
     0.00000000     0.00000000     0.00000000
     0.00000000     0.00000000     0.00000000
     0.00000000     0.00000000     0.00000000
     0.00000000     0.00000000     0.00000000
     0.00000000     0.00000000     0.00000000
     0.00000000     0.00000000     0.00000000
     0.00000000     0.00000000     0.00000000
     0.00000000     0.00000000     0.00000000
     0.00000000     0.00000000     0.00000000
  -283.52620046  -266.03374006    86.29578444
  -233.24144488   186.24444113   232.79712901
  -337.03288123     2.10965397   -55.74362502
  -269.31795159   148.37189539    77.45099598
  -322.63529094     4.77742021     4.24080054
  -196.57988243   196.87271729    51.72940823
  -133.32938089    27.83491625    38.76089030
   -66.12922110    96.22411937    22.20580502
     0.00000000     0.00000000     0.00000000
  -302.00774828  -564.98930485    30.51702339
  -137.95090264   131.60786517   -13.43786803
  -342.08656237  -219.98601777   -74.94782987
  -153.78236423   271.58155294  -135.34475760
   -79.20621550    56.47589581   -93.44506908
    42.05203246   225.54412577   -52.64150275
    29.60588522   128.02111337     8.37670532
    80.15616732   133.29203692   110.99202864
     0.00000000     0.00000000     0.00000000
   -95.81440595  -847.24961293   116.45387909
  -297.63334839   -85.08116642   260.80778323
   -47.65137815   -82.10865030   -23.47872824
   265.05355606   118.42390178  -102.09780131
   268.79260431   128.92118772   -78.11549634
   234.11328105   107.13258002   -46.56191434
   177.04737623   137.97801562    -9.87038390
    49.42599107   108.35706385    93.77148474
     0.00000000     0.00000000     0.00000000
   -33.81623635  -549.40254711   -11.16716709
   554.11383897  -221.77613397     8.44371861
   625.44172941   -48.97798644    53.35680850
   530.77913532   -88.83753273    55.68771293
   395.46761811    -7.65487861    19.18591271
   289.54766202     6.53578493    14.57642396
   137.14957813    11.58891002    27.06055785
    76.22429278    33.19695511    88.11556116
     0.00000000     0.00000000     0.00000000
     0.00000000     0.00000000     0.00000000
     0.00000000     0.00000000     0.00000000
     0.00000000     0.00000000     0.00000000
     0.00000000     0.00000000     0.00000000
     0.00000000     0.00000000     0.00000000
     0.00000000     0.00000000     0.00000000
     0.00000000     0.00000000     0.00000000
     0.00000000     0.00000000     0.00000000
     0.00000000     0.00000000     0.00000000
     0.00000000     0.00000000     0.00000000
     0.00000000     0.00000000     0.00000000
     0.00000000     0.00000000     0.00000000
     0.00000000     0.00000000     0.00000000
     0.00000000     0.00000000     0.00000000
     0.00000000     0.00000000     0.00000000
     0.00000000     0.00000000     0.00000000
     0.00000000     0.00000000     0.00000000
     0.00000000     0.00000000     0.00000000
  -466.28319662  -221.92559126   118.78680819
  -211.14129051   239.67662739   174.72150017
  -337.93211914  -180.58027127     1.55251451
  -274.40979561   218.70265622    53.45341314
  -333.37486359   -62.56458001    10.07809121
  -201.07596174   182.27927979    48.54620602
  -189.45634758   -58.23885572    53.09414245
   -58.90168352   115.42909681     4.18041858
     0.00000000     0.00000000     0.00000000
  -338.24171314  -590.59207048   147.51706724
  -199.53890282   411.38157256  -140.66222625
  -412.06944667  -227.36703848   -85.30256490
  -206.28861563   350.16064471  -137.98256246
  -226.56868850   -15.08783024   -16.60599141
  -108.06751492   255.48067010   -74.76569360
   -86.52659949    19.60609037    68.13195862
    30.70363337   121.75106191    99.42799514
     0.00000000     0.00000000     0.00000000
  -211.20445270  -856.20133610   157.72387989
  -140.35785274   105.54423054   201.27874453
   139.42061915    71.66001661  -103.82073441
   239.01869534    89.38486708   -92.67175175
   109.48017527   160.55552875   -61.93995394
    56.60484171   110.66996371   -18.25344805
   -23.44318188   154.80120093   -13.36701841
   -15.18479762    74.98080256    74.18897032
     0.00000000     0.00000000     0.00000000
   -77.89991328  -564.25854181   -10.48577422
   592.24080093  -157.62074127   -70.63788071
   613.24778638   -29.63180210    56.29753758
   447.46308615   -35.46260695    55.63904502
   365.35339516     4.41528408    21.54952817
   179.37590482    19.71152012    22.07525606
    94.37021257    31.58173002    46.53855059
     8.23369079    61.58036255    91.29317681
     0.00000000     0.00000000     0.00000000
     0.00000000     0.00000000     0.00000000
     0.00000000     0.00000000     0.00000000
     0.00000000     0.00000000     0.00000000
     0.00000000     0.00000000     0.00000000
     0.00000000     0.00000000     0.00000000
     0.00000000     0.00000000     0.00000000
     0.00000000     0.00000000     0.00000000
     0.00000000     0.00000000     0.00000000
     0.00000000     0.00000000     0.00000000
     0.00000000     0.00000000     0.00000000
     0.00000000     0.00000000     0.00000000
     0.00000000     0.00000000     0.00000000
     0.00000000     0.00000000     0.00000000
     0.00000000     0.00000000     0.00000000
     0.00000000     0.00000000     0.00000000
     0.00000000     0.00000000     0.00000000
     0.00000000     0.00000000     0.00000000
     0.00000000     0.00000000     0.00000000
  -472.68497805  -236.08159830   187.05131398
  -208.17200522   254.00675119   -17.14209246
  -262.30561784  -192.39074608    90.81629495
  -268.37538882   210.37524052   -22.07245037
  -267.01764892   -54.70529636    33.65882206
  -226.81948915   127.62723218    10.42476854
  -148.23960369   -44.00799064    36.27946280
  -112.56351314    78.91228527    -7.38400507
     0.00000000     0.00000000     0.00000000
  -187.52888502  -579.79587595   126.19258281
  -186.89296716   301.30902774   -68.28784385
  -363.15822188   -88.67240739   -46.63708782
  -194.07033113   236.65536707   -60.03095147
  -280.55192901    -3.80847139     6.20480982
  -158.52728374   144.93325905   -38.23259840
  -202.52034624   -40.44584859    56.08393237
    22.74727956    57.65067501    33.92081820
     0.00000000     0.00000000     0.00000000
  -179.62780411  -728.95773022    20.18842363
   107.47395716    12.85035110    36.30067570
    92.26866956   110.06100237   -47.27485770
   -93.34955626   104.74767735   -26.50249453
  -108.81269529   158.75947505   -13.50760124
  -162.42338989    86.61214512    -2.26001479
  -100.43273297    73.98140968   -18.80068066
   -60.67448006    45.42386676    24.26735239
     0.00000000     0.00000000     0.00000000
   -92.63518164  -384.48810461   -99.32672176
   612.78788778  -143.58052157   -67.95238621
   389.52050369   -77.14820690    46.29405528
   312.13404918     3.36638351    24.35103919
   128.43359750     9.40231653    35.92725525
    20.08920479    44.82244747    12.50506110
   -62.37287075    68.00668398    48.39027546
   -15.47492472    49.31523110    44.30781203
     0.00000000     0.00000000     0.00000000
     0.00000000     0.00000000     0.00000000
     0.00000000     0.00000000     0.00000000
     0.00000000     0.00000000     0.00000000
     0.00000000     0.00000000     0.00000000
     0.00000000     0.00000000     0.00000000
     0.00000000     0.00000000     0.00000000
     0.00000000     0.00000000     0.00000000
     0.00000000     0.00000000     0.00000000
     0.00000000     0.00000000     0.00000000
     0.00000000     0.00000000     0.00000000
     0.00000000     0.00000000     0.00000000
     0.00000000     0.00000000     0.00000000
     0.00000000     0.00000000     0.00000000
     0.00000000     0.00000000     0.00000000
     0.00000000     0.00000000     0.00000000
     0.00000000     0.00000000     0.00000000
     0.00000000     0.00000000     0.00000000
     0.00000000     0.00000000     0.00000000
     0.00000000     0.00000000     0.00000000
     0.00000000     0.00000000     0.00000000
     0.00000000     0.00000000     0.00000000
     0.00000000     0.00000000     0.00000000
     0.00000000     0.00000000     0.00000000
     0.00000000     0.00000000     0.00000000
     0.00000000     0.00000000     0.00000000
     0.00000000     0.00000000     0.00000000
     0.00000000     0.00000000     0.00000000
     0.00000000     0.00000000     0.00000000
     0.00000000     0.00000000     0.00000000
     0.00000000     0.00000000     0.00000000
     0.00000000     0.00000000     0.00000000
     0.00000000     0.00000000     0.00000000
     0.00000000     0.00000000     0.00000000
     0.00000000     0.00000000     0.00000000
     0.00000000     0.00000000     0.00000000
     0.00000000     0.00000000     0.00000000
     0.00000000     0.00000000     0.00000000
     0.00000000     0.00000000     0.00000000
     0.00000000     0.00000000     0.00000000
     0.00000000     0.00000000     0.00000000
     0.00000000     0.00000000     0.00000000
     0.00000000     0.00000000     0.00000000
     0.00000000     0.00000000     0.00000000
     0.00000000     0.00000000     0.00000000
     0.00000000     0.00000000     0.00000000
     0.00000000     0.00000000     0.00000000
     0.00000000     0.00000000     0.00000000
     0.00000000     0.00000000     0.00000000
     0.00000000     0.00000000     0.00000000
     0.00000000     0.00000000     0.00000000
     0.00000000     0.00000000     0.00000000
     0.00000000     0.00000000     0.00000000
     0.00000000     0.00000000     0.00000000
     0.00000000     0.00000000     0.00000000
     0.00000000     0.00000000     0.00000000
     0.00000000     0.00000000     0.00000000
     0.00000000     0.00000000     0.00000000
     0.00000000     0.00000000     0.00000000
     0.00000000     0.00000000     0.00000000
     0.00000000     0.00000000     0.00000000
     0.00000000     0.00000000     0.00000000
     0.00000000     0.00000000     0.00000000
     0.00000000     0.00000000     0.00000000
     0.00000000     0.00000000     0.00000000
     0.00000000     0.00000000     0.00000000
     0.00000000     0.00000000     0.00000000
     0.00000000     0.00000000     0.00000000
     0.00000000     0.00000000     0.00000000
     0.00000000     0.00000000     0.00000000
     0.00000000     0.00000000     0.00000000
     0.00000000     0.00000000     0.00000000
     0.00000000     0.00000000     0.00000000
     0.00000000     0.00000000     0.00000000
     0.00000000     0.00000000     0.00000000
     0.00000000     0.00000000     0.00000000
     0.00000000     0.00000000     0.00000000
     0.00000000     0.00000000     0.00000000
     0.00000000     0.00000000     0.00000000
     0.00000000     0.00000000     0.00000000
     0.00000000     0.00000000     0.00000000
     0.00000000     0.00000000     0.00000000
     0.00000000     0.00000000     0.00000000
     0.00000000     0.00000000     0.00000000
     0.00000000     0.00000000     0.00000000
     0.00000000     0.00000000     0.00000000
     0.00000000     0.00000000     0.00000000
     0.00000000     0.00000000     0.00000000
     0.00000000     0.00000000     0.00000000
     0.00000000     0.00000000     0.00000000
     0.00000000     0.00000000     0.00000000
     0.00000000     0.00000000     0.00000000
     0.00000000     0.00000000     0.00000000
     0.00000000     0.00000000     0.00000000
     0.00000000     0.00000000     0.00000000
     0.00000000     0.00000000     0.00000000
     0.00000000     0.00000000     0.00000000
     0.00000000     0.00000000     0.00000000
     0.00000000     0.00000000     0.00000000
     0.00000000     0.00000000     0.00000000
     0.00000000     0.00000000     0.00000000
     0.00000000     0.00000000     0.00000000
     0.00000000     0.00000000     0.00000000
     0.00000000     0.00000000     0.00000000
     0.00000000     0.00000000     0.00000000
     0.00000000     0.00000000     0.00000000
     0.00000000     0.00000000     0.00000000
     0.00000000     0.00000000     0.00000000
     0.00000000     0.00000000     0.00000000
     0.00000000     0.00000000     0.00000000
     0.00000000     0.00000000     0.00000000
     0.00000000     0.00000000     0.00000000
     0.00000000     0.00000000     0.00000000
     0.00000000     0.00000000     0.00000000
     0.00000000     0.00000000     0.00000000
     0.00000000     0.00000000     0.00000000
     0.00000000     0.00000000     0.00000000
     0.00000000     0.00000000     0.00000000
     0.00000000     0.00000000     0.00000000
     0.00000000     0.00000000     0.00000000
     0.00000000     0.00000000     0.00000000
     0.00000000     0.00000000     0.00000000
     0.00000000     0.00000000     0.00000000
     0.00000000     0.00000000     0.00000000
     0.00000000     0.00000000     0.00000000
     0.00000000     0.00000000     0.00000000
     0.00000000     0.00000000     0.00000000
     0.00000000     0.00000000     0.00000000
     0.00000000     0.00000000     0.00000000
     0.00000000     0.00000000     0.00000000
     0.00000000     0.00000000     0.00000000
     0.00000000     0.00000000     0.00000000
     0.00000000     0.00000000     0.00000000
     0.00000000     0.00000000     0.00000000
     0.00000000     0.00000000     0.00000000
     0.00000000     0.00000000     0.00000000
     0.00000000     0.00000000     0.00000000
     0.00000000     0.00000000     0.00000000
     0.00000000     0.00000000     0.00000000
     0.00000000     0.00000000     0.00000000
     0.00000000     0.00000000     0.00000000
     0.00000000     0.00000000     0.00000000
     0.00000000     0.00000000     0.00000000
     0.00000000     0.00000000     0.00000000
     0.00000000     0.00000000     0.00000000
     0.00000000     0.00000000     0.00000000
     0.00000000     0.00000000     0.00000000
     0.00000000     0.00000000     0.00000000
     0.00000000     0.00000000     0.00000000
     0.00000000     0.00000000     0.00000000
     0.00000000     0.00000000     0.00000000
     0.00000000     0.00000000     0.00000000
     0.00000000     0.00000000     0.00000000
     0.00000000     0.00000000     0.00000000
     0.00000000     0.00000000     0.00000000
     0.00000000     0.00000000     0.00000000
     0.00000000     0.00000000     0.00000000
     0.00000000     0.00000000     0.00000000
     0.00000000     0.00000000     0.00000000
     0.00000000     0.00000000     0.00000000
     0.00000000     0.00000000     0.00000000
     0.00000000     0.00000000     0.00000000
     0.00000000     0.00000000     0.00000000
     0.00000000     0.00000000     0.00000000
     0.00000000     0.00000000     0.00000000
     0.00000000     0.00000000     0.00000000
     0.00000000     0.00000000     0.00000000
     0.00000000     0.00000000     0.00000000
     0.00000000     0.00000000     0.00000000
     0.00000000     0.00000000     0.00000000
     0.00000000     0.00000000     0.00000000
     0.00000000     0.00000000     0.00000000
     0.00000000     0.00000000     0.00000000
     0.00000000     0.00000000     0.00000000
     0.00000000     0.00000000     0.00000000
     0.00000000     0.00000000     0.00000000
     0.00000000     0.00000000     0.00000000
     0.00000000     0.00000000     0.00000000
     0.00000000     0.00000000     0.00000000
     0.00000000     0.00000000     0.00000000
     0.00000000     0.00000000     0.00000000
     0.00000000     0.00000000     0.00000000
     0.00000000     0.00000000     0.00000000
     0.00000000     0.00000000     0.00000000
     0.00000000     0.00000000     0.00000000
     0.00000000     0.00000000     0.00000000
     0.00000000     0.00000000     0.00000000
     0.00000000     0.00000000     0.00000000
     0.00000000     0.00000000     0.00000000
     0.00000000     0.00000000     0.00000000
     0.00000000     0.00000000     0.00000000
     0.00000000     0.00000000     0.00000000
     0.00000000     0.00000000     0.00000000
     0.00000000     0.00000000     0.00000000
     0.00000000     0.00000000     0.00000000
     0.00000000     0.00000000     0.00000000
     0.00000000     0.00000000     0.00000000
     0.00000000     0.00000000     0.00000000
     0.00000000     0.00000000     0.00000000
     0.00000000     0.00000000     0.00000000
     0.00000000     0.00000000     0.00000000
     0.00000000     0.00000000     0.00000000
     0.00000000     0.00000000     0.00000000
     0.00000000     0.00000000     0.00000000
     0.00000000     0.00000000     0.00000000
     0.00000000     0.00000000     0.00000000
     0.00000000     0.00000000     0.00000000
     0.00000000     0.00000000     0.00000000
     0.00000000     0.00000000     0.00000000
     0.00000000     0.00000000     0.00000000
     0.00000000     0.00000000     0.00000000
     0.00000000     0.00000000     0.00000000
     0.00000000     0.00000000     0.00000000
     0.00000000     0.00000000     0.00000000
     0.00000000     0.00000000     0.00000000
     0.00000000     0.00000000     0.00000000
     0.00000000     0.00000000     0.00000000
     0.00000000     0.00000000     0.00000000
     0.00000000     0.00000000     0.00000000
     0.00000000     0.00000000     0.00000000
     0.00000000     0.00000000     0.00000000
     0.00000000     0.00000000     0.00000000
     0.00000000     0.00000000     0.00000000
     0.00000000     0.00000000     0.00000000
     0.00000000     0.00000000     0.00000000
     0.00000000     0.00000000     0.00000000
     0.00000000     0.00000000     0.00000000
     0.00000000     0.00000000     0.00000000
     0.00000000     0.00000000     0.00000000
     0.00000000     0.00000000     0.00000000
     0.00000000     0.00000000     0.00000000
     0.00000000     0.00000000     0.00000000
     0.00000000     0.00000000     0.00000000
     0.00000000     0.00000000     0.00000000
     0.00000000     0.00000000     0.00000000
     0.00000000     0.00000000     0.00000000
     0.00000000     0.00000000     0.00000000
     0.00000000     0.00000000     0.00000000
     0.00000000     0.00000000     0.00000000
     0.00000000     0.00000000     0.00000000
     0.00000000     0.00000000     0.00000000
     0.00000000     0.00000000     0.00000000
     0.00000000     0.00000000     0.00000000
     0.00000000     0.00000000     0.00000000
     0.00000000     0.00000000     0.00000000
     0.00000000     0.00000000     0.00000000
     0.00000000     0.00000000     0.00000000
     0.00000000     0.00000000     0.00000000
     0.00000000     0.00000000     0.00000000
     0.00000000     0.00000000     0.00000000
     0.00000000     0.00000000     0.00000000
     0.00000000     0.00000000     0.00000000
     0.00000000     0.00000000     0.00000000
     0.00000000     0.00000000     0.00000000
     0.00000000     0.00000000     0.00000000
     0.00000000     0.00000000     0.00000000
     0.00000000     0.00000000     0.00000000
     0.00000000     0.00000000     0.00000000
     0.00000000     0.00000000     0.00000000
     0.00000000     0.00000000     0.00000000
     0.00000000     0.00000000     0.00000000
     0.00000000     0.00000000     0.00000000
     0.00000000     0.00000000     0.00000000
     0.00000000     0.00000000     0.00000000
     0.00000000     0.00000000     0.00000000
     0.00000000     0.00000000     0.00000000
     0.00000000     0.00000000     0.00000000
     0.00000000     0.00000000     0.00000000
     0.00000000     0.00000000     0.00000000
     0.00000000     0.00000000     0.00000000
     0.00000000     0.00000000     0.00000000
     0.00000000     0.00000000     0.00000000
     0.00000000     0.00000000     0.00000000
     0.00000000     0.00000000     0.00000000
     0.00000000     0.00000000     0.00000000
     0.00000000     0.00000000     0.00000000
     0.00000000     0.00000000     0.00000000
     0.00000000     0.00000000     0.00000000
     0.00000000     0.00000000     0.00000000
     0.00000000     0.00000000     0.00000000
     0.00000000     0.00000000     0.00000000
     0.00000000     0.00000000     0.00000000
     0.00000000     0.00000000     0.00000000
     0.00000000     0.00000000     0.00000000
     0.00000000     0.00000000     0.00000000
     0.00000000     0.00000000     0.00000000
     0.00000000     0.00000000     0.00000000
     0.00000000     0.00000000     0.00000000
     0.00000000     0.00000000     0.00000000
     0.00000000     0.00000000     0.00000000
     0.00000000     0.00000000     0.00000000
     0.00000000     0.00000000     0.00000000
     0.00000000     0.00000000     0.00000000
     0.00000000     0.00000000     0.00000000
     0.00000000     0.00000000     0.00000000
     0.00000000     0.00000000     0.00000000
     0.00000000     0.00000000     0.00000000
     0.00000000     0.00000000     0.00000000
     0.00000000     0.00000000     0.00000000
     0.00000000     0.00000000     0.00000000
     0.00000000     0.00000000     0.00000000
     0.00000000     0.00000000     0.00000000
     0.00000000     0.00000000     0.00000000
     0.00000000     0.00000000     0.00000000
     0.00000000     0.00000000     0.00000000
     0.00000000     0.00000000     0.00000000
     0.00000000     0.00000000     0.00000000
     0.00000000     0.00000000     0.00000000
     0.00000000     0.00000000     0.00000000
     0.00000000     0.00000000     0.00000000
     0.00000000     0.00000000     0.00000000
     0.00000000     0.00000000     0.00000000
     0.00000000     0.00000000     0.00000000
     0.00000000     0.00000000     0.00000000
     0.00000000     0.00000000     0.00000000
     0.00000000     0.00000000     0.00000000
     0.00000000     0.00000000     0.00000000
     0.00000000     0.00000000     0.00000000
     0.00000000     0.00000000     0.00000000
     0.00000000     0.00000000     0.00000000
     0.00000000     0.00000000     0.00000000
     0.00000000     0.00000000     0.00000000
     0.00000000     0.00000000     0.00000000
     0.00000000     0.00000000     0.00000000
     0.00000000     0.00000000     0.00000000
     0.00000000     0.00000000     0.00000000
     0.00000000     0.00000000     0.00000000
     0.00000000     0.00000000     0.00000000
     0.00000000     0.00000000     0.00000000
     0.00000000     0.00000000     0.00000000
     0.00000000     0.00000000     0.00000000
     0.00000000     0.00000000     0.00000000
     0.00000000     0.00000000     0.00000000
     0.00000000     0.00000000     0.00000000
     0.00000000     0.00000000     0.00000000
     0.00000000     0.00000000     0.00000000
     0.00000000     0.00000000     0.00000000
     0.00000000     0.00000000     0.00000000
     0.00000000     0.00000000     0.00000000
     0.00000000     0.00000000     0.00000000
SCALARS Temperatures float
LOOKUP_TABLE default
     0.00000000
     0.00000000
     0.00000000
     0.00000000
     0.00000000
     0.00000000
     0.00000000
     0.00000000
     0.00000000
     0.00000000
     0.00000000
     0.00000000
     0.00000000
     0.00000000
     0.00000000
     0.00000000
     0.00000000
     0.00000000
     0.00000000
     0.00000000
     0.00000000
     0.00000000
     0.00000000
     0.00000000
     0.00000000
     0.00000000
     0.00000000
     0.00000000
     0.00000000
     0.00000000
     0.00000000
     0.00000000
     0.00000000
     0.00000000
     0.00000000
     0.00000000
     0.00000000
     0.00000000
     0.00000000
     0.00000000
     0.00000000
     0.00000000
     0.00000000
     0.00000000
     0.00000000
     0.00000000
     0.00000000
     0.00000000
     0.00000000
     0.00000000
     0.00000000
     0.00000000
     0.00000000
     0.00000000
     0.00000000
     0.00000000
     0.00000000
     0.00000000
     0.00000000
     0.00000000
     0.00000000
     0.00000000
     0.00000000
     0.00000000
     0.00000000
     0.00000000
     0.00000000
     0.00000000
     0.00000000
     0.00000000
     0.00000000
     0.00000000
     0.00000000
     0.00000000
     0.00000000
     0.00000000
     0.00000000
     0.00000000
     0.00000000
     0.00000000
     0.00000000
     0.00000000
     0.00000000
     0.00000000
     0.00000000
     0.00000000
     0.00000000
     0.00000000
     0.00000000
     0.00000000
     0.00000000
     0.00000000
     0.00000000
     0.00000000
     0.00000000
     0.00000000
     0.00000000
     0.00000000
     0.00000000
     0.00000000
     0.00000000
     0.00000000
     0.00000000
     0.00000000
     0.00000000
     0.00000000
     0.00000000
     0.00000000
     0.00000000
     0.00000000
     0.00000000
     0.00000000
     0.00000000
     0.00000000
     0.00000000
     0.00000000
     0.00000000
     0.00000000
     0.00000000
     0.00000000
     0.00000000
     0.00000000
     0.00000000
     0.00000000
     0.00000000
     0.00000000
     0.00000000
     0.00000000
     0.00000000
     0.00000000
     0.00000000
     0.00000000
     0.00000000
     0.00000000
     0.00000000
     0.00000000
     0.00000000
     0.00000000
     0.00000000
     0.00000000
     0.00000000
     0.00000000
     0.00000000
     0.00000000
     0.00000000
     0.00000000
     0.00000000
     0.00000000
     0.00000000
     0.00000000
     0.00000000
     0.00000000
     0.00000000
     0.00000000
     0.00000000
     0.00000000
     0.00000000
     0.00000000
     0.00000000
     0.00000000
     0.00000000
     0.00000000
     0.00000000
     0.00000000
     0.00000000
     0.00000000
     0.00000000
     0.00000000
     0.00000000
     0.00000000
     0.00000000
     0.00000000
     0.00000000
     0.00000000
     0.00000000
     0.00000000
     0.00000000
     0.00000000
     0.00000000
     0.00000000
     0.00000000
     0.00000000
     0.00000000
     0.00000000
     0.00000000
     0.00000000
     0.00000000
     0.00000000
     0.00000000
     0.00000000
     0.00000000
     0.00000000
     0.00000000
     0.00000000
     0.00000000
     0.00000000
     0.00000000
     0.00000000
     0.00000000
     0.00000000
     0.00000000
     0.00000000
     0.00000000
     0.00000000
     0.00000000
     0.00000000
     0.00000000
     0.00000000
     0.00000000
     0.00000000
     0.00000000
     0.00000000
     0.00000000
     0.00000000
     0.00000000
     0.00000000
     0.00000000
     0.00000000
     0.00000000
     0.00000000
     0.00000000
     0.00000000
     0.00000000
     0.00000000
     0.00000000
     0.00000000
     0.00000000
     0.00000000
     0.00000000
     0.00000000
     0.00000000
     0.00000000
     0.00000000
     0.00000000
     0.00000000
     0.00000000
     0.00000000
     0.00000000
     0.00000000
     0.00000000
     0.00000000
     0.00000000
     0.00000000
     0.00000000
     0.00000000
     0.00000000
     0.00000000
     0.00000000
     0.00000000
     0.00000000
     0.00000000
     0.00000000
     0.00000000
     0.00000000
     0.00000000
     0.00000000
     0.00000000
     0.00000000
     0.00000000
     0.00000000
     0.00000000
     0.00000000
     0.00000000
     0.00000000
     0.00000000
     0.00000000
     0.00000000
     0.00000000
     0.00000000
     0.00000000
     0.00000000
     0.00000000
     0.00000000
     0.00000000
     0.00000000
     0.00000000
     0.00000000
     0.00000000
     0.00000000
     0.00000000
     0.00000000
     0.00000000
     0.00000000
     0.00000000
     0.00000000
     0.00000000
     0.00000000
     0.00000000
     0.00000000
     0.00000000
     0.00000000
     0.00000000
     0.00000000
     0.00000000
     0.00000000
     0.00000000
     0.00000000
     0.00000000
     0.00000000
     0.00000000
     0.00000000
     0.00000000
     0.00000000
     0.00000000
     0.00000000
     0.00000000
     0.00000000
     0.00000000
     0.00000000
     0.00000000
     0.00000000
     0.00000000
     0.00000000
     0.00000000
     0.00000000
     0.00000000
     0.00000000
     0.00000000
     0.00000000
     0.00000000
     0.00000000
     0.00000000
     0.00000000
     0.00000000
     0.00000000
     0.00000000
     0.00000000
     0.00000000
     0.00000000
     0.00000000
     0.00000000
     0.00000000
     0.00000000
     0.00000000
     0.00000000
     0.00000000
     0.00000000
     0.00000000
     0.00000000
     0.00000000
     0.00000000
     0.00000000
     0.00000000
     0.00000000
     0.00000000
     0.00000000
     0.00000000
     0.00000000
     0.00000000
     0.00000000
     0.00000000
     0.00000000
     0.00000000
     0.00000000
     0.00000000
     0.00000000
     0.00000000
     0.00000000
     0.00000000
     0.00000000
     0.00000000
     0.00000000
     0.00000000
     0.00000000
     0.00000000
     0.00000000
     0.00000000
     0.00000000
     0.00000000
     0.00000000
     0.00000000
     0.00000000
     0.00000000
     0.00000000
     0.00000000
     0.00000000
     0.00000000
     0.00000000
     0.00000000
     0.00000000
     0.00000000
     0.00000000
     0.00000000
     0.00000000
     0.00000000
     0.00000000
     0.00000000
     0.00000000
     0.00000000
     0.00000000
     0.00000000
     0.00000000
     0.00000000
     0.00000000
     0.00000000
     0.00000000
     0.00000000
     0.00000000
     0.00000000
     0.00000000
     0.00000000
     0.00000000
     0.00000000
     0.00000000
     0.00000000
     0.00000000
     0.00000000
     0.00000000
     0.00000000
     0.00000000
     0.00000000
     0.00000000
     0.00000000
     0.00000000
     0.00000000
     0.00000000
     0.00000000
     0.00000000
     0.00000000
     0.00000000
     0.00000000
     0.00000000
     0.00000000
     0.00000000
     0.00000000
     0.00000000
     0.00000000
     0.00000000
     0.00000000
     0.00000000
     0.00000000
     0.00000000
     0.00000000
     0.00000000
     0.00000000
     0.00000000
     0.00000000
     0.00000000
     0.00000000
     0.00000000
     0.00000000
     0.00000000
     0.00000000
     0.00000000
     0.00000000
     0.00000000
     0.00000000
     0.00000000
     0.00000000
     0.00000000
     0.00000000
     0.00000000
     0.00000000
     0.00000000
     0.00000000
     0.00000000
     0.00000000
     0.00000000
     0.00000000
     0.00000000
     0.00000000
     0.00000000
     0.00000000
     0.00000000
     0.00000000
     0.00000000
     0.00000000
     0.00000000
     0.00000000
     0.00000000
     0.00000000
     0.00000000
     0.00000000
     0.00000000
     0.00000000
     0.00000000
     0.00000000
     0.00000000
     0.00000000
     0.00000000
     0.00000000
     0.00000000
     0.00000000
     0.00000000
     0.00000000
     0.00000000
     0.00000000
     0.00000000
     0.00000000
     0.00000000
     0.00000000
     0.00000000
     0.00000000
     0.00000000
     0.00000000
     0.00000000
     0.00000000
     0.00000000
     0.00000000
     0.00000000
     0.00000000
     0.00000000
     0.00000000
     0.00000000
     0.00000000
     0.00000000
     0.00000000
     0.00000000
     0.00000000
     0.00000000
     0.00000000
     0.00000000
     0.00000000
     0.00000000
     0.00000000
     0.00000000
     0.00000000
     0.00000000
     0.00000000
     0.00000000
     0.00000000
     0.00000000
     0.00000000
     0.00000000
     0.00000000
     0.00000000
     0.00000000
     0.00000000
     0.00000000
     0.00000000
     0.00000000
     0.00000000
     0.00000000
     0.00000000
     0.00000000
     0.00000000
     0.00000000
     0.00000000
     0.00000000
     0.00000000
     0.00000000
     0.00000000
     0.00000000
     0.00000000
     0.00000000
     0.00000000
     0.00000000
     0.00000000
     0.00000000
     0.00000000
     0.00000000
     0.00000000
     0.00000000
     0.00000000
     0.00000000
     0.00000000
     0.00000000
     0.00000000
     0.00000000
     0.00000000
     0.00000000
     0.00000000
     0.00000000
     0.00000000
     0.00000000
     0.00000000
     0.00000000
     0.00000000
     0.00000000
     0.00000000
     0.00000000
     0.00000000
     0.00000000
     0.00000000
     0.00000000
     0.00000000
     0.00000000
     0.00000000
     0.00000000
     0.00000000
     0.00000000
     0.00000000
     0.00000000
     0.00000000
     0.00000000
     0.00000000
     0.00000000
     0.00000000
     0.00000000
     0.00000000
     0.00000000
     0.00000000
     0.00000000
     0.00000000
     0.00000000
     0.00000000
     0.00000000
     0.00000000
     0.00000000
     0.00000000
     0.00000000
     0.00000000
     0.00000000
     0.00000000
     0.00000000
     0.00000000
     0.00000000
     0.00000000
     0.00000000
     0.00000000
     0.00000000
     0.00000000
     0.00000000
     0.00000000
     0.00000000
     0.00000000
     0.00000000
     0.00000000
     0.00000000
     0.00000000
     0.00000000
     0.00000000
     0.00000000
     0.00000000
     0.00000000
     0.00000000
     0.00000000
     0.00000000
     0.00000000
     0.00000000
     0.00000000
     0.00000000
     0.00000000
     0.00000000
     0.00000000
     0.00000000
     0.00000000
     0.00000000
     0.00000000
     0.00000000
     0.00000000
     0.00000000
     0.00000000
     0.00000000
     0.00000000
     0.00000000
     0.00000000
     0.00000000
     0.00000000
     0.00000000
     0.00000000
     0.00000000
     0.00000000
     0.00000000
     0.00000000
     0.00000000
     0.00000000
     0.00000000
     0.00000000
     0.00000000
     0.00000000
     0.00000000
     0.00000000
     0.00000000
     0.00000000
     0.00000000
     0.00000000
     0.00000000
     0.00000000
     0.00000000
     0.00000000
     0.00000000
     0.00000000
     0.00000000
     0.00000000
     0.00000000
     0.00000000
     0.00000000
     0.00000000
     0.00000000
     0.00000000
     0.00000000
     0.00000000
     0.00000000
     0.00000000
     0.00000000
     0.00000000
     0.00000000
     0.00000000
     0.00000000
     0.00000000
     0.00000000
     0.00000000
     0.00000000
     0.00000000
     0.00000000
     0.00000000
     0.00000000
     0.00000000
     0.00000000
     0.00000000
     0.00000000
     0.00000000
     0.00000000
     0.00000000
     0.00000000
     0.00000000
     0.00000000
     0.00000000
     0.00000000
     0.00000000
     0.00000000
     0.00000000
     0.00000000
     0.00000000
     0.00000000
     0.00000000
     0.00000000
     0.00000000
     0.00000000
     0.00000000
     0.00000000
     0.00000000
     0.00000000
     0.00000000
     0.00000000
     0.00000000
     0.00000000
     0.00000000
     0.00000000
     0.00000000
     0.00000000
     0.00000000
     0.00000000
     0.00000000
     0.00000000
     0.00000000
     0.00000000
     0.00000000
     0.00000000
     0.00000000
     0.00000000
     0.00000000
     0.00000000
     0.00000000
     0.00000000
     0.00000000
     0.00000000
     0.00000000
     0.00000000
     0.00000000
     0.00000000
     0.00000000
     0.00000000
     0.00000000
     0.00000000
     0.00000000
     0.00000000
     0.00000000
     0.00000000
     0.00000000
     0.00000000
     0.00000000
     0.00000000
     0.00000000
     0.00000000
     0.00000000
     0.00000000
     0.00000000
     0.00000000
     0.00000000
     0.00000000
     0.00000000
     0.00000000
     0.00000000
     0.00000000
     0.00000000
     0.00000000
     0.00000000
     0.00000000
     0.00000000
     0.00000000
     0.00000000
     0.00000000
     0.00000000
     0.00000000
     0.00000000
     0.00000000
     0.00000000
     0.00000000
     0.00000000
     0.00000000
     0.00000000
     0.00000000
     0.00000000
     0.00000000
     0.00000000
     0.00000000
     0.00000000
     0.00000000
     0.00000000
     0.00000000
     0.00000000
     0.00000000
     0.00000000
     0.00000000
     0.00000000
     0.00000000
     0.00000000
     0.00000000
     0.00000000
     0.00000000
     0.00000000
     0.00000000
     0.00000000
     0.00000000
     0.00000000
     0.00000000
     0.00000000
     0.00000000
     0.00000000
     0.00000000
     0.00000000
     0.00000000
     0.00000000
     0.00000000
     0.00000000
     0.00000000
     0.00000000
     0.00000000
     0.00000000
     0.00000000
     0.00000000
     0.00000000
     0.00000000
     0.00000000
     0.00000000
     0.00000000
     0.00000000
     0.00000000
     0.00000000
     0.00000000
     0.00000000
     0.00000000
     0.00000000
     0.00000000
     0.00000000
     0.00000000
     0.00000000
     0.00000000
     0.00000000
     0.00000000
     0.00000000
     0.00000000
     0.00000000
     0.00000000
     0.00000000
     0.00000000
     0.00000000
     0.00000000
     0.00000000
     0.00000000
     0.00000000
     0.00000000
     0.00000000
     0.00000000
     0.00000000
     0.00000000
     0.00000000
     0.00000000
     0.00000000
     0.00000000
     0.00000000
     0.00000000
     0.00000000
     0.00000000
     0.00000000
     0.00000000
     0.00000000
     0.00000000
     0.00000000
     0.00000000
     0.00000000
     0.00000000
     0.00000000
     0.00000000
     0.00000000
     0.00000000
     0.00000000
     0.00000000
     0.00000000
     0.00000000
     0.00000000
     0.00000000
     0.00000000
     0.00000000
     0.00000000
     0.00000000
     0.00000000
     0.00000000
     0.00000000
     0.00000000
     0.00000000
     0.00000000
     0.00000000
     0.00000000
     0.00000000
     0.00000000
     0.00000000
     0.00000000
     0.00000000
     0.00000000
     0.00000000
     0.00000000
     0.00000000
     0.00000000
     0.00000000
     0.00000000
     0.00000000
     0.00000000
     0.00000000
     0.00000000
     0.00000000
     0.00000000
     0.00000000
     0.00000000
     0.00000000
     0.00000000
     0.00000000
     0.00000000
     0.00000000
     0.00000000
     0.00000000
     0.00000000
     0.00000000
     0.00000000
     0.00000000
     0.00000000
     0.00000000
     0.00000000
     0.00000000
     0.00000000
     0.00000000
     0.00000000
     0.00000000
     0.00000000
     0.00000000
     0.00000000
     0.00000000
     0.00000000
     0.00000000
     0.00000000
     0.00000000
     0.00000000
     0.00000000
     0.00000000
     0.00000000
     0.00000000
     0.00000000
     0.00000000
     0.00000000
     0.00000000
     0.00000000
     0.00000000
     0.00000000
     0.00000000
     0.00000000
     0.00000000
     0.00000000
     0.00000000
     0.00000000
     0.00000000
     0.00000000
     0.00000000
     0.00000000
     0.00000000
     0.00000000
     0.00000000
     0.00000000
     0.00000000
     0.00000000
     0.00000000
     0.00000000
     0.00000000
     0.00000000
     0.00000000
     0.00000000
     0.00000000
     0.00000000
     0.00000000
     0.00000000
     0.00000000
     0.00000000
     0.00000000
     0.00000000
     0.00000000
     0.00000000
     0.00000000
     0.00000000
     0.00000000
     0.00000000
     0.00000000
     0.00000000
     0.00000000
     0.00000000
     0.00000000
     0.00000000
     0.00000000
     0.00000000
     0.00000000
     0.00000000
     0.00000000
     0.00000000
     0.00000000
     0.00000000
     0.00000000
     0.00000000
     0.00000000
     0.00000000
     0.00000000
     0.00000000
     0.00000000
     0.00000000
     0.00000000
     0.00000000
     0.00000000
     0.00000000
     0.00000000
     0.00000000
     0.00000000
     0.00000000
     0.00000000
     0.00000000
     0.00000000
     0.00000000
     0.00000000
     0.00000000
     0.00000000
     0.00000000
     0.00000000
     0.00000000
     0.00000000
     0.00000000
     0.00000000
     0.00000000
     0.00000000
     0.00000000
     0.00000000
     0.00000000
     0.00000000
     0.00000000
     0.00000000
     0.00000000
     0.00000000
     0.00000000
     0.00000000
     0.00000000
     0.00000000
     0.00000000
     0.00000000
     0.00000000
     0.00000000
     0.00000000
     0.00000000
     0.00000000
     0.00000000
     0.00000000
     0.00000000
     0.00000000
     0.00000000
     0.00000000
     0.00000000
     0.00000000
     0.00000000
     0.00000000
     0.00000000
     0.00000000
     0.00000000
     0.00000000
     0.00000000
     0.00000000
     0.00000000
     0.00000000
     0.00000000
     0.00000000
     0.00000000
     0.00000000
     0.00000000
     0.00000000
     0.00000000
     0.00000000
     0.00000000
     0.00000000
     0.00000000
     0.00000000
     0.00000000
     0.00000000
     0.00000000
     0.00000000
     0.00000000
     0.00000000
     0.00000000
     0.00000000
     0.00000000
     0.00000000
     0.00000000
     0.00000000
     0.00000000
     0.00000000
     0.00000000
     0.00000000
     0.00000000
     0.00000000
     0.00000000
     0.00000000
     0.00000000
     0.00000000
     0.00000000
     0.00000000
     0.00000000
     0.00000000
     0.00000000
     0.00000000
     0.00000000
     0.00000000
     0.00000000
     0.00000000
     0.00000000
     0.00000000
     0.00000000
     0.00000000
     0.00000000
     0.00000000
     0.00000000
     0.00000000
     0.00000000
     0.00000000
     0.00000000
     0.00000000
     0.00000000
     0.00000000
     0.00000000
     0.00000000
     0.00000000
     0.00000000
     0.00000000
     0.00000000
     0.00000000
     0.00000000
     0.00000000
     0.00000000
     0.00000000
     0.00000000
     0.00000000
     0.00000000
     0.00000000
     0.00000000
     0.00000000
     0.00000000
     0.00000000
     0.00000000
     0.00000000
     0.00000000
     0.00000000
     0.00000000
     0.00000000
     0.00000000
     0.00000000
     0.00000000
     0.00000000
     0.00000000
     0.00000000
     0.00000000
     0.00000000
     0.00000000
     0.00000000
     0.00000000
     0.00000000
     0.00000000
     0.00000000
     0.00000000
     0.00000000
     0.00000000
     0.00000000
     0.00000000
     0.00000000
     0.00000000
     0.00000000
     0.00000000
     0.00000000
     0.00000000
     0.00000000
     0.00000000
     0.00000000
     0.00000000
     0.00000000
     0.00000000
     0.00000000
     0.00000000
     0.00000000
     0.00000000
     0.00000000
     0.00000000
     0.00000000
     0.00000000
     0.00000000
     0.00000000
     0.00000000
     0.00000000
     0.00000000
     0.00000000
     0.00000000
     0.00000000
     0.00000000
     0.00000000
     0.00000000
     0.00000000
     0.00000000
     0.00000000
     0.00000000
     0.00000000
     0.00000000
     0.00000000
     0.00000000
     0.00000000
     0.00000000
     0.00000000
     0.00000000
     0.00000000
     0.00000000
     0.00000000
     0.00000000
     0.00000000
     0.00000000
     0.00000000
     0.00000000
     0.00000000
     0.00000000
     0.00000000
     0.00000000
     0.00000000
     0.00000000
     0.00000000
     0.00000000
     0.00000000
     0.00000000
     0.00000000
     0.00000000
     0.00000000
     0.00000000
     0.00000000
     0.00000000
     0.00000000
     0.00000000
     0.00000000
     0.00000000
     0.00000000
     0.00000000
     0.00000000
     0.00000000
     0.00000000
     0.00000000
     0.00000000
     0.00000000
     0.00000000
     0.00000000
     0.00000000
     0.00000000
     0.00000000
     0.00000000
     0.00000000
     0.00000000
     0.00000000
     0.00000000
     0.00000000
     0.00000000
     0.00000000
     0.00000000
     0.00000000
     0.00000000
     0.00000000
     0.00000000
     0.00000000
     0.00000000
     0.00000000
     0.00000000
     0.00000000
     0.00000000
     0.00000000
     0.00000000
     0.00000000
     0.00000000
     0.00000000
     0.00000000
     0.00000000
     0.00000000
     0.00000000
     0.00000000
     0.00000000
     0.00000000
     0.00000000
     0.00000000
     0.00000000
     0.00000000
     0.00000000
     0.00000000
     0.00000000
     0.00000000
     0.00000000
     0.00000000
     0.00000000
     0.00000000
     0.00000000
     0.00000000
     0.00000000
     0.00000000
     0.00000000
     0.00000000
     0.00000000
     0.00000000
     0.00000000
     0.00000000
     0.00000000
     0.00000000
     0.00000000
     0.00000000
     0.00000000
     0.00000000
     0.00000000
     0.00000000
     0.00000000
     0.00000000
     0.00000000
     0.00000000
     0.00000000
     0.00000000
     0.00000000
     0.00000000
     0.00000000
     0.00000000
     0.00000000
     0.00000000
     0.00000000
     0.00000000
     0.00000000
     0.00000000
     0.00000000
     0.00000000
     0.00000000
     0.00000000
     0.00000000
     0.00000000
     0.00000000
     0.00000000
     0.00000000
     0.00000000
     0.00000000
     0.00000000
     0.00000000
     0.00000000
     0.00000000
     0.00000000
     0.00000000
     0.00000000
     0.00000000
     0.00000000
     0.00000000
     0.00000000
     0.00000000
     0.00000000
     0.00000000
     0.00000000
     0.00000000
     0.00000000
     0.00000000
     0.00000000
     0.00000000
     0.00000000
     0.00000000
     0.00000000
     0.00000000
     0.00000000
     0.00000000
     0.00000000
     0.00000000
     0.00000000
     0.00000000
     0.00000000
     0.00000000
     0.00000000
     0.00000000
     0.00000000
     0.00000000
     0.00000000
     0.00000000
     0.00000000
     0.00000000
     0.00000000
     0.00000000
     0.00000000
     0.00000000
     0.00000000
     0.00000000
     0.00000000
     0.00000000
     0.00000000
     0.00000000
     0.00000000
     0.00000000
     0.00000000
     0.00000000
     0.00000000
     0.00000000
     0.00000000
     0.00000000
     0.00000000
     0.00000000
     0.00000000
     0.00000000
     0.00000000
     0.00000000
     0.00000000
     0.00000000
     0.00000000
     0.00000000
     0.00000000
     0.00000000
     0.00000000
     0.00000000
     0.00000000
     0.00000000
     0.00000000
     0.00000000
     0.00000000
     0.00000000
     0.00000000
     0.00000000
     0.00000000
     0.00000000
     0.00000000
     0.00000000
     0.00000000
     0.00000000
     0.00000000
     0.00000000
     0.00000000
     0.00000000
     0.00000000
     0.00000000
     0.00000000
     0.00000000
     0.00000000
     0.00000000
     0.00000000
     0.00000000
     0.00000000
     0.00000000
     0.00000000
     0.00000000
     0.00000000
     0.00000000
     0.00000000
     0.00000000
     0.00000000
     0.00000000
     0.00000000
     0.00000000
     0.00000000
     0.00000000
     0.00000000
     0.00000000
     0.00000000
     0.00000000
     0.00000000
     0.00000000
     0.00000000
     0.00000000
     0.00000000
     0.00000000
     0.00000000
     0.00000000
     0.00000000
     0.00000000
     0.00000000
     0.00000000
     0.00000000
     0.00000000
     0.00000000
     0.00000000
     0.00000000
     0.00000000
     0.00000000
     0.00000000
     0.00000000
     0.00000000
     0.00000000
     0.00000000
     0.00000000
     0.00000000
     0.00000000
     0.00000000
     0.00000000
     0.00000000
     0.00000000
     0.00000000
     0.00000000
     0.00000000
     0.00000000
     0.00000000
     0.00000000
     0.00000000
     0.00000000
     0.00000000
     0.00000000
     0.00000000
     0.00000000
     0.00000000
     0.00000000
     0.00000000
     0.00000000
     0.00000000
     0.00000000
     0.00000000
     0.00000000
     0.00000000
     0.00000000
     0.00000000
     0.00000000
     0.00000000
     0.00000000
     0.00000000
     0.00000000
     0.00000000
     0.00000000
     0.00000000
     0.00000000
     0.00000000
     0.00000000
     0.00000000
     0.00000000
     0.00000000
     0.00000000
     0.00000000
     0.00000000
     0.00000000
     0.00000000
     0.00000000
     0.00000000
     0.00000000
     0.00000000
     0.00000000
     0.00000000
     0.00000000
     0.00000000
     0.00000000
     0.00000000
     0.00000000
     0.00000000
     0.00000000
     0.00000000
     0.00000000
     0.00000000
     0.00000000
     0.00000000
     0.00000000
     0.00000000
     0.00000000
     0.00000000
     0.00000000
     0.00000000
     0.00000000
     0.00000000
     0.00000000
     0.00000000
     0.00000000
     0.00000000
     0.00000000
     0.00000000
     0.00000000
     0.00000000
     0.00000000
     0.00000000
     0.00000000
     0.00000000
     0.00000000
     0.00000000
     0.00000000
     0.00000000
     0.00000000
VECTORS ShearStress float 
    -0.01061614     0.01167706     0.00203719
    -0.09078452     0.05859164     0.01097932
    -0.06001097     0.02306226    -0.00575732
    -0.07714915     0.01784016     0.00954926
    -0.13392060     0.01271928     0.00349710
    -0.17471987    -0.00446513     0.00531688
    -0.22098651    -0.04864663    -0.00041854
    -0.30283997    -0.12676889     0.00120555
    -0.71580179    -0.31120079    -0.01019372
    -0.00023562     0.03319880     0.00691967
     0.00000000     0.00000000     0.00000000
     0.00000000     0.00000000     0.00000000
     0.00000000     0.00000000     0.00000000
     0.00000000     0.00000000     0.00000000
     0.00000000     0.00000000     0.00000000
     0.00000000     0.00000000     0.00000000
     0.00000000     0.00000000     0.00000000
     0.00000000     0.00000000     0.00000000
    -0.00005162     0.01591877     0.01472583
     0.00000000     0.00000000     0.00000000
     0.00000000     0.00000000     0.00000000
     0.00000000     0.00000000     0.00000000
     0.00000000     0.00000000     0.00000000
     0.00000000     0.00000000     0.00000000
     0.00000000     0.00000000     0.00000000
     0.00000000     0.00000000     0.00000000
     0.00000000     0.00000000     0.00000000
     0.00002688    -0.01511442     0.01221075
     0.00000000     0.00000000     0.00000000
     0.00000000     0.00000000     0.00000000
     0.00000000     0.00000000     0.00000000
     0.00000000     0.00000000     0.00000000
     0.00000000     0.00000000     0.00000000
     0.00000000     0.00000000     0.00000000
     0.00000000     0.00000000     0.00000000
     0.00000000     0.00000000     0.00000000
    -0.00000111    -0.03305395     0.01039192
     0.00000000     0.00000000     0.00000000
     0.00000000     0.00000000     0.00000000
     0.00000000     0.00000000     0.00000000
     0.00000000     0.00000000     0.00000000
     0.00000000     0.00000000     0.00000000
     0.00000000     0.00000000     0.00000000
     0.00000000     0.00000000     0.00000000
     0.00000000     0.00000000     0.00000000
    -0.00009673    -0.04048998     0.00834291
     0.00000000     0.00000000     0.00000000
     0.00000000     0.00000000     0.00000000
     0.00000000     0.00000000     0.00000000
     0.00000000     0.00000000     0.00000000
     0.00000000     0.00000000     0.00000000
     0.00000000     0.00000000     0.00000000
     0.00000000     0.00000000     0.00000000
     0.61446271    -0.20881252    -0.03942341
    -0.00021685    -0.04504419     0.00850800
     0.00000000     0.00000000     0.00000000
     0.00000000     0.00000000     0.00000000
     0.00000000     0.00000000     0.00000000
     0.00000000     0.00000000     0.00000000
     0.00000000     0.00000000     0.00000000
     0.00000000     0.00000000     0.00000000
     0.00000000     0.00000000     0.00000000
     0.00000000     0.00000000     0.00000000
    -0.00031305    -0.04570257     0.00689208
     0.00000000     0.00000000     0.00000000
     0.00000000     0.00000000     0.00000000
     0.00000000     0.00000000     0.00000000
     0.00000000     0.00000000     0.00000000
     0.00000000     0.00000000     0.00000000
     0.00000000     0.00000000     0.00000000
     0.00000000     0.00000000     0.00000000
     0.00000000     0.00000000     0.00000000
    -0.00036308    -0.04090053     0.00785949
     0.00000000     0.00000000     0.00000000
     0.00000000     0.00000000     0.00000000
     0.00000000     0.00000000     0.00000000
     0.00000000     0.00000000     0.00000000
     0.00000000     0.00000000     0.00000000
     0.00000000     0.00000000     0.00000000
     0.00000000     0.00000000     0.00000000
     0.00000000     0.00000000     0.00000000
    -0.00042138    -0.03224427     0.00201214
     0.00000000     0.00000000     0.00000000
     0.00000000     0.00000000     0.00000000
     0.00000000     0.00000000     0.00000000
     0.00000000     0.00000000     0.00000000
     0.00000000     0.00000000     0.00000000
     0.00000000     0.00000000     0.00000000
     0.00000000     0.00000000     0.00000000
     0.00000000     0.00000000     0.00000000
    -0.00746913    -0.00841035     0.00057240
    -0.06715538    -0.04057486     0.00387050
    -0.08458501    -0.03170867     0.00019931
    -0.11426516    -0.02562514     0.00367639
    -0.15601596    -0.01519178     0.00093047
    -0.18690132     0.00336275     0.00238889
    -0.21582426     0.05353690     0.00096361
    -0.25170286     0.12305089    -0.00078922
    -0.40264551     0.21359649    -0.00771679
    -0.00099294     0.00196640     0.00900274
    -0.01727770     0.01769614     0.04626460
    -0.06015134     0.02039218    -0.01868621
    -0.07202377     0.02303616     0.03933633
    -0.09472462     0.01230746     0.01868377
    -0.12921878    -0.00042284     0.01996277
    -0.16553962    -0.03733708    -0.00383872
    -0.27338977    -0.12009681    -0.00924145
    -0.77261533    -0.35831828    -0.05588074
     0.00005876     0.00195472     0.03008962
     0.00000000     0.00000000     0.00000000
     0.00000000     0.00000000     0.00000000
     0.00000000     0.00000000     0.00000000
     0.00000000     0.00000000     0.00000000
     0.00000000     0.00000000     0.00000000
     0.00000000     0.00000000     0.00000000
     0.00000000     0.00000000     0.00000000
     0.00000000     0.00000000     0.00000000
     0.00001772     0.01305729     0.05951824
     0.00000000     0.00000000     0.00000000
     0.00000000     0.00000000     0.00000000
     0.00000000     0.00000000     0.00000000
     0.00000000     0.00000000     0.00000000
     0.00000000     0.00000000     0.00000000
     0.00000000     0.00000000     0.00000000
     0.00000000     0.00000000     0.00000000
     0.00000000     0.00000000     0.00000000
     0.00002933     0.00232754     0.05108394
     0.00000000     0.00000000     0.00000000
     0.00000000     0.00000000     0.00000000
     0.00000000     0.00000000     0.00000000
     0.00000000     0.00000000     0.00000000
     0.00000000     0.00000000     0.00000000
     0.00000000     0.00000000     0.00000000
     0.00000000     0.00000000     0.00000000
     0.00000000     0.00000000     0.00000000
     0.00001724    -0.02478963     0.04287050
     0.00000000     0.00000000     0.00000000
     0.00000000     0.00000000     0.00000000
     0.00000000     0.00000000     0.00000000
     0.00000000     0.00000000     0.00000000
     0.00000000     0.00000000     0.00000000
     0.00000000     0.00000000     0.00000000
     0.00000000     0.00000000     0.00000000
     0.00000000     0.00000000     0.00000000
    -0.00007282    -0.03797457     0.03501524
     0.00000000     0.00000000     0.00000000
     0.00000000     0.00000000     0.00000000
     0.00000000     0.00000000     0.00000000
     0.00000000     0.00000000     0.00000000
     0.00000000     0.00000000     0.00000000
     0.00000000     0.00000000     0.00000000
     0.00000000     0.00000000     0.00000000
     0.54497473    -0.19124016    -0.17999644
    -0.00019094    -0.04457841     0.03502176
     0.00000000     0.00000000     0.00000000
     0.00000000     0.00000000     0.00000000
     0.00000000     0.00000000     0.00000000
     0.00000000     0.00000000     0.00000000
     0.00000000     0.00000000     0.00000000
     0.00000000     0.00000000     0.00000000
     0.00000000     0.00000000     0.00000000
     0.00000000     0.00000000     0.00000000
    -0.00029474    -0.04752503     0.02909119
     0.00000000     0.00000000     0.00000000
     0.00000000     0.00000000     0.00000000
     0.00000000     0.00000000     0.00000000
     0.00000000     0.00000000     0.00000000
     0.00000000     0.00000000     0.00000000
     0.00000000     0.00000000     0.00000000
     0.00000000     0.00000000     0.00000000
     0.00000000     0.00000000     0.00000000
    -0.00020470    -0.02828439     0.03171790
     0.00000000     0.00000000     0.00000000
     0.00000000     0.00000000     0.00000000
     0.00000000     0.00000000     0.00000000
     0.00000000     0.00000000     0.00000000
     0.00000000     0.00000000     0.00000000
     0.00000000     0.00000000     0.00000000
     0.00000000     0.00000000     0.00000000
     0.00000000     0.00000000     0.00000000
    -0.00006372    -0.00696895     0.00978325
     0.00000000     0.00000000     0.00000000
     0.00000000     0.00000000     0.00000000
     0.00000000     0.00000000     0.00000000
     0.00000000     0.00000000     0.00000000
     0.00000000     0.00000000     0.00000000
     0.00000000     0.00000000     0.00000000
     0.00000000     0.00000000     0.00000000
     0.00000000     0.00000000     0.00000000
    -0.00264309    -0.00269483     0.00218828
    -0.03262940    -0.02079343     0.01208487
    -0.08764130    -0.03349268     0.00267338
    -0.12493232    -0.03054075     0.01382757
    -0.14952348    -0.01548680     0.00384475
    -0.18768090     0.00216835     0.00793921
    -0.20229925     0.05068106     0.00114697
    -0.25063304     0.12658187    -0.00658497
    -0.41810098     0.22822100    -0.01081915
     0.00172665     0.00307214     0.01410235
     0.01333654     0.01808552     0.08328413
    -0.01107239     0.00751860     0.00887664
    -0.01729281     0.01709177     0.04039320
    -0.00536788     0.01413842     0.04025901
     0.02286222    -0.00082874    -0.00326510
     0.00544126    -0.00114822    -0.00282750
    -0.15512638    -0.07635529     0.00569364
    -0.89432371    -0.45374940     0.00435374
     0.00003662     0.01075288     0.03537581
     0.00000000     0.00000000     0.00000000
     0.00000000     0.00000000     0.00000000
     0.00000000     0.00000000     0.00000000
     0.00000000     0.00000000     0.00000000
     0.00000000     0.00000000     0.00000000
     0.00000000     0.00000000     0.00000000
     0.00000000     0.00000000     0.00000000
     0.00000000     0.00000000     0.00000000
     0.00004467     0.01337515     0.04427306
     0.00000000     0.00000000     0.00000000
     0.00000000     0.00000000     0.00000000
     0.00000000     0.00000000     0.00000000
     0.00000000     0.00000000     0.00000000
     0.00000000     0.00000000     0.00000000
     0.00000000     0.00000000     0.00000000
     0.00000000     0.00000000     0.00000000
     0.00000000     0.00000000     0.00000000
     0.00004808     0.00659476     0.05014457
     0.00000000     0.00000000     0.00000000
     0.00000000     0.00000000     0.00000000
     0.00000000     0.00000000     0.00000000
     0.00000000     0.00000000     0.00000000
     0.00000000     0.00000000     0.00000000
     0.00000000     0.00000000     0.00000000
     0.00000000     0.00000000     0.00000000
     0.00000000     0.00000000     0.00000000
     0.00002273    -0.01478536     0.03928549
     0.00000000     0.00000000     0.00000000
     0.00000000     0.00000000     0.00000000
     0.00000000     0.00000000     0.00000000
     0.00000000     0.00000000     0.00000000
     0.00000000     0.00000000     0.00000000
     0.00000000     0.00000000     0.00000000
     0.00000000     0.00000000     0.00000000
     0.00000000     0.00000000     0.00000000
    -0.00002275    -0.03028257     0.03540445
     0.00000000     0.00000000     0.00000000
     0.00000000     0.00000000     0.00000000
     0.00000000     0.00000000     0.00000000
     0.00000000     0.00000000     0.00000000
     0.00000000     0.00000000     0.00000000
     0.00000000     0.00000000     0.00000000
     0.00000000     0.00000000     0.00000000
     0.43874829    -0.16962591    -0.22588417
    -0.00010368    -0.03708023     0.03105734
     0.00000000     0.00000000     0.00000000
     0.00000000     0.00000000     0.00000000
     0.00000000     0.00000000     0.00000000
     0.00000000     0.00000000     0.00000000
     0.00000000     0.00000000     0.00000000
     0.00000000     0.00000000     0.00000000
     0.00000000     0.00000000     0.00000000
     0.00000000     0.00000000     0.00000000
    -0.00019499    -0.03698189     0.02992081
     0.00000000     0.00000000     0.00000000
     0.00000000     0.00000000     0.00000000
     0.00000000     0.00000000     0.00000000
     0.00000000     0.00000000     0.00000000
     0.00000000     0.00000000     0.00000000
     0.00000000     0.00000000     0.00000000
     0.00000000     0.00000000     0.00000000
     0.00000000     0.00000000     0.00000000
    -0.00015285    -0.02278046     0.02403584
     0.00000000     0.00000000     0.00000000
     0.00000000     0.00000000     0.00000000
     0.00000000     0.00000000     0.00000000
     0.00000000     0.00000000     0.00000000
     0.00000000     0.00000000     0.00000000
     0.00000000     0.00000000     0.00000000
     0.00000000     0.00000000     0.00000000
     0.00000000     0.00000000     0.00000000
    -0.00014874    -0.01666109     0.01923340
     0.00000000     0.00000000     0.00000000
     0.00000000     0.00000000     0.00000000
     0.00000000     0.00000000     0.00000000
     0.00000000     0.00000000     0.00000000
     0.00000000     0.00000000     0.00000000
     0.00000000     0.00000000     0.00000000
     0.00000000     0.00000000     0.00000000
     0.00000000     0.00000000     0.00000000
    -0.00308619    -0.00585548     0.00762191
    -0.03336480    -0.03623712     0.04795945
    -0.07863085    -0.03739890     0.02019691
    -0.11679217    -0.03276378     0.01669257
    -0.15695745    -0.02110496     0.01542854
    -0.20107316    -0.00096796     0.01497473
    -0.24010938     0.05664685     0.02162607
    -0.29960399     0.15256130     0.02563665
    -0.51619922     0.28739089     0.04229326
     0.00000638     0.00422560     0.00822972
     0.00599081     0.02511109     0.05672346
     0.04469421     0.00075805     0.03812512
     0.07804578    -0.00479970     0.02975182
     0.09272135     0.00986033     0.03991587
     0.09390843    -0.00743359    -0.01919635
     0.10352690     0.02289176    -0.00558165
     0.10239268     0.02534287    -0.03903107
    -0.86295329    -0.46761406     0.11313960
    -0.00001294     0.01029792     0.01768725
     0.00000000     0.00000000     0.00000000
     0.00000000     0.00000000     0.00000000
     0.00000000     0.00000000     0.00000000
     0.00000000     0.00000000     0.00000000
     0.00000000     0.00000000     0.00000000
     0.00000000     0.00000000     0.00000000
     0.00000000     0.00000000     0.00000000
     0.00000000     0.00000000     0.00000000
     0.00000993     0.01600457     0.03011003
     0.00000000     0.00000000     0.00000000
     0.00000000     0.00000000     0.00000000
     0.00000000     0.00000000     0.00000000
     0.00000000     0.00000000     0.00000000
     0.00000000     0.00000000     0.00000000
     0.00000000     0.00000000     0.00000000
     0.00000000     0.00000000     0.00000000
     0.00000000     0.00000000     0.00000000
     0.00003056     0.01237693     0.03609206
     0.00000000     0.00000000     0.00000000
     0.00000000     0.00000000     0.00000000
     0.00000000     0.00000000     0.00000000
     0.00000000     0.00000000     0.00000000
     0.00000000     0.00000000     0.00000000
     0.00000000     0.00000000     0.00000000
     0.00000000     0.00000000     0.00000000
     0.00000000     0.00000000     0.00000000
     0.00002985    -0.00643846     0.03728881
     0.00000000     0.00000000     0.00000000
     0.00000000     0.00000000     0.00000000
     0.00000000     0.00000000     0.00000000
     0.00000000     0.00000000     0.00000000
     0.00000000     0.00000000     0.00000000
     0.00000000     0.00000000     0.00000000
     0.00000000     0.00000000     0.00000000
     0.00000000     0.00000000     0.00000000
    -0.00007756    -0.02109744     0.02805237
     0.00000000     0.00000000     0.00000000
     0.00000000     0.00000000     0.00000000
     0.00000000     0.00000000     0.00000000
     0.00000000     0.00000000     0.00000000
     0.00000000     0.00000000     0.00000000
     0.00000000     0.00000000     0.00000000
     0.00000000     0.00000000     0.00000000
     0.37280247    -0.17848824    -0.09985240
    -0.00011497    -0.02867192     0.02796530
     0.00000000     0.00000000     0.00000000
     0.00000000     0.00000000     0.00000000
     0.00000000     0.00000000     0.00000000
     0.00000000     0.00000000     0.00000000
     0.00000000     0.00000000     0.00000000
     0.00000000     0.00000000     0.00000000
     0.00000000     0.00000000     0.00000000
     0.00000000     0.00000000     0.00000000
    -0.00014118    -0.02764241     0.02376265
     0.00000000     0.00000000     0.00000000
     0.00000000     0.00000000     0.00000000
     0.00000000     0.00000000     0.00000000
     0.00000000     0.00000000     0.00000000
     0.00000000     0.00000000     0.00000000
     0.00000000     0.00000000     0.00000000
     0.00000000     0.00000000     0.00000000
     0.00000000     0.00000000     0.00000000
    -0.00012625    -0.01982412     0.02648816
     0.00000000     0.00000000     0.00000000
     0.00000000     0.00000000     0.00000000
     0.00000000     0.00000000     0.00000000
     0.00000000     0.00000000     0.00000000
     0.00000000     0.00000000     0.00000000
     0.00000000     0.00000000     0.00000000
     0.00000000     0.00000000     0.00000000
     0.00000000     0.00000000     0.00000000
    -0.00010818    -0.01358006     0.01904518
     0.00000000     0.00000000     0.00000000
     0.00000000     0.00000000     0.00000000
     0.00000000     0.00000000     0.00000000
     0.00000000     0.00000000     0.00000000
     0.00000000     0.00000000     0.00000000
     0.00000000     0.00000000     0.00000000
     0.00000000     0.00000000     0.00000000
     0.00000000     0.00000000     0.00000000
    -0.00166976    -0.00631688     0.00897836
    -0.01533071    -0.04229885     0.06280412
    -0.02514388    -0.03497130     0.04882550
    -0.08583918    -0.03568895     0.02822955
    -0.12521365    -0.02869791     0.02968599
    -0.18942396    -0.01772206     0.04229542
    -0.22097579     0.03635534     0.05333599
    -0.33963391     0.15596542     0.10329742
    -0.72320266     0.40449754     0.14461066
    -0.00042699     0.00510474     0.00627725
     0.01184111     0.02993247     0.04989957
     0.11819730    -0.01859691     0.05031030
     0.17087402    -0.01578867     0.04396204
     0.16515029    -0.00380995     0.02322765
     0.16436720    -0.00719440    -0.01564776
     0.12921235     0.03168069    -0.00587003
     0.23690025     0.06794250    -0.10415810
    -0.64041726    -0.31191991     0.25614739
    -0.00001697     0.00703083     0.00811692
     0.00000000     0.00000000     0.00000000
     0.00000000     0.00000000     0.00000000
     0.00000000     0.00000000     0.00000000
     0.00000000     0.00000000     0.00000000
     0.00000000     0.00000000     0.00000000
     0.00000000     0.00000000     0.00000000
     0.00000000     0.00000000     0.00000000
     0.00000000     0.00000000     0.00000000
     0.00000576     0.00892203     0.01420659
     0.00000000     0.00000000     0.00000000
     0.00000000     0.00000000     0.00000000
     0.00000000     0.00000000     0.00000000
     0.00000000     0.00000000     0.00000000
     0.00000000     0.00000000     0.00000000
     0.00000000     0.00000000     0.00000000
     0.00000000     0.00000000     0.00000000
     0.00000000     0.00000000     0.00000000
     0.00004161     0.01192785     0.02363682
     0.00000000     0.00000000     0.00000000
     0.00000000     0.00000000     0.00000000
     0.00000000     0.00000000     0.00000000
     0.00000000     0.00000000     0.00000000
     0.00000000     0.00000000     0.00000000
     0.00000000     0.00000000     0.00000000
     0.00000000     0.00000000     0.00000000
     0.00000000     0.00000000     0.00000000
     0.00008959     0.00317700     0.02576408
     0.00000000     0.00000000     0.00000000
     0.00000000     0.00000000     0.00000000
     0.00000000     0.00000000     0.00000000
     0.00000000     0.00000000     0.00000000
     0.00000000     0.00000000     0.00000000
     0.00000000     0.00000000     0.00000000
     0.00000000     0.00000000     0.00000000
     0.00000000     0.00000000     0.00000000
     0.00001790    -0.01422522     0.02526643
     0.00000000     0.00000000     0.00000000
     0.00000000     0.00000000     0.00000000
     0.00000000     0.00000000     0.00000000
     0.00000000     0.00000000     0.00000000
     0.00000000     0.00000000     0.00000000
     0.00000000     0.00000000     0.00000000
     0.00000000     0.00000000     0.00000000
     0.40791921    -0.27836122    -0.27129662
    -0.00009601    -0.02179925     0.02048148
     0.00000000     0.00000000     0.00000000
     0.00000000     0.00000000     0.00000000
     0.00000000     0.00000000     0.00000000
     0.00000000     0.00000000     0.00000000
     0.00000000     0.00000000     0.00000000
     0.00000000     0.00000000     0.00000000
     0.00000000     0.00000000     0.00000000
     0.00000000     0.00000000     0.00000000
    -0.00009840    -0.01713110     0.01923702
     0.00000000     0.00000000     0.00000000
     0.00000000     0.00000000     0.00000000
     0.00000000     0.00000000     0.00000000
     0.00000000     0.00000000     0.00000000
     0.00000000     0.00000000     0.00000000
     0.00000000     0.00000000     0.00000000
     0.00000000     0.00000000     0.00000000
     0.00000000     0.00000000     0.00000000
    -0.00009753    -0.01322323     0.01701665
     0.00000000     0.00000000     0.00000000
     0.00000000     0.00000000     0.00000000
     0.00000000     0.00000000     0.00000000
     0.00000000     0.00000000     0.00000000
     0.00000000     0.00000000     0.00000000
     0.00000000     0.00000000     0.00000000
     0.00000000     0.00000000     0.00000000
     0.00000000     0.00000000     0.00000000
     0.00000285    -0.00231546     0.01833423
     0.00000000     0.00000000     0.00000000
     0.00000000     0.00000000     0.00000000
     0.00000000     0.00000000     0.00000000
     0.00000000     0.00000000     0.00000000
     0.00000000     0.00000000     0.00000000
     0.00000000     0.00000000     0.00000000
     0.00000000     0.00000000     0.00000000
     0.00000000     0.00000000     0.00000000
     0.01020487    -0.00037477     0.01522702
     0.08830871    -0.01116556     0.10773476
     0.06069286    -0.02291819     0.07144171
     0.05615535    -0.03178736     0.06731608
    -0.05646639    -0.04437893     0.05227682
    -0.06259277    -0.04879004     0.06854322
    -0.01148765     0.01065442    -0.01382859
    -0.05129936     0.01989437     0.04351910
    -0.96924373     0.54854337     0.27584361
     0.00000259     0.00302538     0.00306725
     0.00776398     0.01638538     0.02188785
     0.06181035    -0.00993502     0.02307401
     0.08733870    -0.00668135     0.02139968
     0.08254695    -0.00266294     0.00899490
     0.08271489    -0.00396623    -0.00617399
     0.06182188     0.01626251    -0.00319739
     0.11976440     0.03320452    -0.05859853
    -0.29168794    -0.14571179     0.16612997
     0.00084042     0.00570766     0.00531075
     0.02227050     0.03480857     0.04089746
     0.12792176    -0.02326934     0.04310400
     0.17622022    -0.00835386     0.04315859
     0.16879029    -0.00622136     0.01656812
     0.16719495    -0.00448570    -0.00752211
     0.12937534     0.02761464    -0.01432000
     0.23359407     0.07826052    -0.11549562
    -0.50971280    -0.24527869     0.36290991
     0.00311397     0.00414726     0.00564491
     0.03755967     0.02084870     0.03560896
     0.10170363    -0.03555903     0.02541589
     0.11433579     0.01272917     0.03549076
     0.12191836    -0.01251987     0.00737412
     0.11580235     0.02451229     0.01018326
     0.11506102    -0.02021416    -0.03855333
     0.12418348     0.13537910    -0.02465229
     0.15561385     0.20247822    -0.09036890
     0.00502330     0.00510338     0.00749138
     0.04900882     0.02589574     0.04016034
     0.07900525    -0.03527126     0.02010567
     0.08730899     0.01438032     0.02547764
     0.08962157    -0.01867938     0.00343505
     0.09112452     0.02676485     0.00728067
     0.07620988    -0.01763005    -0.02332572
     0.08496958     0.10229382    -0.04610577
     0.17573017    -0.01487460    -0.24402110
     0.00731821     0.00162363     0.00823371
     0.06691120     0.00666668     0.04346599
     0.07061696    -0.02198980     0.02351119
     0.07690919     0.00148039     0.01804886
     0.07778686    -0.01285782     0.00593260
     0.06526553     0.01619064     0.00175316
     0.08866188    -0.01284089    -0.02358729
     0.07998940     0.15860071    -0.05737077
     0.36876839    -0.08971955    -0.56559096
     0.00775284    -0.00457031     0.00838899
     0.07114305    -0.02547773     0.04451371
     0.07584828    -0.00287369     0.02855078
     0.08018446    -0.01817104     0.01858281
     0.06138336     0.00179220     0.00607120
     0.05983302    -0.00635142     0.00008926
     0.00525661     0.02118513    -0.00131751
     0.02668983     0.12055085    -0.03146544
     0.08455813     0.04335328    -0.10205986
     0.00370652    -0.00763088     0.00565992
     0.03436081    -0.04303519     0.02875949
     0.04764561     0.00100486     0.01797835
     0.05753854    -0.03189603     0.01861218
     0.03997022     0.00484204     0.00333504
     0.04450457    -0.03006019     0.00492591
     0.03023969     0.06531419    -0.02011190
     0.04210955    -0.09801585    -0.01799258
     0.10865438     0.32474420    -0.10381492
     0.00402925    -0.00652577     0.00672197
     0.03751767    -0.03965524     0.03778327
     0.04894562    -0.00705266     0.02216861
     0.05137901    -0.04223314     0.02678673
     0.02576161    -0.01218679     0.00726867
     0.03492613    -0.04452780     0.01470030
     0.04965097     0.07311225    -0.03788516
     0.05086398    -0.09206515    -0.01553850
     0.08681952     0.35144827    -0.16148430
     0.00280138    -0.00666588     0.00680716
     0.02755789    -0.04608351     0.04339593
     0.04875051    -0.02727199     0.03590763
     0.04016331    -0.04841926     0.03656244
     0.00886451    -0.04589277     0.02598148
     0.02317426    -0.05623175     0.02924676
     0.08822766     0.04564445    -0.05062599
     0.09864117    -0.10286099    -0.01798577
    -0.24500499     0.28570687     0.09341437
     0.01180150    -0.00125614     0.01399021
     0.10127366    -0.01887620     0.09425084
     0.07566888    -0.03329665     0.06255145
     0.07835648    -0.04196623     0.05627293
    -0.03497586    -0.06386219     0.04546789
    -0.02972163    -0.06265226     0.04861430
     0.03910636     0.01237917    -0.02537510
     0.01649574    -0.01292047     0.02404295
    -1.05090689     0.73173092     0.45892997
     0.00760922     0.00002657     0.00856197
     0.05589909    -0.00516971     0.05523589
     0.03837062    -0.01362077     0.03535944
     0.04086709    -0.01789872     0.03286566
    -0.02112226    -0.02762330     0.02595540
    -0.01904353    -0.02916177     0.03057108
     0.01377511     0.00381584    -0.01145798
     0.00061626    -0.00055651     0.01420160
    -0.50543271     0.31807126     0.18107039
     0.20546151    -0.11128492     0.05231402
    -0.10878048    -0.01328302     0.04476698
    -0.29465201    -0.07873288     0.00268981
    -0.31067229    -0.08209627     0.01408691
    -0.33501280    -0.08999359    -0.00279088
    -0.27216382    -0.07301839    -0.00112970
    -0.24405544    -0.06582994    -0.00534818
    -0.19513351    -0.05254890    -0.00322952
    -0.15445443    -0.04192309    -0.00658952
    -0.11560365    -0.03153269    -0.00683212
    -0.03704421    -0.03381737    -0.00111170
     0.00000000     0.00000000     0.00000000
     0.00000000     0.00000000     0.00000000
     0.00000000     0.00000000     0.00000000
     0.00000000     0.00000000     0.00000000
     0.00000000     0.00000000     0.00000000
     0.00000000     0.00000000     0.00000000
     0.00000000     0.00000000     0.00000000
     0.00000000     0.00000000     0.00000000
     0.00000000     0.00000000     0.00000000
     0.00000000     0.00000000     0.00000000
     0.05041599    -0.18815620    -0.00065349
     0.00000000     0.00000000     0.00000000
     0.00000000     0.00000000     0.00000000
     0.00000000     0.00000000     0.00000000
     0.00000000     0.00000000     0.00000000
     0.00000000     0.00000000     0.00000000
     0.00000000     0.00000000     0.00000000
     0.00000000     0.00000000     0.00000000
     0.00000000     0.00000000     0.00000000
     0.00000000     0.00000000     0.00000000
     0.00000000     0.00000000     0.00000000
     0.06175032    -0.23045490     0.01208426
     0.00000000     0.00000000     0.00000000
     0.00000000     0.00000000     0.00000000
     0.00000000     0.00000000     0.00000000
     0.00000000     0.00000000     0.00000000
     0.00000000     0.00000000     0.00000000
     0.00000000     0.00000000     0.00000000
     0.00000000     0.00000000     0.00000000
     0.00000000     0.00000000     0.00000000
     0.00000000     0.00000000     0.00000000
     0.00000000     0.00000000     0.00000000
     0.02207792    -0.08239585     0.01798195
     0.00000000     0.00000000     0.00000000
     0.00000000     0.00000000     0.00000000
     0.00000000     0.00000000     0.00000000
     0.00000000     0.00000000     0.00000000
     0.00000000     0.00000000     0.00000000
     0.00000000     0.00000000     0.00000000
     0.00000000     0.00000000     0.00000000
     0.00000000     0.00000000     0.00000000
     0.00000000     0.00000000     0.00000000
     0.00000000     0.00000000     0.00000000
     0.00335809    -0.01253294     0.01861803
    -0.68418281     0.48942820     0.02244843
    -0.09692374     0.30831287     0.00319511
     0.55931827     0.15162586    -0.02160276
     0.72500346     0.19425429     0.00014353
     0.65251269     0.17404372     0.00978095
     0.53302120     0.14093364     0.02318539
     0.34316952     0.09034392     0.01974660
     0.19378201     0.05004420     0.02307229
     0.02581297     0.00539341     0.01869634
    -0.04004346    -0.01145418     0.00889268
    -0.03493728    -0.01019706     0.00323247
     0.05741197    -0.10985606     0.17793134
    -0.11171862     0.00080909     0.18064537
    -0.30294592    -0.07987346     0.00341249
    -0.34391290    -0.07912704     0.07225115
    -0.35212561    -0.09691963    -0.01449706
    -0.29686385    -0.07498333     0.02870597
    -0.25400387    -0.07346711    -0.03022572
    -0.20590019    -0.05429233     0.00756569
    -0.16183797    -0.04954777    -0.03432537
    -0.11349659    -0.03442230    -0.02032248
    -0.03659677    -0.03391161    -0.00372167
     0.00000000     0.00000000     0.00000000
     0.00000000     0.00000000     0.00000000
     0.00000000     0.00000000     0.00000000
     0.00000000     0.00000000     0.00000000
     0.00000000     0.00000000     0.00000000
     0.00000000     0.00000000     0.00000000
     0.00000000     0.00000000     0.00000000
     0.00000000     0.00000000     0.00000000
     0.00000000     0.00000000     0.00000000
     0.00000000     0.00000000     0.00000000
     0.05012485    -0.18706717    -0.00518398
     0.00000000     0.00000000     0.00000000
     0.00000000     0.00000000     0.00000000
     0.00000000     0.00000000     0.00000000
     0.00000000     0.00000000     0.00000000
     0.00000000     0.00000000     0.00000000
     0.00000000     0.00000000     0.00000000
     0.00000000     0.00000000     0.00000000
     0.00000000     0.00000000     0.00000000
     0.00000000     0.00000000     0.00000000
     0.00000000     0.00000000     0.00000000
     0.06024966    -0.22485528     0.05405470
     0.00000000     0.00000000     0.00000000
     0.00000000     0.00000000     0.00000000
     0.00000000     0.00000000     0.00000000
     0.00000000     0.00000000     0.00000000
     0.00000000     0.00000000     0.00000000
     0.00000000     0.00000000     0.00000000
     0.00000000     0.00000000     0.00000000
     0.00000000     0.00000000     0.00000000
     0.00000000     0.00000000     0.00000000
     0.00000000     0.00000000     0.00000000
     0.01370386    -0.05114415     0.08057515
     0.00000000     0.00000000     0.00000000
     0.00000000     0.00000000     0.00000000
     0.00000000     0.00000000     0.00000000
     0.00000000     0.00000000     0.00000000
     0.00000000     0.00000000     0.00000000
     0.00000000     0.00000000     0.00000000
     0.00000000     0.00000000     0.00000000
     0.00000000     0.00000000     0.00000000
     0.00000000     0.00000000     0.00000000
     0.00000000     0.00000000     0.00000000
    -0.00135303     0.00504899     0.08307889
    -0.71586201     0.49474646     0.18545312
    -0.10303225     0.28801490     0.14604487
     0.60598657     0.16547599    -0.00700053
     0.72659914     0.18644702     0.04893908
     0.70115737     0.18234095     0.02654267
     0.53835299     0.13021216     0.07436353
     0.37941342     0.09098104     0.05409621
     0.18918613     0.03603362     0.07671909
     0.04810866     0.00009805     0.06589086
    -0.06595088    -0.02441073     0.03710384
    -0.03938876    -0.01002413     0.01432832
    -0.04906252    -0.18719612     0.38093361
    -0.16993719    -0.00240741     0.38885552
    -0.35640979    -0.06340983     0.08570914
    -0.40925935    -0.05658657     0.15327391
    -0.42063607    -0.11483567    -0.00773196
    -0.34341572    -0.07495264     0.05095607
    -0.28876731    -0.09351350    -0.04708330
    -0.22806760    -0.05837521     0.00952199
    -0.16650639    -0.06390375    -0.05585718
    -0.12670589    -0.05074076    -0.04715919
    -0.03767795    -0.03662952    -0.01012395
     0.00000000     0.00000000     0.00000000
     0.00000000     0.00000000     0.00000000
     0.00000000     0.00000000     0.00000000
     0.00000000     0.00000000     0.00000000
     0.00000000     0.00000000     0.00000000
     0.00000000     0.00000000     0.00000000
     0.00000000     0.00000000     0.00000000
     0.00000000     0.00000000     0.00000000
     0.00000000     0.00000000     0.00000000
     0.00000000     0.00000000     0.00000000
     0.05203788    -0.19420625    -0.02411825
     0.00000000     0.00000000     0.00000000
     0.00000000     0.00000000     0.00000000
     0.00000000     0.00000000     0.00000000
     0.00000000     0.00000000     0.00000000
     0.00000000     0.00000000     0.00000000
     0.00000000     0.00000000     0.00000000
     0.00000000     0.00000000     0.00000000
     0.00000000     0.00000000     0.00000000
     0.00000000     0.00000000     0.00000000
     0.00000000     0.00000000     0.00000000
     0.06131931    -0.22884611     0.08252849
     0.00000000     0.00000000     0.00000000
     0.00000000     0.00000000     0.00000000
     0.00000000     0.00000000     0.00000000
     0.00000000     0.00000000     0.00000000
     0.00000000     0.00000000     0.00000000
     0.00000000     0.00000000     0.00000000
     0.00000000     0.00000000     0.00000000
     0.00000000     0.00000000     0.00000000
     0.00000000     0.00000000     0.00000000
     0.00000000     0.00000000     0.00000000
     0.01145350    -0.04274574     0.12262752
     0.00000000     0.00000000     0.00000000
     0.00000000     0.00000000     0.00000000
     0.00000000     0.00000000     0.00000000
     0.00000000     0.00000000     0.00000000
     0.00000000     0.00000000     0.00000000
     0.00000000     0.00000000     0.00000000
     0.00000000     0.00000000     0.00000000
     0.00000000     0.00000000     0.00000000
     0.00000000     0.00000000     0.00000000
     0.00000000     0.00000000     0.00000000
    -0.00248450     0.00927353     0.12473985
    -0.93422209     0.61176777     0.35466489
    -0.09413745     0.28171519     0.23185990
     0.66106036     0.20123263    -0.06395265
     0.90144864     0.21533992     0.07531314
     0.79533171     0.18873893     0.06807214
     0.65114200     0.12788763     0.13090699
     0.43349394     0.07478590     0.11597101
     0.24870061     0.00728408     0.16634036
     0.02714130    -0.04954838     0.16137985
    -0.05436457    -0.03720665     0.06557772
    -0.03687964    -0.01037877     0.02176917
    -0.27367913    -0.28689815     0.83146973
    -0.37027637    -0.08076652     0.52001773
    -0.53332906     0.03744611     0.32757504
    -0.57793643    -0.03115689     0.23106133
    -0.50795289    -0.11122867     0.04329280
    -0.45050262    -0.07629385     0.08350451
    -0.34919813    -0.11467018    -0.04041119
    -0.27292742    -0.06180178     0.02199344
    -0.17442477    -0.07773128    -0.05798350
    -0.11565906    -0.06720329    -0.06701040
    -0.03536273    -0.03621323    -0.01346820
     0.00000000     0.00000000     0.00000000
     0.00000000     0.00000000     0.00000000
     0.00000000     0.00000000     0.00000000
     0.00000000     0.00000000     0.00000000
     0.00000000     0.00000000     0.00000000
     0.00000000     0.00000000     0.00000000
     0.00000000     0.00000000     0.00000000
     0.00000000     0.00000000     0.00000000
     0.00000000     0.00000000     0.00000000
     0.00000000     0.00000000     0.00000000
     0.04743799    -0.17703996    -0.02843768
     0.00000000     0.00000000     0.00000000
     0.00000000     0.00000000     0.00000000
     0.00000000     0.00000000     0.00000000
     0.00000000     0.00000000     0.00000000
     0.00000000     0.00000000     0.00000000
     0.00000000     0.00000000     0.00000000
     0.00000000     0.00000000     0.00000000
     0.00000000     0.00000000     0.00000000
     0.00000000     0.00000000     0.00000000
     0.00000000     0.00000000     0.00000000
     0.05500296    -0.20526922     0.08573172
     0.00000000     0.00000000     0.00000000
     0.00000000     0.00000000     0.00000000
     0.00000000     0.00000000     0.00000000
     0.00000000     0.00000000     0.00000000
     0.00000000     0.00000000     0.00000000
     0.00000000     0.00000000     0.00000000
     0.00000000     0.00000000     0.00000000
     0.00000000     0.00000000     0.00000000
     0.00000000     0.00000000     0.00000000
     0.00000000     0.00000000     0.00000000
     0.00462762    -0.01726898     0.11910851
     0.00000000     0.00000000     0.00000000
     0.00000000     0.00000000     0.00000000
     0.00000000     0.00000000     0.00000000
     0.00000000     0.00000000     0.00000000
     0.00000000     0.00000000     0.00000000
     0.00000000     0.00000000     0.00000000
     0.00000000     0.00000000     0.00000000
     0.00000000     0.00000000     0.00000000
     0.00000000     0.00000000     0.00000000
     0.00000000     0.00000000     0.00000000
    -0.00225929     0.00843357     0.13069973
    -1.23379476     0.76058114     0.54794795
     0.12968740     0.29471884     0.06153162
     1.11940965     0.38638802    -0.16127594
     1.15205660     0.24514226     0.11801541
     1.01346947     0.22014913     0.09101913
     0.71593158     0.07592262     0.21291273
     0.41866477     0.01521888     0.17694981
     0.11887746    -0.13563407     0.30878321
    -0.03842954    -0.13650243     0.23392863
    -0.09816437    -0.07110416     0.08330464
    -0.04058702    -0.01399355     0.02406905
    -0.71282573    -0.04708511     1.95947548
    -0.86175514    -0.44214982     0.67957511
    -1.06236083     0.16338485     0.58186364
    -0.69398666    -0.08717749     0.13274563
    -0.71776031    -0.07686544     0.14840072
    -0.56950310    -0.10148538     0.06799310
    -0.46199176    -0.12671656    -0.00505898
    -0.33853696    -0.07620841     0.01959436
    -0.16704396    -0.08774110    -0.05649939
    -0.13358882    -0.07127044    -0.04707624
    -0.03759190    -0.02310147    -0.00750073
     0.00000000     0.00000000     0.00000000
     0.00000000     0.00000000     0.00000000
     0.00000000     0.00000000     0.00000000
     0.00000000     0.00000000     0.00000000
     0.00000000     0.00000000     0.00000000
     0.00000000     0.00000000     0.00000000
     0.00000000     0.00000000     0.00000000
     0.00000000     0.00000000     0.00000000
     0.00000000     0.00000000     0.00000000
     0.00000000     0.00000000     0.00000000
     0.01979362    -0.07387085    -0.01189973
     0.00000000     0.00000000     0.00000000
     0.00000000     0.00000000     0.00000000
     0.00000000     0.00000000     0.00000000
     0.00000000     0.00000000     0.00000000
     0.00000000     0.00000000     0.00000000
     0.00000000     0.00000000     0.00000000
     0.00000000     0.00000000     0.00000000
     0.00000000     0.00000000     0.00000000
     0.00000000     0.00000000     0.00000000
     0.00000000     0.00000000     0.00000000
     0.02925117    -0.10916513     0.02787973
     0.00000000     0.00000000     0.00000000
     0.00000000     0.00000000     0.00000000
     0.00000000     0.00000000     0.00000000
     0.00000000     0.00000000     0.00000000
     0.00000000     0.00000000     0.00000000
     0.00000000     0.00000000     0.00000000
     0.00000000     0.00000000     0.00000000
     0.00000000     0.00000000     0.00000000
     0.00000000     0.00000000     0.00000000
     0.00000000     0.00000000     0.00000000
     0.02052997    -0.07661794     0.04632474
     0.00000000     0.00000000     0.00000000
     0.00000000     0.00000000     0.00000000
     0.00000000     0.00000000     0.00000000
     0.00000000     0.00000000     0.00000000
     0.00000000     0.00000000     0.00000000
     0.00000000     0.00000000     0.00000000
     0.00000000     0.00000000     0.00000000
     0.00000000     0.00000000     0.00000000
     0.00000000     0.00000000     0.00000000
     0.00000000     0.00000000     0.00000000
     0.01945236    -0.07259637     0.08876111
    -2.01119184     1.31116019     0.77956300
     0.34261423     0.48712536    -0.41345692
     1.14816368     0.28903063     0.01996527
     1.30731367     0.25205292     0.12781492
     0.88303624     0.05774137     0.23015093
     0.26662780    -0.09384838     0.21594855
    -0.17674688    -0.23603380     0.24568204
    -0.22923648    -0.32271831     0.34234222
    -0.16436244    -0.23385306     0.24897400
    -0.09026277    -0.11414139     0.11705928
    -0.03128205    -0.02740463     0.02386065
    -0.55530757    -0.03652390     1.12285795
    -0.55049786    -0.25219427     0.41676502
    -0.65277571     0.15712413     0.27879732
    -0.39495757    -0.04319940     0.05239186
    -0.42060354    -0.01988156     0.07748148
    -0.32444553    -0.05712492     0.02553740
    -0.26561260    -0.06798804     0.00239752
    -0.19123356    -0.04756223     0.00378007
    -0.08985964    -0.05396170    -0.02509951
    -0.07394416    -0.04554197    -0.02130004
    -0.02842233    -0.01273673    -0.00353544
    -1.63480505     0.12039213     2.61088774
    -1.35948030    -0.53664364     0.90155052
    -1.60772680     0.42779268     0.46021356
    -0.99645811    -0.12664914     0.08037434
    -1.06160654    -0.03854806     0.13135793
    -0.81213462    -0.18730604     0.02563369
    -0.66453701    -0.18079755     0.00151297
    -0.45899687    -0.16015099    -0.01091272
    -0.22943090    -0.14795302    -0.04430920
    -0.17211722    -0.12622426    -0.04053694
    -0.05145184    -0.03127770    -0.00601747
    -1.30559649     1.64175744     1.38984448
    -0.69985693    -0.36319596     0.19978840
    -1.03755005     0.17100011     0.08764868
    -0.87611326    -0.27151977    -0.00988382
    -0.91664387    -0.20913001     0.02069187
    -0.72082782    -0.40445736    -0.02875981
    -0.55640384    -0.32572386    -0.01672583
    -0.31304038    -0.30454808    -0.03150395
    -0.22599185    -0.20248669    -0.01763409
    -0.09148878    -0.12029161    -0.01395552
    -0.03923117    -0.03436097     0.00076171
    -1.85227759     2.55596335     0.92554191
    -0.00085964     0.30400040    -0.13076848
    -0.22318880     0.15868199    -0.02571835
    -0.40174686    -0.16770461     0.00311553
    -0.56360933    -0.56266033     0.07138162
    -0.55912460    -0.56927069     0.06697652
    -0.46317795    -0.60907054     0.08258655
    -0.32582424    -0.41969496     0.05750333
    -0.16856874    -0.32708560     0.04916195
    -0.10568810    -0.14044369     0.01912309
    -0.04273043    -0.03363061     0.00633294
    -2.64089651     2.20193887     1.16711049
     0.53331334     0.84148375    -0.52566557
     1.34254768     0.38553388    -0.00312272
     1.56691090     0.20341014     0.11653163
     0.98318105    -0.17776316     0.22575929
     0.17914190    -0.36742549     0.21031625
    -0.38006783    -0.53016152     0.21795466
    -0.36300602    -0.60468483     0.26894260
    -0.22579250    -0.42683246     0.19301911
    -0.11077107    -0.20525530     0.09355176
    -0.04199850    -0.04092201     0.02015769
    -1.14580008     0.81948631     0.46199571
     0.21229713     0.33271526    -0.26235680
     0.62611339     0.15369384     0.01334070
     0.73788093     0.11711863     0.06649022
     0.47956891    -0.01903843     0.12256562
     0.11086049    -0.10289645     0.10943173
    -0.14865390    -0.18271417     0.11925781
    -0.14943436    -0.22900592     0.15813029
    -0.09581579    -0.16071729     0.11319766
    -0.04503277    -0.07859039     0.05576196
    -0.02270043    -0.01727032     0.00964520
    -0.79036543     0.20027963     0.14106509
    -1.25004620     0.33724468    -0.02812937
    -1.21639414     0.32308647     0.03502968
    -1.12492422     0.30321571    -0.02203248
    -0.85574747     0.22863046     0.00813681
    -0.54037212     0.14642777    -0.02009389
    -0.18038610     0.04899395    -0.00809542
    -0.00187445     0.05929041     0.00274855
     0.00000000     0.00000000     0.00000000
     0.00000000     0.00000000     0.00000000
     0.00000000     0.00000000     0.00000000
     0.00000000     0.00000000     0.00000000
     0.00000000     0.00000000     0.00000000
     0.00000000     0.00000000     0.00000000
     0.00000000     0.00000000     0.00000000
     0.00000000     0.00000000     0.00000000
     0.13425288     0.50103301     0.03233107
     0.00000000     0.00000000     0.00000000
     0.00000000     0.00000000     0.00000000
     0.00000000     0.00000000     0.00000000
     0.00000000     0.00000000     0.00000000
     0.00000000     0.00000000     0.00000000
     0.00000000     0.00000000     0.00000000
     0.00000000     0.00000000     0.00000000
     0.00000000     0.00000000     0.00000000
     0.23852984     0.89021147     0.06422831
     0.00000000     0.00000000     0.00000000
     0.00000000     0.00000000     0.00000000
     0.00000000     0.00000000     0.00000000
     0.00000000     0.00000000     0.00000000
     0.00000000     0.00000000     0.00000000
     0.00000000     0.00000000     0.00000000
     0.00000000     0.00000000     0.00000000
     0.00000000     0.00000000     0.00000000
     0.19030158     0.71022505     0.07007123
     0.00000000     0.00000000     0.00000000
     0.00000000     0.00000000     0.00000000
     0.00000000     0.00000000     0.00000000
     0.00000000     0.00000000     0.00000000
     0.00000000     0.00000000     0.00000000
     0.00000000     0.00000000     0.00000000
     0.00000000     0.00000000     0.00000000
     0.00000000     0.00000000     0.00000000
     0.07240665     0.27022194     0.05780008
     0.01634407    -0.30185291    -0.11933246
     2.12945542    -0.57492470    -0.05333905
     2.55462345    -0.68359779     0.01108296
     2.33701505    -0.62299048     0.03934703
     1.79545084    -0.47802584     0.03774061
     1.31655458    -0.35004773     0.03346205
     0.79548114    -0.21038942     0.03382054
     0.36056628    -0.09254198     0.04995853
     0.04465845     0.01674778     0.01322234
     0.15681186    -0.10555073     0.18796613
    -0.98387237     0.16473084     0.55414648
    -1.31321384     0.36736891    -0.09151018
    -1.26605644     0.30910150     0.17378323
    -1.21551094     0.32882065    -0.02109146
    -0.91998374     0.23222795     0.09184825
    -0.58499436     0.15664574     0.00170570
    -0.22397968     0.05603131     0.03081125
    -0.00862043     0.05471961     0.01875758
     0.00000000     0.00000000     0.00000000
     0.00000000     0.00000000     0.00000000
     0.00000000     0.00000000     0.00000000
     0.00000000     0.00000000     0.00000000
     0.00000000     0.00000000     0.00000000
     0.00000000     0.00000000     0.00000000
     0.00000000     0.00000000     0.00000000
     0.00000000     0.00000000     0.00000000
     0.12340189     0.46053760     0.13796530
     0.00000000     0.00000000     0.00000000
     0.00000000     0.00000000     0.00000000
     0.00000000     0.00000000     0.00000000
     0.00000000     0.00000000     0.00000000
     0.00000000     0.00000000     0.00000000
     0.00000000     0.00000000     0.00000000
     0.00000000     0.00000000     0.00000000
     0.00000000     0.00000000     0.00000000
     0.23270150     0.86845235     0.29944845
     0.00000000     0.00000000     0.00000000
     0.00000000     0.00000000     0.00000000
     0.00000000     0.00000000     0.00000000
     0.00000000     0.00000000     0.00000000
     0.00000000     0.00000000     0.00000000
     0.00000000     0.00000000     0.00000000
     0.00000000     0.00000000     0.00000000
     0.00000000     0.00000000     0.00000000
     0.18420147     0.68745330     0.31823538
     0.00000000     0.00000000     0.00000000
     0.00000000     0.00000000     0.00000000
     0.00000000     0.00000000     0.00000000
     0.00000000     0.00000000     0.00000000
     0.00000000     0.00000000     0.00000000
     0.00000000     0.00000000     0.00000000
     0.00000000     0.00000000     0.00000000
     0.00000000     0.00000000     0.00000000
     0.07194583     0.26850264     0.26346668
    -0.03593697    -0.40171375    -0.32102186
     2.19899898    -0.60063529    -0.04290877
     2.65360405    -0.68842555     0.12310109
     2.34675619    -0.59919807     0.15842677
     1.83936139    -0.47185558     0.10743818
     1.25714795    -0.31803087     0.09683266
     0.80871173    -0.19705436     0.10123681
     0.27322745    -0.03635500     0.19945509
     0.03223860     0.02446178     0.05727261
    -0.62627045    -0.00261236     0.60494103
    -1.34546840     0.11836472     0.71985839
    -1.50463514     0.38107454     0.04564700
    -1.47261964     0.33690440     0.17672643
    -1.46418334     0.34610897     0.12437383
    -1.13803859     0.28827940     0.05769538
    -0.70948128     0.13867847     0.14252926
    -0.39087529     0.10832538    -0.00289070
    -0.03040180     0.06019414     0.00935400
     0.00000000     0.00000000     0.00000000
     0.00000000     0.00000000     0.00000000
     0.00000000     0.00000000     0.00000000
     0.00000000     0.00000000     0.00000000
     0.00000000     0.00000000     0.00000000
     0.00000000     0.00000000     0.00000000
     0.00000000     0.00000000     0.00000000
     0.00000000     0.00000000     0.00000000
     0.11584248     0.43231848     0.15254142
     0.00000000     0.00000000     0.00000000
     0.00000000     0.00000000     0.00000000
     0.00000000     0.00000000     0.00000000
     0.00000000     0.00000000     0.00000000
     0.00000000     0.00000000     0.00000000
     0.00000000     0.00000000     0.00000000
     0.00000000     0.00000000     0.00000000
     0.00000000     0.00000000     0.00000000
     0.20440140     0.76281836     0.52936448
     0.00000000     0.00000000     0.00000000
     0.00000000     0.00000000     0.00000000
     0.00000000     0.00000000     0.00000000
     0.00000000     0.00000000     0.00000000
     0.00000000     0.00000000     0.00000000
     0.00000000     0.00000000     0.00000000
     0.00000000     0.00000000     0.00000000
     0.00000000     0.00000000     0.00000000
     0.16396941     0.61193509     0.50427689
     0.00000000     0.00000000     0.00000000
     0.00000000     0.00000000     0.00000000
     0.00000000     0.00000000     0.00000000
     0.00000000     0.00000000     0.00000000
     0.00000000     0.00000000     0.00000000
     0.00000000     0.00000000     0.00000000
     0.00000000     0.00000000     0.00000000
     0.00000000     0.00000000     0.00000000
     0.07863039     0.29345323     0.43287886
    -0.28870279    -0.69674713    -0.62547900
     2.59497439    -0.74151221    -0.12210894
     2.92704390    -0.66805536     0.32707508
     2.52922014    -0.56692290     0.31504670
     1.88973791    -0.42509080     0.22794334
     1.29637779    -0.27977129     0.18950587
     0.68898812    -0.10614629     0.22118595
     0.31134447     0.04825296     0.37758308
     0.04109847     0.03912277     0.10041975
    -1.50230153     0.04303506     1.08428258
    -1.81631217     0.22707668     0.51145520
    -1.82710223     0.17596156     0.55599170
    -1.96566826     0.51806450     0.02986311
    -1.90843515     0.33751932     0.31395153
    -1.51854868     0.39401486     0.03018067
    -1.07433832     0.08959791     0.36258539
    -0.55114228     0.21489119    -0.11870507
    -0.04477492     0.08279811    -0.02084334
     0.00000000     0.00000000     0.00000000
     0.00000000     0.00000000     0.00000000
     0.00000000     0.00000000     0.00000000
     0.00000000     0.00000000     0.00000000
     0.00000000     0.00000000     0.00000000
     0.00000000     0.00000000     0.00000000
     0.00000000     0.00000000     0.00000000
     0.00000000     0.00000000     0.00000000
     0.12494875     0.46631942     0.07471653
     0.00000000     0.00000000     0.00000000
     0.00000000     0.00000000     0.00000000
     0.00000000     0.00000000     0.00000000
     0.00000000     0.00000000     0.00000000
     0.00000000     0.00000000     0.00000000
     0.00000000     0.00000000     0.00000000
     0.00000000     0.00000000     0.00000000
     0.00000000     0.00000000     0.00000000
     0.16773747     0.62599307     0.46874687
     0.00000000     0.00000000     0.00000000
     0.00000000     0.00000000     0.00000000
     0.00000000     0.00000000     0.00000000
     0.00000000     0.00000000     0.00000000
     0.00000000     0.00000000     0.00000000
     0.00000000     0.00000000     0.00000000
     0.00000000     0.00000000     0.00000000
     0.00000000     0.00000000     0.00000000
     0.11000753     0.41054685     0.42672600
     0.00000000     0.00000000     0.00000000
     0.00000000     0.00000000     0.00000000
     0.00000000     0.00000000     0.00000000
     0.00000000     0.00000000     0.00000000
     0.00000000     0.00000000     0.00000000
     0.00000000     0.00000000     0.00000000
     0.00000000     0.00000000     0.00000000
     0.00000000     0.00000000     0.00000000
     0.08042966     0.30017207     0.43323634
    -0.55278174    -1.26853003    -1.09664759
     3.41933234    -1.11130585    -0.35636497
     3.61618816    -0.71173071     0.47540219
     2.82217225    -0.49880315     0.47437877
     2.08473370    -0.36092291     0.36181515
     1.11330267    -0.13752333     0.29513089
     0.51123916     0.07395262     0.38728332
     0.10369101     0.24584498     0.50938542
     0.01640798     0.06769757     0.11701094
    -2.14024450    -0.34668902     1.67023462
    -2.46749034     0.83095597    -0.19831292
    -2.30857842    -0.25789030     1.13100516
    -2.67028087     0.94419552    -0.28852677
    -2.46250639     0.27835488     0.49370325
    -2.19261305     0.61864807    -0.03704506
    -1.43483076     0.06054862     0.42305602
    -1.01702921     0.39234911    -0.15561210
    -0.11065941     0.08347987    -0.03345120
     0.00000000     0.00000000     0.00000000
     0.00000000     0.00000000     0.00000000
     0.00000000     0.00000000     0.00000000
     0.00000000     0.00000000     0.00000000
     0.00000000     0.00000000     0.00000000
     0.00000000     0.00000000     0.00000000
     0.00000000     0.00000000     0.00000000
     0.00000000     0.00000000     0.00000000
     0.06683953     0.24945418    -0.00436986
     0.00000000     0.00000000     0.00000000
     0.00000000     0.00000000     0.00000000
     0.00000000     0.00000000     0.00000000
     0.00000000     0.00000000     0.00000000
     0.00000000     0.00000000     0.00000000
     0.00000000     0.00000000     0.00000000
     0.00000000     0.00000000     0.00000000
     0.00000000     0.00000000     0.00000000
     0.08594296     0.32075210     0.18313565
     0.00000000     0.00000000     0.00000000
     0.00000000     0.00000000     0.00000000
     0.00000000     0.00000000     0.00000000
     0.00000000     0.00000000     0.00000000
     0.00000000     0.00000000     0.00000000
     0.00000000     0.00000000     0.00000000
     0.00000000     0.00000000     0.00000000
     0.00000000     0.00000000     0.00000000
     0.05168889     0.19290641     0.17217402
     0.00000000     0.00000000     0.00000000
     0.00000000     0.00000000     0.00000000
     0.00000000     0.00000000     0.00000000
     0.00000000     0.00000000     0.00000000
     0.00000000     0.00000000     0.00000000
     0.00000000     0.00000000     0.00000000
     0.00000000     0.00000000     0.00000000
     0.00000000     0.00000000     0.00000000
     0.05385744     0.20099825     0.22193070
    -0.62456409    -2.10122613    -1.73736424
     4.85915617    -1.66266831    -0.47298701
     3.99969812    -0.78940494     0.37465392
     2.93111018    -0.38422174     0.52332778
     1.46220772    -0.06650470     0.42521245
     0.31828858     0.17955647     0.34509843
    -0.35600525     0.48157815     0.50389116
    -0.15708638     0.39123716     0.46010782
    -0.00791603     0.07036068     0.08276173
    -1.29838478    -0.56079302     0.88118870
    -1.39207331     0.60982958    -0.19167464
    -1.35742878    -0.35726317     0.59775492
    -1.50988604     0.62771974    -0.18294346
    -1.42198468     0.06757571     0.25932586
    -1.25732493     0.39125714    -0.04254836
    -0.83290607    -0.02332531     0.20498279
    -0.59472748     0.26187616    -0.08410825
    -0.09084214     0.05401901    -0.02152588
    -3.66354824    -2.58483559     2.25983325
    -3.28138991     1.75178598    -0.42376236
    -3.46272624    -1.06361485     1.05394944
    -3.57454111     1.74276765    -0.38341773
    -3.50656548     0.06555341     0.46250997
    -2.98969177     1.08222373    -0.12570461
    -2.09117676    -0.15720325     0.37139819
    -1.31538532     0.67824352    -0.16535766
    -0.14278756     0.12676372    -0.03221479
    -1.86838943    -4.44577324     0.81152733
    -1.74892957     1.37232845    -0.17017500
    -2.64661007    -0.02735834     0.15436028
    -2.03629260     1.60502232    -0.17464783
    -2.35868740     0.43583463     0.06068778
    -1.73526762     1.02586483    -0.08930436
    -1.60579706    -0.05382641     0.10177957
    -0.20825168     0.37245571    -0.04430791
     0.00699170     0.08957716     0.00942928
    -1.54593892    -5.46968513    -0.65514953
     0.93989670    -0.42382963    -0.04602277
     0.66931396     0.57254648     0.13415622
    -0.46897676     0.93897352     0.11902162
    -0.97295696     1.10631906     0.14539633
    -1.29996128     0.84271030     0.07642470
    -1.01404188     0.59756043     0.06803661
    -0.46847219     0.44898682     0.05676035
    -0.04336331     0.07312574     0.02371456
    -0.84154339    -4.69369124    -1.78699441
     6.29333265    -2.24920370    -0.31134867
     5.03399900    -0.77313707     0.28992288
     3.56923135    -0.02862087     0.47969748
     1.54698353     0.32444669     0.37481940
     0.08674222     0.58951316     0.31743832
    -0.70130935     0.93581615     0.40045460
    -0.27514627     0.70487931     0.33900431
    -0.01901838     0.10443174     0.06378089
    -0.35792825    -1.55855587    -0.91211273
     2.79944605    -0.98994459    -0.20326542
     2.23284327    -0.40933851     0.15836148
     1.63806146    -0.12356498     0.26122262
     0.75223643     0.04136157     0.20251362
     0.11276105     0.17870088     0.17308334
    -0.26494361     0.35521721     0.23779889
    -0.09746707     0.26875886     0.20328819
    -0.01011795     0.04474622     0.03576075
     0.00000000     0.00000000     0.00000000
     0.00000000     0.00000000     0.00000000
     0.00000000     0.00000000     0.00000000
     0.00000000     0.00000000     0.00000000
     0.00000000     0.00000000     0.00000000
     0.00000000     0.00000000     0.00000000
     0.00000000     0.00000000     0.00000000
     0.00000000     0.00000000     0.00000000
     0.00000000     0.00000000     0.00000000
     0.00000000     0.00000000     0.00000000
     0.00000000     0.00000000     0.00000000
     0.00000000     0.00000000     0.00000000
     0.00000000     0.00000000     0.00000000
     0.00000000     0.00000000     0.00000000
     0.00000000     0.00000000     0.00000000
     0.00000000     0.00000000     0.00000000
     0.00000000     0.00000000     0.00000000
     0.00000000     0.00000000     0.00000000
     0.00000000     0.00000000     0.00000000
     0.00000000     0.00000000     0.00000000
     0.00000000     0.00000000     0.00000000
     0.00000000     0.00000000     0.00000000
     0.00000000     0.00000000     0.00000000
     0.00000000     0.00000000     0.00000000
     0.00000000     0.00000000     0.00000000
     0.00000000     0.00000000     0.00000000
     0.00000000     0.00000000     0.00000000
     0.00000000     0.00000000     0.00000000
     0.00000000     0.00000000     0.00000000
     0.00000000     0.00000000     0.00000000
     0.00000000     0.00000000     0.00000000
     0.00000000     0.00000000     0.00000000
     0.00000000     0.00000000     0.00000000
     0.00000000     0.00000000     0.00000000
     0.00000000     0.00000000     0.00000000
     0.00000000     0.00000000     0.00000000
     0.00000000     0.00000000     0.00000000
     0.00000000     0.00000000     0.00000000
     0.00000000     0.00000000     0.00000000
     0.00000000     0.00000000     0.00000000
     0.00000000     0.00000000     0.00000000
     0.00000000     0.00000000     0.00000000
     0.00000000     0.00000000     0.00000000
     0.00000000     0.00000000     0.00000000
     0.00000000     0.00000000     0.00000000
     0.00000000     0.00000000     0.00000000
     0.00000000     0.00000000     0.00000000
     0.00000000     0.00000000     0.00000000
     0.00000000     0.00000000     0.00000000
     0.00000000     0.00000000     0.00000000
     0.00000000     0.00000000     0.00000000
     0.00000000     0.00000000     0.00000000
     0.00000000     0.00000000     0.00000000
     0.00000000     0.00000000     0.00000000
     0.00000000     0.00000000     0.00000000
     0.00000000     0.00000000     0.00000000
     0.00000000     0.00000000     0.00000000
     0.00000000     0.00000000     0.00000000
     0.00000000     0.00000000     0.00000000
     0.00000000     0.00000000     0.00000000
     0.00000000     0.00000000     0.00000000
     0.00000000     0.00000000     0.00000000
     0.00000000     0.00000000     0.00000000
     0.00000000     0.00000000     0.00000000
     0.00000000     0.00000000     0.00000000
     0.00000000     0.00000000     0.00000000
     0.00000000     0.00000000     0.00000000
     0.00000000     0.00000000     0.00000000
     0.00000000     0.00000000     0.00000000
     0.00000000     0.00000000     0.00000000
     0.00000000     0.00000000     0.00000000
     0.00000000     0.00000000     0.00000000
     0.00000000     0.00000000     0.00000000
     0.00000000     0.00000000     0.00000000
     0.00000000     0.00000000     0.00000000
     0.00000000     0.00000000     0.00000000
     0.00000000     0.00000000     0.00000000
     0.00000000     0.00000000     0.00000000
     0.00000000     0.00000000     0.00000000
     0.00000000     0.00000000     0.00000000
     0.00000000     0.00000000     0.00000000
     0.00000000     0.00000000     0.00000000
     0.00000000     0.00000000     0.00000000
     0.00000000     0.00000000     0.00000000
     0.00000000     0.00000000     0.00000000
     0.00000000     0.00000000     0.00000000
     0.00000000     0.00000000     0.00000000
     0.00000000     0.00000000     0.00000000
     0.00000000     0.00000000     0.00000000
     0.00000000     0.00000000     0.00000000
     0.00000000     0.00000000     0.00000000
     0.00000000     0.00000000     0.00000000
     0.00000000     0.00000000     0.00000000
     0.00000000     0.00000000     0.00000000
     0.00000000     0.00000000     0.00000000
     0.00000000     0.00000000     0.00000000
     0.00000000     0.00000000     0.00000000
     0.00000000     0.00000000     0.00000000
     0.00000000     0.00000000     0.00000000
     0.00000000     0.00000000     0.00000000
     0.00000000     0.00000000     0.00000000
     0.00000000     0.00000000     0.00000000
     0.00000000     0.00000000     0.00000000
     0.00000000     0.00000000     0.00000000
     0.00000000     0.00000000     0.00000000
     0.00000000     0.00000000     0.00000000
     0.00000000     0.00000000     0.00000000
     0.00000000     0.00000000     0.00000000
     0.00000000     0.00000000     0.00000000
     0.00000000     0.00000000     0.00000000
     0.00000000     0.00000000     0.00000000
     0.00000000     0.00000000     0.00000000
     0.00000000     0.00000000     0.00000000
     0.00000000     0.00000000     0.00000000
     0.00000000     0.00000000     0.00000000
     0.00000000     0.00000000     0.00000000
     0.00000000     0.00000000     0.00000000
     0.00000000     0.00000000     0.00000000
     0.00000000     0.00000000     0.00000000
     0.00000000     0.00000000     0.00000000
     0.00000000     0.00000000     0.00000000
     0.00000000     0.00000000     0.00000000
     0.00000000     0.00000000     0.00000000
     0.00000000     0.00000000     0.00000000
     0.00000000     0.00000000     0.00000000
     0.00000000     0.00000000     0.00000000
     0.00000000     0.00000000     0.00000000
     0.00000000     0.00000000     0.00000000
     0.00000000     0.00000000     0.00000000
     0.00000000     0.00000000     0.00000000
     0.00000000     0.00000000     0.00000000
     0.00000000     0.00000000     0.00000000
     0.00000000     0.00000000     0.00000000
     0.00000000     0.00000000     0.00000000
     0.00000000     0.00000000     0.00000000
     0.00000000     0.00000000     0.00000000
     0.00000000     0.00000000     0.00000000
     0.00000000     0.00000000     0.00000000
     0.00000000     0.00000000     0.00000000
     0.00000000     0.00000000     0.00000000
     0.00000000     0.00000000     0.00000000
     0.00000000     0.00000000     0.00000000
     0.00000000     0.00000000     0.00000000
     0.00000000     0.00000000     0.00000000
     0.00000000     0.00000000     0.00000000
     0.00000000     0.00000000     0.00000000
     0.00000000     0.00000000     0.00000000
     0.00000000     0.00000000     0.00000000
     0.00000000     0.00000000     0.00000000
     0.00000000     0.00000000     0.00000000
     0.00000000     0.00000000     0.00000000
     0.00000000     0.00000000     0.00000000
     0.00000000     0.00000000     0.00000000
     0.00000000     0.00000000     0.00000000
     0.00000000     0.00000000     0.00000000
     0.00000000     0.00000000     0.00000000
     0.00000000     0.00000000     0.00000000
     0.00000000     0.00000000     0.00000000
     0.00000000     0.00000000     0.00000000
     0.00000000     0.00000000     0.00000000
     0.00000000     0.00000000     0.00000000
     0.00000000     0.00000000     0.00000000
     0.00000000     0.00000000     0.00000000
     0.00000000     0.00000000     0.00000000
     0.00000000     0.00000000     0.00000000
     0.00000000     0.00000000     0.00000000
     0.00000000     0.00000000     0.00000000
     0.00000000     0.00000000     0.00000000
     0.00000000     0.00000000     0.00000000
     0.00000000     0.00000000     0.00000000
     0.00000000     0.00000000     0.00000000
     0.00000000     0.00000000     0.00000000
     0.00000000     0.00000000     0.00000000
     0.00000000     0.00000000     0.00000000
     0.00000000     0.00000000     0.00000000
     0.00000000     0.00000000     0.00000000
     0.00000000     0.00000000     0.00000000
     0.00000000     0.00000000     0.00000000
     0.00000000     0.00000000     0.00000000
     0.00000000     0.00000000     0.00000000
     0.00000000     0.00000000     0.00000000
     0.00000000     0.00000000     0.00000000
     0.00000000     0.00000000     0.00000000
     0.00000000     0.00000000     0.00000000
     0.00000000     0.00000000     0.00000000
     0.00000000     0.00000000     0.00000000
     0.00000000     0.00000000     0.00000000
     0.00000000     0.00000000     0.00000000
     0.00000000     0.00000000     0.00000000
     0.00000000     0.00000000     0.00000000
     0.00000000     0.00000000     0.00000000
     0.00000000     0.00000000     0.00000000
     0.00000000     0.00000000     0.00000000
     0.00000000     0.00000000     0.00000000
     0.00000000     0.00000000     0.00000000
     0.00000000     0.00000000     0.00000000
     0.00000000     0.00000000     0.00000000
     0.00000000     0.00000000     0.00000000
     0.00000000     0.00000000     0.00000000
     0.00000000     0.00000000     0.00000000
     0.00000000     0.00000000     0.00000000
     0.00000000     0.00000000     0.00000000
     0.00000000     0.00000000     0.00000000
     0.00000000     0.00000000     0.00000000
     0.00000000     0.00000000     0.00000000
     0.00000000     0.00000000     0.00000000
     0.00000000     0.00000000     0.00000000
     0.00000000     0.00000000     0.00000000
     0.00000000     0.00000000     0.00000000
     0.00000000     0.00000000     0.00000000
     0.00000000     0.00000000     0.00000000
     0.00000000     0.00000000     0.00000000
     0.00000000     0.00000000     0.00000000
     0.00000000     0.00000000     0.00000000
     0.00000000     0.00000000     0.00000000
     0.00000000     0.00000000     0.00000000
     0.00000000     0.00000000     0.00000000
     0.00000000     0.00000000     0.00000000
     0.00000000     0.00000000     0.00000000
     0.00000000     0.00000000     0.00000000
     0.00000000     0.00000000     0.00000000
     0.00000000     0.00000000     0.00000000
     0.00000000     0.00000000     0.00000000
     0.00000000     0.00000000     0.00000000
     0.00000000     0.00000000     0.00000000
     0.00000000     0.00000000     0.00000000
     0.00000000     0.00000000     0.00000000
     0.00000000     0.00000000     0.00000000
     0.00000000     0.00000000     0.00000000
     0.00000000     0.00000000     0.00000000
     0.00000000     0.00000000     0.00000000
     0.00000000     0.00000000     0.00000000
     0.00000000     0.00000000     0.00000000
     0.00000000     0.00000000     0.00000000
     0.00000000     0.00000000     0.00000000
     0.00000000     0.00000000     0.00000000
     0.00000000     0.00000000     0.00000000
     0.00000000     0.00000000     0.00000000
     0.00000000     0.00000000     0.00000000
     0.00000000     0.00000000     0.00000000
     0.00000000     0.00000000     0.00000000
     0.00000000     0.00000000     0.00000000
     0.00000000     0.00000000     0.00000000
     0.00000000     0.00000000     0.00000000
     0.00000000     0.00000000     0.00000000
     0.00000000     0.00000000     0.00000000
     0.00000000     0.00000000     0.00000000
     0.00000000     0.00000000     0.00000000
     0.00000000     0.00000000     0.00000000
     0.00000000     0.00000000     0.00000000
     0.00000000     0.00000000     0.00000000
     0.00000000     0.00000000     0.00000000
     0.00000000     0.00000000     0.00000000
     0.00000000     0.00000000     0.00000000
     0.00000000     0.00000000     0.00000000
     0.00000000     0.00000000     0.00000000
     0.00000000     0.00000000     0.00000000
     0.00000000     0.00000000     0.00000000
     0.00000000     0.00000000     0.00000000
     0.00000000     0.00000000     0.00000000
     0.00000000     0.00000000     0.00000000
     0.00000000     0.00000000     0.00000000
     0.00000000     0.00000000     0.00000000
     0.00000000     0.00000000     0.00000000
     0.00000000     0.00000000     0.00000000
     0.00000000     0.00000000     0.00000000
     0.00000000     0.00000000     0.00000000
     0.00000000     0.00000000     0.00000000
     0.00000000     0.00000000     0.00000000
     0.00000000     0.00000000     0.00000000
     0.00000000     0.00000000     0.00000000
     0.00000000     0.00000000     0.00000000
     0.00000000     0.00000000     0.00000000
     0.00000000     0.00000000     0.00000000
     0.00000000     0.00000000     0.00000000
     0.00000000     0.00000000     0.00000000
SCALARS Pressures float
LOOKUP_TABLE default
  2066.32473207
  4117.41387153
  4095.91356134
  4093.64572197
  4089.34747130
  4083.60680676
  4076.93959093
  4092.99988937
  5536.14301046
  4150.37655854
  8246.00349984
  8190.86648962
  8187.38569421
  8178.20257333
  8164.30290887
  8158.79066229
  8177.96218395
  8209.71062088
  4159.45244598
  8253.39371380
  8189.32174465
  8186.08328676
  8175.65651307
  8162.65326330
  8157.44275379
  8163.29521465
  8104.49908066
  4156.89257240
  8250.53963971
  8187.57605505
  8182.51694268
  8173.11616522
  8165.37608206
  8158.79640007
  8161.92029572
  8128.26397324
  4157.34598732
  8252.00219393
  8186.75687528
  8178.85919577
  8171.41076344
  8167.50867164
  8169.25892782
  8191.77240753
  8169.83935165
  4158.12538958
  8254.79170895
  8187.79810166
  8177.85785389
  8170.46607900
  8167.80100560
  8175.29972196
  8211.78332901
  8187.10633326
  4158.38809478
  8256.13397646
  8189.77950883
  8178.18696320
  8171.31774044
  8165.82355881
  8162.82774448
  8166.71729612
  8181.36560869
  4157.58830059
  8256.59981585
  8191.33002794
  8179.27066517
  8170.99740195
  8164.79192901
  8150.45322204
  8135.64574766
  8153.09606171
  4157.85460925
  8256.96584684
  8194.09046620
  8183.23697901
  8174.10304487
  8169.63398075
  8158.11736345
  8148.13180065
  8154.63274193
  4147.45439386
  8248.21738428
  8196.91703027
  8188.04177034
  8181.59697282
  8183.27558661
  8181.94418907
  8179.98581982
  8207.12489700
  2071.07134557
  4120.24244606
  4098.62554824
  4095.06077957
  4092.54365921
  4096.32123089
  4100.69781494
  4104.38076782
  5497.14379374
  2067.22469747
  4119.11319786
  4096.69299716
  4093.29011005
  4088.55442184
  4080.92077160
  4076.51906106
  4091.75005051
  5537.14802297
  4145.22941220
  8243.20057677
  8192.80684213
  8186.59795165
  8176.64634864
  8160.26568542
  8155.19285199
  8174.50387761
  8209.18375969
  4149.51501250
  8246.85107999
  8192.08952568
  8185.31543845
  8174.83088242
  8160.82691272
  8154.87842128
  8159.07540607
  8099.16317940
  4149.47872937
  8246.65060830
  8190.58810586
  8182.03733250
  8173.18003777
  8163.96411499
  8156.71865460
  8156.51241207
  8124.64625359
  4150.43581736
  8248.02362609
  8189.10651904
  8178.47579655
  8171.89689520
  8165.78350484
  8166.00585008
  8188.29524517
  8173.59289932
  4150.94828284
  8250.22306001
  8189.25210679
  8177.15243959
  8170.60509348
  8166.52261770
  8172.95181084
  8208.97828770
  8187.07618809
  4150.48289889
  8251.05206454
  8191.12921688
  8177.39351258
  8170.79595965
  8164.89023526
  8160.90414353
  8164.96315718
  8179.47998238
  4149.09380364
  8251.59228176
  8193.51844141
  8178.77110115
  8170.56126809
  8163.98957618
  8150.67440720
  8133.50971079
  8150.02697659
  4148.84827423
  8251.50624982
  8196.28290132
  8182.37522304
  8173.49562597
  8167.97023439
  8157.46842647
  8143.45048618
  8146.47224617
  4143.48107484
  8246.56122699
  8198.08846837
  8186.98949611
  8180.56715375
  8180.48576510
  8177.92359304
  8172.58872700
  8199.61815548
  2071.72460243
  4121.68153554
  4098.95280448
  4094.69824034
  4091.98611665
  4094.83610058
  4097.68541527
  4098.55867004
  5491.97601191
  2067.08220121
  4118.93602046
  4097.84205782
  4092.92046008
  4087.20633897
  4078.33177185
  4075.12632033
  4083.48244783
  5534.39935525
  4138.64827845
  8239.42095789
  8195.87233296
  8185.78451133
  8174.17361555
  8157.71589100
  8153.96632192
  8169.89953539
  8209.37622046
  4139.33787322
  8240.84417850
  8196.07010630
  8184.41736761
  8173.68367285
  8160.27316234
  8156.41100404
  8164.25375748
  8101.27707386
  4140.46339953
  8242.26374680
  8194.56289575
  8181.45502469
  8173.14716142
  8162.60884187
  8156.25835702
  8155.47739983
  8128.85902977
  4142.42358696
  8243.81772864
  8192.52723429
  8178.54204139
  8172.16242588
  8165.06204939
  8162.86091685
  8181.36746240
  8185.80811691
  4142.98287451
  8244.65722263
  8191.85522211
  8177.12366688
  8170.72662485
  8166.54629636
  8169.55293667
  8200.41720653
  8189.41236329
  4142.84957618
  8244.92399627
  8193.06292757
  8177.04111165
  8169.85093978
  8164.36182494
  8159.94933523
  8163.99564004
  8175.07235932
  4141.63808525
  8245.07256627
  8195.25852957
  8178.65212256
  8169.35741290
  8162.32159825
  8151.91426553
  8130.45196891
  8142.31641006
  4141.43726790
  8245.03645515
  8197.44807053
  8181.86444336
  8171.94103020
  8164.20710313
  8155.35748208
  8133.29005384
  8129.59603882
  4139.82704583
  8243.50041860
  8198.45159432
  8185.51653451
  8177.78259262
  8173.94097552
  8167.80484796
  8157.00331926
  8184.76216698
  2070.42917809
  4121.35653317
  4099.05017820
  4093.74643588
  4090.34299967
  4090.89769134
  4089.79167056
  4086.86006832
  5482.89744695
  2064.09762105
  4117.61277679
  4098.76017326
  4092.80102446
  4086.70648351
  4080.26619923
  4075.75730276
  4079.49653935
  5520.32570108
  4136.15483072
  8238.39413044
  8197.37245336
  8185.46306657
  8173.77790572
  8161.92382041
  8157.18647948
  8170.18124700
  8213.80209994
  4137.96850818
  8240.82452530
  8197.12303153
  8183.87926450
  8173.89697206
  8163.56551555
  8160.65658465
  8178.01212859
  8124.78101373
  4139.06719393
  8241.81240904
  8195.25439268
  8181.42264563
  8173.19717193
  8164.09572059
  8161.52610755
  8166.75122619
  8144.60554051
  4141.42975348
  8243.02273595
  8193.64780247
  8179.55775166
  8172.41251945
  8166.57511562
  8166.33979309
  8179.16756284
  8196.58266354
  4141.11109072
  8243.09524995
  8193.39156175
  8178.44970238
  8171.22952831
  8168.62279117
  8168.86601067
  8192.81020820
  8188.94020891
  4140.73036188
  8242.63364941
  8193.72475088
  8177.91867259
  8170.08265606
  8165.98962039
  8160.03182942
  8162.24894452
  8170.07005405
  4139.88655436
  8242.36089933
  8194.59578204
  8179.06992057
  8169.34809783
  8162.19514066
  8152.44248015
  8131.29152083
  8139.83187914
  4139.91585732
  8242.34585643
  8195.84855080
  8181.67937064
  8171.16451478
  8161.68573725
  8153.08335006
  8127.71098232
  8125.32421327
  4137.77746385
  8240.62450355
  8196.92248602
  8183.99973501
  8175.27192886
  8166.69879423
  8156.61020944
  8138.23303246
  8174.55635381
  2069.85503167
  4119.84764844
  4098.43236692
  4092.56898631
  4088.56148680
  4085.45407902
  4080.76242730
  4072.63107705
  5472.97848256
  2063.99781743
  4117.58759364
  4099.14768219
  4092.42243090
  4087.31440328
  4082.56665029
  4078.24500735
  4081.28016718
  5498.31342061
  4134.87873829
  8237.16565895
  8197.47438776
  8184.58465406
  8174.82772360
  8165.90698295
  8159.94320618
  8171.42397709
  8212.45930386
  4136.59430835
  8238.79458056
  8196.18844175
  8183.22425979
  8174.53967518
  8166.80284241
  8163.99717429
  8180.47015893
  8154.16458678
  4138.09820676
  8239.76963803
  8194.36182167
  8181.66309462
  8173.94364232
  8166.78876936
  8169.03184986
  8179.65207076
  8160.82620525
  4139.16458593
  8240.01889540
  8193.22389342
  8180.43697737
  8173.76722050
  8167.84434836
  8171.81449263
  8189.74207079
  8202.74831176
  4138.48766682
  8239.70865396
  8192.85745138
  8179.51837215
  8172.83847353
  8169.43987261
  8168.81138884
  8187.87494874
  8192.87940836
  4138.52783090
  8239.50674927
  8192.86273153
  8178.99945842
  8171.83655848
  8168.03737913
  8159.71580857
  8159.29743445
  8175.71483707
  4137.96058992
  8239.19473985
  8193.44704282
  8179.39031350
  8171.33988856
  8164.65968417
  8151.33916044
  8133.93325663
  8158.42362118
  4137.48511605
  8238.86931981
  8194.35166601
  8180.77710921
  8171.76653683
  8162.61452067
  8149.26919115
  8123.28177238
  8146.01403713
  4136.26823410
  8237.57412129
  8195.33651270
  8182.01816963
  8173.80471484
  8162.75291844
  8147.89468536
  8119.54554057
  8171.32606316
  2069.92377724
  4118.63567342
  4097.70280142
  4091.31436826
  4087.53004859
  4081.68248667
  4073.97861668
  4058.35819006
  5458.05035146
  1377.22675486
  2744.67276696
  2732.65780035
  2728.09948993
  2725.24476340
  2722.01980625
  2719.41967911
  2720.02129310
  4114.96583557
  2067.33105308
  4117.99365956
  4098.60067004
  4092.00099427
  4087.67837145
  4083.58482255
  4080.92552777
  4085.61947985
  5471.60663350
  2068.17488388
  4118.66001067
  4097.70686316
  4091.48856783
  4087.32375008
  4084.01020813
  4083.59454930
  4089.28398907
  5444.99601046
  2068.46196920
  4118.84018734
  4096.87024640
  4090.91661252
  4087.27167666
  4084.02581668
  4086.44364476
  4092.82598019
  5446.08723672
  2068.39559571
  4118.79135896
  4096.37524383
  4090.37506844
  4087.32561344
  4084.30211310
  4086.95923023
  4099.53292894
  5471.06738885
  2068.47386257
  4118.44342110
  4095.96805578
  4089.96882400
  4086.96351609
  4084.74126290
  4084.19636498
  4092.39532387
  5466.43805504
  2069.35819370
  4118.81201982
  4095.96144576
  4089.82186650
  4086.46775277
  4084.43112783
  4080.14304310
  4079.43962085
  5455.89328575
  2069.41246745
  4118.61403295
  4096.25636291
  4089.83674692
  4086.28663652
  4083.19253008
  4075.36314964
  4067.40686774
  5449.90560850
  2069.08555703
  4118.53659214
  4096.71351752
  4090.20544840
  4086.09894872
  4081.98264253
  4073.13357842
  4059.47625804
  5441.50664997
  2068.56393817
  4117.99750149
  4097.23566777
  4090.56635818
  4086.54671127
  4081.14712793
  4072.13782537
  4055.72001028
  5447.30155913
  1379.07865868
  2744.77899418
  2731.57410979
  2727.09862304
  2724.79636590
  2720.60081848
  2714.22846953
  2701.62519360
  4086.84780121
  8102.39995623
  8138.52970505
  8094.66308212
  8087.69187546
  8099.15818787
  8087.48569870
  8099.87150002
  8093.85254097
  8102.24798012
  8096.37939644
  7930.96012115
  8228.64866495
  8169.04677105
  8083.24730968
  8084.87893963
  8086.11849403
  8087.78536701
  8091.48822117
  8094.09567070
  8096.91565800
  8095.50640154
  8083.42340946
  8213.07683182
  8160.96975994
  8065.39126873
  8061.20244312
  8062.40060234
  8069.26367092
  8079.40000153
  8088.69176626
  8092.87851429
  8095.38308859
  8099.04073334
  8194.68340874
  8146.79620028
  8052.45992708
  8035.81077576
  8040.00028610
  8059.18501091
  8078.35350990
  8092.51225996
  8098.42650747
  8101.20310879
  8104.82666969
  8272.03807211
  8206.07780075
  8096.77117395
  8076.15198135
  8068.95913696
  8079.40417290
  8094.53556728
  8104.59954834
  8110.01131362
  8108.55432481
  8095.97897243
  8355.61152935
  8240.93888378
  8147.57349396
  8121.02129364
  8109.64010620
  8090.88063049
  8108.05917549
  8107.21930885
  8117.34330499
  8110.83520257
  7944.49937439
  8220.82346249
  8133.36039543
  8094.38726521
  8085.46345139
  8096.76957035
  8087.32512856
  8098.85969734
  8093.59864044
  8101.30110979
  8095.89750910
  7936.00586510
  8222.33093119
  8164.58103704
  8082.40605688
  8083.36131573
  8084.98052979
  8086.98589373
  8091.00747347
  8093.57054639
  8096.35696721
  8095.02278399
  8081.86570024
  8209.96651554
  8157.49193811
  8062.53511333
  8059.60130882
  8061.51996136
  8069.08302355
  8079.48778915
  8088.50072122
  8092.61717212
  8094.98145115
  8099.08823681
  8189.90967274
  8143.80159116
  8048.46603703
  8034.67869854
  8041.01283979
  8059.98805809
  8078.83534527
  8092.21125221
  8097.87851679
  8100.39350498
  8104.47194815
  8268.52885175
  8203.84594870
  8094.08723474
  8074.26662636
  8068.53721523
  8079.07676888
  8094.15584993
  8103.59254801
  8108.84251603
  8107.29290149
  8093.95271206
  8353.33298922
  8239.27091265
  8145.88777351
  8117.11929321
  8104.89718437
  8089.69680977
  8106.46133804
  8106.22158170
  8115.74951810
  8109.61363643
  7949.41246605
  8195.15753984
  8120.07884216
  8091.23614216
  8081.20821381
  8092.67103672
  8087.12095547
  8096.77664661
  8092.97275066
  8099.21981955
  8094.85231018
  7954.81311512
  8207.67704892
  8151.55530834
  8078.78737545
  8079.31491804
  8082.38527298
  8085.56281281
  8090.04126930
  8092.72687244
  8095.23007512
  8094.10261106
  8079.20809221
  8200.50944185
  8146.11294127
  8056.39069223
  8056.10023594
  8060.14867163
  8069.36312485
  8079.76028109
  8088.25009823
  8092.02413321
  8094.04424882
  8098.04775286
  8181.58182192
  8136.55872726
  8042.48857641
  8034.24576902
  8043.63692951
  8062.64751005
  8079.38227749
  8091.28192806
  8096.22552347
  8098.39330626
  8102.38789177
  8264.45773649
  8200.53514194
  8088.30651617
  8069.16126633
  8067.43397999
  8079.11168528
  8092.60602182
  8100.98671561
  8105.63950408
  8104.44727659
  8088.93065405
  8346.57415485
  8237.14693737
  8138.07865524
  8104.60984421
  8095.79193497
  8087.64993000
  8102.66215885
  8103.42877734
  8111.63589692
  8106.84352636
  7965.57796097
  8170.55746460
  8107.92515755
  8081.86683655
  8079.68370438
  8088.11748695
  8087.44383526
  8094.07660198
  8093.12723494
  8097.02830911
  8094.00902843
  8008.43252230
  8187.38934708
  8131.22987556
  8069.56818199
  8074.14900875
  8079.77618599
  8084.13033915
  8089.09526134
  8092.15244842
  8094.34050322
  8093.29889178
  8081.27969885
  8187.28191853
  8131.33060932
  8049.18294001
  8053.30854845
  8061.00902033
  8070.76682234
  8080.67134178
  8088.19987166
  8091.74676192
  8093.10412538
  8096.01061344
  8184.74058938
  8137.99113321
  8041.03125763
  8037.43331861
  8049.58478022
  8066.31962395
  8080.34696162
  8090.06754673
  8094.64366841
  8096.24480116
  8099.24741197
  8268.21020246
  8200.63481092
  8079.62780619
  8062.93024111
  8067.70712900
  8078.69740635
  8090.32326615
  8097.49883097
  8102.12580299
  8101.44208884
  8089.58309627
  8337.28183365
  8233.41398048
  8118.28944969
  8088.99662876
  8086.82785320
  8085.47236645
  8097.18137193
  8100.08464992
  8106.80509567
  8104.01407099
  8018.56572008
  8156.55600166
  8091.81911862
  8069.85587895
  8076.06889677
  8083.60706043
  8086.29391766
  8091.52958941
  8093.15066862
  8095.44217718
  8093.35458398
  8050.47731805
  8177.57487893
  8106.85594445
  8058.77385169
  8069.68162465
  8076.44815230
  8082.12808502
  8087.66988766
  8091.40478283
  8093.57836065
  8093.03844991
  8083.76100183
  8196.46450448
  8120.85560441
  8043.47008801
  8052.63900113
  8061.51585805
  8071.81474352
  8081.32201660
  8087.86116731
  8091.48489994
  8093.13263366
  8094.75618345
  8218.73654389
  8144.93273354
  8038.68434453
  8043.05639672
  8054.70997918
  8069.57643855
  8081.25024581
  8089.19840509
  8093.55575630
  8095.41066569
  8097.16318995
  8282.11412835
  8189.69792700
  8063.92440796
  8058.83221191
  8065.61432460
  8077.80947366
  8087.77292204
  8094.97224623
  8099.47064650
  8099.44618860
  8089.20215636
  8321.09042168
  8209.34882545
  8089.72847843
  8073.53528011
  8075.55116278
  8082.13330489
  8091.87919974
  8097.61111987
  8103.08503616
  8101.61399728
  8056.54561412
  8152.71109772
  8079.75452065
  8064.33892083
  8071.95178509
  8081.94026756
  8084.77751732
  8090.61137342
  8092.64762878
  8094.91313577
  8092.98010969
  8052.66421270
  8179.71196413
  8094.24745142
  8054.42128623
  8067.85137606
  8074.27191305
  8080.93469691
  8086.70506549
  8090.91299164
  8093.13758868
  8093.14517194
  8083.07079935
  8212.52785635
  8117.26175642
  8041.67672253
  8052.86120272
  8060.67169833
  8071.91971588
  8081.24633503
  8087.51311159
  8091.16871250
  8093.56570047
  8094.45090544
  8246.01961613
  8146.19367313
  8035.81117964
  8046.19107294
  8055.49886346
  8071.01754403
  8081.25394273
  8088.91532838
  8092.94469661
  8095.53444040
  8096.49011290
  8291.70369339
  8177.58241940
  8053.80294037
  8057.74520290
  8062.56705767
  8077.69814032
  8086.33522284
  8094.33471406
  8098.29497671
  8098.87127453
  8085.17297661
  8309.71103668
  8188.56062317
  8074.83331490
  8065.07969832
  8068.87622654
  8080.10874784
  8089.85647273
  8096.68664002
  8101.67594361
  8100.49483502
  8052.79015231
  7641.33946228
  7601.26062012
  7596.29201508
  7652.27444458
  7695.48654556
  7742.09227753
  7753.97339201
  7524.61204433
  7895.70393372
  7617.11134338
  7574.96017838
  7580.40108109
  7623.63017654
  7678.93707085
  7725.96416473
  7747.49278235
  7736.30652189
  7832.16790390
  7552.79536438
  7508.59949589
  7514.18650723
  7577.46120644
  7649.71444321
  7703.79820442
  7736.62815857
  7751.17973709
  7834.84715271
  7558.00825882
  7453.75430775
  7469.12196255
  7568.45805168
  7652.65538025
  7703.48467350
  7735.98275566
  7752.34246254
  8091.85299301
  7788.50797653
  7569.17805481
  7534.58086395
  7605.58356476
  7673.52731323
  7717.76131535
  7740.40841341
  7729.88251400
  8359.69366455
  7973.70693970
  7699.38674927
  7594.78067017
  7634.18753052
  7678.78515625
  7726.31364059
  7741.09545994
  7509.43857765
  7945.48468399
  7608.95020294
  7590.25070190
  7593.00314331
  7648.76267624
  7696.16156197
  7738.24852467
  7754.12275100
  7561.81262732
  7884.17956161
  7592.60016632
  7566.10993385
  7576.95156860
  7620.16892433
  7676.22041798
  7723.72201157
  7746.39466703
  7736.89239383
  7821.74491692
  7534.24088860
  7494.33117652
  7508.68488574
  7576.71288013
  7646.40973854
  7701.09309340
  7733.38053226
  7748.56258297
  7818.13698769
  7535.73073196
  7446.06303191
  7472.50699496
  7572.11239147
  7651.86459827
  7699.93610144
  7730.91767311
  7746.35933971
  8090.80507851
  7782.52076149
  7566.31178284
  7538.74706268
  7608.77262497
  7673.43727589
  7714.86480665
  7736.24170041
  7729.36726141
  8365.95157623
  7985.81170654
  7687.19068909
  7588.94991302
  7635.17105484
  7679.68555832
  7722.84809875
  7738.74253607
  7551.16884899
  7895.44416237
  7550.67875767
  7577.22555637
  7589.11417770
  7637.88473129
  7694.81020641
  7730.11661911
  7753.69521713
  7645.92775536
  7864.45552731
  7541.09859514
  7546.49733400
  7569.37255287
  7612.45248890
  7670.67938280
  7718.12524986
  7744.13271761
  7741.49129486
  7804.04433632
  7490.98323059
  7465.84176564
  7503.06558156
  7579.41283321
  7641.63797092
  7695.33084726
  7726.95650935
  7738.99868059
  7790.86553383
  7491.42783546
  7436.78904653
  7489.66734242
  7582.93347740
  7651.66947174
  7692.84535313
  7720.90029931
  7734.44560480
  8090.18943596
  7763.31107903
  7556.88485718
  7548.79089737
  7616.78693390
  7672.86734867
  7708.33010173
  7727.44860387
  7718.88494778
  8373.26958466
  7994.21451569
  7656.10604095
  7574.74734497
  7639.51233292
  7679.12313652
  7715.49731112
  7732.43940973
  7609.82121277
  7905.45036125
  7515.06111240
  7573.57682896
  7584.87212753
  7622.77943802
  7686.18020821
  7722.81881714
  7751.79812336
  7601.46604729
  7855.12786198
  7494.14374208
  7527.41022348
  7559.38536263
  7605.68169975
  7665.57061863
  7711.93060350
  7741.66890621
  7725.41521358
  7784.82062912
  7449.94723320
  7454.53041363
  7513.41275883
  7588.69524956
  7644.27559662
  7693.72112179
  7723.64753181
  7738.16822302
  7784.40653229
  7469.19842911
  7448.41203785
  7518.88430119
  7598.37130356
  7655.31123352
  7691.16963243
  7715.55739063
  7729.47304904
  8085.37332726
  7729.01713371
  7537.55809021
  7559.21150780
  7623.72843599
  7671.33971572
  7702.85929251
  7720.21664047
  7705.19471312
  8366.76948547
  7946.30550385
  7606.10931396
  7573.58133316
  7639.52080250
  7675.64712858
  7709.77917385
  7725.07387424
  7578.41539431
  7898.94774628
  7489.87998581
  7545.64178848
  7565.74885035
  7609.89875269
  7673.15611225
  7714.77722889
  7747.12181470
  7607.52829737
  7840.72354126
  7466.24398708
  7507.37024212
  7549.24200749
  7601.66543698
  7662.22643593
  7707.76207951
  7739.21913718
  7724.17296025
  7783.54091835
  7431.32435703
  7460.16960168
  7530.65662789
  7597.26345259
  7651.95376450
  7698.53186798
  7724.62611884
  7734.88636148
  7813.93443108
  7475.39953804
  7465.56328702
  7540.84157109
  7609.24699694
  7659.86545163
  7695.82770085
  7716.78347045
  7729.01991999
  8077.62361526
  7679.14346504
  7509.73468590
  7564.31672148
  7623.55292563
  7669.94230843
  7699.88662915
  7717.40193248
  7681.01731625
  8311.96086884
  7827.52857971
  7539.58330536
  7575.52839193
  7629.70664129
  7672.76448298
  7704.43466243
  7719.17270208
  7532.94989235
  7859.66777039
  7474.43431854
  7519.34024811
  7550.26752949
  7604.75718403
  7666.73564255
  7709.74528992
  7743.76570696
  7704.96680058
  7827.44722366
  7458.30869102
  7495.65501595
  7544.95633936
  7600.16478014
  7661.16663510
  7706.43359333
  7738.06934545
  7743.01981730
  7794.20732117
  7429.03429604
  7462.89905024
  7537.43563700
  7599.99751866
  7655.52724373
  7701.89520454
  7725.73728681
  7725.48820925
  7839.36004257
  7481.80468369
  7469.50883532
  7547.35719728
  7611.85161030
  7661.37356341
  7698.61931372
  7718.40016770
  7727.60873461
  8075.12228394
  7650.34127426
  7494.67739487
  7564.87896070
  7621.26116189
  7669.59264421
  7698.74657878
  7717.19280434
  7660.56309301
  8264.71244812
  7752.95870972
  7504.16543579
  7570.26965159
  7623.24176425
  7671.89502144
  7700.92304248
  7716.68686295
  7535.81230128
     0.00000000
     0.00000000
     0.00000000
     0.00000000
     0.00000000
     0.00000000
     0.00000000
     0.00000000
     0.00000000
     0.00000000
     0.00000000
     0.00000000
     0.00000000
     0.00000000
     0.00000000
     0.00000000
     0.00000000
     0.00000000
     0.00000000
     0.00000000
     0.00000000
     0.00000000
     0.00000000
     0.00000000
     0.00000000
     0.00000000
     0.00000000
     0.00000000
     0.00000000
     0.00000000
     0.00000000
     0.00000000
     0.00000000
     0.00000000
     0.00000000
     0.00000000
     0.00000000
     0.00000000
     0.00000000
     0.00000000
     0.00000000
     0.00000000
     0.00000000
     0.00000000
     0.00000000
     0.00000000
     0.00000000
     0.00000000
     0.00000000
     0.00000000
     0.00000000
     0.00000000
     0.00000000
     0.00000000
     0.00000000
     0.00000000
     0.00000000
     0.00000000
     0.00000000
     0.00000000
     0.00000000
     0.00000000
     0.00000000
     0.00000000
     0.00000000
     0.00000000
     0.00000000
     0.00000000
     0.00000000
     0.00000000
     0.00000000
     0.00000000
     0.00000000
     0.00000000
     0.00000000
     0.00000000
     0.00000000
     0.00000000
     0.00000000
     0.00000000
     0.00000000
     0.00000000
     0.00000000
     0.00000000
     0.00000000
     0.00000000
     0.00000000
     0.00000000
     0.00000000
     0.00000000
     0.00000000
     0.00000000
     0.00000000
     0.00000000
     0.00000000
     0.00000000
     0.00000000
     0.00000000
     0.00000000
     0.00000000
     0.00000000
     0.00000000
     0.00000000
     0.00000000
     0.00000000
     0.00000000
     0.00000000
     0.00000000
     0.00000000
     0.00000000
     0.00000000
     0.00000000
     0.00000000
     0.00000000
     0.00000000
     0.00000000
     0.00000000
     0.00000000
     0.00000000
     0.00000000
     0.00000000
     0.00000000
     0.00000000
     0.00000000
     0.00000000
     0.00000000
     0.00000000
     0.00000000
     0.00000000
     0.00000000
     0.00000000
     0.00000000
     0.00000000
     0.00000000
     0.00000000
     0.00000000
     0.00000000
     0.00000000
     0.00000000
     0.00000000
     0.00000000
     0.00000000
     0.00000000
     0.00000000
     0.00000000
     0.00000000
     0.00000000
     0.00000000
     0.00000000
     0.00000000
     0.00000000
     0.00000000
     0.00000000
     0.00000000
     0.00000000
     0.00000000
     0.00000000
     0.00000000
     0.00000000
     0.00000000
     0.00000000
     0.00000000
     0.00000000
     0.00000000
     0.00000000
     0.00000000
     0.00000000
     0.00000000
     0.00000000
     0.00000000
     0.00000000
     0.00000000
     0.00000000
     0.00000000
     0.00000000
     0.00000000
     0.00000000
     0.00000000
     0.00000000
     0.00000000
     0.00000000
     0.00000000
     0.00000000
     0.00000000
     0.00000000
     0.00000000
     0.00000000
     0.00000000
     0.00000000
     0.00000000
     0.00000000
     0.00000000
     0.00000000
     0.00000000
     0.00000000
     0.00000000
     0.00000000
     0.00000000
     0.00000000
     0.00000000
     0.00000000
     0.00000000
     0.00000000
     0.00000000
     0.00000000
     0.00000000
     0.00000000
     0.00000000
     0.00000000
     0.00000000
     0.00000000
     0.00000000
     0.00000000
     0.00000000
     0.00000000
     0.00000000
     0.00000000
     0.00000000
     0.00000000
     0.00000000
     0.00000000
     0.00000000
     0.00000000
     0.00000000
     0.00000000
     0.00000000
     0.00000000
     0.00000000
     0.00000000
     0.00000000
     0.00000000
     0.00000000
     0.00000000
     0.00000000
     0.00000000
     0.00000000
     0.00000000
     0.00000000
     0.00000000
     0.00000000
     0.00000000
     0.00000000
     0.00000000
     0.00000000
     0.00000000
     0.00000000
     0.00000000
     0.00000000
     0.00000000
     0.00000000
     0.00000000
     0.00000000
     0.00000000
     0.00000000
     0.00000000
     0.00000000
     0.00000000
     0.00000000
     0.00000000
     0.00000000
     0.00000000
     0.00000000
     0.00000000
     0.00000000
     0.00000000
     0.00000000
     0.00000000
     0.00000000
     0.00000000
     0.00000000
     0.00000000
     0.00000000
     0.00000000
     0.00000000
     0.00000000
     0.00000000
VECTORS Displacements float 
    -0.21575708    -0.04021559     0.00000000
    -0.21006436    -0.19106725     0.00000000
    -0.18101594    -0.25162834     0.00000000
    -0.14837562    -0.28625454     0.00000000
    -0.10607658    -0.28460757     0.00000000
    -0.06007168    -0.25775748     0.00000000
    -0.01472683    -0.18495909     0.00000000
     0.01294568    -0.12217941     0.00000000
     0.00000000     0.00000000     0.00000000
    -0.22484218    -0.03262386     0.01228041
    -0.18369440    -0.17398555     0.00000000
    -0.18481939    -0.23192416     0.00000000
    -0.17852006    -0.26369563     0.00000000
    -0.16978452    -0.26462710     0.00000000
    -0.16266991    -0.23686073     0.00000000
    -0.15972445    -0.17775350     0.00000000
    -0.17717064    -0.11534052     0.00000000
    -0.18228035    -0.00720578     0.00000000
    -0.22743586    -0.02438482     0.01089979
    -0.18839446    -0.14444124     0.00000000
    -0.19153160    -0.20024906     0.00000000
    -0.20373459    -0.22898853     0.00000000
    -0.21850017    -0.22894460     0.00000000
    -0.23704247    -0.20266944     0.00000000
    -0.26323390    -0.14367135     0.00000000
    -0.28208411    -0.07664690     0.00000000
    -0.29992447     0.01402272     0.00000000
    -0.22959032    -0.01800520     0.00905788
    -0.19104466    -0.11663873     0.00000000
    -0.19971398    -0.16496468     0.00000000
    -0.22059583    -0.18917883     0.00000000
    -0.24489430    -0.18892190     0.00000000
    -0.26801324    -0.16381758     0.00000000
    -0.28707234    -0.10590803     0.00000000
    -0.30267960    -0.03505278     0.00000000
    -0.31018466     0.04094254     0.00000000
    -0.23017627    -0.01168570     0.00681180
    -0.19346590    -0.08922184     0.00000000
    -0.20433512    -0.12869614     0.00000000
    -0.22867668    -0.14855090     0.00000000
    -0.25297776    -0.14997520     0.00000000
    -0.26618717    -0.13175948     0.00000000
    -0.25432488    -0.08472913     0.00000000
    -0.24264872    -0.01844703     0.00000000
    -0.22705931     0.04865374     0.00000000
    -0.22928225    -0.00563321     0.00586248
    -0.19244975    -0.06198331     0.00000000
    -0.20483515    -0.09163726     0.00000000
    -0.23160591    -0.10701475     0.00000000
    -0.25700637    -0.11257061     0.00000000
    -0.26530875    -0.10591912     0.00000000
    -0.23610635    -0.08558365     0.00000000
    -0.14009387    -0.06257596     0.00000000
     0.00000000     0.00000000     0.00000000
    -0.22620446     0.00048581     0.00601485
    -0.18876950    -0.03394079     0.00000000
    -0.20314967    -0.05197495     0.00000000
    -0.23618822    -0.06150602     0.00000000
    -0.27496462    -0.06876938     0.00000000
    -0.30989689    -0.07358225     0.00000000
    -0.33345565    -0.06396537     0.00000000
    -0.30754677    -0.04009199     0.00000000
    -0.25375194     0.04801962     0.00000000
    -0.22155041     0.00667656     0.00750794
    -0.18036166    -0.00389943     0.00000000
    -0.19359496    -0.00793390     0.00000000
    -0.22683633    -0.00944177     0.00000000
    -0.26990489    -0.01473538     0.00000000
    -0.31752585    -0.02211301     0.00000000
    -0.36230455    -0.02200195     0.00000000
    -0.38966127     0.00084836     0.00000000
    -0.38602927     0.05628450     0.00000000
    -0.21510204     0.01277026     0.00876214
    -0.17038421     0.02876820     0.00000000
    -0.17729452     0.04073882     0.00000000
    -0.20093039     0.04743140     0.00000000
    -0.23118609     0.04533287     0.00000000
    -0.26506872     0.03625636     0.00000000
    -0.30002625     0.02646645     0.00000000
    -0.34368094     0.03426272     0.00000000
    -0.37523424     0.05920502     0.00000000
    -0.20717723     0.02001349     0.00931884
    -0.15856879     0.06681141     0.00000000
    -0.16174503     0.09183870     0.00000000
    -0.16388256     0.10422894     0.00000000
    -0.16539025     0.10360419     0.00000000
    -0.16451403     0.08855642     0.00000000
    -0.15569335     0.06321646     0.00000000
    -0.18428604     0.04966740     0.00000000
    -0.19462244     0.02323045     0.00000000
    -0.19329598     0.02691503     0.00000000
    -0.18172658     0.09761240     0.00000000
    -0.15618454     0.13357161     0.00000000
    -0.12655364     0.15300078     0.00000000
    -0.09083437     0.15199216     0.00000000
    -0.05305292     0.13067839     0.00000000
    -0.01255645     0.08367708     0.00000000
     0.00716376     0.05040049     0.00000000
     0.00000000     0.00000000     0.00000000
    -0.21536029    -0.04001401     0.01718353
    -0.20908954    -0.18555497     0.03554659
    -0.18146284    -0.24964972     0.04443453
    -0.14832366    -0.28221824     0.04998531
    -0.10568577    -0.28133398     0.04969392
    -0.05988655    -0.25492654     0.04400071
    -0.01475684    -0.18373853     0.03552494
     0.01438239    -0.12075472     0.02592155
     0.00000000     0.00000000     0.00000000
    -0.22392145    -0.03229066     0.01743624
    -0.18475058    -0.16865696     0.03888438
    -0.18350475    -0.22932033     0.05199868
    -0.17546648    -0.25937248     0.05572014
    -0.16418890    -0.25924685     0.05825915
    -0.15357804    -0.23263925     0.05726024
    -0.14468532    -0.17410061     0.05450927
    -0.15756919    -0.11322382     0.04623784
    -0.16507058    -0.00707163     0.01780708
    -0.22752974    -0.02514566     0.01859954
    -0.18858396    -0.14100569     0.04205851
    -0.18998135    -0.19770501     0.05703791
    -0.19971842    -0.22508312     0.06401026
    -0.20992233    -0.22475880     0.06777072
    -0.22145240    -0.19949137     0.06922314
    -0.23805415    -0.14144054     0.06566706
    -0.25096951    -0.07747483     0.05759063
    -0.27333600     0.01147271     0.03300078
    -0.22926302    -0.01844898     0.01740141
    -0.19151181    -0.11421211     0.04465365
    -0.19789606    -0.16241060     0.06151003
    -0.21569442    -0.18582076     0.06972310
    -0.23528052    -0.18564885     0.07414906
    -0.25188149    -0.16183058     0.07444387
    -0.26216772    -0.10571342     0.07059721
    -0.27097662    -0.03878055     0.06113334
    -0.28286554     0.03613398     0.03575706
    -0.23010499    -0.01212750     0.01623682
    -0.19357545    -0.08713360     0.04557156
    -0.20237140    -0.12602062     0.06354376
    -0.22363614    -0.14521173     0.07184940
    -0.24398450    -0.14686777     0.07553284
    -0.25295935    -0.12997082     0.07276633
    -0.23684627    -0.08511149     0.06683764
    -0.21969996    -0.02258234     0.05710872
    -0.20625224     0.04371637     0.02660814
    -0.22916581    -0.00576906     0.01514168
    -0.19275085    -0.05996533     0.04512077
    -0.20287321    -0.08871397     0.06308344
    -0.22662786    -0.10338406     0.07130394
    -0.24863606    -0.10894777     0.07406933
    -0.25441307    -0.10331484     0.06983807
    -0.22506469    -0.08432090     0.05524235
    -0.13366683    -0.06145480     0.02788407
     0.00000000     0.00000000     0.00000000
    -0.22601131     0.00058935     0.01496091
    -0.18873037    -0.03184266     0.04437199
    -0.20106671    -0.04884021     0.06175168
    -0.23078837    -0.05755706     0.07070161
    -0.26529842    -0.06464500     0.07519621
    -0.29552619    -0.06989182     0.07553332
    -0.31386164    -0.06252294     0.06884470
    -0.28868544    -0.04039010     0.05606494
    -0.24002209     0.04486058     0.01645541
    -0.22105327     0.00687981     0.01489946
    -0.18047403    -0.00190687     0.04154578
    -0.19142209    -0.00510365     0.05664625
    -0.22127860    -0.00588809     0.06551494
    -0.25941795    -0.01091015     0.07050997
    -0.30059874    -0.01868176     0.07170767
    -0.33756600    -0.02147019     0.06959087
    -0.36157925    -0.00150834     0.06580441
    -0.36259246     0.05176470     0.03894903
    -0.21493687     0.01325137     0.01490131
    -0.17056994     0.03017822     0.03599377
    -0.17565223     0.04261871     0.04700927
    -0.19625588     0.04977450     0.05455682
    -0.22203471     0.04794538     0.05822314
    -0.24997621     0.03840163     0.05974345
    -0.27777801     0.02566825     0.05841533
    -0.31710715     0.03096745     0.05858430
    -0.35136539     0.05502819     0.04279709
    -0.20657326     0.01966699     0.01302495
    -0.16021914     0.06706542     0.02809628
    -0.16130650     0.09204470     0.03625674
    -0.16123256     0.10495060     0.04026028
    -0.16005022     0.10454585     0.04239262
    -0.15621771     0.08931722     0.04099112
    -0.14388635     0.06210555     0.03823824
    -0.16937190     0.04702138     0.03495246
    -0.18074508     0.02141965     0.01694703
    -0.19351547     0.02656141     0.01146755
    -0.18224117     0.09719351     0.02037122
    -0.15653460     0.13278494     0.02669877
    -0.12650830     0.15247416     0.02879845
    -0.09075213     0.15183076     0.02782212
    -0.05299102     0.13069600     0.02540318
    -0.01214619     0.08368984     0.01968323
     0.00741686     0.04958667     0.01335905
     0.00000000     0.00000000     0.00000000
    -0.21535317    -0.03910200     0.02967701
    -0.20896573    -0.17752421     0.06728766
    -0.18260416    -0.24313297     0.08601965
    -0.14781201    -0.27221747     0.09509094
    -0.10482410    -0.27278497     0.09240515
    -0.05973103    -0.24771872     0.08457541
    -0.01442753    -0.18099343     0.06900194
     0.01611181    -0.11717715     0.05168700
     0.00000000     0.00000000     0.00000000
    -0.22239594    -0.03205909     0.03050366
    -0.18665734    -0.16052348     0.07669685
    -0.18314172    -0.22068952     0.10098810
    -0.17070749    -0.24728558     0.10888486
    -0.15280774    -0.24768966     0.11356240
    -0.13304683    -0.22308026     0.11000070
    -0.11085520    -0.16512561     0.10120404
    -0.11276121    -0.10686463     0.08272078
    -0.12564839    -0.00667883     0.02523346
    -0.22632385    -0.02584689     0.02989964
    -0.18903025    -0.13476723     0.08341706
    -0.18786263    -0.18886742     0.11159450
    -0.19080447    -0.21384500     0.12459121
    -0.18968210    -0.21407702     0.12988683
    -0.18497552    -0.19077301     0.12973453
    -0.17909714    -0.13432346     0.11977935
    -0.17809857    -0.07675117     0.09881611
    -0.20776723     0.00621605     0.04768758
    -0.22861687    -0.01954914     0.02914868
    -0.19156334    -0.10875789     0.08803902
    -0.19361904    -0.15370814     0.12019915
    -0.20324223    -0.17543144     0.13522498
    -0.21096973    -0.17590224     0.14224718
    -0.21169367    -0.15472162     0.13994326
    -0.20107502    -0.10274891     0.12911053
    -0.19425294    -0.04521015     0.10431862
    -0.21281933     0.02448464     0.05006736
    -0.22989871    -0.01300228     0.02801783
    -0.19384745    -0.08200881     0.08963420
    -0.19751563    -0.11736537     0.12408135
    -0.21012405    -0.13492804     0.13914983
    -0.21995705    -0.13718931     0.14539512
    -0.21793192    -0.12318278     0.13903664
    -0.19153280    -0.08320687     0.12521505
    -0.16305850    -0.03023583     0.10025133
    -0.15328685     0.03064577     0.03508468
    -0.22914894    -0.00626805     0.02688465
    -0.19310930    -0.05495488     0.08864604
    -0.19796304    -0.08025500     0.12329747
    -0.21300179    -0.09290455     0.13825704
    -0.22533568    -0.09833601     0.14320078
    -0.22371502    -0.09480964     0.13508022
    -0.19291766    -0.07834684     0.10867075
    -0.11435764    -0.05648017     0.05699670
     0.00000000     0.00000000     0.00000000
    -0.22571176     0.00059679     0.02598298
    -0.18906436    -0.02686663     0.08724618
    -0.19597286    -0.04084591     0.12068624
    -0.21600235    -0.04721788     0.13678935
    -0.23809992    -0.05372658     0.14437550
    -0.25436963    -0.05970041     0.14321978
    -0.25711967    -0.05731429     0.12930584
    -0.23208819    -0.04066406     0.10317478
    -0.20056405     0.03595756     0.02614290
    -0.22037881     0.00720183     0.02524958
    -0.18045190     0.00242408     0.08185112
    -0.18681770     0.00111646     0.11123025
    -0.20730405     0.00234065     0.12714125
    -0.23181826    -0.00215626     0.13483215
    -0.25520500    -0.01082619     0.13458375
    -0.27058368    -0.02027914     0.12804615
    -0.28399855    -0.00816859     0.11667191
    -0.29571397     0.03832683     0.06232080
    -0.21377091     0.01338048     0.02421048
    -0.17078188     0.03321531     0.07122284
    -0.17284771     0.04601404     0.09269587
    -0.18576718     0.05437560     0.10628118
    -0.19993659     0.05326334     0.11153130
    -0.21287512     0.04261903     0.11244239
    -0.22234791     0.02289416     0.10787645
    -0.24970891     0.02186222     0.10469677
    -0.28720306     0.04299080     0.06913339
    -0.20565113     0.01917946     0.02313499
    -0.16305262     0.06781291     0.05477681
    -0.16136522     0.09236862     0.07092639
    -0.15623476     0.10606898     0.07869378
    -0.14868740     0.10669170     0.08242088
    -0.13753727     0.09145747     0.07923030
    -0.11695151     0.05955674     0.07214302
    -0.13537111     0.04123857     0.06520797
    -0.14870654     0.01810986     0.02651006
    -0.19465057     0.02520023     0.02089861
    -0.18369150     0.09573915     0.03947922
    -0.15773501     0.13111222     0.05155192
    -0.12650278     0.15125770     0.05595516
    -0.09088994     0.15164247     0.05508912
    -0.05287736     0.13106777     0.05037359
    -0.01126231     0.08425664     0.03896065
     0.00797519     0.04789453     0.02620427
     0.00000000     0.00000000     0.00000000
    -0.21625372    -0.03728032     0.04025220
    -0.21058214    -0.16888591     0.09675613
    -0.18411503    -0.23244382     0.12361435
    -0.14747864    -0.26170329     0.13336245
    -0.10450717    -0.26512992     0.13286029
    -0.05962018    -0.24109513     0.12321713
    -0.01346157    -0.17671524     0.10059383
     0.01758048    -0.11201266     0.07761007
     0.00000000     0.00000000     0.00000000
    -0.22111050    -0.03201385     0.04177090
    -0.19024620    -0.15256704     0.11277993
    -0.18537942    -0.20823324     0.14415748
    -0.16587525    -0.23559049     0.15597549
    -0.13853822    -0.23827087     0.15956664
    -0.10731694    -0.21530418     0.15287835
    -0.07071884    -0.15477541     0.13616930
    -0.06057591    -0.09719094     0.10777631
    -0.07624653    -0.00611761     0.01986894
    -0.22460440    -0.02680961     0.04205976
    -0.18906554    -0.12777865     0.12346831
    -0.18539085    -0.17631582     0.16103355
    -0.17916720    -0.20108953     0.17707887
    -0.16445641    -0.20231034     0.18062773
    -0.14162207    -0.18100786     0.17518745
    -0.11260378    -0.12551567     0.15771994
    -0.09585720    -0.07338861     0.12201485
    -0.12456285    -0.00025711     0.03832582
    -0.22764856    -0.02098000     0.04166683
    -0.19153204    -0.10150467     0.12940830
    -0.18825979    -0.14101559     0.17313045
    -0.18696812    -0.16163635     0.19193205
    -0.17964627    -0.16228960     0.19879415
    -0.16202405    -0.14396816     0.19066449
    -0.13002469    -0.09670811     0.17031907
    -0.10725268    -0.04905773     0.12799033
    -0.12636263     0.00833677     0.03791598
    -0.22961675    -0.01433062     0.04109869
    -0.19405266    -0.07429746     0.13115422
    -0.19108202    -0.10392367     0.17835995
    -0.19200354    -0.11968411     0.19686115
    -0.18689807    -0.12185893     0.20400702
    -0.17060741    -0.11041020     0.19372831
    -0.13341249    -0.07583020     0.17102288
    -0.09718361    -0.03385784     0.12855135
    -0.09207484     0.01329017     0.02373539
    -0.22909630    -0.00704062     0.03971688
    -0.19349509    -0.04697768     0.12972094
    -0.19095866    -0.06608668     0.17755939
    -0.19391488    -0.07576632     0.19595617
    -0.19139512    -0.08050223     0.20187494
    -0.17657097    -0.07862136     0.19084069
    -0.14150014    -0.06493126     0.15804742
    -0.08156730    -0.04528448     0.08820588
     0.00000000     0.00000000     0.00000000
    -0.22560095     0.00035333     0.03830843
    -0.18994762    -0.01867288     0.12738620
    -0.18956497    -0.02673066     0.17349852
    -0.19561289    -0.02922252     0.19308477
    -0.19898860    -0.03530985     0.20158715
    -0.19446068    -0.04166075     0.19640522
    -0.17534836    -0.04439773     0.17490146
    -0.14967687    -0.03521368     0.13577533
    -0.14175742     0.02554115     0.02416098
    -0.21990730     0.00743227     0.03632263
    -0.18224901     0.01011215     0.12041606
    -0.18225474     0.01296981     0.16120489
    -0.18931050     0.01779893     0.18073793
    -0.19403232     0.01339299     0.18755275
    -0.19208975     0.00393724     0.18210076
    -0.17894502    -0.01187274     0.16828180
    -0.17814565    -0.01035886     0.14557022
    -0.19884032     0.02274886     0.05864369
    -0.21298701     0.01346493     0.03457919
    -0.17245795     0.03793473     0.10693137
    -0.17148529     0.05257310     0.13624800
    -0.17350057     0.06429580     0.15261793
    -0.17060337     0.06283961     0.15646948
    -0.16244599     0.05070201     0.15403273
    -0.14799791     0.02432425     0.14402752
    -0.15876000     0.01447195     0.13300437
    -0.19260525     0.02574621     0.06546325
    -0.20510830     0.01860494     0.03240455
    -0.16625989     0.06897434     0.08179649
    -0.16266049     0.09357135     0.10286464
    -0.14985382     0.10991815     0.11421992
    -0.13273787     0.11051060     0.11809268
    -0.11195400     0.09495224     0.11235746
    -0.08035074     0.05830878     0.09972951
    -0.09003497     0.03336503     0.09109387
    -0.10589650     0.01349890     0.02556884
    -0.19674447     0.02340771     0.02953979
    -0.18567048     0.09319069     0.05879817
    -0.15946192     0.12932465     0.07509502
    -0.12751073     0.15023335     0.08156849
    -0.09126178     0.15220868     0.08226688
    -0.05289799     0.13232438     0.07628081
    -0.01106271     0.08577423     0.05847403
     0.00902408     0.04708882     0.03933619
     0.00000000     0.00000000     0.00000000
    -0.21783832    -0.03521418     0.04836537
    -0.21431723    -0.15597330     0.12448410
    -0.18616752    -0.21952851     0.15653341
    -0.14911854    -0.24747633     0.17097242
    -0.10769657    -0.24922842     0.17296778
    -0.05740384    -0.22574805     0.16228102
    -0.01077891    -0.16513083     0.13174000
     0.02132347    -0.10272983     0.10028162
     0.00000000     0.00000000     0.00000000
    -0.22052639    -0.03207500     0.05192063
    -0.19733794    -0.14075079     0.14524578
    -0.18953028    -0.19367313     0.17954771
    -0.15983811    -0.22022940     0.19263261
    -0.12258431    -0.22282213     0.19481845
    -0.08347941    -0.19965516     0.18508768
    -0.03296325    -0.14369110     0.16065239
    -0.01412203    -0.08680615     0.12658396
    -0.02854031    -0.00301434     0.00610665
    -0.22321127    -0.02793645     0.05394273
    -0.19368616    -0.11751096     0.15973219
    -0.18847786    -0.16245081     0.20195223
    -0.16785802    -0.18371945     0.21869143
    -0.13694687    -0.18486077     0.21943872
    -0.09923202    -0.16538397     0.20624426
    -0.05135803    -0.11723047     0.18205991
    -0.02863896    -0.06787482     0.13814183
    -0.04647520    -0.00276632     0.01327899
    -0.22611630    -0.02256253     0.05547962
    -0.19372771    -0.09097571     0.16713578
    -0.18889293    -0.12661215     0.21552238
    -0.17144110    -0.14423743     0.23441613
    -0.14505830    -0.14453933     0.24089573
    -0.11028429    -0.12731800     0.22540579
    -0.06107077    -0.08962408     0.19520478
    -0.03529335    -0.04868676     0.14416318
    -0.04741250    -0.00320648     0.01163353
    -0.22789388    -0.01584017     0.05584988
    -0.19399164    -0.06290230     0.16976906
    -0.18863962    -0.08696103     0.22187821
    -0.17297270    -0.09925666     0.23871942
    -0.14913834    -0.10067293     0.24612472
    -0.11641311    -0.09038211     0.23295639
    -0.06752935    -0.06261537     0.20201163
    -0.03315107    -0.02991696     0.14896268
    -0.04106479    -0.00486163     0.00619399
    -0.22742673    -0.00816562     0.05461489
    -0.19254914    -0.03450150     0.16829497
    -0.18735767    -0.04595462     0.22115680
    -0.17295768    -0.05217618     0.23794612
    -0.15022563    -0.05505321     0.24403957
    -0.11840984    -0.05324887     0.23031091
    -0.07218798    -0.04256454     0.19866844
    -0.03687981    -0.02926382     0.12395939
     0.00000000     0.00000000     0.00000000
    -0.22462154    -0.00032648     0.05254821
    -0.19103273    -0.00554747     0.16403459
    -0.18684629    -0.00401376     0.21510153
    -0.17399524    -0.00390389     0.23276920
    -0.15384025    -0.00763401     0.24131455
    -0.12521600    -0.01324086     0.23034312
    -0.08018573    -0.01906719     0.20058123
    -0.05371602    -0.02498614     0.15355451
    -0.07645075     0.02277519     0.01421449
    -0.21933165     0.00699048     0.04897573
    -0.18602879     0.02331546     0.15441812
    -0.18332606     0.03491370     0.20089817
    -0.17047974     0.04153681     0.22015162
    -0.15032547     0.03771898     0.22438360
    -0.12221373     0.02735843     0.21070078
    -0.07891133     0.01036859     0.18686517
    -0.06926897    -0.00021184     0.15740215
    -0.09612275     0.01008037     0.03185208
    -0.21323207     0.01328262     0.04497840
    -0.18265499     0.04901448     0.13999084
    -0.17823545     0.06922470     0.17328639
    -0.16113300     0.08111239     0.19049294
    -0.13803058     0.08080398     0.19062591
    -0.10687288     0.06651066     0.18239872
    -0.06434817     0.03945016     0.16485303
    -0.06282875     0.02325278     0.14408038
    -0.09246112     0.00753217     0.03477668
    -0.20670173     0.01787039     0.04133997
    -0.17658931     0.06907446     0.11190614
    -0.16952904     0.09701474     0.13510665
    -0.14460757     0.11556136     0.14799108
    -0.11599650     0.11458733     0.15278332
    -0.08418973     0.09581157     0.14514268
    -0.03720000     0.06064487     0.12459711
    -0.03339231     0.03801152     0.11167986
    -0.05597968     0.00422806     0.01521691
    -0.19978380     0.02125147     0.03679853
    -0.18788348     0.08990574     0.07460447
    -0.16237389     0.12610882     0.09512069
    -0.12999041     0.14775977     0.10578012
    -0.09259110     0.14753607     0.10814330
    -0.05290321     0.12726218     0.10025569
    -0.01138210     0.08441649     0.07719582
     0.00999894     0.04768120     0.05234742
     0.00000000     0.00000000     0.00000000
    -0.21943376    -0.03344222     0.05513042
    -0.21590796    -0.14160656     0.14815882
    -0.19017323    -0.19828840     0.18378571
    -0.15131451    -0.22336422     0.20161252
    -0.10685525    -0.22520215     0.20355550
    -0.05722730    -0.20332843     0.19089973
    -0.00903123    -0.14883820     0.15955844
     0.03108704    -0.09066574     0.11862139
     0.00000000     0.00000000     0.00000000
    -0.22034734    -0.03135771     0.06089859
    -0.21860406    -0.12348313     0.16839549
    -0.19087151    -0.17492521     0.20864873
    -0.15248431    -0.20099890     0.22285609
    -0.10752876    -0.20193214     0.22421593
    -0.05638026    -0.18120193     0.21188817
    -0.00638595    -0.13356707     0.17922138
     0.03665057    -0.07678038     0.13342623
     0.00000000     0.00000000     0.00000000
    -0.22120881    -0.02834777     0.06650352
    -0.22277903    -0.10046573     0.18199111
    -0.19162746    -0.14195015     0.22997811
    -0.15078137    -0.16785681     0.24647501
    -0.10795858    -0.17470535     0.24304406
    -0.05383508    -0.15692726     0.22533908
    -0.00344925    -0.11469678     0.19486424
     0.03990287    -0.06154947     0.14383537
     0.00000000     0.00000000     0.00000000
    -0.22250404    -0.02332812     0.07104622
    -0.22510879    -0.07500512     0.18924682
    -0.19275412    -0.10506377     0.24105551
    -0.15013946    -0.12236487     0.25840756
    -0.10238192    -0.12804152     0.26246626
    -0.05259541    -0.12058765     0.24331211
    -0.00162255    -0.08538054     0.20484090
     0.04189759    -0.04479508     0.15021485
     0.00000000     0.00000000     0.00000000
    -0.22236870    -0.01702650     0.07323462
    -0.22546225    -0.04683955     0.19259235
    -0.19316001    -0.06521166     0.24500065
    -0.14939496    -0.07539630     0.26036834
    -0.10053284    -0.07823657     0.26598419
    -0.05136811    -0.07237426     0.25005571
     0.00085093    -0.05490786     0.21363764
     0.04518990    -0.02900586     0.15117280
     0.00000000     0.00000000     0.00000000
    -0.22117094    -0.00968112     0.07279443
    -0.22422751    -0.01811281     0.19120663
    -0.19224532    -0.02342894     0.24323428
    -0.14849883    -0.02568568     0.25817093
    -0.09992073    -0.02525502     0.26274177
    -0.05013699    -0.02099422     0.24792560
     0.00186910    -0.01685695     0.21524625
     0.04567996    -0.01395219     0.14328395
     0.00000000     0.00000000     0.00000000
    -0.22037561    -0.00211156     0.06970909
    -0.22140412     0.01045233     0.18466424
    -0.18970794     0.01698441     0.23565408
    -0.14668095     0.02283666     0.25154363
    -0.09951220     0.02610721     0.25665280
    -0.05033236     0.02637738     0.24146306
     0.00159627     0.01921986     0.20497056
     0.04559110     0.00096501     0.15104024
     0.00000000     0.00000000     0.00000000
    -0.21717415     0.00520269     0.06418308
    -0.21695382     0.03659256     0.17322534
    -0.18599691     0.05511105     0.22313754
    -0.14497339     0.06663952     0.24027154
    -0.09995451     0.07388715     0.24102553
    -0.05288500     0.07054292     0.22192020
    -0.00200652     0.04581216     0.18888301
     0.04194249     0.01804369     0.14857633
     0.00000000     0.00000000     0.00000000
    -0.21290001     0.01141354     0.05687742
    -0.21068032     0.05946680     0.15688270
    -0.18083433     0.08783990     0.19682077
    -0.14552084     0.10743482     0.21112494
    -0.09918972     0.10907712     0.20927384
    -0.05566364     0.09533474     0.19742818
    -0.00227728     0.06433808     0.16950507
     0.03817715     0.03265957     0.13396621
     0.00000000     0.00000000     0.00000000
    -0.20978774     0.01589707     0.04954500
    -0.20512075     0.08185304     0.13312830
    -0.17681163     0.11252990     0.16375406
    -0.14162623     0.12968059     0.17922266
    -0.09830989     0.13063069     0.18199125
    -0.05310010     0.11388017     0.17238067
    -0.00408513     0.07858062     0.14485595
     0.03258039     0.04825607     0.11267100
     0.00000000     0.00000000     0.00000000
    -0.20519072     0.01881628     0.04340105
    -0.19363384     0.08895971     0.09482956
    -0.16899278     0.12255512     0.12065878
    -0.13450078     0.14099542     0.13626493
    -0.09506801     0.14187747     0.13929397
    -0.05314873     0.12328332     0.12924614
    -0.00908045     0.08396284     0.10317758
     0.01827168     0.05494925     0.07858047
     0.00000000     0.00000000     0.00000000
     0.00000000     0.00000000     0.00000000
     0.00000000     0.00000000     0.00000000
     0.00000000     0.00000000     0.00000000
     0.00000000     0.00000000     0.00000000
     0.00000000     0.00000000     0.00000000
     0.00000000     0.00000000     0.00000000
     0.00000000     0.00000000     0.00000000
     0.00000000     0.00000000     0.00000000
     0.00000000     0.00000000     0.00000000
     0.00000000     0.00000000     0.00000000
     0.00000000     0.00000000     0.00000000
    -0.10886080     0.01871590     0.00000000
    -0.16516798    -0.03369001     0.00000000
    -0.16920101    -0.00520737     0.00000000
    -0.15505291    -0.00548126     0.00000000
    -0.13568525    -0.00410108     0.00000000
    -0.11416700    -0.00101592     0.00000000
    -0.09214269     0.00329363     0.00000000
    -0.07014671     0.00820221     0.00000000
    -0.04837046     0.01296100     0.00000000
    -0.02687552     0.01724459     0.00000000
     0.00000000     0.00000000     0.00000000
    -0.33244333     0.01451179     0.00000000
    -0.34015679    -0.04301820     0.00000000
    -0.32775207    -0.04304335     0.00000000
    -0.28846172    -0.04521517     0.00000000
    -0.24259735    -0.04191669     0.00000000
    -0.19656187    -0.03396653     0.00000000
    -0.15173456    -0.02429716     0.00000000
    -0.10855801    -0.01400320     0.00000000
    -0.06748680    -0.00360331     0.00000000
    -0.02955450     0.00374071     0.00000000
     0.00000000     0.00000000     0.00000000
    -0.39735066     0.04801483     0.00000000
    -0.37710239    -0.01546488     0.00000000
    -0.33912623    -0.07195246     0.00000000
    -0.28880299    -0.08227231     0.00000000
    -0.23910430    -0.07611562     0.00000000
    -0.19102388    -0.06619775     0.00000000
    -0.14527552    -0.05482774     0.00000000
    -0.10172105    -0.04319422     0.00000000
    -0.06047193    -0.03188946     0.00000000
    -0.02373370    -0.01894979     0.00000000
     0.00000000     0.00000000     0.00000000
    -0.19945367     0.03874834     0.00000000
    -0.23014827     0.01650042     0.00000000
    -0.17377262    -0.06315148     0.00000000
    -0.14458227    -0.06316275     0.00000000
    -0.11933559    -0.05995700     0.00000000
    -0.09648883    -0.05418692     0.00000000
    -0.07489122    -0.04813321     0.00000000
    -0.05400642    -0.04206503     0.00000000
    -0.03373103    -0.03567388     0.00000000
    -0.01393397    -0.02878081     0.00000000
     0.00000000     0.00000000     0.00000000
     0.00000000     0.00000000     0.00000000
     0.00000000     0.00000000     0.00000000
     0.00000000     0.00000000     0.00000000
     0.00000000     0.00000000     0.00000000
     0.00000000     0.00000000     0.00000000
     0.00000000     0.00000000     0.00000000
     0.00000000     0.00000000     0.00000000
     0.00000000     0.00000000     0.00000000
     0.00000000     0.00000000     0.00000000
     0.00000000     0.00000000     0.00000000
     0.00000000     0.00000000     0.00000000
     0.00000000     0.00000000     0.00000000
     0.00000000     0.00000000     0.00000000
     0.00000000     0.00000000     0.00000000
     0.00000000     0.00000000     0.00000000
     0.00000000     0.00000000     0.00000000
     0.00000000     0.00000000     0.00000000
     0.00000000     0.00000000     0.00000000
     0.00000000     0.00000000     0.00000000
     0.00000000     0.00000000     0.00000000
     0.00000000     0.00000000     0.00000000
     0.00000000     0.00000000     0.00000000
    -0.10035907     0.01770526     0.01371011
    -0.15633156    -0.03191648     0.01937128
    -0.15844726    -0.00387753    -0.00074629
    -0.14442303    -0.00454349    -0.00654277
    -0.12632790    -0.00342330    -0.00840084
    -0.10648735    -0.00072313    -0.00874480
    -0.08626607     0.00314303    -0.00861304
    -0.06602281     0.00763269    -0.00833707
    -0.04590330     0.01204196    -0.00780329
    -0.02583526     0.01624026    -0.00638378
     0.00000000     0.00000000     0.00000000
    -0.31080902     0.01293565     0.03468105
    -0.32371251    -0.04119526     0.01992959
    -0.31069294    -0.04055673    -0.00476692
    -0.27232061    -0.04236188    -0.01552557
    -0.22867191    -0.03927576    -0.01930957
    -0.18545319    -0.03189877    -0.01965314
    -0.14361071    -0.02293891    -0.01883865
    -0.10328232    -0.01333946    -0.01749369
    -0.06472262    -0.00353672    -0.01506314
    -0.02865376     0.00351019    -0.01001548
     0.00000000     0.00000000     0.00000000
    -0.37182706     0.04489731     0.03563469
    -0.35912718    -0.01462120     0.01645836
    -0.32137107    -0.06874234    -0.00612804
    -0.27244430    -0.07811539    -0.01754702
    -0.22522548    -0.07208085    -0.02077974
    -0.18013405    -0.06270874    -0.02057876
    -0.13746653    -0.05205582    -0.01937063
    -0.09679475    -0.04116717    -0.01779122
    -0.05804392    -0.03056715    -0.01523922
    -0.02307268    -0.01829297    -0.01012521
     0.00000000     0.00000000     0.00000000
    -0.18268908     0.03518149     0.01524620
    -0.21648917     0.01563882     0.01249416
    -0.16117909    -0.05964156    -0.00715736
    -0.13372290    -0.05899788    -0.00988503
    -0.11049549    -0.05606226    -0.00975487
    -0.08966006    -0.05074144    -0.00897669
    -0.06997546    -0.04517126    -0.00832413
    -0.05082522    -0.03958494    -0.00785411
    -0.03211849    -0.03369090    -0.00730281
    -0.01355395    -0.02741096    -0.00601145
     0.00000000     0.00000000     0.00000000
     0.00000000     0.00000000     0.00000000
     0.00000000     0.00000000     0.00000000
     0.00000000     0.00000000     0.00000000
     0.00000000     0.00000000     0.00000000
     0.00000000     0.00000000     0.00000000
     0.00000000     0.00000000     0.00000000
     0.00000000     0.00000000     0.00000000
     0.00000000     0.00000000     0.00000000
     0.00000000     0.00000000     0.00000000
     0.00000000     0.00000000     0.00000000
     0.00000000     0.00000000     0.00000000
     0.00000000     0.00000000     0.00000000
     0.00000000     0.00000000     0.00000000
     0.00000000     0.00000000     0.00000000
     0.00000000     0.00000000     0.00000000
     0.00000000     0.00000000     0.00000000
     0.00000000     0.00000000     0.00000000
     0.00000000     0.00000000     0.00000000
     0.00000000     0.00000000     0.00000000
     0.00000000     0.00000000     0.00000000
     0.00000000     0.00000000     0.00000000
     0.00000000     0.00000000     0.00000000
    -0.07894196     0.01620556     0.02099277
    -0.13310804    -0.02616345     0.03250755
    -0.12977175    -0.00035619    -0.00270509
    -0.11669550    -0.00204030    -0.01142294
    -0.10233649    -0.00166745    -0.01388094
    -0.08708216    -0.00018092    -0.01418446
    -0.07150039     0.00259436    -0.01393360
    -0.05577964     0.00607172    -0.01354833
    -0.03979445     0.00951046    -0.01282802
    -0.02335619     0.01345137    -0.01079742
     0.00000000     0.00000000     0.00000000
    -0.24894487     0.00962406     0.05608827
    -0.27577412    -0.03487731     0.03585833
    -0.26029115    -0.03296403    -0.01006976
    -0.22508916    -0.03396601    -0.02743776
    -0.18829742    -0.03173167    -0.03261058
    -0.15348905    -0.02620065    -0.03255147
    -0.12024584    -0.01926510    -0.03105826
    -0.08809017    -0.01162545    -0.02899261
    -0.05667513    -0.00353904    -0.02535073
    -0.02605567     0.00260632    -0.01735183
     0.00000000     0.00000000     0.00000000
    -0.29806239     0.03536857     0.05744176
    -0.30627346    -0.01216040     0.03042262
    -0.26882316    -0.05863246    -0.01259367
    -0.22456346    -0.06550325    -0.03107652
    -0.18505482    -0.05999802    -0.03513577
    -0.14895337    -0.05229827    -0.03410748
    -0.11516449    -0.04375383    -0.03195258
    -0.08273858    -0.03506338    -0.02950497
    -0.05109879    -0.02647812    -0.02566835
    -0.02130095    -0.01614597    -0.01756169
     0.00000000     0.00000000     0.00000000
    -0.13996343     0.02642671     0.02121518
    -0.18087552     0.01266092     0.02115160
    -0.12867768    -0.04992190    -0.01303536
    -0.10606057    -0.04824428    -0.01658458
    -0.08830371    -0.04619437    -0.01583947
    -0.07286052    -0.04195806    -0.01439966
    -0.05794859    -0.03765034    -0.01337901
    -0.04315192    -0.03334638    -0.01271786
    -0.02833661    -0.02858931    -0.01198641
    -0.01287373    -0.02382426    -0.01016585
     0.00000000     0.00000000     0.00000000
     0.00000000     0.00000000     0.00000000
     0.00000000     0.00000000     0.00000000
     0.00000000     0.00000000     0.00000000
     0.00000000     0.00000000     0.00000000
     0.00000000     0.00000000     0.00000000
     0.00000000     0.00000000     0.00000000
     0.00000000     0.00000000     0.00000000
     0.00000000     0.00000000     0.00000000
     0.00000000     0.00000000     0.00000000
     0.00000000     0.00000000     0.00000000
     0.00000000     0.00000000     0.00000000
     0.00000000     0.00000000     0.00000000
     0.00000000     0.00000000     0.00000000
     0.00000000     0.00000000     0.00000000
     0.00000000     0.00000000     0.00000000
     0.00000000     0.00000000     0.00000000
     0.00000000     0.00000000     0.00000000
     0.00000000     0.00000000     0.00000000
     0.00000000     0.00000000     0.00000000
     0.00000000     0.00000000     0.00000000
     0.00000000     0.00000000     0.00000000
     0.00000000     0.00000000     0.00000000
    -0.04657132     0.01444296     0.01657293
    -0.09585166    -0.01716845     0.03419760
    -0.08504193     0.00470656    -0.00569708
    -0.07526899     0.00175381    -0.01251671
    -0.06755985     0.00015452    -0.01412499
    -0.05902066     0.00041797    -0.01430274
    -0.04992919     0.00183521    -0.01403221
    -0.04042997     0.00393179    -0.01369543
    -0.03066473     0.00631140    -0.01329409
    -0.01934098     0.00936078    -0.01192994
     0.00000000     0.00000000     0.00000000
    -0.15405062     0.00799753     0.05072582
    -0.19799934    -0.02381531     0.04161053
    -0.17793840    -0.02003626    -0.01548243
    -0.14970880    -0.02011477    -0.03077074
    -0.12570743    -0.02027772    -0.03398090
    -0.10452815    -0.01748161    -0.03321940
    -0.08439746    -0.01349132    -0.03157747
    -0.06447244    -0.00874646    -0.02974949
    -0.04412276    -0.00316208    -0.02689762
    -0.02169156     0.00135654    -0.01968047
     0.00000000     0.00000000     0.00000000
    -0.18379579     0.02355914     0.05050359
    -0.21973209    -0.00734643     0.03662938
    -0.18247520    -0.04108937    -0.01855067
    -0.14760181    -0.04499291    -0.03488448
    -0.12271528    -0.04083467    -0.03657062
    -0.10114784    -0.03612236    -0.03478953
    -0.08085692    -0.03094869    -0.03249384
    -0.06077066    -0.02561068    -0.03030001
    -0.04007581    -0.02032717    -0.02726926
    -0.01819122    -0.01272840    -0.01995273
     0.00000000     0.00000000     0.00000000
    -0.07961294     0.01599527     0.01211643
    -0.12705144     0.00901175     0.02262014
    -0.07996394    -0.03493197    -0.01618761
    -0.06555574    -0.03280350    -0.01724282
    -0.05708579    -0.03149556    -0.01568708
    -0.04896637    -0.02914423    -0.01429387
    -0.04050284    -0.02664200    -0.01335569
    -0.03160168    -0.02407161    -0.01280277
    -0.02241012    -0.02138587    -0.01240545
    -0.01156088    -0.01832735    -0.01124592
     0.00000000     0.00000000     0.00000000
     0.00000000     0.00000000     0.00000000
     0.00000000     0.00000000     0.00000000
     0.00000000     0.00000000     0.00000000
     0.00000000     0.00000000     0.00000000
     0.00000000     0.00000000     0.00000000
     0.00000000     0.00000000     0.00000000
     0.00000000     0.00000000     0.00000000
     0.00000000     0.00000000     0.00000000
     0.00000000     0.00000000     0.00000000
     0.00000000     0.00000000     0.00000000
     0.00000000     0.00000000     0.00000000
     0.00000000     0.00000000     0.00000000
     0.00000000     0.00000000     0.00000000
     0.00000000     0.00000000     0.00000000
     0.00000000     0.00000000     0.00000000
     0.00000000     0.00000000     0.00000000
     0.00000000     0.00000000     0.00000000
     0.00000000     0.00000000     0.00000000
     0.00000000     0.00000000     0.00000000
     0.00000000     0.00000000     0.00000000
     0.00000000     0.00000000     0.00000000
     0.00000000     0.00000000     0.00000000
    -0.01224106     0.01428714     0.00131416
    -0.04739996    -0.00652113     0.02076781
    -0.03010342     0.00876360    -0.00647484
    -0.02948928     0.00141858    -0.00781645
    -0.02933324     0.00074409    -0.00885650
    -0.02758339     0.00035708    -0.00886923
    -0.02492987     0.00082238    -0.00874982
    -0.02170097     0.00161592    -0.00864746
    -0.01816549     0.00217524    -0.00833845
    -0.01495530     0.00473703    -0.00877624
     0.00000000     0.00000000     0.00000000
    -0.04543416     0.01177804     0.01134142
    -0.09590737    -0.00777898     0.02794151
    -0.07044784    -0.00333503    -0.01604217
    -0.05953504    -0.00617323    -0.01928443
    -0.05330568    -0.00800637    -0.02078039
    -0.04787130    -0.00763992    -0.02002273
    -0.04180067    -0.00656279    -0.01921931
    -0.03500169    -0.00498864    -0.01847495
    -0.02736329    -0.00265980    -0.01715960
    -0.01709714    -0.00007373    -0.01529148
     0.00000000     0.00000000     0.00000000
    -0.05368049     0.01213617     0.00841014
    -0.10585859    -0.00077813     0.02518680
    -0.06934038    -0.01659645    -0.01860697
    -0.05649782    -0.01823168    -0.02171976
    -0.05108801    -0.01757323    -0.02215131
    -0.04590544    -0.01689944    -0.02087788
    -0.03998478    -0.01552328    -0.01974180
    -0.03319614    -0.01374727    -0.01882136
    -0.02530232    -0.01196780    -0.01741738
    -0.01499839    -0.00890678    -0.01552872
     0.00000000     0.00000000     0.00000000
    -0.01609035     0.00352331    -0.00847950
    -0.06043661     0.00468003     0.01328179
    -0.02218450    -0.01574268    -0.01301740
    -0.02411245    -0.01252316    -0.00994552
    -0.02395125    -0.01424313    -0.00948223
    -0.02271455    -0.01401295    -0.00864706
    -0.02030927    -0.01351926    -0.00822652
    -0.01726127    -0.01274917    -0.00803061
    -0.01407615    -0.01149260    -0.00774048
    -0.01019342    -0.01207402    -0.00826121
     0.00000000     0.00000000     0.00000000
     0.00000000     0.00000000     0.00000000
     0.00000000     0.00000000     0.00000000
     0.00000000     0.00000000     0.00000000
     0.00000000     0.00000000     0.00000000
     0.00000000     0.00000000     0.00000000
     0.00000000     0.00000000     0.00000000
     0.00000000     0.00000000     0.00000000
     0.00000000     0.00000000     0.00000000
     0.00000000     0.00000000     0.00000000
     0.00000000     0.00000000     0.00000000
     0.00000000     0.00000000     0.00000000
     0.00000000     0.00000000     0.00000000
     0.00000000     0.00000000     0.00000000
     0.00000000     0.00000000     0.00000000
     0.00000000     0.00000000     0.00000000
     0.00000000     0.00000000     0.00000000
     0.00000000     0.00000000     0.00000000
     0.00000000     0.00000000     0.00000000
     0.00000000     0.00000000     0.00000000
     0.00000000     0.00000000     0.00000000
     0.00000000     0.00000000     0.00000000
     0.00000000     0.00000000     0.00000000
     0.00000000     0.00000000     0.00000000
     0.00000000     0.00000000     0.00000000
     0.00000000     0.00000000     0.00000000
     0.00000000     0.00000000     0.00000000
     0.00000000     0.00000000     0.00000000
     0.00000000     0.00000000     0.00000000
     0.00000000     0.00000000     0.00000000
     0.00000000     0.00000000     0.00000000
     0.00000000     0.00000000     0.00000000
     0.00000000     0.00000000     0.00000000
     0.00000000     0.00000000     0.00000000
     0.00000000     0.00000000     0.00000000
     0.00000000     0.00000000     0.00000000
     0.00000000     0.00000000     0.00000000
     0.00000000     0.00000000     0.00000000
     0.00000000     0.00000000     0.00000000
     0.00000000     0.00000000     0.00000000
     0.00000000     0.00000000     0.00000000
     0.00000000     0.00000000     0.00000000
     0.00000000     0.00000000     0.00000000
     0.00000000     0.00000000     0.00000000
     0.00000000     0.00000000     0.00000000
     0.00000000     0.00000000     0.00000000
     0.00000000     0.00000000     0.00000000
     0.00000000     0.00000000     0.00000000
     0.00000000     0.00000000     0.00000000
     0.00000000     0.00000000     0.00000000
     0.00000000     0.00000000     0.00000000
     0.00000000     0.00000000     0.00000000
     0.00000000     0.00000000     0.00000000
     0.00000000     0.00000000     0.00000000
     0.00000000     0.00000000     0.00000000
     0.00000000     0.00000000     0.00000000
     0.00000000     0.00000000     0.00000000
     0.00000000     0.00000000     0.00000000
     0.00000000     0.00000000     0.00000000
     0.00000000     0.00000000     0.00000000
     0.00000000     0.00000000     0.00000000
     0.00000000     0.00000000     0.00000000
     0.00000000     0.00000000     0.00000000
     0.00000000     0.00000000     0.00000000
     0.00000000     0.00000000     0.00000000
     0.00000000     0.00000000     0.00000000
     0.00000000     0.00000000     0.00000000
     0.00000000     0.00000000     0.00000000
     0.00000000     0.00000000     0.00000000
     0.00000000     0.00000000     0.00000000
     0.00000000     0.00000000     0.00000000
     0.00000000     0.00000000     0.00000000
     0.00000000     0.00000000     0.00000000
     0.00000000     0.00000000     0.00000000
     0.00000000     0.00000000     0.00000000
     0.00000000     0.00000000     0.00000000
     0.00000000     0.00000000     0.00000000
     0.00000000     0.00000000     0.00000000
     0.00000000     0.00000000     0.00000000
     0.00000000     0.00000000     0.00000000
     0.00000000     0.00000000     0.00000000
     0.00000000     0.00000000     0.00000000
     0.00000000     0.00000000     0.00000000
     0.00000000     0.00000000     0.00000000
     0.00000000     0.00000000     0.00000000
     0.00000000     0.00000000     0.00000000
    -0.22016751     0.02689352     0.00000000
    -0.21090100     0.03998471     0.00000000
    -0.17398783     0.02983812     0.00000000
    -0.13543421     0.02157817     0.00000000
    -0.10220722     0.01345297     0.00000000
    -0.07364197     0.00631844     0.00000000
    -0.04810179     0.00002145     0.00000000
    -0.02483489    -0.00676062     0.00000000
     0.00000000     0.00000000     0.00000000
    -0.32285456     0.04824738     0.00000000
    -0.30385850     0.06716721     0.00000000
    -0.25256311     0.06071480     0.00000000
    -0.19808099     0.04774240     0.00000000
    -0.14851189     0.03447163     0.00000000
    -0.10419534     0.02236389     0.00000000
    -0.06394906     0.01119967     0.00000000
    -0.02740869     0.00168119     0.00000000
     0.00000000     0.00000000     0.00000000
    -0.31821657     0.04235884     0.00000000
    -0.29112450     0.07996595     0.00000000
    -0.23839358     0.07539208     0.00000000
    -0.18693422     0.06190717     0.00000000
    -0.14015207     0.04830405     0.00000000
    -0.09799590     0.03577536     0.00000000
    -0.05914909     0.02457467     0.00000000
    -0.02383275     0.01377967     0.00000000
     0.00000000     0.00000000     0.00000000
    -0.21051839     0.02034174     0.00000000
    -0.17092562     0.06317693     0.00000000
    -0.13914546     0.05461646     0.00000000
    -0.10980307     0.04694371     0.00000000
    -0.08408773     0.03861741     0.00000000
    -0.06060533     0.03128657     0.00000000
    -0.03852433     0.02434283     0.00000000
    -0.01705833     0.01870635     0.00000000
     0.00000000     0.00000000     0.00000000
     0.00000000     0.00000000     0.00000000
     0.00000000     0.00000000     0.00000000
     0.00000000     0.00000000     0.00000000
     0.00000000     0.00000000     0.00000000
     0.00000000     0.00000000     0.00000000
     0.00000000     0.00000000     0.00000000
     0.00000000     0.00000000     0.00000000
     0.00000000     0.00000000     0.00000000
     0.00000000     0.00000000     0.00000000
     0.00000000     0.00000000     0.00000000
     0.00000000     0.00000000     0.00000000
     0.00000000     0.00000000     0.00000000
     0.00000000     0.00000000     0.00000000
     0.00000000     0.00000000     0.00000000
     0.00000000     0.00000000     0.00000000
     0.00000000     0.00000000     0.00000000
     0.00000000     0.00000000     0.00000000
     0.00000000     0.00000000     0.00000000
    -0.20111323     0.02643161     0.02565003
    -0.18973989     0.03521725    -0.00798235
    -0.15699299     0.02714275    -0.01272089
    -0.12356101     0.01989047    -0.01058483
    -0.09433541     0.01263000    -0.00794753
    -0.06871296     0.00611132    -0.00626582
    -0.04538203     0.00026621    -0.00531033
    -0.02378853    -0.00617566    -0.00441927
     0.00000000     0.00000000     0.00000000
    -0.29941118     0.04753107     0.03412584
    -0.27921641     0.06161678    -0.00850564
    -0.23196842     0.05555731    -0.01583727
    -0.18290803     0.04404462    -0.01542270
    -0.13827555     0.03211838    -0.01268325
    -0.09795172     0.02108938    -0.01049582
    -0.06079103     0.01072998    -0.00877666
    -0.02641723     0.00173782    -0.00603471
     0.00000000     0.00000000     0.00000000
    -0.29698409     0.04179169     0.03005701
    -0.26913372     0.07431882    -0.00661391
    -0.22011258     0.06945819    -0.01529173
    -0.17336033     0.05727461    -0.01440010
    -0.13091003     0.04502278    -0.01196876
    -0.09234908     0.03363513    -0.01001432
    -0.05634795     0.02332875    -0.00848288
    -0.02305090     0.01319340    -0.00587897
     0.00000000     0.00000000     0.00000000
    -0.19577854     0.02025981     0.01961738
    -0.15639619     0.05841433    -0.00678954
    -0.12761130     0.04984787    -0.00927224
    -0.10135859     0.04311734    -0.00786288
    -0.07823896     0.03572991    -0.00621747
    -0.05688170     0.02914841    -0.00524034
    -0.03655267     0.02282768    -0.00469919
    -0.01651241     0.01768935    -0.00408448
     0.00000000     0.00000000     0.00000000
     0.00000000     0.00000000     0.00000000
     0.00000000     0.00000000     0.00000000
     0.00000000     0.00000000     0.00000000
     0.00000000     0.00000000     0.00000000
     0.00000000     0.00000000     0.00000000
     0.00000000     0.00000000     0.00000000
     0.00000000     0.00000000     0.00000000
     0.00000000     0.00000000     0.00000000
     0.00000000     0.00000000     0.00000000
     0.00000000     0.00000000     0.00000000
     0.00000000     0.00000000     0.00000000
     0.00000000     0.00000000     0.00000000
     0.00000000     0.00000000     0.00000000
     0.00000000     0.00000000     0.00000000
     0.00000000     0.00000000     0.00000000
     0.00000000     0.00000000     0.00000000
     0.00000000     0.00000000     0.00000000
     0.00000000     0.00000000     0.00000000
    -0.15559991     0.02485301     0.03951903
    -0.13827513     0.02358459    -0.01316497
    -0.11605247     0.02063220    -0.01985720
    -0.09514216     0.01594025    -0.01633086
    -0.07553057     0.01089536    -0.01235356
    -0.05686756     0.00572632    -0.00994886
    -0.03881729     0.00100618    -0.00862504
    -0.02132941    -0.00453994    -0.00743016
     0.00000000     0.00000000     0.00000000
    -0.23850971     0.04473140     0.05443072
    -0.21435176     0.04675574    -0.01488609
    -0.17743768     0.04194848    -0.02573655
    -0.14253846     0.03441155    -0.02445787
    -0.11092108     0.02606704    -0.02007351
    -0.08107921     0.01780851    -0.01687563
    -0.05211339     0.00955965    -0.01446980
    -0.02368688     0.00203772    -0.01032610
     0.00000000     0.00000000     0.00000000
    -0.24101647     0.03979204     0.04896125
    -0.21059063     0.05893665    -0.01207178
    -0.17119701     0.05371844    -0.02515106
    -0.13696941     0.04485584    -0.02306969
    -0.10613865     0.03613669    -0.01908363
    -0.07709307     0.02775421    -0.01618485
    -0.04868989     0.01982329    -0.01403580
    -0.02097254     0.01146345    -0.01009050
     0.00000000     0.00000000     0.00000000
    -0.15945411     0.02014392     0.03177711
    -0.12042143     0.04630083    -0.01176807
    -0.09922556     0.03824829    -0.01499748
    -0.08081481     0.03383476    -0.01245668
    -0.06419210     0.02862779    -0.00983024
    -0.04788859     0.02391750    -0.00841256
    -0.03182153     0.01905212    -0.00767685
    -0.01534327     0.01508575    -0.00689238
     0.00000000     0.00000000     0.00000000
     0.00000000     0.00000000     0.00000000
     0.00000000     0.00000000     0.00000000
     0.00000000     0.00000000     0.00000000
     0.00000000     0.00000000     0.00000000
     0.00000000     0.00000000     0.00000000
     0.00000000     0.00000000     0.00000000
     0.00000000     0.00000000     0.00000000
     0.00000000     0.00000000     0.00000000
     0.00000000     0.00000000     0.00000000
     0.00000000     0.00000000     0.00000000
     0.00000000     0.00000000     0.00000000
     0.00000000     0.00000000     0.00000000
     0.00000000     0.00000000     0.00000000
     0.00000000     0.00000000     0.00000000
     0.00000000     0.00000000     0.00000000
     0.00000000     0.00000000     0.00000000
     0.00000000     0.00000000     0.00000000
     0.00000000     0.00000000     0.00000000
    -0.09906496     0.01943532     0.03700011
    -0.07499676     0.00958718    -0.01414795
    -0.06606075     0.01225472    -0.01870467
    -0.06006059     0.01128599    -0.01515240
    -0.05108082     0.00833114    -0.01183222
    -0.04043770     0.00494669    -0.00981127
    -0.02937098     0.00161167    -0.00881550
    -0.01754743    -0.00238860    -0.00814450
     0.00000000     0.00000000     0.00000000
    -0.15770903     0.03586955     0.05378367
    -0.12729166     0.02632581    -0.01794077
    -0.10469613     0.02390618    -0.02548143
    -0.08928935     0.02207488    -0.02326840
    -0.07410521     0.01792984    -0.01930854
    -0.05749726     0.01313755    -0.01667609
    -0.03964686     0.00766838    -0.01496300
    -0.01950398     0.00232012    -0.01155227
     0.00000000     0.00000000     0.00000000
    -0.16371081     0.03305053     0.05007872
    -0.12944519     0.03695500    -0.01551945
    -0.10355706     0.03259888    -0.02545023
    -0.08764035     0.02825228    -0.02226731
    -0.07199362     0.02417952    -0.01856031
    -0.05531880     0.01957211    -0.01611517
    -0.03742214     0.01490980    -0.01458884
    -0.01765131     0.00893427    -0.01134087
     0.00000000     0.00000000     0.00000000
    -0.10980943     0.01771593     0.03248346
    -0.07141936     0.02950249    -0.01383675
    -0.06086658     0.02329300    -0.01490171
    -0.05368813     0.02147645    -0.01200591
    -0.04474148     0.01922268    -0.00966837
    -0.03478948     0.01662702    -0.00841445
    -0.02459797     0.01388097    -0.00790029
    -0.01331718     0.01133419    -0.00758951
     0.00000000     0.00000000     0.00000000
     0.00000000     0.00000000     0.00000000
     0.00000000     0.00000000     0.00000000
     0.00000000     0.00000000     0.00000000
     0.00000000     0.00000000     0.00000000
     0.00000000     0.00000000     0.00000000
     0.00000000     0.00000000     0.00000000
     0.00000000     0.00000000     0.00000000
     0.00000000     0.00000000     0.00000000
     0.00000000     0.00000000     0.00000000
     0.00000000     0.00000000     0.00000000
     0.00000000     0.00000000     0.00000000
     0.00000000     0.00000000     0.00000000
     0.00000000     0.00000000     0.00000000
     0.00000000     0.00000000     0.00000000
     0.00000000     0.00000000     0.00000000
     0.00000000     0.00000000     0.00000000
     0.00000000     0.00000000     0.00000000
     0.00000000     0.00000000     0.00000000
    -0.04572495     0.00639695     0.02166358
    -0.01708475    -0.00089268    -0.01024979
    -0.02403537     0.00679865    -0.01019747
    -0.02719118     0.00595312    -0.00865346
    -0.02543283     0.00484054    -0.00706479
    -0.02138465     0.00309209    -0.00613708
    -0.01662299     0.00180791    -0.00555960
    -0.01293861    -0.00031720    -0.00588720
     0.00000000     0.00000000     0.00000000
    -0.07187352     0.01719812     0.03108587
    -0.03595227     0.00542036    -0.01467755
    -0.03615196     0.00890872    -0.01364866
    -0.03789348     0.01015389    -0.01309394
    -0.03572054     0.00910589    -0.01118721
    -0.03030605     0.00733489    -0.01019158
    -0.02342333     0.00501089    -0.00940753
    -0.01469829     0.00244913    -0.00875365
     0.00000000     0.00000000     0.00000000
    -0.07782428     0.01827323     0.03061620
    -0.03951639     0.01198295    -0.01389450
    -0.03733192     0.01106582    -0.01401447
    -0.03829238     0.01199463    -0.01270385
    -0.03529345     0.01170644    -0.01089387
    -0.02956636     0.01023189    -0.00993061
    -0.02247740     0.00848166    -0.00921862
    -0.01375820     0.00601538    -0.00864233
     0.00000000     0.00000000     0.00000000
    -0.05331318     0.01171167     0.02024093
    -0.01790382     0.01035344    -0.01084698
    -0.02506857     0.00756262    -0.00842234
    -0.02532851     0.00958213    -0.00719582
    -0.02280761     0.00934371    -0.00590684
    -0.01866613     0.00858428    -0.00533448
    -0.01435757     0.00719043    -0.00499263
    -0.01058088     0.00710480    -0.00550300
     0.00000000     0.00000000     0.00000000
     0.00000000     0.00000000     0.00000000
     0.00000000     0.00000000     0.00000000
     0.00000000     0.00000000     0.00000000
     0.00000000     0.00000000     0.00000000
     0.00000000     0.00000000     0.00000000
     0.00000000     0.00000000     0.00000000
     0.00000000     0.00000000     0.00000000
     0.00000000     0.00000000     0.00000000
     0.00000000     0.00000000     0.00000000
     0.00000000     0.00000000     0.00000000
     0.00000000     0.00000000     0.00000000
     0.00000000     0.00000000     0.00000000
     0.00000000     0.00000000     0.00000000
     0.00000000     0.00000000     0.00000000
     0.00000000     0.00000000     0.00000000
     0.00000000     0.00000000     0.00000000
     0.00000000     0.00000000     0.00000000
     0.00000000     0.00000000     0.00000000
     0.00000000     0.00000000     0.00000000
     0.00000000     0.00000000     0.00000000
     0.00000000     0.00000000     0.00000000
     0.00000000     0.00000000     0.00000000
     0.00000000     0.00000000     0.00000000
     0.00000000     0.00000000     0.00000000
     0.00000000     0.00000000     0.00000000
     0.00000000     0.00000000     0.00000000
     0.00000000     0.00000000     0.00000000
     0.00000000     0.00000000     0.00000000
     0.00000000     0.00000000     0.00000000
     0.00000000     0.00000000     0.00000000
     0.00000000     0.00000000     0.00000000
     0.00000000     0.00000000     0.00000000
     0.00000000     0.00000000     0.00000000
     0.00000000     0.00000000     0.00000000
     0.00000000     0.00000000     0.00000000
     0.00000000     0.00000000     0.00000000
     0.00000000     0.00000000     0.00000000
     0.00000000     0.00000000     0.00000000
     0.00000000     0.00000000     0.00000000
     0.00000000     0.00000000     0.00000000
     0.00000000     0.00000000     0.00000000
     0.00000000     0.00000000     0.00000000
     0.00000000     0.00000000     0.00000000
     0.00000000     0.00000000     0.00000000
     0.00000000     0.00000000     0.00000000
     0.00000000     0.00000000     0.00000000
     0.00000000     0.00000000     0.00000000
     0.00000000     0.00000000     0.00000000
     0.00000000     0.00000000     0.00000000
     0.00000000     0.00000000     0.00000000
     0.00000000     0.00000000     0.00000000
     0.00000000     0.00000000     0.00000000
     0.00000000     0.00000000     0.00000000
     0.00000000     0.00000000     0.00000000
     0.00000000     0.00000000     0.00000000
     0.00000000     0.00000000     0.00000000
     0.00000000     0.00000000     0.00000000
     0.00000000     0.00000000     0.00000000
     0.00000000     0.00000000     0.00000000
     0.00000000     0.00000000     0.00000000
     0.00000000     0.00000000     0.00000000
     0.00000000     0.00000000     0.00000000
     0.00000000     0.00000000     0.00000000
    -0.18180775    -0.01631865     0.00000000
    -0.16763826    -0.04414485     0.00000000
    -0.16032489    -0.12323172     0.00000000
    -0.14697617    -0.17160353     0.00000000
    -0.12531969    -0.18057014     0.00000000
    -0.09515355    -0.17834901     0.00000000
    -0.06026771    -0.15461932     0.00000000
    -0.03257766    -0.10821370     0.00000000
    -0.01591406    -0.05291292     0.00000000
     0.00000000     0.00000000     0.00000000
    -0.18290427    -0.01661748     0.01024764
    -0.16943119    -0.04663758     0.02073189
    -0.16304370    -0.12354423     0.03443688
    -0.14758209    -0.17311509     0.03973325
    -0.12572723    -0.18457805     0.04197147
    -0.09496955    -0.18218833     0.03895372
    -0.06028012    -0.15773261     0.03379951
    -0.03222499    -0.10897742     0.02732282
    -0.01567010    -0.05279609     0.02257243
     0.00000000     0.00000000     0.01706483
    -0.18547370    -0.01730178     0.02169620
    -0.17260423    -0.04893662     0.04108457
    -0.16778683    -0.12289912     0.06354616
    -0.14988436    -0.17496006     0.07351217
    -0.12644115    -0.19103536     0.07497486
    -0.09472945    -0.18854261     0.07119548
    -0.06022703    -0.16309272     0.06355668
    -0.03141866    -0.11047069     0.05175116
    -0.01417887    -0.05203379     0.04267911
     0.00000000     0.00000000     0.03353223
    -0.18804298    -0.01754529     0.03023555
    -0.17617190    -0.04882783     0.05726649
    -0.17252101    -0.12330459     0.08620715
    -0.15325099    -0.17403230     0.09932522
    -0.12703615    -0.19131518     0.09920917
    -0.09424420    -0.18792256     0.09673094
    -0.06019377    -0.16322233     0.08803470
    -0.03060277    -0.11310371     0.07381455
    -0.01237174    -0.05252309     0.05899721
     0.00000000     0.00000000     0.04767162
    -0.19125101    -0.01719443     0.03695930
    -0.17931588    -0.04818262     0.06998813
    -0.17715756    -0.12197698     0.10374044
    -0.15622623    -0.16948002     0.11780911
    -0.12745818    -0.19016091     0.12059494
    -0.09392221    -0.19085885     0.11658357
    -0.05982486    -0.16688379     0.10553154
    -0.03031638    -0.11760687     0.08986110
    -0.01164079    -0.05497045     0.07143433
     0.00000000     0.00000000     0.05863593
    -0.19308666    -0.01751128     0.04176244
    -0.18394204    -0.04657842     0.08061586
    -0.18353937    -0.11550223     0.11755009
    -0.16103478    -0.16388492     0.13241376
    -0.13249278    -0.18357610     0.13568607
    -0.09662184    -0.18327851     0.12986448
    -0.05852296    -0.16103788     0.11665457
    -0.02310282    -0.11537426     0.09965282
    -0.01257330    -0.05909875     0.08131078
     0.00000000     0.00000000     0.06699639
    -0.19229026    -0.01648228     0.04624093
    -0.19143449    -0.04429112     0.08822384
    -0.18824734    -0.10760882     0.12642388
    -0.16586910    -0.15110806     0.14549345
    -0.13859064    -0.16785219     0.15100422
    -0.09873662    -0.16798888     0.14549771
    -0.05703850    -0.14704601     0.13118107
    -0.01637406    -0.10643590     0.11088173
    -0.00604121    -0.05947883     0.09247793
     0.00000000     0.00000000     0.07774548
    -0.19199457    -0.01419382     0.04971797
    -0.19596997    -0.04050112     0.09315665
    -0.19352406    -0.09423687     0.12952840
    -0.16816255    -0.13172559     0.14985195
    -0.13781282    -0.15089878     0.15770737
    -0.09744069    -0.15018655     0.15832536
    -0.05831460    -0.13177095     0.14546848
    -0.01299179    -0.09482019     0.12060566
    -0.00159835    -0.05629858     0.10370489
     0.00000000     0.00000000     0.08467816
    -0.19312920    -0.01200092     0.05115933
    -0.19771308    -0.03343995     0.09531414
    -0.19896281    -0.07389953     0.13171648
    -0.17236528    -0.10061514     0.14769449
    -0.13564575    -0.11833911     0.15062730
    -0.09538532    -0.12383176     0.14843216
    -0.05331065    -0.11258504     0.14271932
    -0.01705781    -0.08039683     0.12353959
    -0.00047689    -0.04975509     0.11006387
     0.00000000     0.00000000     0.08646516
    -0.19394992    -0.00977821     0.05092389
    -0.19896015    -0.02396475     0.09493215
    -0.20168479    -0.04871049     0.13157750
    -0.17476607    -0.06379955     0.14453086
    -0.13694010    -0.07280439     0.14722525
    -0.09420487    -0.07597145     0.13986734
    -0.05135757    -0.07096254     0.13213829
    -0.01298996    -0.05234011     0.11733387
     0.00131714    -0.03821551     0.11314226
     0.00000000     0.00000000     0.08288147
    -0.19458548    -0.00872442     0.04961044
    -0.19817018    -0.01351228     0.09289659
    -0.20118215    -0.02044571     0.12898207
    -0.17443760    -0.02447166     0.14118010
    -0.13630523    -0.02606736     0.14354476
    -0.09407818    -0.02515146     0.13746809
    -0.05000232    -0.02090698     0.12947680
    -0.01172094    -0.01899695     0.11325895
     0.00419056    -0.02209159     0.11615529
     0.00000000     0.00000000     0.07414308
    -0.19138332    -0.00630021     0.04803480
    -0.19506384    -0.00319726     0.08923898
    -0.19743085     0.00710534     0.12450412
    -0.17110306     0.01405229     0.13778008
    -0.13402884     0.01994193     0.14024739
    -0.09268808     0.02473762     0.13498229
    -0.05021539     0.02714551     0.12876424
    -0.01453413     0.01436953     0.11601358
     0.00385287    -0.00406043     0.11415342
     0.00000000     0.00000000     0.09309384
    -0.18968026    -0.00358854     0.04514090
    -0.19034993     0.00725117     0.08339319
    -0.19052899     0.03004443     0.11712863
    -0.16462365     0.04897486     0.13215398
    -0.13047992     0.06178232     0.13649232
    -0.09414921     0.06591594     0.13872686
    -0.05318928     0.05430868     0.13387319
    -0.01394218     0.03733199     0.11379330
     0.00139641     0.01257276     0.11075922
     0.00000000     0.00000000     0.09964102
    -0.18743193    -0.00047728     0.04089628
    -0.18488372     0.01396579     0.07530452
    -0.18064422     0.04850966     0.10554842
    -0.15924812     0.07193115     0.12431487
    -0.12780966     0.08435215     0.13142862
    -0.09651654     0.08422644     0.13095555
    -0.05221154     0.07047276     0.11840073
    -0.01336511     0.04519801     0.09906538
    -0.00105128     0.02361360     0.09971047
     0.00000000     0.00000000     0.09408564
    -0.18553336     0.00195151     0.03671454
    -0.17602386     0.02054927     0.06366919
    -0.16994617     0.05647827     0.08487825
    -0.15222763     0.08350274     0.09698339
    -0.12493513     0.09624352     0.10013519
    -0.09075639     0.09639010     0.09648575
    -0.05187170     0.08037266     0.08688625
    -0.01861842     0.05046897     0.07197179
    -0.01230765     0.02787154     0.07231721
     0.00000000     0.00000000     0.07139425
    -0.18434100     0.00594591     0.03197382
    -0.17127506     0.02582407     0.05364344
    -0.16499405     0.06265036     0.07350058
    -0.14253050     0.09054270     0.08470578
    -0.11769124     0.10522980     0.08677989
    -0.08589566     0.10404162     0.08298620
    -0.05128257     0.08694769     0.07407097
    -0.02749433     0.05204392     0.06177744
    -0.01578094     0.02567048     0.05399777
     0.00000000     0.00000000     0.04985835
    -0.18212535     0.00688148     0.02702039
    -0.16931981     0.02839892     0.04545166
    -0.16129527     0.06505943     0.06297905
    -0.13937519     0.09158283     0.07296712
    -0.11262804     0.10392228     0.07748965
    -0.08343202     0.10397524     0.07605272
    -0.05328352     0.08547508     0.06795646
    -0.02761184     0.04812279     0.05342279
    -0.01226836     0.01590199     0.04623835
     0.00000000     0.00000000     0.04229056
    -0.17817625     0.00671303     0.02207080
    -0.16556646     0.02793000     0.03584957
    -0.15657886     0.06179438     0.04984198
    -0.13613747     0.08699378     0.05714921
    -0.11131532     0.09715230     0.05947648
    -0.08292925     0.09336368     0.05918345
    -0.05314319     0.07403494     0.05330101
    -0.02624819     0.03636538     0.04135655
    -0.01269397     0.01021018     0.03688580
     0.00000000     0.00000000     0.03376616
    -0.17535780     0.00692586     0.01570108
    -0.16314875     0.02705355     0.02455899
    -0.15277702     0.05860135     0.03596972
    -0.13336705     0.08345678     0.04079181
    -0.11015080     0.09312569     0.04045311
    -0.08283998     0.08908289     0.03929984
    -0.05321979     0.06855925     0.03516102
    -0.02667855     0.03056691     0.02820595
    -0.01382207     0.00987881     0.02586394
     0.00000000     0.00000000     0.02351640
    -0.17311017     0.00702115     0.00760213
    -0.16195589     0.02550184     0.01186752
    -0.15018140     0.05592963     0.01821799
    -0.13141543     0.08041542     0.02152411
    -0.10915465     0.08932119     0.02059030
    -0.08276692     0.08566377     0.01965666
    -0.05343838     0.06509645     0.01749220
    -0.02781031     0.02837000     0.01441622
    -0.01628875     0.01041195     0.01343158
     0.00000000     0.00000000     0.01203566
    -0.17216288     0.00674181     0.00000000
    -0.16136991     0.02494770     0.00000000
    -0.14928867     0.05500373     0.00000000
    -0.13062048     0.07878060     0.00000000
    -0.10886639     0.08764868     0.00000000
    -0.08266498     0.08432979     0.00000000
    -0.05353880     0.06385145     0.00000000
    -0.02841619     0.02776226     0.00000000
    -0.01696512     0.01066560     0.00000000
     0.00000000     0.00000000     0.00000000
    -0.19300224    -0.00652964     0.00000000
    -0.19300802    -0.00838722     0.00000000
    -0.19196032    -0.00837804     0.00000000
    -0.19087408    -0.00802569     0.00000000
    -0.18965570    -0.00681211     0.00000000
    -0.18866648    -0.00528996     0.00000000
    -0.18822261    -0.00365810     0.00000000
    -0.18817125    -0.00216951     0.00000000
    -0.18824865    -0.00134172     0.00000000
    -0.18843262    -0.00087797     0.00000000
    -0.18787608    -0.00178129     0.00000000
    -0.19334628    -0.00636910     0.00630515
    -0.19296178    -0.00793936     0.00775841
    -0.19211839    -0.00842409     0.00831907
    -0.19093713    -0.00792524     0.00803106
    -0.18969753    -0.00682634     0.00791724
    -0.18868625    -0.00529604     0.00769773
    -0.18826866    -0.00370392     0.00773016
    -0.18827774    -0.00228391     0.00771402
    -0.18845283    -0.00133672     0.00792620
    -0.18847907    -0.00120122     0.00747656
    -0.18810496    -0.00197359     0.00604282
    -0.19377106    -0.00615066     0.00992274
    -0.19317027    -0.00745416     0.01117603
    -0.19229407    -0.00806647     0.01210251
    -0.19110543    -0.00767202     0.01276980
    -0.18970883    -0.00666215     0.01299724
    -0.18866722    -0.00534438     0.01297896
    -0.18831200    -0.00389719     0.01284093
    -0.18850963    -0.00262929     0.01255115
    -0.18879931    -0.00180146     0.01184972
    -0.18891193    -0.00171165     0.01095788
    -0.18859874    -0.00225054     0.00968518
    -0.19396344    -0.00638564     0.01306523
    -0.19349537    -0.00726024     0.01452801
    -0.19259430    -0.00754659     0.01544861
    -0.19124525    -0.00720450     0.01621447
    -0.18972864    -0.00640419     0.01674162
    -0.18860684    -0.00535369     0.01678407
    -0.18828954    -0.00421869     0.01658806
    -0.18863485    -0.00313591     0.01601368
    -0.18916677    -0.00249541     0.01518812
    -0.18946836    -0.00229865     0.01406717
    -0.18920139    -0.00245979     0.01249528
    -0.19402541    -0.00693183     0.01597736
    -0.19358360    -0.00715750     0.01705462
    -0.19273032    -0.00709446     0.01785154
    -0.19130392    -0.00660851     0.01849624
    -0.18979436    -0.00608691     0.01894749
    -0.18875860    -0.00535109     0.01903350
    -0.18828196    -0.00458777     0.01872080
    -0.18859061    -0.00380403     0.01810524
    -0.18925626    -0.00309707     0.01740767
    -0.18964816    -0.00278191     0.01641967
    -0.18967175    -0.00261365     0.01508836
    -0.19381556    -0.00718097     0.01780812
    -0.19342619    -0.00704450     0.01893476
    -0.19256594    -0.00629591     0.01951987
    -0.19110751    -0.00583946     0.01995651
    -0.19016052    -0.00553500     0.02041539
    -0.18932829    -0.00549970     0.02045026
    -0.18852486    -0.00524497     0.01990420
    -0.18849023    -0.00483662     0.01923565
    -0.18903637    -0.00401717     0.01867782
    -0.18927577    -0.00330010     0.01801090
    -0.18948294    -0.00284019     0.01680870
