# vtk DataFile Version 3.0
Example VTK
ASCII
DATASET UNSTRUCTURED_GRID
POINTS  1589 float
 -0.897380916598E+01 -0.442620314529E+01  0.985922757281E-27
 -0.738961428696E+01 -0.592123951252E+01  0.171528189407E-26
 -0.580257400903E+01 -0.684704331497E+01  0.179543725301E-26
 -0.421836998760E+01 -0.742042613814E+01  0.185522523075E-26
 -0.263515460382E+01 -0.772012618538E+01  0.176487065524E-26
 -0.105574093675E+01 -0.776941285185E+01  0.136316417997E-26
  0.515882267302E+00 -0.757127954154E+01  0.347605466516E-27
  0.149084516848E+01 -0.704423685228E+01 -0.128140606120E-26
  0.255688000000E+01 -0.652469000000E+01 -0.297147354483E-26
 -0.897623194157E+01 -0.355350473386E+01 -0.697000711726E-02
 -0.743697821895E+01 -0.475449657665E+01  0.000000000000E+00
 -0.587155493349E+01 -0.549255632450E+01  0.000000000000E+00
 -0.430444371585E+01 -0.594882796800E+01  0.000000000000E+00
 -0.273773258087E+01 -0.618252058155E+01  0.000000000000E+00
 -0.116782988650E+01 -0.621228907403E+01  0.000000000000E+00
  0.419316800252E+00 -0.603052174310E+01  0.000000000000E+00
  0.154886872211E+01 -0.570471846343E+01  0.000000000000E+00
  0.279456421802E+01 -0.542271970516E+01  0.000000000000E+00
 -0.897979362296E+01 -0.268250044228E+01 -0.892587121379E-02
 -0.745789462454E+01 -0.358809907574E+01  0.000000000000E+00
 -0.591659594065E+01 -0.413869199380E+01  0.000000000000E+00
 -0.436451452267E+01 -0.447624970564E+01  0.000000000000E+00
 -0.280169282581E+01 -0.464520188356E+01  0.000000000000E+00
 -0.121821393100E+01 -0.465832711779E+01  0.000000000000E+00
  0.412108740209E+00 -0.451017518880E+01  0.000000000000E+00
  0.164545784854E+01 -0.441398063717E+01  0.000000000000E+00
  0.299315090938E+01 -0.435463474911E+01  0.000000000000E+00
 -0.898235015136E+01 -0.181128071642E+01 -0.107036886307E-01
 -0.747236100885E+01 -0.241703386318E+01  0.000000000000E+00
 -0.594492397438E+01 -0.278221683402E+01  0.000000000000E+00
 -0.440223820247E+01 -0.300376431453E+01  0.000000000000E+00
 -0.283973542489E+01 -0.311174073304E+01  0.000000000000E+00
 -0.124515426060E+01 -0.311503886906E+01  0.000000000000E+00
  0.406288196145E+00 -0.301304355097E+01  0.000000000000E+00
  0.172481818742E+01 -0.314125012743E+01  0.000000000000E+00
  0.315360289173E+01 -0.329165692907E+01  0.000000000000E+00
 -0.898485661410E+01 -0.940460233640E+00 -0.116758753011E-01
 -0.748143446161E+01 -0.124328384013E+01  0.000000000000E+00
 -0.596260629668E+01 -0.142350382091E+01  0.000000000000E+00
 -0.442533086001E+01 -0.153123394629E+01  0.000000000000E+00
 -0.286351179567E+01 -0.158148005850E+01  0.000000000000E+00
 -0.126515289630E+01 -0.157893563515E+01  0.000000000000E+00
  0.391102662195E+00 -0.152512848774E+01  0.000000000000E+00
  0.177626366257E+01 -0.186795220515E+01  0.000000000000E+00
  0.327172855074E+01 -0.221901260457E+01  0.000000000000E+00
 -0.898703689870E+01 -0.696891468812E-01 -0.124612660666E-01
 -0.748777089176E+01 -0.679797130584E-01  0.000000000000E+00
 -0.597304403385E+01 -0.634042020327E-01  0.000000000000E+00
 -0.443895483312E+01 -0.585847878818E-01  0.000000000000E+00
 -0.287801627601E+01 -0.527384659018E-01  0.000000000000E+00
 -0.127828145813E+01 -0.458652616519E-01  0.000000000000E+00
  0.380608590581E+00 -0.397191212264E-01  0.000000000000E+00
  0.181799245602E+01 -0.575074895156E+00  0.000000000000E+00
  0.333333000000E+01 -0.112691000000E+01 -0.419077107191E-26
 -0.898901526704E+01  0.801055575521E+00 -0.125565368140E-01
 -0.749021294624E+01  0.110779429575E+01  0.000000000000E+00
 -0.597649166109E+01  0.129705049852E+01  0.000000000000E+00
 -0.444270528690E+01  0.141400444098E+01  0.000000000000E+00
 -0.288044861091E+01  0.147492355223E+01  0.000000000000E+00
 -0.127443579005E+01  0.148529341477E+01  0.000000000000E+00
  0.402992416610E+00  0.143753393180E+01  0.000000000000E+00
  0.175144637959E+01  0.916307138556E+00  0.000000000000E+00
  0.318164752529E+01  0.376002644774E+00  0.000000000000E+00
 -0.899060518351E+01  0.167177505055E+01 -0.123469067097E-01
 -0.748994641511E+01  0.228294036200E+01  0.000000000000E+00
 -0.597252869185E+01  0.265678913078E+01  0.000000000000E+00
 -0.443743267875E+01  0.288644144716E+01  0.000000000000E+00
 -0.287646423342E+01  0.300290809903E+01  0.000000000000E+00
 -0.127248789761E+01  0.301552406119E+01  0.000000000000E+00
  0.405939935087E+00  0.291358405136E+01  0.000000000000E+00
  0.165373749283E+01  0.239970205345E+01  0.000000000000E+00
  0.298151621673E+01  0.189761335511E+01  0.000000000000E+00
 -0.899272782140E+01  0.254308601367E+01 -0.108523988456E-01
 -0.748477702979E+01  0.345601216776E+01  0.000000000000E+00
 -0.595806413348E+01  0.401477928365E+01  0.000000000000E+00
 -0.441857742564E+01  0.435936416272E+01  0.000000000000E+00
 -0.286340031889E+01  0.453451875129E+01  0.000000000000E+00
 -0.127709391727E+01  0.455372610847E+01  0.000000000000E+00
  0.375725057893E+00  0.440146083309E+01  0.000000000000E+00
  0.149782036681E+01  0.389092516022E+01  0.000000000000E+00
  0.270846579166E+01  0.341608092443E+01  0.000000000000E+00
 -0.899504130417E+01  0.341422852792E+01 -0.854613535026E-02
 -0.747400108389E+01  0.462439619612E+01  0.000000000000E+00
 -0.592549238850E+01  0.537051951376E+01  0.000000000000E+00
 -0.437548614492E+01  0.583358682359E+01  0.000000000000E+00
 -0.282419987279E+01  0.607268431778E+01  0.000000000000E+00
 -0.126653827596E+01  0.610843821020E+01  0.000000000000E+00
  0.323399101111E+00  0.592149377912E+01  0.000000000000E+00
  0.129056621673E+01  0.540430974967E+01  0.000000000000E+00
  0.234406869357E+01  0.495917226149E+01  0.000000000000E+00
 -0.900030907490E+01  0.428726361946E+01  0.854362487922E-27
 -0.743439966529E+01  0.579325755580E+01  0.150809841691E-26
 -0.586715424234E+01  0.672729697756E+01  0.163346722013E-26
 -0.430048197098E+01  0.730798141757E+01  0.165373461795E-26
 -0.273527267467E+01  0.761444940950E+01  0.148485902022E-26
 -0.117501985676E+01  0.767304205234E+01  0.896674968875E-27
  0.371925321109E+00  0.748059946120E+01 -0.618774386764E-27
  0.110367905644E+01  0.698020061963E+01 -0.229271273651E-26
  0.195297000000E+01  0.652469000000E+01 -0.268563918217E-26
 -0.897400960151E+01 -0.437233266268E+01  0.754853662144E+00
 -0.738943009356E+01 -0.584979024707E+01  0.101568695480E+01
 -0.580193907857E+01 -0.676328932379E+01  0.117683387269E+01
 -0.421725550367E+01 -0.732939580680E+01  0.127707325314E+01
 -0.263304373945E+01 -0.762524498887E+01  0.133070637207E+01
 -0.105265194577E+01 -0.767345626464E+01  0.134217732291E+01
  0.522263862861E+00 -0.747805171911E+01  0.131357810693E+01
  0.150632544447E+01 -0.696908488782E+01  0.116026053499E+01
  0.256440000000E+01 -0.647239000000E+01  0.677093000000E+00
 -0.897639974161E+01 -0.353017164157E+01  0.838350657696E+00
 -0.743363633852E+01 -0.472281444805E+01  0.113028031387E+01
 -0.586672015370E+01 -0.545555239857E+01  0.130803668539E+01
 -0.429742358940E+01 -0.590860134079E+01  0.141974209977E+01
 -0.272866664103E+01 -0.614061128577E+01  0.147851968438E+01
 -0.115684895292E+01 -0.617066338271E+01  0.148971003402E+01
  0.429953395379E+00 -0.599418358644E+01  0.144457160050E+01
  0.155301701630E+01 -0.567924815415E+01  0.127050285381E+01
  0.279042913608E+01 -0.540739890610E+01  0.756738521076E+00
 -0.897915967538E+01 -0.267604130187E+01  0.901665522425E+00
 -0.745374339878E+01 -0.357941219397E+01  0.121885621433E+01
 -0.591001573857E+01 -0.412876288560E+01  0.141092723366E+01
 -0.435517131520E+01 -0.446554605617E+01  0.152943512135E+01
 -0.279052907632E+01 -0.463431814179E+01  0.159035594944E+01
 -0.120753709202E+01 -0.464851944775E+01  0.159662484053E+01
  0.417580090612E+00 -0.450387597664E+01  0.154705184369E+01
  0.164249775654E+01 -0.441064997821E+01  0.136121297841E+01
  0.298096480860E+01 -0.435459005840E+01  0.815647656032E+00
 -0.898176188181E+01 -0.181264753209E+01  0.944501861094E+00
 -0.746754651300E+01 -0.241857445851E+01  0.127872821000E+01
 -0.593783631030E+01 -0.278425314463E+01  0.147981159986E+01
 -0.439238710025E+01 -0.300611205997E+01  0.160326314644E+01
 -0.282849129551E+01 -0.311436452208E+01  0.166551012128E+01
 -0.123507391516E+01 -0.311844795305E+01  0.167078935034E+01
  0.410599103581E+00 -0.301750853221E+01  0.161873350613E+01
  0.171915705078E+01 -0.314492345690E+01  0.142185086290E+01
  0.313949849212E+01 -0.329315705579E+01  0.845541447167E+00
 -0.898428362027E+01 -0.942492236829E+00  0.965023045287E+00
 -0.747722754409E+01 -0.124626760020E+01  0.130785729934E+01
 -0.595565907831E+01 -0.142717812937E+01  0.151319012595E+01
 -0.441572348951E+01 -0.153538717648E+01  0.163904907738E+01
 -0.285250163047E+01 -0.158589546723E+01  0.170233042755E+01
 -0.125467173721E+01 -0.158349517871E+01  0.170808186499E+01
  0.397586913434E+00 -0.152916975692E+01  0.165531157776E+01
  0.177359905507E+01 -0.187052279103E+01  0.145199142605E+01
  0.326013105894E+01 -0.221710580178E+01  0.845973631716E+00
 -0.898687125596E+01 -0.695580754971E-01  0.962559341246E+00
 -0.748330291934E+01 -0.679693943945E-01  0.130479116045E+01
 -0.596640381921E+01 -0.635080229482E-01  0.150981680123E+01
 -0.442981718974E+01 -0.588236534295E-01  0.163516892162E+01
 -0.286768611748E+01 -0.530585928040E-01  0.169792732942E+01
 -0.126835414271E+01 -0.458123660671E-01  0.170289561019E+01
  0.387743352653E+00 -0.386201305664E-01  0.165207474182E+01
  0.182189036139E+01 -0.575556108092E+00  0.144304309856E+01
  0.333333000000E+01 -0.112691000000E+01  0.833333000000E+00
 -0.898861842901E+01  0.803266726574E+00  0.964689094793E+00
 -0.748617374994E+01  0.111077759199E+01  0.130877471042E+01
 -0.596978379807E+01  0.130053947255E+01  0.151449562600E+01
 -0.443370923587E+01  0.141775162841E+01  0.163993162975E+01
 -0.287093103576E+01  0.147886508857E+01  0.170169093660E+01
 -0.126709840744E+01  0.149006397857E+01  0.170353962723E+01
  0.403622729970E+00  0.144477292642E+01  0.164586035864E+01
  0.174514915771E+01  0.922510769080E+00  0.145937976594E+01
  0.317506299891E+01  0.360911201671E+00  0.944438538481E+00
 -0.899025086412E+01  0.167333892552E+01  0.943959354887E+00
 -0.748529553152E+01  0.228434821699E+01  0.128053629287E+01
 -0.596581450735E+01  0.265872614146E+01  0.148252234149E+01
 -0.442851434956E+01  0.288858470818E+01  0.160546214865E+01
 -0.286746370140E+01  0.300540866175E+01  0.166541074970E+01
 -0.126675254756E+01  0.301958329196E+01  0.166565360238E+01
  0.403157927800E+00  0.292188445825E+01  0.160434040872E+01
  0.164169922363E+01  0.241027521633E+01  0.143499393653E+01
  0.296925869098E+01  0.188779856668E+01  0.997188203527E+00
 -0.899221009106E+01  0.253674632348E+01  0.901282393174E+00
 -0.748059596382E+01  0.344700405098E+01  0.122138714506E+01
 -0.595162637826E+01  0.400484882286E+01  0.141500842344E+01
 -0.440979990784E+01  0.434866263093E+01  0.153340642175E+01
 -0.285390269997E+01  0.452385356260E+01  0.159234304158E+01
 -0.127001236847E+01  0.454491953740E+01  0.159265487833E+01
  0.374950316283E+00  0.439910320086E+01  0.153213298680E+01
  0.148810997348E+01  0.389516398425E+01  0.137487120264E+01
  0.269537888371E+01  0.341329175346E+01  0.985518490251E+00
 -0.899524241090E+01  0.339109878991E+01  0.838622159481E+00
 -0.747020244406E+01  0.459203163076E+01  0.113317417747E+01
 -0.592041407632E+01  0.533362321313E+01  0.131304512970E+01
 -0.436832456380E+01  0.579330292394E+01  0.142544788825E+01
 -0.281499736144E+01  0.603108839684E+01  0.148363543949E+01
 -0.125633988101E+01  0.606761914525E+01  0.149126903827E+01
  0.331198261500E+00  0.588850087956E+01  0.143174290499E+01
  0.129138099608E+01  0.538283595500E+01  0.127858946319E+01
  0.233919763690E+01  0.494529854617E+01  0.916229426838E+00
 -0.900015429884E+01  0.423358750042E+01  0.755828091241E+00
 -0.743374007004E+01  0.572093008207E+01  0.101923381437E+01
 -0.586615431669E+01  0.664337001510E+01  0.118165651034E+01
 -0.429866257667E+01  0.721682432427E+01  0.128291826821E+01
 -0.273267544201E+01  0.751916328947E+01  0.133613526109E+01
 -0.117006160931E+01  0.757713717736E+01  0.134721599104E+01
  0.378533844140E+00  0.738786439836E+01  0.130711089188E+01
  0.111824402015E+01  0.690116249287E+01  0.115093976365E+01
  0.196387000000E+01  0.646426000000E+01  0.786055000000E+00
 -0.897435283670E+01 -0.421253006111E+01  0.149265967456E+01
 -0.738863817700E+01 -0.563568422626E+01  0.200668705252E+01
 -0.580013967131E+01 -0.651432579282E+01  0.232427680737E+01
 -0.421384322345E+01 -0.705874069415E+01  0.252231822985E+01
 -0.262727314777E+01 -0.734284401656E+01  0.262721403193E+01
 -0.104321333360E+01 -0.738842012476E+01  0.265011175165E+01
  0.540400517360E+00 -0.720105856235E+01  0.259056910124E+01
  0.154451350534E+01 -0.674063161280E+01  0.229028934291E+01
  0.258678000000E+01 -0.631679000000E+01  0.133751000000E+01
 -0.897634940649E+01 -0.342183810900E+01  0.166382142460E+01
 -0.742690519148E+01 -0.457640154748E+01  0.224005805990E+01
 -0.585475348944E+01 -0.528619137585E+01  0.259249940141E+01
 -0.428025933250E+01 -0.572437908986E+01  0.281330906396E+01
 -0.270542958786E+01 -0.594898904273E+01  0.292947919224E+01
 -0.112796797026E+01 -0.597855309167E+01  0.295177335569E+01
  0.459387820282E+00 -0.581572075692E+01  0.286509385963E+01
  0.157207072900E+01 -0.553731176514E+01  0.252641178666E+01
  0.279007458156E+01 -0.531141270478E+01  0.150872669380E+01
 -0.897809600268E+01 -0.260617483475E+01  0.179631068121E+01
 -0.744458553895E+01 -0.348412101071E+01  0.242223860211E+01
 -0.589291170421E+01 -0.401910975264E+01  0.280322193287E+01
 -0.433021865782E+01 -0.434692840951E+01  0.303884585295E+01
 -0.275950943617E+01 -0.451173590036E+01  0.316062004658E+01
 -0.117578192548E+01 -0.452783518400E+01  0.317557205756E+01
  0.439472497359E+00 -0.439328734860E+01  0.307919302373E+01
  0.164800536284E+01 -0.432100208449E+01  0.271815513492E+01
  0.296300007887E+01 -0.429369693844E+01  0.163446089574E+01
 -0.898028778215E+01 -0.177086005836E+01  0.188699827678E+01
 -0.745746354584E+01 -0.236213370678E+01  0.254698587927E+01
 -0.591839497378E+01 -0.271963254821E+01  0.294643098054E+01
 -0.436449829450E+01 -0.293662184271E+01  0.319277827942E+01
 -0.279523440189E+01 -0.304307291302E+01  0.331800289069E+01
 -0.120296257653E+01 -0.304887242455E+01  0.333073776541E+01
  0.431154867581E+00 -0.295274464816E+01  0.323026049354E+01
  0.171842394122E+01 -0.308982022446E+01  0.284767684701E+01
  0.311364226123E+01 -0.325232687263E+01  0.169902284660E+01
 -0.898363229174E+01 -0.923416818536E+00  0.193353548221E+01
 -0.746657792236E+01 -0.121999040152E+01  0.260989665671E+01
 -0.593561807325E+01 -0.139750040685E+01  0.301889447469E+01
 -0.438727560666E+01 -0.150377031640E+01  0.327052978667E+01
 -0.281868493446E+01 -0.155378382835E+01  0.339801629256E+01
 -0.122119662458E+01 -0.155203446794E+01  0.341085271584E+01
  0.423085936295E+00 -0.149817967430E+01  0.330860774683E+01
  0.177842813468E+01 -0.184247162484E+01  0.291263787232E+01
  0.323771274924E+01 -0.219241550380E+01  0.170142916966E+01
 -0.898615120469E+01 -0.692870565934E-01  0.193183494532E+01
 -0.747315201105E+01 -0.677548024343E-01  0.260910011786E+01
 -0.594667218971E+01 -0.635759290933E-01  0.301789809721E+01
 -0.440206684629E+01 -0.593112103578E-01  0.326913732658E+01
 -0.283520968045E+01 -0.540793434994E-01  0.339583094253E+01
 -0.123673042347E+01 -0.462078589911E-01  0.340693652164E+01
  0.412219635174E+00 -0.368588348706E-01  0.330680208399E+01
  0.183553490807E+01 -0.577186142445E+00  0.289296943933E+01
  0.333333000000E+01 -0.112691000000E+01  0.166667000000E+01
 -0.898835784768E+01  0.784806416953E+00  0.193356006105E+01
 -0.747571882852E+01  0.108479554278E+01  0.261171011378E+01
 -0.594988237882E+01  0.127077177612E+01  0.302145766135E+01
 -0.440616710373E+01  0.138534414217E+01  0.327257703097E+01
 -0.284048388846E+01  0.144529892113E+01  0.339767140685E+01
 -0.124206683026E+01  0.145847606164E+01  0.340420036204E+01
  0.411725167720E+00  0.142038475594E+01  0.329306712479E+01
  0.173582991545E+01  0.900013771142E+00  0.292997539700E+01
  0.315753538237E+01  0.327749982817E+00  0.189111141024E+01
 -0.898934240862E+01  0.163208743935E+01  0.188709113401E+01
 -0.747554120757E+01  0.222792354301E+01  0.255060795891E+01
 -0.594653721183E+01  0.259405059874E+01  0.295172396486E+01
 -0.440187450663E+01  0.281884788929E+01  0.319746793447E+01
 -0.283871764398E+01  0.293387025616E+01  0.331910866232E+01
 -0.124593101397E+01  0.295198604250E+01  0.332311290342E+01
  0.402703906573E+00  0.286702618951E+01  0.320564722795E+01
  0.161976179861E+01  0.236545037672E+01  0.287919165237E+01
  0.294067465401E+01  0.183779372086E+01  0.199710291985E+01
 -0.899157284568E+01  0.246738782984E+01  0.179670523932E+01
 -0.747157580255E+01  0.335127736326E+01  0.242746509787E+01
 -0.593449449957E+01  0.389513255916E+01  0.281110017860E+01
 -0.438534584597E+01  0.423016873339E+01  0.304692923922E+01
 -0.282574994822E+01  0.440202304923E+01  0.316556900169E+01
 -0.124652375617E+01  0.442771582638E+01  0.317010261135E+01
  0.380012367856E+00  0.430030523049E+01  0.305309981122E+01
  0.147548147144E+01  0.381458299471E+01  0.275061830761E+01
  0.267265189109E+01  0.334496746189E+01  0.197049465258E+01
 -0.899510643808E+01  0.328314597322E+01  0.166478261511E+01
 -0.746278169388E+01  0.444477889028E+01  0.224622936239E+01
 -0.590764042408E+01  0.516398937308E+01  0.260228508205E+01
 -0.435008981997E+01  0.560898373219E+01  0.282450434107E+01
 -0.279042976467E+01  0.583991106163E+01  0.293974895509E+01
 -0.122714396539E+01  0.587763426938E+01  0.295602017006E+01
  0.356951427090E+00  0.572015039680E+01  0.284310444650E+01
  0.130333393369E+01  0.524443974483E+01  0.254928214948E+01
  0.234102755295E+01  0.483630209342E+01  0.182397720753E+01
 -0.899952520273E+01  0.407407470552E+01  0.149427583696E+01
 -0.743195170674E+01  0.550570809748E+01  0.201296408930E+01
 -0.586311550291E+01  0.639376377241E+01  0.233399757251E+01
 -0.429362125187E+01  0.694564292090E+01  0.253355785534E+01
 -0.272459947819E+01  0.723597485943E+01  0.263855782361E+01
 -0.115738229020E+01  0.729207294151E+01  0.265919615031E+01
  0.401457439308E+00  0.711152763668E+01  0.258346323025E+01
  0.116901456719E+01  0.666335606006E+01  0.227323940247E+01
  0.199630000000E+01  0.628446000000E+01  0.155276000000E+01
 -0.897463601756E+01 -0.395081579168E+01  0.219354578889E+01
 -0.738724579083E+01 -0.528369908746E+01  0.294814335391E+01
 -0.579734433227E+01 -0.610634832126E+01  0.341411542940E+01
 -0.420843248713E+01 -0.661542221162E+01  0.370426006568E+01
 -0.261861333404E+01 -0.688002318359E+01  0.385756613323E+01
 -0.102783609376E+01 -0.692224415845E+01  0.388900752900E+01
  0.566673092234E+00 -0.674658338581E+01  0.379864595799E+01
  0.159712874691E+01 -0.636377587534E+01  0.335835858948E+01
  0.262348000000E+01 -0.606170000000E+01  0.196500000000E+01
 -0.897542879117E+01 -0.323156628441E+01  0.245936975551E+01
 -0.741767959557E+01 -0.431911429514E+01  0.330871169171E+01
 -0.583670412091E+01 -0.498900267618E+01  0.383024055371E+01
 -0.425456871636E+01 -0.540157033447E+01  0.415556158419E+01
 -0.267127851321E+01 -0.561288119591E+01  0.432583300656E+01
 -0.108347800434E+01 -0.564228244660E+01  0.435924489608E+01
  0.509095713575E+00 -0.549473674645E+01  0.423505782264E+01
  0.161392138186E+01 -0.527695162259E+01  0.374902591478E+01
  0.279908354465E+01 -0.513852691821E+01  0.224512638918E+01
 -0.897631398232E+01 -0.247411208017E+01  0.266804926572E+01
 -0.743296469870E+01 -0.330514344133E+01  0.359318211498E+01
 -0.586663198897E+01 -0.381287480371E+01  0.415850616734E+01
 -0.429112886465E+01 -0.412408073973E+01  0.450876959522E+01
 -0.271057027953E+01 -0.428059676299E+01  0.469043565641E+01
 -0.112080550297E+01 -0.429982964945E+01  0.471672957767E+01
  0.486945039639E+00 -0.417797086798E+01  0.457881885273E+01
  0.167728577039E+01 -0.414423998286E+01  0.405853283106E+01
  0.295201566599E+01 -0.417441210659E+01  0.244945926038E+01
 -0.897962608972E+01 -0.168889958198E+01  0.281503295905E+01
 -0.744359234741E+01 -0.224946414389E+01  0.379148008146E+01
 -0.588760212621E+01 -0.259028263267E+01  0.438686606856E+01
 -0.431886330324E+01 -0.279753047943E+01  0.475486412338E+01
 -0.273941426849E+01 -0.289935626473E+01  0.494369067504E+01
 -0.114345257117E+01 -0.290878763842E+01  0.496658558242E+01
  0.480359634318E+00 -0.282001218578E+01  0.482318827901E+01
  0.174339444426E+01 -0.297753216889E+01  0.427049251527E+01
  0.309331639049E+01 -0.317269332436E+01  0.255652867332E+01
 -0.898238405905E+01 -0.884086080201E+00  0.289287384584E+01
 -0.745188692541E+01 -0.116559224379E+01  0.389813410346E+01
 -0.590296928830E+01 -0.133523729065E+01  0.450936459747E+01
 -0.433913965617E+01 -0.143730242184E+01  0.488686010566E+01
 -0.276061485999E+01 -0.148565743732E+01  0.507959021642E+01
 -0.115852652749E+01 -0.148633267369E+01  0.510131309903E+01
  0.477584746422E+00 -0.143479225111E+01  0.495382298868E+01
  0.180975711889E+01 -0.178698227378E+01  0.437923751051E+01
  0.322178080697E+01 -0.214907209970E+01  0.256320224590E+01
 -0.898501339648E+01 -0.689692967063E-01  0.290033055260E+01
 -0.745824710200E+01 -0.673116883702E-01  0.390919266141E+01
 -0.591375784947E+01 -0.634252285614E-01  0.452213054441E+01
 -0.435384194033E+01 -0.597835369704E-01  0.490038617229E+01
 -0.277787286034E+01 -0.552047138028E-01  0.509273272814E+01
 -0.117669317928E+01 -0.482856075813E-01  0.511219724310E+01
  0.461774569132E+00 -0.355366736645E-01  0.496518458699E+01
  0.186683762608E+01 -0.579158968587E+00  0.435486251579E+01
  0.333333000000E+01 -0.112691000000E+01  0.250000000000E+01
 -0.898739446209E+01  0.746131013389E+00  0.289322452574E+01
 -0.746113853964E+01  0.103120668268E+01  0.390063338312E+01
 -0.591689107118E+01  0.120874987192E+01  0.451307736229E+01
 -0.435825488222E+01  0.131817146011E+01  0.489043859537E+01
 -0.278517214313E+01  0.137561761917E+01  0.508103078666E+01
 -0.118918257684E+01  0.139002468763E+01  0.509674724719E+01
  0.443022877678E+00  0.136259388266E+01  0.493903444457E+01
  0.174313432203E+01  0.847548434273E+00  0.441557725876E+01
  0.313923377047E+01  0.273146121488E+00  0.283993811601E+01
 -0.898930277197E+01  0.155089130376E+01  0.281577193124E+01
 -0.746166215149E+01  0.211569944295E+01  0.379645225445E+01
 -0.591496147754E+01  0.246488756954E+01  0.439435008063E+01
 -0.435565980930E+01  0.267946411603E+01  0.476237988000E+01
 -0.278609661349E+01  0.279015770853E+01  0.494792893857E+01
 -0.119845759219E+01  0.281242847737E+01  0.496134193519E+01
  0.422445246756E+00  0.274499077151E+01  0.479697349249E+01
  0.161275156577E+01  0.226117323416E+01  0.433354748274E+01
  0.290794769576E+01  0.174649996590E+01  0.299990648727E+01
 -0.899033723219E+01  0.233606307246E+01  0.266912687193E+01
 -0.746025539087E+01  0.317236080167E+01  0.360033398213E+01
 -0.590747832940E+01  0.368888308538E+01  0.416936263821E+01
 -0.434534930207E+01  0.400759095853E+01  0.452054152310E+01
 -0.277798571173E+01  0.417212723155E+01  0.469942651388E+01
 -0.120051944569E+01  0.420397565128E+01  0.471372700950E+01
  0.402058445335E+00  0.409905870858E+01  0.454914784653E+01
  0.147605227086E+01  0.364699174058E+01  0.412140490273E+01
  0.264890926204E+01  0.321403202002E+01  0.295168721726E+01
 -0.899415004180E+01  0.309348048519E+01  0.246107056838E+01
 -0.745330739329E+01  0.418727562628E+01  0.331745200091E+01
 -0.588899755190E+01  0.486631865729E+01  0.384414468361E+01
 -0.432307094814E+01  0.528618146187E+01  0.417159270939E+01
 -0.275485569424E+01  0.550489587323E+01  0.434100650916E+01
 -0.118196555163E+01  0.554577973677E+01  0.436742789193E+01
  0.400135864094E+00  0.541167795047E+01  0.421106495397E+01
  0.133673151431E+01  0.498438813158E+01  0.379764241595E+01
  0.235534704393E+01  0.464052334454E+01  0.271035155476E+01
 -0.899838471951E+01  0.381260855368E+01  0.219580394239E+01
 -0.742919593800E+01  0.515302575864E+01  0.295698169091E+01
 -0.585835670259E+01  0.598476027238E+01  0.342822492722E+01
 -0.428575153373E+01  0.650121842151E+01  0.372063373026E+01
 -0.271218306389E+01  0.677249527456E+01  0.387437382459E+01
 -0.113685002573E+01  0.682524813241E+01  0.390288657857E+01
  0.436869719658E+00  0.665848624069E+01  0.379293611016E+01
  0.123857838434E+01  0.626837110869E+01  0.334415816860E+01
  0.204947000000E+01  0.598972000000E+01  0.228122000000E+01
 -0.897412737007E+01 -0.359312563880E+01  0.283981041126E+01
 -0.738595351960E+01 -0.480326440483E+01  0.381680031038E+01
 -0.579364031981E+01 -0.554950840634E+01  0.441937109255E+01
 -0.420200605894E+01 -0.601052327808E+01  0.479392803415E+01
 -0.260753770998E+01 -0.624902219988E+01  0.499078125691E+01
 -0.100969048267E+01 -0.628670348345E+01  0.502893056041E+01
  0.597182270976E+00 -0.612617010003E+01  0.490609404020E+01
  0.166363584880E+01 -0.584871530457E+01  0.433814367110E+01
  0.267357000000E+01 -0.571343000000E+01  0.254410000000E+01
 -0.897384964221E+01 -0.296396593049E+01  0.321179264364E+01
 -0.740513567410E+01 -0.395925909554E+01  0.431803272770E+01
 -0.581326161778E+01 -0.457215888052E+01  0.499929660285E+01
 -0.422320327273E+01 -0.494928942144E+01  0.542280798269E+01
 -0.263018507760E+01 -0.514299727485E+01  0.564326311600E+01
 -0.103134100764E+01 -0.516796827323E+01  0.568540100188E+01
  0.579709915419E+00 -0.504271293993E+01  0.552708718069E+01
  0.168498539095E+01 -0.490736151713E+01  0.491272095539E+01
  0.281881377512E+01 -0.488948562148E+01  0.295457448770E+01
 -0.897625841040E+01 -0.228597267256E+01  0.350887328519E+01
 -0.741572495981E+01 -0.304859904521E+01  0.471686947760E+01
 -0.582996199678E+01 -0.351633696453E+01  0.546056164923E+01
 -0.424097257440E+01 -0.380366523901E+01  0.592104423614E+01
 -0.264725960305E+01 -0.394967444443E+01  0.616043952633E+01
 -0.104720402668E+01 -0.396465733283E+01  0.619804767255E+01
  0.569614918782E+00 -0.386861860207E+01  0.602230525656E+01
  0.173893556804E+01 -0.389015107316E+01  0.536500029984E+01
  0.295441237520E+01 -0.399575828160E+01  0.325032770227E+01
 -0.897846899827E+01 -0.156925968723E+01  0.372019558383E+01
 -0.742380530593E+01 -0.208508636167E+01  0.500233945424E+01
 -0.584344612758E+01 -0.240013011839E+01  0.578941476841E+01
 -0.425653904418E+01 -0.259269555752E+01  0.627715645578E+01
 -0.266330602780E+01 -0.268984706021E+01  0.652880532405E+01
 -0.105867842383E+01 -0.269516449816E+01  0.656255286888E+01
  0.570618397144E+00 -0.262766519064E+01  0.637892887936E+01
  0.180113826729E+01 -0.281692398087E+01  0.567925696256E+01
  0.308798790837E+01 -0.305359478586E+01  0.341011199686E+01
 -0.898046361208E+01 -0.825596812208E+00  0.384093611533E+01
 -0.743025851055E+01 -0.108547771508E+01  0.516611437016E+01
 -0.585438002888E+01 -0.124231433015E+01  0.597820283974E+01
 -0.427038929116E+01 -0.133767173450E+01  0.648102294989E+01
 -0.267730616249E+01 -0.138432117007E+01  0.674008742191E+01
 -0.106988900226E+01 -0.138312940864E+01  0.677002683703E+01
  0.575526835676E+00 -0.134445094749E+01  0.657838705053E+01
  0.187240561099E+01 -0.170769156688E+01  0.584731472188E+01
  0.321883235373E+01 -0.209129275767E+01  0.342439134177E+01
 -0.898290149995E+01 -0.687388359991E-01  0.386747942225E+01
 -0.743581223145E+01 -0.668578881523E-01  0.520336564412E+01
 -0.586351021968E+01 -0.634760649019E-01  0.602119760609E+01
 -0.428254040989E+01 -0.596428107020E-01  0.652764278198E+01
 -0.269219392948E+01 -0.557031612534E-01  0.678764394358E+01
 -0.108704139214E+01 -0.485008412512E-01  0.681587102118E+01
  0.555708731740E+00 -0.410955875848E-01  0.662316432588E+01
  0.192434220969E+01 -0.579861561436E+00  0.583323394927E+01
  0.333333000000E+01 -0.112691000000E+01  0.333333000000E+01
 -0.898541984146E+01  0.688170708284E+00  0.384163880273E+01
 -0.743912233565E+01  0.951713352016E+00  0.516920601187E+01
 -0.586747985101E+01  0.111583913886E+01  0.598273640726E+01
 -0.428787368269E+01  0.121844559513E+01  0.648638756076E+01
 -0.270099234476E+01  0.127388117019E+01  0.674414002174E+01
 -0.110241211107E+01  0.128702207558E+01  0.677092150125E+01
  0.526706502055E+00  0.126500354494E+01  0.657243902335E+01
  0.178041785432E+01  0.770314521600E+00  0.591908913854E+01
  0.312738879514E+01  0.199197477055E+00  0.379107797236E+01
 -0.898809378330E+01  0.143173821265E+01  0.372159946596E+01
 -0.744134181121E+01  0.195182459473E+01  0.500809965513E+01
 -0.586893094518E+01  0.227420324948E+01  0.579878280713E+01
 -0.429087365664E+01  0.247445957660E+01  0.628715799904E+01
 -0.270658396387E+01  0.258038858503E+01  0.653805044663E+01
 -0.111668336169E+01  0.260076608398E+01  0.656403120489E+01
  0.497866580261E+00  0.255208095837E+01  0.636208325483E+01
  0.163477836782E+01  0.210415328194E+01  0.579938888171E+01
  0.288844157528E+01  0.160425373812E+01  0.400089944508E+01
 -0.899012552368E+01  0.214844692939E+01  0.351068502235E+01
 -0.744136285413E+01  0.291596550953E+01  0.472536004778E+01
 -0.586793712385E+01  0.339181714372E+01  0.547323758951E+01
 -0.429055021475E+01  0.368625809254E+01  0.593580164941E+01
 -0.270948319733E+01  0.384142815944E+01  0.617396645205E+01
 -0.112466553820E+01  0.386995994808E+01  0.620132733323E+01
  0.474252257276E+00  0.379528820235E+01  0.600037687220E+01
  0.150399074773E+01  0.339535421351E+01  0.547925392502E+01
  0.263683852914E+01  0.301336434229E+01  0.392118473078E+01
 -0.899187663270E+01  0.282656817871E+01  0.321385828521E+01
 -0.743975114954E+01  0.382776124872E+01  0.432777209275E+01
 -0.586372741287E+01  0.444923956637E+01  0.501518676022E+01
 -0.428895722346E+01  0.483364042331E+01  0.544130019361E+01
 -0.270987484533E+01  0.503618729349E+01  0.566142292090E+01
 -0.112733711207E+01  0.507368170531E+01  0.569645975579E+01
  0.467937985499E+00  0.496965950131E+01  0.550589150861E+01
  0.138854699470E+01  0.461624686731E+01  0.500201499812E+01
  0.238285196577E+01  0.435937942277E+01  0.356318303158E+01
 -0.899624911252E+01  0.345549805195E+01  0.284254303307E+01
 -0.742612951444E+01  0.467192735765E+01  0.382865616065E+01
 -0.585216197471E+01  0.542682974993E+01  0.443787612506E+01
 -0.427606898314E+01  0.589505398765E+01  0.481584088006E+01
 -0.269683474212E+01  0.614106543844E+01  0.501368064295E+01
 -0.111343721083E+01  0.618900056207E+01  0.505043897033E+01
  0.476740579064E+00  0.604078058345E+01  0.490663361728E+01
  0.132811439578E+01  0.572974165642E+01  0.434034849261E+01
  0.212207000000E+01  0.558730000000E+01  0.295352000000E+01
 -0.897309873181E+01 -0.314800879172E+01  0.341614549874E+01
 -0.738473091478E+01 -0.420650920917E+01  0.459141594121E+01
 -0.579003268938E+01 -0.485759794228E+01  0.531520356585E+01
 -0.419484064511E+01 -0.525939667624E+01  0.576480382284E+01
 -0.259607437919E+01 -0.546591197685E+01  0.599968858741E+01
 -0.991558493719E+00 -0.549783246640E+01  0.604268456838E+01
  0.627410099928E+00 -0.535615299335E+01  0.588685635815E+01
  0.173873539211E+01 -0.520683881379E+01  0.520773108525E+01
  0.273585000000E+01 -0.528053000000E+01  0.306056000000E+01
 -0.897458449416E+01 -0.262866034390E+01  0.391008223705E+01
 -0.738352905025E+01 -0.350761290097E+01  0.525242348393E+01
 -0.578667451563E+01 -0.404795596833E+01  0.608032692016E+01
 -0.418878478476E+01 -0.438066985880E+01  0.659316048842E+01
 -0.258522388888E+01 -0.455072357436E+01  0.686062013380E+01
 -0.975378172028E+00 -0.457475740742E+01  0.690622489111E+01
  0.652318690027E+00 -0.445603627523E+01  0.671827422449E+01
  0.182102261757E+01 -0.442841009600E+01  0.597201531070E+01
  0.283639000000E+01 -0.458160000000E+01  0.363581000000E+01
 -0.897577200855E+01 -0.204624790120E+01  0.430675614925E+01
 -0.738301368552E+01 -0.272396471465E+01  0.578503408427E+01
 -0.578500208358E+01 -0.314068588004E+01  0.669541730400E+01
 -0.418366109595E+01 -0.339617278575E+01  0.725996266976E+01
 -0.257819238918E+01 -0.352569896064E+01  0.755258733065E+01
 -0.961490283752E+00 -0.354195119726E+01  0.759917548866E+01
  0.668112560613E+00 -0.344680508848E+01  0.738608286149E+01
  0.190207735283E+01 -0.355428867522E+01  0.657463167246E+01
  0.295176000000E+01 -0.377956000000E+01  0.404840000000E+01
 -0.897650451696E+01 -0.141444409169E+01  0.459701229194E+01
 -0.738409428063E+01 -0.187551426509E+01  0.617507200372E+01
 -0.578443622965E+01 -0.215758355657E+01  0.714702352519E+01
 -0.418243082316E+01 -0.233052852078E+01  0.774819320738E+01
 -0.257323454557E+01 -0.241581156893E+01  0.806052303806E+01
 -0.956318883193E+00 -0.242458591644E+01  0.810472787551E+01
  0.678841467225E+00 -0.235543764212E+01  0.787369445252E+01
  0.197623751452E+01 -0.260390995332E+01  0.700385467742E+01
  0.307680000000E+01 -0.291030000000E+01  0.427989000000E+01
 -0.897782512413E+01 -0.749957953512E+00  0.477398077612E+01
 -0.738613879292E+01 -0.982034788369E+00  0.641398388804E+01
 -0.578680185935E+01 -0.112397620169E+01  0.742295392723E+01
 -0.418361717643E+01 -0.120848381073E+01  0.804823773370E+01
 -0.257488122628E+01 -0.124979581491E+01  0.836951931711E+01
 -0.954263613471E+00 -0.124831666237E+01  0.841631202679E+01
  0.670507604478E+00 -0.120819031105E+01  0.816471080935E+01
  0.204727247704E+01 -0.160371599315E+01  0.724508098472E+01
  0.320592000000E+01 -0.201270000000E+01  0.431991000000E+01
 -0.897985241411E+01 -0.683527335640E-01  0.483387251830E+01
 -0.738962147640E+01 -0.668749022251E-01  0.649530037271E+01
 -0.579152360887E+01 -0.633273213531E-01  0.751766070771E+01
 -0.418907344947E+01 -0.598128257165E-01  0.815095900789E+01
 -0.258101120633E+01 -0.529604764489E-01  0.847602790234E+01
 -0.961375277814E+00 -0.458674876301E-01  0.852087281440E+01
  0.665872507065E+00 -0.290340032509E-01  0.826760782290E+01
  0.208486760509E+01 -0.578580178273E+00  0.726910992829E+01
  0.333333000000E+01 -0.112691000000E+01  0.416667000000E+01
 -0.898242682626E+01  0.612714226279E+00  0.477515735554E+01
 -0.739462238375E+01  0.849070156475E+00  0.641719740249E+01
 -0.579841653704E+01  0.996281094465E+00  0.742853367725E+01
 -0.419897522135E+01  0.109033973516E+01  0.805421453926E+01
 -0.259190923243E+01  0.114154393813E+01  0.837643993846E+01
 -0.975423386690E+00  0.115924063548E+01  0.841977383446E+01
  0.650952920753E+00  0.114307055841E+01  0.816404957643E+01
  0.196907102494E+01  0.661087421151E+00  0.735749530451E+01
  0.311477000000E+01  0.846185000000E-01  0.477384000000E+01
 -0.898551588025E+01  0.127742682827E+01  0.459887954015E+01
 -0.740031480407E+01  0.174189715131E+01  0.618192465263E+01
 -0.580833743227E+01  0.203079640918E+01  0.715685173760E+01
 -0.421119470487E+01  0.221133701370E+01  0.776119862471E+01
 -0.260977175861E+01  0.230812870104E+01  0.807143661043E+01
 -0.993169997210E+00  0.233223444069E+01  0.811584309557E+01
  0.626117545228E+00  0.228776025131E+01  0.786134445857E+01
  0.184268213053E+01  0.187956418892E+01  0.718178621994E+01
  0.287533000000E+01  0.141185000000E+01  0.502046000000E+01
 -0.898858659855E+01  0.190887547262E+01  0.430943313161E+01
 -0.740723944183E+01  0.259053816128E+01  0.579417441085E+01
 -0.581896384227E+01  0.301374463184E+01  0.671019865399E+01
 -0.422791658329E+01  0.327723760909E+01  0.727692763397E+01
 -0.262937987083E+01  0.341658962679E+01  0.757053676353E+01
 -0.102157064200E+01  0.344707090904E+01  0.761169612557E+01
  0.597501097724E+00  0.337354893391E+01  0.737295226245E+01
  0.169961609473E+01  0.304413013756E+01  0.674631036043E+01
  0.263311000000E+01  0.275453000000E+01  0.488788000000E+01
 -0.899079204062E+01  0.249135507250E+01  0.391266912392E+01
 -0.741402811713E+01  0.337393064217E+01  0.526396776117E+01
 -0.583154612461E+01  0.392134377664E+01  0.609753367541E+01
 -0.424502328875E+01  0.426134428546E+01  0.661391151045E+01
 -0.265437038940E+01  0.443945809684E+01  0.688179394022E+01
 -0.105247570106E+01  0.447614626113E+01  0.692131370659E+01
  0.556977689756E+00  0.437337058027E+01  0.670836551224E+01
  0.156057044124E+01  0.411284842753E+01  0.608754380328E+01
  0.240640000000E+01  0.401125000000E+01  0.438612000000E+01
 -0.899255465301E+01  0.301085648181E+01  0.341865657357E+01
 -0.742247471508E+01  0.407615128288E+01  0.460142794373E+01
 -0.584470566867E+01  0.473441920901E+01  0.533333755589E+01
 -0.426455691465E+01  0.514312036294E+01  0.578691852068E+01
 -0.268083969928E+01  0.535752488882E+01  0.602265786375E+01
 -0.109118090300E+01  0.539916427306E+01  0.606485562092E+01
  0.506387546343E+00  0.527253404691E+01  0.588387180785E+01
  0.141958138248E+01  0.505375712228E+01  0.524329712750E+01
  0.221231000000E+01  0.508710000000E+01  0.355309000000E+01
  0.500000000000E+01 -0.169037000000E+01  0.489859000000E-15
  0.527591000000E+01 -0.788220000000E+00  0.391887000000E-15
  0.575887000000E+01 -0.658810000000E+00  0.391887000000E-15
  0.624183000000E+01 -0.529401000000E+00  0.391887000000E-15
  0.672480000000E+01 -0.399991000000E+00  0.391887000000E-15
  0.720776000000E+01 -0.270582000000E+00  0.391887000000E-15
  0.769072000000E+01 -0.141172000000E+00  0.391887000000E-15
  0.817369000000E+01 -0.117629000000E-01  0.391887000000E-15
  0.865665000000E+01  0.117647000000E+00  0.391887000000E-15
  0.913961000000E+01  0.247056000000E+00  0.391887000000E-15
  0.962257000000E+01  0.376466000000E+00  0.391887000000E-15
  0.464724604562E+01 -0.155538076433E+00  0.391887000000E-15
  0.503580537976E+01  0.464787125846E+00  0.313510000000E-15
  0.551974209056E+01  0.579316671563E+00  0.313510000000E-15
  0.599455148772E+01  0.709406767760E+00  0.313510000000E-15
  0.646686792854E+01  0.838349039191E+00  0.313510000000E-15
  0.693814048787E+01  0.966249838434E+00  0.313510000000E-15
  0.740917839949E+01  0.109340990704E+01  0.313510000000E-15
  0.788025181487E+01  0.122020723905E+01  0.313510000000E-15
  0.835144292016E+01  0.134706227904E+01  0.313510000000E-15
  0.882279622801E+01  0.147416967718E+01  0.313510000000E-15
  0.929129000000E+01  0.161285000000E+01  0.313510000000E-15
  0.435650225348E+01  0.138488275416E+01  0.293915000000E-15
  0.480161608310E+01  0.170369060431E+01  0.235132000000E-15
  0.527633265293E+01  0.183541314645E+01  0.235132000000E-15
  0.573687956396E+01  0.196702898271E+01  0.235132000000E-15
  0.619424187703E+01  0.209514296693E+01  0.235132000000E-15
  0.665184585679E+01  0.222044971124E+01  0.235132000000E-15
  0.711032083913E+01  0.234471745535E+01  0.235132000000E-15
  0.756980483811E+01  0.246859607560E+01  0.235132000000E-15
  0.803050494732E+01  0.259239355929E+01  0.235132000000E-15
  0.849295819912E+01  0.271782163209E+01  0.235132000000E-15
  0.896000000000E+01  0.284924000000E+01  0.235132000000E-15
  0.398247100591E+01  0.290941376635E+01  0.195943000000E-15
  0.449279090063E+01  0.292517037828E+01  0.156755000000E-15
  0.495284908439E+01  0.308801161712E+01  0.156755000000E-15
  0.540684995516E+01  0.322410058772E+01  0.156755000000E-15
  0.586183031894E+01  0.335049017108E+01  0.156755000000E-15
  0.631810248004E+01  0.347460114497E+01  0.156755000000E-15
  0.677591841573E+01  0.359783766579E+01  0.156755000000E-15
  0.723507518515E+01  0.372091306187E+01  0.156755000000E-15
  0.769557954764E+01  0.384416200940E+01  0.156755000000E-15
  0.815859717654E+01  0.396652530553E+01  0.156755000000E-15
  0.862871000000E+01  0.408562000000E+01  0.156755000000E-15
  0.345805217092E+01  0.446535281905E+01  0.979717000000E-16
  0.407927757328E+01  0.414551153996E+01  0.783774000000E-16
  0.452871002141E+01  0.432043051315E+01  0.783774000000E-16
  0.499474019573E+01  0.445003863548E+01  0.783774000000E-16
  0.546361689658E+01  0.457784425045E+01  0.783774000000E-16
  0.593415389690E+01  0.470417294013E+01  0.783774000000E-16
  0.640550624284E+01  0.483033268207E+01  0.783774000000E-16
  0.687730281875E+01  0.495648323476E+01  0.783774000000E-16
  0.734944905577E+01  0.508246008078E+01  0.783774000000E-16
  0.782186406122E+01  0.520815932458E+01  0.783774000000E-16
  0.829742000000E+01  0.532201000000E+01  0.783773999999E-16
  0.292945000000E+01  0.603704000000E+01 -0.315759633880E-27
  0.361947000000E+01  0.539371000000E+01 -0.250965172161E-27
  0.410243000000E+01  0.552311000000E+01 -0.582475402160E-28
  0.458539000000E+01  0.565252000000E+01 -0.115462377400E-27
  0.506835000000E+01  0.578193000000E+01 -0.124258378386E-27
  0.555132000000E+01  0.591134000000E+01 -0.126165965901E-27
  0.603428000000E+01  0.604075000000E+01 -0.125195515558E-27
  0.651724000000E+01  0.617016000000E+01 -0.123396630192E-27
  0.700021000000E+01  0.629957000000E+01 -0.120967187852E-27
  0.748317000000E+01  0.642898000000E+01 -0.108870261682E-27
  0.796613000000E+01  0.655839000000E+01 -0.380677101553E-28
  0.498725000000E+01 -0.164280000000E+01  0.625738000000E+00
  0.526571000000E+01 -0.750165000000E+00  0.500590000000E+00
  0.574867000000E+01 -0.620756000000E+00  0.500590000000E+00
  0.623164000000E+01 -0.491346000000E+00  0.500590000000E+00
  0.671460000000E+01 -0.361937000000E+00  0.500590000000E+00
  0.719756000000E+01 -0.232527000000E+00  0.500590000000E+00
  0.768053000000E+01 -0.103118000000E+00  0.500590000000E+00
  0.816349000000E+01  0.262920000000E-01  0.500590000000E+00
  0.864645000000E+01  0.155702000000E+00  0.500590000000E+00
  0.912941000000E+01  0.285111000000E+00  0.500590000000E+00
  0.961238000000E+01  0.414521000000E+00  0.500590000000E+00
  0.463968777380E+01 -0.149854038153E+00  0.769671620753E+00
  0.502881889624E+01  0.467884502784E+00  0.611200052962E+00
  0.551190464773E+01  0.583063721484E+00  0.620010473906E+00
  0.598710886321E+01  0.713361465864E+00  0.622359264115E+00
  0.646031402043E+01  0.842442592614E+00  0.623022567477E+00
  0.693262142207E+01  0.970558072885E+00  0.623101528341E+00
  0.740469818047E+01  0.109795792070E+01  0.622996093083E+00
  0.787675186075E+01  0.122498286187E+01  0.622832133390E+00
  0.834887900094E+01  0.135202771600E+01  0.622534053407E+00
  0.882102776683E+01  0.147918126460E+01  0.621756350311E+00
  0.929009000000E+01  0.161731000000E+01  0.618286000000E+00
  0.434338354316E+01  0.138317846180E+01  0.833773733107E+00
  0.479168593781E+01  0.170060245675E+01  0.671681239406E+00
  0.526619356455E+01  0.183215029396E+01  0.684328483559E+00
  0.572760920124E+01  0.196365786571E+01  0.689648920001E+00
  0.618650224377E+01  0.209193216901E+01  0.691266188599E+00
  0.664586220855E+01  0.221758897899E+01  0.691190181299E+00
  0.710609619931E+01  0.234226930497E+01  0.690595476702E+00
  0.756723803005E+01  0.246654313080E+01  0.689776242225E+00
  0.802937348687E+01  0.259067865779E+01  0.688405996827E+00
  0.849289131893E+01  0.271627764889E+01  0.685636117234E+00
  0.896044000000E+01  0.284757000000E+01  0.680162000000E+00
  0.396650096843E+01  0.291320476644E+01  0.831406619671E+00
  0.448133646731E+01  0.292616337775E+01  0.672846348266E+00
  0.494160561082E+01  0.308763162570E+01  0.684800241723E+00
  0.539667190218E+01  0.322325435530E+01  0.690693566714E+00
  0.585326492226E+01  0.334977965548E+01  0.692115092246E+00
  0.631137332052E+01  0.347424312438E+01  0.691758788154E+00
  0.677098895980E+01  0.359791555035E+01  0.690942532559E+00
  0.723180729116E+01  0.372142734206E+01  0.689984662184E+00
  0.769374712065E+01  0.384508164887E+01  0.688539469638E+00
  0.815776457710E+01  0.396782376557E+01  0.685722883091E+00
  0.862826000000E+01  0.408729000000E+01  0.680162000000E+00
  0.344907840909E+01  0.446247496972E+01  0.765769309451E+00
  0.407212766820E+01  0.414144638189E+01  0.613610490571E+00
  0.452238805034E+01  0.431378659969E+01  0.623363950446E+00
  0.498963515609E+01  0.444311567799E+01  0.624237435354E+00
  0.545978733299E+01  0.457114537508E+01  0.623825687478E+00
  0.593150965438E+01  0.469776003085E+01  0.623242736693E+00
  0.640395350180E+01  0.482421572239E+01  0.622812682464E+00
  0.687673411208E+01  0.495064610420E+01  0.622521579896E+00
  0.734975177632E+01  0.507690465123E+01  0.622208297990E+00
  0.782284061567E+01  0.520294514962E+01  0.621512158162E+00
  0.829861000000E+01  0.531755000000E+01  0.618286000000E+00
  0.294219000000E+01  0.598947000000E+01  0.625738000000E+00
  0.362966000000E+01  0.535565000000E+01  0.500590000000E+00
  0.411263000000E+01  0.548506000000E+01  0.500590000000E+00
  0.459559000000E+01  0.561447000000E+01  0.500590000000E+00
  0.507855000000E+01  0.574388000000E+01  0.500590000000E+00
  0.556151000000E+01  0.587329000000E+01  0.500590000000E+00
  0.604448000000E+01  0.600270000000E+01  0.500590000000E+00
  0.652744000000E+01  0.613211000000E+01  0.500590000000E+00
  0.701040000000E+01  0.626152000000E+01  0.500590000000E+00
  0.749337000000E+01  0.639093000000E+01  0.500590000000E+00
  0.797633000000E+01  0.652034000000E+01  0.500590000000E+00
  0.494933000000E+01 -0.150127000000E+01  0.123607000000E+01
  0.523537000000E+01 -0.636938000000E+00  0.988854000000E+00
  0.571833000000E+01 -0.507528000000E+00  0.988854000000E+00
  0.620130000000E+01 -0.378118000000E+00  0.988854000000E+00
  0.668426000000E+01 -0.248709000000E+00  0.988854000000E+00
  0.716722000000E+01 -0.119299000000E+00  0.988854000000E+00
  0.765019000000E+01  0.101101000000E-01  0.988854000000E+00
  0.813315000000E+01  0.139520000000E+00  0.988854000000E+00
  0.861611000000E+01  0.268929000000E+00  0.988854000000E+00
  0.909907000000E+01  0.398339000000E+00  0.988854000000E+00
  0.958204000000E+01  0.527748000000E+00  0.988854000000E+00
  0.460859775072E+01 -0.885977766512E-01  0.152735408235E+01
  0.500075685527E+01  0.513531193721E+00  0.121315507804E+01
  0.548164683563E+01  0.630801857177E+00  0.122763415381E+01
  0.595809623579E+01  0.761594238807E+00  0.123104151619E+01
  0.643369827639E+01  0.891122364120E+00  0.123190818451E+01
  0.690863997641E+01  0.101985727475E+01  0.123198218045E+01
  0.738330644127E+01  0.114783819858E+01  0.123181816998E+01
  0.785785483115E+01  0.127540247815E+01  0.123160311361E+01
  0.833225249220E+01  0.140296931815E+01  0.123120622871E+01
  0.880639038853E+01  0.153025970665E+01  0.123009692027E+01
  0.927681000000E+01  0.166687000000E+01  0.122425000000E+01
  0.430176448219E+01  0.140085823168E+01  0.166032848511E+01
  0.475907816080E+01  0.170952830316E+01  0.133321240051E+01
  0.523256015876E+01  0.184093719655E+01  0.135587301251E+01
  0.569653877274E+01  0.197218806178E+01  0.136429994352E+01
  0.615985108334E+01  0.210102408421E+01  0.136644935442E+01
  0.662421541508E+01  0.222775145582E+01  0.136607916189E+01
  0.708939860114E+01  0.235356832226E+01  0.136507173469E+01
  0.755514812981E+01  0.247893336286E+01  0.136383896792E+01
  0.802129501649E+01  0.260402087402E+01  0.136179931949E+01
  0.848785690856E+01  0.273012546509E+01  0.135742682709E+01
  0.895686000000E+01  0.286093000000E+01  0.134800000000E+01
  0.392843693864E+01  0.290205222689E+01  0.165534163811E+01
  0.445370212664E+01  0.291135368973E+01  0.133498541757E+01
  0.491439295223E+01  0.306833663594E+01  0.135694745820E+01
  0.537263476501E+01  0.320261654317E+01  0.136632257114E+01
  0.583399468607E+01  0.332953402256E+01  0.136797940608E+01
  0.629736772174E+01  0.345501795329E+01  0.136707267923E+01
  0.676206183410E+01  0.357991173625E+01  0.136567574151E+01
  0.722752659102E+01  0.370466874674E+01  0.136420958879E+01
  0.769344221408E+01  0.382945338158E+01  0.136204625589E+01
  0.816034732474E+01  0.395327675326E+01  0.135759540366E+01
  0.863184000000E+01  0.407393000000E+01  0.134800000000E+01
  0.343897442542E+01  0.440770520297E+01  0.152170918433E+01
  0.406381751466E+01  0.409343169286E+01  0.121678497846E+01
  0.451670267280E+01  0.425843150271E+01  0.123307306346E+01
  0.498720016132E+01  0.438741888733E+01  0.123399226450E+01
  0.546069688325E+01  0.451603598795E+01  0.123309242910E+01
  0.593551111030E+01  0.464333948543E+01  0.123210900170E+01
  0.641063199842E+01  0.477052497150E+01  0.123146048185E+01
  0.688581461215E+01  0.489767819632E+01  0.123106132300E+01
  0.736096181700E+01  0.502456736464E+01  0.123065109187E+01
  0.783574346012E+01  0.515143655262E+01  0.122967683724E+01
  0.831189000000E+01  0.526799000000E+01  0.122425000000E+01
  0.298012000000E+01  0.584793000000E+01  0.123607000000E+01
  0.366000000000E+01  0.524242000000E+01  0.988854000000E+00
  0.414296000000E+01  0.537183000000E+01  0.988854000000E+00
  0.462593000000E+01  0.550124000000E+01  0.988854000000E+00
  0.510889000000E+01  0.563065000000E+01  0.988854000000E+00
  0.559185000000E+01  0.576006000000E+01  0.988854000000E+00
  0.607482000000E+01  0.588947000000E+01  0.988854000000E+00
  0.655778000000E+01  0.601888000000E+01  0.988854000000E+00
  0.704074000000E+01  0.614829000000E+01  0.988854000000E+00
  0.752371000000E+01  0.627770000000E+01  0.988854000000E+00
  0.800667000000E+01  0.640711000000E+01  0.988854000000E+00
  0.488716000000E+01 -0.126925000000E+01  0.181596000000E+01
  0.518564000000E+01 -0.451325000000E+00  0.145277000000E+01
  0.566860000000E+01 -0.321916000000E+00  0.145277000000E+01
  0.615156000000E+01 -0.192506000000E+00  0.145277000000E+01
  0.663453000000E+01 -0.630967000000E-01  0.145277000000E+01
  0.711749000000E+01  0.663128000000E-01  0.145277000000E+01
  0.760045000000E+01  0.195722000000E+00  0.145277000000E+01
  0.808341000000E+01  0.325132000000E+00  0.145277000000E+01
  0.856638000000E+01  0.454541000000E+00  0.145277000000E+01
  0.904934000000E+01  0.583951000000E+00  0.145277000000E+01
  0.953230000000E+01  0.713360000000E+00  0.145277000000E+01
  0.455684880808E+01  0.263083240234E-01  0.226131638928E+01
  0.495388964113E+01  0.600525924261E+00  0.179557475902E+01
  0.543209206358E+01  0.721480721826E+00  0.181038597364E+01
  0.591107300136E+01  0.852909881183E+00  0.181289419975E+01
  0.639022820669E+01  0.983276185367E+00  0.181352759546E+01
  0.686871731228E+01  0.111261281063E+01  0.181358451945E+01
  0.734683066829E+01  0.124127546469E+01  0.181344219951E+01
  0.782471244324E+01  0.136956219654E+01  0.181326396174E+01
  0.830243520885E+01  0.149768845324E+01  0.181304539662E+01
  0.877931709701E+01  0.162545311472E+01  0.181230029342E+01
  0.925190000000E+01  0.175986000000E+01  0.180586000000E+01
  0.423865484697E+01  0.143598419980E+01  0.247177842663E+01
  0.470679262596E+01  0.173024128735E+01  0.197540236368E+01
  0.517835640341E+01  0.186156752563E+01  0.200185260976E+01
  0.564722413532E+01  0.199258263133E+01  0.200904580558E+01
  0.611796134503E+01  0.212269219644E+01  0.201033684508E+01
  0.658997275104E+01  0.225087471206E+01  0.200969446692E+01
  0.706239656641E+01  0.237827338298E+01  0.200868309152E+01
  0.753484302097E+01  0.250519859929E+01  0.200762291114E+01
  0.800701735501E+01  0.263164007637E+01  0.200603673243E+01
  0.847803092255E+01  0.275863060149E+01  0.200210931906E+01
  0.894940000000E+01  0.288877000000E+01  0.199149000000E+01
  0.387403914337E+01  0.287552723122E+01  0.246508644390E+01
  0.441194129754E+01  0.288119572844E+01  0.197690605159E+01
  0.487316967381E+01  0.303077741290E+01  0.200362313919E+01
  0.533741641288E+01  0.316336638913E+01  0.201157182661E+01
  0.580711232240E+01  0.329119525147E+01  0.201202419613E+01
  0.627863632650E+01  0.341833940467E+01  0.201075928577E+01
  0.675079499052E+01  0.354508924285E+01  0.200933886436E+01
  0.722302684895E+01  0.367168072545E+01  0.200804239606E+01
  0.769491209322E+01  0.379826600002E+01  0.200633735115E+01
  0.816612155070E+01  0.392357901455E+01  0.200233408600E+01
  0.863930000000E+01  0.404608000000E+01  0.199149000000E+01
  0.343506919315E+01  0.429921218748E+01  0.225536669801E+01
  0.405797605484E+01  0.400311529974E+01  0.179852077987E+01
  0.451494172518E+01  0.415724661894E+01  0.181614438144E+01
  0.499038566693E+01  0.428604644731E+01  0.181569973876E+01
  0.546891925858E+01  0.441517958568E+01  0.181446467818E+01
  0.594770491206E+01  0.454348986161E+01  0.181355439624E+01
  0.642627387499E+01  0.467164634655E+01  0.181298445136E+01
  0.690458734064E+01  0.479972384684E+01  0.181266289370E+01
  0.738272596927E+01  0.492772052890E+01  0.181244268538E+01
  0.785997119502E+01  0.505550047622E+01  0.181183189317E+01
  0.833681000000E+01  0.517500000000E+01  0.180586000000E+01
  0.304229000000E+01  0.561592000000E+01  0.181596000000E+01
  0.370974000000E+01  0.505681000000E+01  0.145277000000E+01
  0.419270000000E+01  0.518622000000E+01  0.145277000000E+01
  0.467566000000E+01  0.531563000000E+01  0.145277000000E+01
  0.515863000000E+01  0.544504000000E+01  0.145277000000E+01
  0.564159000000E+01  0.557445000000E+01  0.145277000000E+01
  0.612455000000E+01  0.570386000000E+01  0.145277000000E+01
  0.660751000000E+01  0.583327000000E+01  0.145277000000E+01
  0.709048000000E+01  0.596268000000E+01  0.145277000000E+01
  0.757344000000E+01  0.609209000000E+01  0.145277000000E+01
  0.805640000000E+01  0.622150000000E+01  0.145277000000E+01
  0.480228000000E+01 -0.952469000000E+00  0.235114000000E+01
  0.511773000000E+01 -0.197899000000E+00  0.188091000000E+01
  0.560069000000E+01 -0.684892000000E-01  0.188091000000E+01
  0.608366000000E+01  0.609204000000E-01  0.188091000000E+01
  0.656662000000E+01  0.190330000000E+00  0.188091000000E+01
  0.704958000000E+01  0.319739000000E+00  0.188091000000E+01
  0.753255000000E+01  0.449149000000E+00  0.188091000000E+01
  0.801551000000E+01  0.578558000000E+00  0.188091000000E+01
  0.849847000000E+01  0.707968000000E+00  0.188091000000E+01
  0.898143000000E+01  0.837378000000E+00  0.188091000000E+01
  0.946440000000E+01  0.966787000000E+00  0.188091000000E+01
  0.448674241011E+01  0.186770906393E+00  0.296014950126E+01
  0.488954898428E+01  0.729321673843E+00  0.234712064692E+01
  0.536808291780E+01  0.854382618222E+00  0.235523528570E+01
  0.585136621616E+01  0.986923166511E+00  0.235612105311E+01
  0.633421375941E+01  0.111681996821E+01  0.235647160964E+01
  0.681617661520E+01  0.124637139327E+01  0.235649967028E+01
  0.729766044749E+01  0.137551816609E+01  0.235642824532E+01
  0.777887087252E+01  0.150448571719E+01  0.235637429068E+01
  0.825992101414E+01  0.163358457133E+01  0.235620424971E+01
  0.874115064699E+01  0.176161412281E+01  0.235643631952E+01
  0.921608000000E+01  0.189354000000E+01  0.235170000000E+01
  0.416019916538E+01  0.148877755741E+01  0.326055281778E+01
  0.463797714298E+01  0.176341556950E+01  0.258967030366E+01
  0.510967336087E+01  0.189520885065E+01  0.260796931784E+01
  0.558806084789E+01  0.202712456334E+01  0.260992381069E+01
  0.606826546364E+01  0.215777745610E+01  0.261048423273E+01
  0.654864890079E+01  0.228711725300E+01  0.261003880799E+01
  0.702856937602E+01  0.241599876749E+01  0.260956803711E+01
  0.750801645952E+01  0.254459230753E+01  0.260914930323E+01
  0.798696936659E+01  0.267276677087E+01  0.260842791720E+01
  0.846449242399E+01  0.280079122316E+01  0.260740657158E+01
  0.893831000000E+01  0.293018000000E+01  0.259920000000E+01
  0.380753420537E+01  0.283684003247E+01  0.325667677600E+01
  0.435780385053E+01  0.283598784615E+01  0.259071315194E+01
  0.482238130652E+01  0.297624897973E+01  0.260984760140E+01
  0.529899996512E+01  0.310786911500E+01  0.261150739460E+01
  0.577949408524E+01  0.323739824660E+01  0.261143414815E+01
  0.625995034478E+01  0.336662854039E+01  0.261065077897E+01
  0.673989301677E+01  0.349538519268E+01  0.260996393397E+01
  0.721930696961E+01  0.362387600055E+01  0.260942673404E+01
  0.769807173084E+01  0.375234183828E+01  0.260864369331E+01
  0.817550691873E+01  0.388010033256E+01  0.260760563722E+01
  0.865040000000E+01  0.400468000000E+01  0.259920000000E+01
  0.343833685785E+01  0.414366890075E+01  0.295454099237E+01
  0.405631745702E+01  0.387114411571E+01  0.234861867611E+01
  0.452011239000E+01  0.401320090037E+01  0.235934146706E+01
  0.500421302908E+01  0.414178017514E+01  0.235729805544E+01
  0.548724770836E+01  0.427236038945E+01  0.235680914311E+01
  0.596967366416E+01  0.440177375500E+01  0.235629704234E+01
  0.645143526491E+01  0.453096801598E+01  0.235604511409E+01
  0.693283134149E+01  0.465999002634E+01  0.235593489948E+01
  0.741413975382E+01  0.478873719994E+01  0.235578068468E+01
  0.789507513804E+01  0.491846623863E+01  0.235606694038E+01
  0.837263000000E+01  0.504132000000E+01  0.235170000000E+01
  0.312717000000E+01  0.529913000000E+01  0.235114000000E+01
  0.377764000000E+01  0.480338000000E+01  0.188091000000E+01
  0.426060000000E+01  0.493279000000E+01  0.188091000000E+01
  0.474357000000E+01  0.506220000000E+01  0.188091000000E+01
  0.522653000000E+01  0.519161000000E+01  0.188091000000E+01
  0.570949000000E+01  0.532102000000E+01  0.188091000000E+01
  0.619246000000E+01  0.545043000000E+01  0.188091000000E+01
  0.667542000000E+01  0.557984000000E+01  0.188091000000E+01
  0.715838000000E+01  0.570925000000E+01  0.188091000000E+01
  0.764135000000E+01  0.583866000000E+01  0.188091000000E+01
  0.812431000000E+01  0.596807000000E+01  0.188091000000E+01
  0.469677000000E+01 -0.558718000000E+00  0.282843000000E+01
  0.503333000000E+01  0.117102000000E+00  0.226274000000E+01
  0.551629000000E+01  0.246512000000E+00  0.226274000000E+01
  0.599925000000E+01  0.375921000000E+00  0.226274000000E+01
  0.648222000000E+01  0.505331000000E+00  0.226274000000E+01
  0.696518000000E+01  0.634740000000E+00  0.226274000000E+01
  0.744814000000E+01  0.764150000000E+00  0.226274000000E+01
  0.793110000000E+01  0.893559000000E+00  0.226274000000E+01
  0.841407000000E+01  0.102297000000E+01  0.226274000000E+01
  0.889703000000E+01  0.115238000000E+01  0.226274000000E+01
  0.937999000000E+01  0.128179000000E+01  0.226274000000E+01
  0.443473000000E+01  0.419249000000E+00  0.356403000000E+01
  0.482369000000E+01  0.899475000000E+00  0.285122000000E+01
  0.530665000000E+01  0.102888000000E+01  0.285122000000E+01
  0.578962000000E+01  0.115829000000E+01  0.285122000000E+01
  0.627258000000E+01  0.128770000000E+01  0.285122000000E+01
  0.675554000000E+01  0.141711000000E+01  0.285122000000E+01
  0.723851000000E+01  0.154652000000E+01  0.285122000000E+01
  0.772147000000E+01  0.167593000000E+01  0.285122000000E+01
  0.820443000000E+01  0.180534000000E+01  0.285122000000E+01
  0.868739000000E+01  0.193475000000E+01  0.285122000000E+01
  0.917036000000E+01  0.206416000000E+01  0.285122000000E+01
  0.412668000000E+01  0.156892000000E+01  0.395075000000E+01
  0.457725000000E+01  0.181921000000E+01  0.316060000000E+01
  0.506021000000E+01  0.194862000000E+01  0.316060000000E+01
  0.554317000000E+01  0.207803000000E+01  0.316060000000E+01
  0.602614000000E+01  0.220744000000E+01  0.316060000000E+01
  0.650910000000E+01  0.233685000000E+01  0.316060000000E+01
  0.699206000000E+01  0.246626000000E+01  0.316060000000E+01
  0.747503000000E+01  0.259567000000E+01  0.316060000000E+01
  0.795799000000E+01  0.272508000000E+01  0.316060000000E+01
  0.844095000000E+01  0.285449000000E+01  0.316060000000E+01
  0.892392000000E+01  0.298390000000E+01  0.316060000000E+01
  0.380277000000E+01  0.277775000000E+01  0.395075000000E+01
  0.431812000000E+01  0.278628000000E+01  0.316060000000E+01
  0.480109000000E+01  0.291569000000E+01  0.316060000000E+01
  0.528405000000E+01  0.304509000000E+01  0.316060000000E+01
  0.576701000000E+01  0.317450000000E+01  0.316060000000E+01
  0.624998000000E+01  0.330391000000E+01  0.316060000000E+01
  0.673294000000E+01  0.343332000000E+01  0.316060000000E+01
  0.721590000000E+01  0.356273000000E+01  0.316060000000E+01
  0.769886000000E+01  0.369214000000E+01  0.316060000000E+01
  0.818183000000E+01  0.382155000000E+01  0.316060000000E+01
  0.866479000000E+01  0.395096000000E+01  0.316060000000E+01
  0.349472000000E+01  0.392742000000E+01  0.356403000000E+01
  0.407168000000E+01  0.370601000000E+01  0.285122000000E+01
  0.455465000000E+01  0.383542000000E+01  0.285122000000E+01
  0.503761000000E+01  0.396483000000E+01  0.285122000000E+01
  0.552057000000E+01  0.409424000000E+01  0.285122000000E+01
  0.600353000000E+01  0.422365000000E+01  0.285122000000E+01
  0.648650000000E+01  0.435306000000E+01  0.285122000000E+01
  0.696946000000E+01  0.448247000000E+01  0.285122000000E+01
  0.745242000000E+01  0.461188000000E+01  0.285122000000E+01
  0.793539000000E+01  0.474129000000E+01  0.285122000000E+01
  0.841835000000E+01  0.487070000000E+01  0.285122000000E+01
  0.323267000000E+01  0.490538000000E+01  0.282843000000E+01
  0.386205000000E+01  0.448838000000E+01  0.226274000000E+01
  0.434501000000E+01  0.461779000000E+01  0.226274000000E+01
  0.482797000000E+01  0.474720000000E+01  0.226274000000E+01
  0.531093000000E+01  0.487661000000E+01  0.226274000000E+01
  0.579390000000E+01  0.500602000000E+01  0.226274000000E+01
  0.627686000000E+01  0.513543000000E+01  0.226274000000E+01
  0.675982000000E+01  0.526484000000E+01  0.226274000000E+01
  0.724279000000E+01  0.539425000000E+01  0.226274000000E+01
  0.772575000000E+01  0.552366000000E+01  0.226274000000E+01
  0.820871000000E+01  0.565307000000E+01  0.226274000000E+01
  0.560370000000E+01 -0.185213000000E+01  0.275546000000E-15
  0.620741000000E+01 -0.201389000000E+01  0.275546000000E-15
  0.681111000000E+01 -0.217566000000E+01  0.275546000000E-15
  0.741481000000E+01 -0.233742000000E+01  0.275546000000E-15
  0.801852000000E+01 -0.249918000000E+01  0.275546000000E-15
  0.862222000000E+01 -0.266094000000E+01  0.275546000000E-15
  0.922593000000E+01 -0.282270000000E+01  0.275546000000E-15
  0.982963000000E+01 -0.298447000000E+01  0.275546000000E-15
  0.488488567342E+01 -0.257760957835E+01  0.220436000000E-15
  0.548072493798E+01 -0.274281595938E+01  0.220436000000E-15
  0.606282333569E+01 -0.289961747623E+01  0.220436000000E-15
  0.664563074543E+01 -0.305659531792E+01  0.220436000000E-15
  0.723203534684E+01 -0.321402285506E+01  0.220436000000E-15
  0.782129840188E+01 -0.337207835041E+01  0.220436000000E-15
  0.841237137596E+01 -0.353064271173E+01  0.220436000000E-15
  0.900477196204E+01 -0.368905266744E+01  0.220436000000E-15
  0.959669000000E+01 -0.385380000000E+01  0.220436000000E-15
  0.469706180949E+01 -0.345123434838E+01  0.165327000000E-15
  0.528941636108E+01 -0.362589242336E+01  0.165327000000E-15
  0.586547648844E+01 -0.378431447648E+01  0.165327000000E-15
  0.644112845012E+01 -0.393897610081E+01  0.165327000000E-15
  0.702007091722E+01 -0.409372379091E+01  0.165327000000E-15
  0.760216300537E+01 -0.424929108244E+01  0.165327000000E-15
  0.818655916617E+01 -0.440547679856E+01  0.165327000000E-15
  0.877290734068E+01 -0.456251442626E+01  0.165327000000E-15
  0.936375000000E+01 -0.472313000000E+01  0.165327000000E-15
  0.445766917522E+01 -0.431542081160E+01  0.110218000000E-15
  0.504471219757E+01 -0.450015131327E+01  0.110218000000E-15
  0.562157656636E+01 -0.465967661410E+01  0.110218000000E-15
  0.619992530197E+01 -0.481439613274E+01  0.110218000000E-15
  0.678129076059E+01 -0.496915308991E+01  0.110218000000E-15
  0.736521221266E+01 -0.512464882670E+01  0.110218000000E-15
  0.795081984080E+01 -0.528092996035E+01  0.110218000000E-15
  0.853812445435E+01 -0.543745506564E+01  0.110218000000E-15
  0.913082000000E+01 -0.559247000000E+01  0.110218000000E-15
  0.416579072936E+01 -0.517785502408E+01  0.551091000000E-16
  0.474916227819E+01 -0.535866442170E+01  0.551091000000E-16
  0.533787198165E+01 -0.551716360786E+01  0.551091000000E-16
  0.592858538255E+01 -0.567519427147E+01  0.551091000000E-16
  0.652100883080E+01 -0.583299932254E+01  0.551091000000E-16
  0.711429322197E+01 -0.599128328520E+01  0.551091000000E-16
  0.770806508085E+01 -0.614977980252E+01  0.551091000000E-16
  0.830201183462E+01 -0.630888675358E+01  0.551091000000E-16
  0.889788000000E+01 -0.646180000000E+01  0.551091000000E-16
  0.383531000000E+01 -0.603704000000E+01  0.111400549181E-27
  0.443902000000E+01 -0.619880000000E+01 -0.374130366082E-28
  0.504272000000E+01 -0.636056000000E+01 -0.416177246316E-28
  0.564643000000E+01 -0.652232000000E+01 -0.407418044136E-28
  0.625013000000E+01 -0.668408000000E+01 -0.351809795644E-28
  0.685383000000E+01 -0.684585000000E+01 -0.309350295732E-28
  0.745754000000E+01 -0.700761000000E+01 -0.278789899769E-28
  0.806124000000E+01 -0.716937000000E+01 -0.239957272960E-28
  0.866494000000E+01 -0.733113000000E+01 -0.781493169358E-29
  0.499283000000E+01 -0.171713000000E+01  0.351978000000E+00
  0.559653000000E+01 -0.187889000000E+01  0.351978000000E+00
  0.620024000000E+01 -0.204065000000E+01  0.351978000000E+00
  0.680394000000E+01 -0.220241000000E+01  0.351978000000E+00
  0.740764000000E+01 -0.236418000000E+01  0.351978000000E+00
  0.801135000000E+01 -0.252594000000E+01  0.351978000000E+00
  0.861505000000E+01 -0.268770000000E+01  0.351978000000E+00
  0.921876000000E+01 -0.284946000000E+01  0.351978000000E+00
  0.982246000000E+01 -0.301122000000E+01  0.351978000000E+00
  0.487159705933E+01 -0.257961096112E+01  0.425105117608E+00
  0.546663565327E+01 -0.274313555639E+01  0.440536296182E+00
  0.605211802925E+01 -0.290121745165E+01  0.442124561111E+00
  0.663826549419E+01 -0.305881401878E+01  0.440506014695E+00
  0.722704468784E+01 -0.321672926486E+01  0.438920216651E+00
  0.781792572320E+01 -0.337510168539E+01  0.437935256383E+00
  0.841017032635E+01 -0.353389385618E+01  0.437377909472E+00
  0.900341217989E+01 -0.369246010547E+01  0.436888604561E+00
  0.959585000000E+01 -0.385693000000E+01  0.434732000000E+00
  0.468285177881E+01 -0.344916690277E+01  0.463740040273E+00
  0.527457837531E+01 -0.362133658476E+01  0.483773829433E+00
  0.585383535238E+01 -0.378014494831E+01  0.487233363116E+00
  0.643305318130E+01 -0.393574349947E+01  0.486408916733E+00
  0.701494855922E+01 -0.409128831523E+01  0.484711196029E+00
  0.759925873507E+01 -0.424743622602E+01  0.483437750087E+00
  0.818526540848E+01 -0.440404379019E+01  0.482499259667E+00
  0.877272813554E+01 -0.456136217087E+01  0.481139986151E+00
  0.936407000000E+01 -0.472196000000E+01  0.478239000000E+00
  0.444411097712E+01 -0.431640940561E+01  0.464015340086E+00
  0.503093090586E+01 -0.449782529041E+01  0.482861479168E+00
  0.561079780281E+01 -0.465735309458E+01  0.486681700413E+00
  0.619226211911E+01 -0.481296191070E+01  0.485647694062E+00
  0.677619187683E+01 -0.496855599141E+01  0.484145258910E+00
  0.736204012226E+01 -0.512470283467E+01  0.483049165221E+00
  0.794911400354E+01 -0.528147326331E+01  0.482251036567E+00
  0.853742559920E+01 -0.543833922307E+01  0.481001840418E+00
  0.913050000000E+01 -0.559364000000E+01  0.478239000000E+00
  0.415768867110E+01 -0.517533438362E+01  0.427106153494E+00
  0.474186046201E+01 -0.535264347349E+01  0.438592301139E+00
  0.533272798099E+01 -0.551142802490E+01  0.439302570917E+00
  0.592526390760E+01 -0.567005589846E+01  0.438405267568E+00
  0.651904474986E+01 -0.582840246641E+01  0.437601221362E+00
  0.711335737295E+01 -0.598709481505E+01  0.437144200576E+00
  0.770796760557E+01 -0.614590960537E+01  0.436897824036E+00
  0.830259139854E+01 -0.630525569289E+01  0.436623124815E+00
  0.889872000000E+01 -0.645867000000E+01  0.434732000000E+00
  0.384248000000E+01 -0.601028000000E+01  0.351978000000E+00
  0.444619000000E+01 -0.617204000000E+01  0.351978000000E+00
  0.504989000000E+01 -0.633380000000E+01  0.351978000000E+00
  0.565359000000E+01 -0.649556000000E+01  0.351978000000E+00
  0.625730000000E+01 -0.665733000000E+01  0.351978000000E+00
  0.686100000000E+01 -0.681909000000E+01  0.351978000000E+00
  0.746471000000E+01 -0.698085000000E+01  0.351978000000E+00
  0.806841000000E+01 -0.714261000000E+01  0.351978000000E+00
  0.867211000000E+01 -0.730437000000E+01  0.351978000000E+00
  0.497150000000E+01 -0.179674000000E+01  0.695288000000E+00
  0.557520000000E+01 -0.195850000000E+01  0.695288000000E+00
  0.617891000000E+01 -0.212026000000E+01  0.695288000000E+00
  0.678261000000E+01 -0.228203000000E+01  0.695288000000E+00
  0.738631000000E+01 -0.244379000000E+01  0.695288000000E+00
  0.799002000000E+01 -0.260555000000E+01  0.695288000000E+00
  0.859372000000E+01 -0.276731000000E+01  0.695288000000E+00
  0.919742000000E+01 -0.292907000000E+01  0.695288000000E+00
  0.980113000000E+01 -0.309084000000E+01  0.695288000000E+00
  0.483370443614E+01 -0.261150594144E+01  0.848726176827E+00
  0.542680396965E+01 -0.277158395119E+01  0.869546633220E+00
  0.602010509722E+01 -0.293245229295E+01  0.871772835459E+00
  0.661391417584E+01 -0.309163178972E+01  0.869441498423E+00
  0.720804051197E+01 -0.325066365753E+01  0.867209535433E+00
  0.780262938174E+01 -0.340972128579E+01  0.865830572588E+00
  0.839758187610E+01 -0.356906725671E+01  0.865067188638E+00
  0.899287158907E+01 -0.372808107731E+01  0.864405010860E+00
  0.958652000000E+01 -0.389178000000E+01  0.860798000000E+00
  0.464451748672E+01 -0.345628838168E+01  0.927238178857E+00
  0.523445558029E+01 -0.362222339102E+01  0.956671631427E+00
  0.582126709992E+01 -0.378194654358E+01  0.961764459542E+00
  0.640924936772E+01 -0.393997744488E+01  0.960350317684E+00
  0.699845152781E+01 -0.409751513282E+01  0.957851735118E+00
  0.758829710392E+01 -0.425513003868E+01  0.956059911060E+00
  0.817846161761E+01 -0.441281887899E+01  0.954776265081E+00
  0.876887083718E+01 -0.457086721891E+01  0.952741290625E+00
  0.936155000000E+01 -0.473135000000E+01  0.947812000000E+00
  0.441411870444E+01 -0.430666862778E+01  0.926514672671E+00
  0.500020384841E+01 -0.447971223497E+01  0.955464383693E+00
  0.558707257068E+01 -0.463916922129E+01  0.960970731355E+00
  0.617617829940E+01 -0.479693942861E+01  0.959258106009E+00
  0.676642248042E+01 -0.495457993586E+01  0.957022364909E+00
  0.735713415927E+01 -0.511235824970E+01  0.955477844690E+00
  0.794793542059E+01 -0.527033655484E+01  0.954393590211E+00
  0.853894916183E+01 -0.542809009336E+01  0.952522691227E+00
  0.913302000000E+01 -0.558424000000E+01  0.947812000000E+00
  0.414637169657E+01 -0.514147915657E+01  0.849900829634E+00
  0.473251855415E+01 -0.531124136038E+01  0.866837972654E+00
  0.532822230405E+01 -0.547069186164E+01  0.867723644456E+00
  0.592497668185E+01 -0.563055102881E+01  0.866403855721E+00
  0.652181888064E+01 -0.579009512894E+01  0.865257045560E+00
  0.711850973075E+01 -0.594972246232E+01  0.864628067057E+00
  0.771510027920E+01 -0.610925669397E+01  0.864313557342E+00
  0.831137542345E+01 -0.626917945209E+01  0.863974989959E+00
  0.890806000000E+01 -0.642382000000E+01  0.860798000000E+00
  0.386382000000E+01 -0.593067000000E+01  0.695288000000E+00
  0.446752000000E+01 -0.609243000000E+01  0.695288000000E+00
  0.507122000000E+01 -0.625419000000E+01  0.695288000000E+00
  0.567493000000E+01 -0.641595000000E+01  0.695288000000E+00
  0.627863000000E+01 -0.657771000000E+01  0.695288000000E+00
  0.688233000000E+01 -0.673948000000E+01  0.695288000000E+00
  0.748604000000E+01 -0.690124000000E+01  0.695288000000E+00
  0.808974000000E+01 -0.706300000000E+01  0.695288000000E+00
  0.869345000000E+01 -0.722476000000E+01  0.695288000000E+00
  0.493653000000E+01 -0.192725000000E+01  0.102148000000E+01
  0.554023000000E+01 -0.208901000000E+01  0.102148000000E+01
  0.614394000000E+01 -0.225077000000E+01  0.102148000000E+01
  0.674764000000E+01 -0.241254000000E+01  0.102148000000E+01
  0.735134000000E+01 -0.257430000000E+01  0.102148000000E+01
  0.795505000000E+01 -0.273606000000E+01  0.102148000000E+01
  0.855875000000E+01 -0.289782000000E+01  0.102148000000E+01
  0.916245000000E+01 -0.305958000000E+01  0.102148000000E+01
  0.976616000000E+01 -0.322134000000E+01  0.102148000000E+01
  0.478432429017E+01 -0.267231424051E+01  0.126316058812E+01
  0.537633644186E+01 -0.283045743212E+01  0.127764462587E+01
  0.597790787287E+01 -0.299364178370E+01  0.127930492963E+01
  0.657905656319E+01 -0.315454206869E+01  0.127750055536E+01
  0.717855031973E+01 -0.331469021144E+01  0.127574703131E+01
  0.777714125164E+01 -0.347464215120E+01  0.127464176748E+01
  0.837552118655E+01 -0.363468929952E+01  0.127406924420E+01
  0.897355263062E+01 -0.379444876907E+01  0.127367079569E+01
  0.956900000000E+01 -0.395716000000E+01  0.126974000000E+01
  0.459575876012E+01 -0.347202614290E+01  0.138442327401E+01
  0.518418625385E+01 -0.363138311185E+01  0.140929944159E+01
  0.578013343496E+01 -0.379243882840E+01  0.141313631819E+01
  0.637815380801E+01 -0.395331836192E+01  0.141170233142E+01
  0.697553298751E+01 -0.411299233515E+01  0.140966363101E+01
  0.757182611515E+01 -0.427234422009E+01  0.140828251149E+01
  0.816731900725E+01 -0.443141485899E+01  0.140739231349E+01
  0.876165306740E+01 -0.459053184807E+01  0.140573428224E+01
  0.935631000000E+01 -0.475093000000E+01  0.140026000000E+01
  0.437880011554E+01 -0.428592151216E+01  0.138175661592E+01
  0.496469422575E+01 -0.444897624069E+01  0.140860593596E+01
  0.556012551503E+01 -0.460889324737E+01  0.141251034824E+01
  0.615825748877E+01 -0.476926660583E+01  0.141082254872E+01
  0.675575975834E+01 -0.492922248581E+01  0.140896090105E+01
  0.735228394978E+01 -0.508884528882E+01  0.140776951324E+01
  0.794797567079E+01 -0.524839304993E+01  0.140703727415E+01
  0.854266147104E+01 -0.540729112978E+01  0.140552218208E+01
  0.913827000000E+01 -0.556467000000E+01  0.140026000000E+01
  0.413908786690E+01 -0.507590088115E+01  0.126067125764E+01
  0.472832340770E+01 -0.523813195457E+01  0.127576106536E+01
  0.532935618668E+01 -0.539833789327E+01  0.127601063017E+01
  0.593049987149E+01 -0.555950966558E+01  0.127494093544E+01
  0.653062490855E+01 -0.572034015966E+01  0.127402306404E+01
  0.713009407460E+01 -0.588094940102E+01  0.127352239202E+01
  0.772933038583E+01 -0.604145820452E+01  0.127332975531E+01
  0.832797323436E+01 -0.620203219238E+01  0.127322315445E+01
  0.892558000000E+01 -0.635843000000E+01  0.126974000000E+01
  0.389879000000E+01 -0.580016000000E+01  0.102148000000E+01
  0.450249000000E+01 -0.596192000000E+01  0.102148000000E+01
  0.510619000000E+01 -0.612368000000E+01  0.102148000000E+01
  0.570990000000E+01 -0.628544000000E+01  0.102148000000E+01
  0.631360000000E+01 -0.644720000000E+01  0.102148000000E+01
  0.691730000000E+01 -0.660897000000E+01  0.102148000000E+01
  0.752101000000E+01 -0.677073000000E+01  0.102148000000E+01
  0.812471000000E+01 -0.693249000000E+01  0.102148000000E+01
  0.872841000000E+01 -0.709425000000E+01  0.102148000000E+01
  0.488878000000E+01 -0.210544000000E+01  0.132252000000E+01
  0.549249000000E+01 -0.226720000000E+01  0.132252000000E+01
  0.609619000000E+01 -0.242896000000E+01  0.132252000000E+01
  0.669989000000E+01 -0.259073000000E+01  0.132252000000E+01
  0.730360000000E+01 -0.275249000000E+01  0.132252000000E+01
  0.790730000000E+01 -0.291425000000E+01  0.132252000000E+01
  0.851100000000E+01 -0.307601000000E+01  0.132252000000E+01
  0.911471000000E+01 -0.323777000000E+01  0.132252000000E+01
  0.971841000000E+01 -0.339954000000E+01  0.132252000000E+01
  0.473315551224E+01 -0.276168481335E+01  0.165481480871E+01
  0.532890705264E+01 -0.292061037400E+01  0.165759321843E+01
  0.593423175370E+01 -0.308418385407E+01  0.165863775265E+01
  0.653861952294E+01 -0.324570200811E+01  0.165781032823E+01
  0.714126543112E+01 -0.340671610421E+01  0.165706645353E+01
  0.774292604132E+01 -0.356757891841E+01  0.165656968018E+01
  0.834430188463E+01 -0.372865204811E+01  0.165625557227E+01
  0.894620608250E+01 -0.388934977103E+01  0.165636841695E+01
  0.954381000000E+01 -0.405116000000E+01  0.165354000000E+01
  0.454739312833E+01 -0.349762921974E+01  0.182320478509E+01
  0.513922166742E+01 -0.365106922119E+01  0.183323805813E+01
  0.574291672670E+01 -0.381459848638E+01  0.183438850743E+01
  0.634753864340E+01 -0.397658139910E+01  0.183374959273E+01
  0.695027907165E+01 -0.413774854167E+01  0.183292323336E+01
  0.755150273633E+01 -0.429854807803E+01  0.183240567590E+01
  0.815201776802E+01 -0.445913134339E+01  0.183201875349E+01
  0.875164225294E+01 -0.461960864263E+01  0.183168909973E+01
  0.934851000000E+01 -0.478004000000E+01  0.182756000000E+01
  0.434657034712E+01 -0.425484262350E+01  0.181983498351E+01
  0.493713848501E+01 -0.440849557158E+01  0.183335420339E+01
  0.554043021103E+01 -0.457069707312E+01  0.183407078988E+01
  0.614478478289E+01 -0.473279866231E+01  0.183334457096E+01
  0.674730770340E+01 -0.489433065423E+01  0.183257182130E+01
  0.734850211212E+01 -0.505532438098E+01  0.183213520896E+01
  0.794900746745E+01 -0.521620460117E+01  0.183181884367E+01
  0.854871742632E+01 -0.537675530731E+01  0.183156243854E+01
  0.914607000000E+01 -0.553555000000E+01  0.182756000000E+01
  0.414027441473E+01 -0.498024658798E+01  0.164937234052E+01
  0.473563743083E+01 -0.513658843867E+01  0.165741508964E+01
  0.534017057199E+01 -0.529829412576E+01  0.165695627668E+01
  0.594366817715E+01 -0.546029678410E+01  0.165653817265E+01
  0.654617596266E+01 -0.562190046912E+01  0.165611175081E+01
  0.714807112757E+01 -0.578324782482E+01  0.165591051343E+01
  0.774989412377E+01 -0.594434637439E+01  0.165579300188E+01
  0.835193407081E+01 -0.610605374360E+01  0.165605990145E+01
  0.895076000000E+01 -0.626444000000E+01  0.165354000000E+01
  0.394653000000E+01 -0.562197000000E+01  0.132252000000E+01
  0.455024000000E+01 -0.578373000000E+01  0.132252000000E+01
  0.515394000000E+01 -0.594549000000E+01  0.132252000000E+01
  0.575764000000E+01 -0.610725000000E+01  0.132252000000E+01
  0.636135000000E+01 -0.626901000000E+01  0.132252000000E+01
  0.696505000000E+01 -0.643078000000E+01  0.132252000000E+01
  0.756875000000E+01 -0.659254000000E+01  0.132252000000E+01
  0.817246000000E+01 -0.675430000000E+01  0.132252000000E+01
  0.877616000000E+01 -0.691606000000E+01  0.132252000000E+01
  0.482944000000E+01 -0.232692000000E+01  0.159099000000E+01
  0.543314000000E+01 -0.248869000000E+01  0.159099000000E+01
  0.603684000000E+01 -0.265045000000E+01  0.159099000000E+01
  0.664055000000E+01 -0.281221000000E+01  0.159099000000E+01
  0.724425000000E+01 -0.297397000000E+01  0.159099000000E+01
  0.784795000000E+01 -0.313573000000E+01  0.159099000000E+01
  0.845166000000E+01 -0.329750000000E+01  0.159099000000E+01
  0.905536000000E+01 -0.345926000000E+01  0.159099000000E+01
  0.965906000000E+01 -0.362102000000E+01  0.159099000000E+01
  0.468204000000E+01 -0.287703000000E+01  0.200476000000E+01
  0.528574000000E+01 -0.303879000000E+01  0.200476000000E+01
  0.588944000000E+01 -0.320055000000E+01  0.200476000000E+01
  0.649315000000E+01 -0.336232000000E+01  0.200476000000E+01
  0.709685000000E+01 -0.352408000000E+01  0.200476000000E+01
  0.770055000000E+01 -0.368584000000E+01  0.200476000000E+01
  0.830426000000E+01 -0.384760000000E+01  0.200476000000E+01
  0.890796000000E+01 -0.400936000000E+01  0.200476000000E+01
  0.951166000000E+01 -0.417113000000E+01  0.200476000000E+01
  0.450876000000E+01 -0.352372000000E+01  0.222230000000E+01
  0.511246000000E+01 -0.368548000000E+01  0.222230000000E+01
  0.571616000000E+01 -0.384724000000E+01  0.222230000000E+01
  0.631987000000E+01 -0.400900000000E+01  0.222230000000E+01
  0.692357000000E+01 -0.417077000000E+01  0.222230000000E+01
  0.752727000000E+01 -0.433253000000E+01  0.222230000000E+01
  0.813098000000E+01 -0.449429000000E+01  0.222230000000E+01
  0.873468000000E+01 -0.465605000000E+01  0.222230000000E+01
  0.933838000000E+01 -0.481781000000E+01  0.222230000000E+01
  0.432656000000E+01 -0.420369000000E+01  0.222230000000E+01
  0.493026000000E+01 -0.436545000000E+01  0.222230000000E+01
  0.553397000000E+01 -0.452721000000E+01  0.222230000000E+01
  0.613767000000E+01 -0.468897000000E+01  0.222230000000E+01
  0.674137000000E+01 -0.485074000000E+01  0.222230000000E+01
  0.734508000000E+01 -0.501250000000E+01  0.222230000000E+01
  0.794878000000E+01 -0.517426000000E+01  0.222230000000E+01
  0.855248000000E+01 -0.533602000000E+01  0.222230000000E+01
  0.915619000000E+01 -0.549778000000E+01  0.222230000000E+01
  0.415328000000E+01 -0.485038000000E+01  0.200476000000E+01
  0.475698000000E+01 -0.501214000000E+01  0.200476000000E+01
  0.536069000000E+01 -0.517390000000E+01  0.200476000000E+01
  0.596439000000E+01 -0.533566000000E+01  0.200476000000E+01
  0.656809000000E+01 -0.549742000000E+01  0.200476000000E+01
  0.717180000000E+01 -0.565919000000E+01  0.200476000000E+01
  0.777550000000E+01 -0.582095000000E+01  0.200476000000E+01
  0.837920000000E+01 -0.598271000000E+01  0.200476000000E+01
  0.898291000000E+01 -0.614447000000E+01  0.200476000000E+01
  0.400588000000E+01 -0.540048000000E+01  0.159099000000E+01
  0.460958000000E+01 -0.556224000000E+01  0.159099000000E+01
  0.521329000000E+01 -0.572401000000E+01  0.159099000000E+01
  0.581699000000E+01 -0.588577000000E+01  0.159099000000E+01
  0.642069000000E+01 -0.604753000000E+01  0.159099000000E+01
  0.702440000000E+01 -0.620929000000E+01  0.159099000000E+01
  0.762810000000E+01 -0.637105000000E+01  0.159099000000E+01
  0.823180000000E+01 -0.653282000000E+01  0.159099000000E+01
  0.883551000000E+01 -0.669458000000E+01  0.159099000000E+01
 -0.101738466558E+02 -0.427802922418E+01  0.000000000000E+00
 -0.897367384717E+01 -0.652867419649E+01  0.000000000000E+00
 -0.738749049436E+01 -0.802602310226E+01  0.000000000000E+00
 -0.580394326121E+01 -0.895725119599E+01  0.000000000000E+00
 -0.422083466615E+01 -0.953643839486E+01  0.000000000000E+00
 -0.263771666189E+01 -0.984298908398E+01  0.000000000000E+00
 -0.105668677522E+01 -0.990735809364E+01  0.000000000000E+00
  0.526530220761E+00 -0.971765233126E+01  0.000000000000E+00
  0.155913244742E+01 -0.926638673607E+01  0.000000000000E+00
  0.264934000000E+01 -0.852255000000E+01  0.000000000000E+00
 -0.101735863321E+02 -0.422593422952E+01  0.730010919618E+00
 -0.897318197835E+01 -0.644855559216E+01  0.112115110628E+01
 -0.738713396113E+01 -0.792785031276E+01  0.138040327570E+01
 -0.580314925042E+01 -0.884733193043E+01  0.154321889364E+01
 -0.421969338994E+01 -0.941926282260E+01  0.164475969635E+01
 -0.263573856085E+01 -0.972141844018E+01  0.170005725432E+01
 -0.105409218269E+01 -0.978512366001E+01  0.171444274643E+01
  0.531565190684E+00 -0.959653911198E+01  0.169055470444E+01
  0.157118633610E+01 -0.915959786567E+01  0.154117631707E+01
  0.265940000000E+01 -0.845929000000E+01  0.102492162893E+01
 -0.101732102078E+02 -0.407144134706E+01  0.144135609315E+01
 -0.897243808034E+01 -0.621122545741E+01  0.221323651140E+01
 -0.738603517497E+01 -0.763591630892E+01  0.272721432823E+01
 -0.580090238284E+01 -0.852055835702E+01  0.304746589817E+01
 -0.421610693398E+01 -0.907043051194E+01  0.324802102480E+01
 -0.263031719781E+01 -0.936029889212E+01  0.335602246255E+01
 -0.104559396433E+01 -0.942075237337E+01  0.338409826613E+01
  0.545373375607E+00 -0.923727794324E+01  0.333337313632E+01
  0.160115308536E+01 -0.884934127941E+01  0.303959643574E+01
  0.268944000000E+01 -0.827083000000E+01  0.202327263331E+01
 -0.101730902258E+02 -0.381842644966E+01  0.211804248432E+01
 -0.897170240824E+01 -0.582274713088E+01  0.325148462948E+01
 -0.738415344254E+01 -0.715736146220E+01  0.400617381807E+01
 -0.579740923955E+01 -0.798521250111E+01  0.447564049952E+01
 -0.421023310782E+01 -0.849890149200E+01  0.476896667567E+01
 -0.262178587950E+01 -0.876883287925E+01  0.492628560961E+01
 -0.103167010316E+01 -0.882346247284E+01  0.496413321438E+01
  0.567165821952E+00 -0.865107228070E+01  0.488599202216E+01
  0.165287286137E+01 -0.834424572232E+01  0.444967356868E+01
  0.273896000000E+01 -0.796106000000E+01  0.296340434246E+01
 -0.101726937453E+02 -0.347279080076E+01  0.274282060729E+01
 -0.897111071524E+01 -0.529238781970E+01  0.420997204047E+01
 -0.738193999028E+01 -0.650421810794E+01  0.518555690432E+01
 -0.579268795846E+01 -0.725460480604E+01  0.579219781568E+01
 -0.420295551264E+01 -0.771938143558E+01  0.617012117372E+01
 -0.261026541175E+01 -0.796225488562E+01  0.637094590330E+01
 -0.101455824712E+01 -0.800925153457E+01  0.641552849346E+01
  0.591612397858E+00 -0.785294981210E+01  0.630729120808E+01
  0.171603608438E+01 -0.765744502655E+01  0.573203535716E+01
  0.280715000000E+01 -0.753640000000E+01  0.382023710626E+01
 -0.101723812689E+02 -0.304380079656E+01  0.329963737234E+01
 -0.897110477358E+01 -0.463463043146E+01  0.506376883658E+01
 -0.737933150806E+01 -0.569232156094E+01  0.623680214646E+01
 -0.578784475979E+01 -0.634726792211E+01  0.696490250272E+01
 -0.419439197242E+01 -0.675160348342E+01  0.741714501535E+01
 -0.259785564211E+01 -0.696154373572E+01  0.765532463518E+01
 -0.995637942650E+00 -0.700017186729E+01  0.770416118800E+01
  0.614862376543E+00 -0.686258676246E+01  0.756310190216E+01
  0.178468958887E+01 -0.680991952514E+01  0.685841835601E+01
  0.289295000000E+01 -0.700555000000E+01  0.457600721508E+01
 -0.101736284402E+02 -0.254252529615E+01  0.377566427475E+01
 -0.897027784454E+01 -0.386391428884E+01  0.579304349002E+01
 -0.737747746517E+01 -0.474242472968E+01  0.713414433386E+01
 -0.578290403144E+01 -0.528547854620E+01  0.796542403441E+01
 -0.418669474058E+01 -0.562003734128E+01  0.848044743933E+01
 -0.258533742284E+01 -0.579259679457E+01  0.874989771797E+01
 -0.978349919958E+00 -0.582112988134E+01  0.880024521406E+01
  0.638835583247E+00 -0.570703906582E+01  0.862532151908E+01
  0.186019542003E+01 -0.578604796004E+01  0.783637684417E+01
  0.303424000000E+01 -0.614055000000E+01  0.541935457625E+01
 -0.101752309644E+02 -0.197901005867E+01  0.415984770272E+01
 -0.897077056374E+01 -0.299981524853E+01  0.638051775284E+01
 -0.737605600640E+01 -0.367733338796E+01  0.785607725052E+01
 -0.577987276395E+01 -0.409611347798E+01  0.877014060331E+01
 -0.417987156263E+01 -0.435247842862E+01  0.933493610703E+01
 -0.257654229373E+01 -0.448431406947E+01  0.963089199947E+01
 -0.962809571409E+00 -0.450291586193E+01  0.967735219166E+01
  0.655858402377E+00 -0.441280332301E+01  0.947688710375E+01
  0.193839301270E+01 -0.464087288667E+01  0.861002005320E+01
  0.320142000000E+01 -0.513372000000E+01  0.603690799673E+01
 -0.101764644207E+02 -0.136929701694E+01  0.444031662887E+01
 -0.897197619849E+01 -0.206293775444E+01  0.681124375743E+01
 -0.737656059382E+01 -0.252423057788E+01  0.838538541701E+01
 -0.577834383850E+01 -0.280741347461E+01  0.936006323458E+01
 -0.417733488098E+01 -0.298103952377E+01  0.996166983433E+01
 -0.257025195555E+01 -0.306776975686E+01  0.102758705660E+02
 -0.955815647766E+00 -0.307821299770E+01  0.103203267344E+02
  0.666870006353E+00 -0.301345095141E+01  0.101016788744E+02
  0.200859451255E+01 -0.340248420435E+01  0.917196310643E+01
  0.339046000000E+01 -0.402099000000E+01  0.641914414669E+01
 -0.101776510471E+02 -0.726611528693E+00  0.461159612210E+01
 -0.897413696683E+01 -0.107822015000E+01  0.707414483319E+01
 -0.737867257524E+01 -0.130989807135E+01  0.870960240041E+01
 -0.578043451709E+01 -0.145249839639E+01  0.972152636082E+01
 -0.417804462782E+01 -0.153730994490E+01  0.103458407444E+02
 -0.257109040678E+01 -0.157961473073E+01  0.106712645858E+02
 -0.953347644561E+00 -0.157878425039E+01  0.107126291323E+02
  0.660002732928E+00 -0.154307297685E+01  0.104891467878E+02
  0.206862972887E+01 -0.210063915882E+01  0.950659306902E+01
  0.359729000000E+01 -0.284101000000E+01  0.656191586995E+01
 -0.101792848713E+02 -0.689703080296E-01  0.466931897170E+01
 -0.897723294270E+01 -0.674760588050E-01  0.716374807454E+01
 -0.738301992677E+01 -0.659715694244E-01  0.882073335438E+01
 -0.578580312113E+01 -0.623351060179E-01  0.984604627293E+01
 -0.418395911637E+01 -0.589038273992E-01  0.104783442854E+02
 -0.257753983997E+01 -0.523266130057E-01  0.108076849124E+02
 -0.960913204678E+00 -0.454796220798E-01  0.108473712875E+02
  0.656589906347E+00 -0.320813230384E-01  0.106213079119E+02
  0.211055253922E+01 -0.765424864798E+00  0.960916755584E+01
  0.381812000000E+01 -0.163350000000E+01  0.644130908013E+01
 -0.101813234481E+02  0.589783010226E+00  0.461236182197E+01
 -0.898122618085E+01  0.942137003770E+00  0.707755107432E+01
 -0.738969740768E+01  0.117915532102E+01  0.871632026165E+01
 -0.579428731227E+01  0.132701324618E+01  0.973024032312E+01
 -0.419534373145E+01  0.142127139942E+01  0.103560716280E+02
 -0.258990520022E+01  0.147302580001E+01  0.106818725309E+02
 -0.975807730194E+00  0.149108192992E+01  0.107211063026E+02
  0.638836171854E+00  0.147215547641E+01  0.104955215239E+02
  0.199529528162E+01  0.854563318179E+00  0.968388504572E+01
  0.346924000000E+01  0.119503000000E+00  0.728502216580E+01
 -0.101833556946E+02  0.123134646406E+01  0.444194588130E+01
 -0.898627604502E+01  0.192790453085E+01  0.681761375436E+01
 -0.739770405198E+01  0.239322315000E+01  0.839828639813E+01
 -0.580663330447E+01  0.268370353223E+01  0.937711171298E+01
 -0.421001416641E+01  0.286464644951E+01  0.998083049843E+01
 -0.260991604700E+01  0.296334108613E+01  0.102975844006E+02
 -0.996612973309E+00  0.298769835252E+01  0.103352072877E+02
  0.613232441271E+00  0.294464216371E+01  0.101175043586E+02
  0.186122652680E+01  0.244646605477E+01  0.943810143975E+01
  0.311159000000E+01  0.194949000000E+01  0.752015991731E+01
 -0.101854271555E+02  0.184153226552E+01  0.416177286205E+01
 -0.899122477827E+01  0.286393868872E+01  0.638980093420E+01
 -0.740761207043E+01  0.354783168955E+01  0.787438521778E+01
 -0.582019185401E+01  0.397307676988E+01  0.879366424698E+01
 -0.422964776608E+01  0.423794236771E+01  0.936245433211E+01
 -0.263271625768E+01  0.437999067964E+01  0.966028666047E+01
 -0.102820243270E+01  0.441223281533E+01  0.970162743088E+01
  0.580270038673E+00  0.434346816891E+01  0.949652299438E+01
  0.170928727913E+01  0.396919471793E+01  0.889098340021E+01
  0.276762000000E+01  0.373421000000E+01  0.724766991754E+01
 -0.101866317306E+02  0.240400514630E+01  0.377846161486E+01
 -0.899689804615E+01  0.372776717943E+01  0.580497524309E+01
 -0.741745285853E+01  0.461359085726E+01  0.715658780551E+01
 -0.583591467696E+01  0.516401706595E+01  0.799443676341E+01
 -0.424983767878E+01  0.550644765725E+01  0.851398617351E+01
 -0.266068124665E+01  0.568890966678E+01  0.878740922550E+01
 -0.106177413547E+01  0.572932128793E+01  0.883478956403E+01
  0.540626851685E+00  0.563464609740E+01  0.865806735633E+01
  0.156415769433E+01  0.537655545978E+01  0.806523539072E+01
  0.245735000000E+01  0.536055000000E+01  0.650431968181E+01
 -0.101882314552E+02  0.290470191306E+01  0.330153954964E+01
 -0.900110089284E+01  0.449696585459E+01  0.507690355456E+01
 -0.742606797188E+01  0.556244968788E+01  0.626264476546E+01
 -0.584914294341E+01  0.622468968650E+01  0.699620387707E+01
 -0.426933371680E+01  0.663673575145E+01  0.745283839982E+01
 -0.268561926815E+01  0.685599695057E+01  0.769279586542E+01
 -0.109565463999E+01  0.690273000536E+01  0.774044014973E+01
  0.501562762886E+00  0.678457985105E+01  0.759058665456E+01
  0.141980996041E+01  0.661400767331E+01  0.695370558675E+01
  0.219858000000E+01  0.672672000000E+01  0.530201659116E+01
 -0.101906322108E+02  0.333256598331E+01  0.274465464156E+01
 -0.900269044331E+01  0.515560546210E+01  0.421993140960E+01
 -0.743141208257E+01  0.637723220579E+01  0.520488870652E+01
 -0.585743698401E+01  0.713438010130E+01  0.581637603642E+01
 -0.428167810083E+01  0.760672635290E+01  0.619760608574E+01
 -0.270257968988E+01  0.785736984099E+01  0.639935675868E+01
 -0.111872739625E+01  0.791189947712E+01  0.643982740346E+01
  0.476551653482E+00  0.777010773179E+01  0.632474272627E+01
  0.132736573299E+01  0.750078535740E+01  0.581162581389E+01
  0.208004000000E+01  0.735507000000E+01  0.441806460486E+01
 -0.101931953215E+02  0.367834282369E+01  0.211933142296E+01
 -0.900557558815E+01  0.568725540566E+01  0.325892760195E+01
 -0.743629249844E+01  0.703225446593E+01  0.402165878764E+01
 -0.586528950618E+01  0.786736852799E+01  0.449491591839E+01
 -0.429262641084E+01  0.838884563730E+01  0.479082372985E+01
 -0.271869235328E+01  0.866679104219E+01  0.494918980214E+01
 -0.114100938341E+01  0.872942156636E+01  0.498337925235E+01
  0.446079946575E+00  0.857065604311E+01  0.490463687581E+01
  0.123726918608E+01  0.823193308922E+01  0.451258319088E+01
  0.198540000000E+01  0.785780000000E+01  0.341983578728E+01
 -0.101946727346E+02  0.393121396528E+01  0.144223150874E+01
 -0.900801521621E+01  0.607624155004E+01  0.221869390952E+01
 -0.744009342182E+01  0.751221017542E+01  0.273804914388E+01
 -0.587105892761E+01  0.840429421464E+01  0.306086675999E+01
 -0.430116100144E+01  0.896200030149E+01  0.326313977954E+01
 -0.273102926742E+01  0.926060798320E+01  0.337222856409E+01
 -0.116045621246E+01  0.932969487000E+01  0.339795591453E+01
  0.416090859764E+00  0.916160829302E+01  0.334756239817E+01
  0.116996401968E+01  0.876981686500E+01  0.308164067914E+01
  0.191647000000E+01  0.822453000000E+01  0.233067682638E+01
 -0.101958942366E+02  0.408553141276E+01  0.730478998801E+00
 -0.900946036036E+01  0.631361855708E+01  0.112399475988E+01
 -0.744252337200E+01  0.780508853129E+01  0.138619179038E+01
 -0.587468376128E+01  0.873203861343E+01  0.154993891184E+01
 -0.430654613204E+01  0.931212615655E+01  0.165271458087E+01
 -0.273863329252E+01  0.962322830468E+01  0.170818389883E+01
 -0.117300889157E+01  0.969714377003E+01  0.172227615299E+01
  0.399677151575E+00  0.952549673933E+01  0.169744153724E+01
  0.113400504422E+01  0.910355136337E+01  0.156114417401E+01
  0.187456000000E+01  0.844766000000E+01  0.118071620520E+01
 -0.101965151006E+02  0.413761378435E+01  0.000000000000E+00
 -0.900988871801E+01  0.639347274683E+01  0.000000000000E+00
 -0.744339151382E+01  0.790351340286E+01  0.000000000000E+00
 -0.587586875229E+01  0.884220725954E+01  0.000000000000E+00
 -0.430844498336E+01  0.942991187195E+01  0.000000000000E+00
 -0.274112430677E+01  0.974509466830E+01  0.000000000000E+00
 -0.117710507201E+01  0.982080969713E+01  0.000000000000E+00
  0.392732008945E+00  0.964911406714E+01  0.000000000000E+00
  0.112174139231E+01  0.921826737198E+01  0.000000000000E+00
  0.186051000000E+01  0.852255000000E+01  0.000000000000E+00
 -0.104735581661E+02 -0.217162068402E+01  0.000000000000E+00
 -0.105054374283E+02 -0.175123790306E+01  0.000000000000E+00
 -0.105300459276E+02 -0.133123101977E+01  0.000000000000E+00
 -0.105475098965E+02 -0.910741987245E+00  0.000000000000E+00
 -0.105583628788E+02 -0.490277578498E+00  0.000000000000E+00
 -0.105626843824E+02 -0.697411678185E-01  0.000000000000E+00
 -0.105604132133E+02  0.350774496121E+00  0.000000000000E+00
 -0.105513993557E+02  0.771144233319E+00  0.000000000000E+00
 -0.105354170392E+02  0.119158448996E+01  0.000000000000E+00
 -0.105119678095E+02  0.161152512011E+01  0.000000000000E+00
 -0.104812816964E+02  0.203191745563E+01  0.000000000000E+00
 -0.104734013141E+02 -0.214577037546E+01  0.362771934909E+00
 -0.105037039523E+02 -0.174002007719E+01  0.402531624596E+00
 -0.105272502148E+02 -0.132812930693E+01  0.433206334306E+00
 -0.105444012406E+02 -0.911435438478E+00  0.454006868295E+00
 -0.105551434657E+02 -0.491276354410E+00  0.463907326808E+00
 -0.105595049295E+02 -0.696885156832E-01  0.462701230660E+00
 -0.105571675085E+02  0.351838019962E+00  0.463577902528E+00
 -0.105482670297E+02  0.771923472536E+00  0.453298214562E+00
 -0.105325826046E+02  0.118854143059E+01  0.432191608977E+00
 -0.105102230838E+02  0.160040548864E+01  0.401513109861E+00
 -0.104811053650E+02  0.200615657924E+01  0.362114341153E+00
 -0.104732630393E+02 -0.206887716049E+01  0.718368359987E+00
 -0.104993695908E+02 -0.168784845201E+01  0.801050509961E+00
 -0.105202411086E+02 -0.129444509950E+01  0.865073760818E+00
 -0.105356840486E+02 -0.891295761120E+00  0.908815684122E+00
 -0.105455810630E+02 -0.482094676433E+00  0.931050237366E+00
 -0.105497633189E+02 -0.695729707717E-01  0.929934555822E+00
 -0.105475064855E+02  0.342929012715E+00  0.930651190905E+00
 -0.105393757037E+02  0.752042205701E+00  0.907971422662E+00
 -0.105253833528E+02  0.115515729221E+01  0.863878268503E+00
 -0.105057007815E+02  0.154852186770E+01  0.799831062613E+00
 -0.104807854256E+02  0.192949664754E+01  0.717404580528E+00
 -0.104732435118E+02 -0.194268001800E+01  0.105666874898E+01
 -0.104927272660E+02 -0.159598705854E+01  0.118535278453E+01
 -0.105087996990E+02 -0.123066018699E+01  0.128647536137E+01
 -0.105213998748E+02 -0.851673442791E+00  0.135746515244E+01
 -0.105295529919E+02 -0.463081992402E+00  0.139479234611E+01
 -0.105333674668E+02 -0.694155276002E-01  0.139806250485E+01
 -0.105313404024E+02  0.324263067316E+00  0.139431752879E+01
 -0.105248743133E+02  0.712856960049E+00  0.135652189752E+01
 -0.105136472292E+02  0.109186225831E+01  0.128508147120E+01
 -0.104986968177E+02  0.145719220524E+01  0.118384699343E+01
 -0.104803602975E+02  0.180369228880E+01  0.105553697223E+01
 -0.104730997919E+02 -0.177000187640E+01  0.136879416726E+01
 -0.104838997822E+02 -0.146673584993E+01  0.154901283953E+01
 -0.104939018150E+02 -0.113963534380E+01  0.169283989225E+01
 -0.105017234115E+02 -0.793801711202E+00  0.179519125572E+01
 -0.105072020146E+02 -0.434848868964E+00  0.185346289416E+01
 -0.105098766127E+02 -0.692677135123E-01  0.186601210787E+01
 -0.105088451056E+02  0.296267886401E+00  0.185299525379E+01
 -0.105049301325E+02  0.655294762518E+00  0.179424357739E+01
 -0.104984918717E+02  0.100123448740E+01  0.169142480562E+01
 -0.104895239592E+02  0.132844504395E+01  0.154730150676E+01
 -0.104796833790E+02  0.163158958941E+01  0.136728886247E+01
 -0.104730712006E+02 -0.155526710023E+01  0.164744205747E+01
 -0.104742110223E+02 -0.130466458420E+01  0.188623906451E+01
 -0.104755974638E+02 -0.102372687536E+01  0.207852218658E+01
 -0.104769354706E+02 -0.719180127908E+00  0.221916271828E+01
 -0.104781218580E+02 -0.398139244023E+00  0.230514819141E+01
 -0.104790133815E+02 -0.693240135741E-01  0.233389874033E+01
 -0.104795956770E+02  0.259944261753E+00  0.230473797696E+01
 -0.104797749600E+02  0.580657666484E+00  0.221857948087E+01
 -0.104797644484E+02  0.885421696866E+00  0.207741866352E+01
 -0.104794726369E+02  0.116648452105E+01  0.188477045314E+01
 -0.104790901227E+02  0.141712709684E+01  0.164581898393E+01
CELLS       1130     10170
8      0      9     10      1     99    108    109    100
8     99    108    109    100    198    207    208    199
8    198    207    208    199    297    306    307    298
8    297    306    307    298    396    405    406    397
8    396    405    406    397    495    504    505    496
8      9     18     19     10    108    117    118    109
8    108    117    118    109    207    216    217    208
8    207    216    217    208    306    315    316    307
8    306    315    316    307    405    414    415    406
8    405    414    415    406    504    513    514    505
8     18     27     28     19    117    126    127    118
8    117    126    127    118    216    225    226    217
8    216    225    226    217    315    324    325    316
8    315    324    325    316    414    423    424    415
8    414    423    424    415    513    522    523    514
8     27     36     37     28    126    135    136    127
8    126    135    136    127    225    234    235    226
8    225    234    235    226    324    333    334    325
8    324    333    334    325    423    432    433    424
8    423    432    433    424    522    531    532    523
8     36     45     46     37    135    144    145    136
8    135    144    145    136    234    243    244    235
8    234    243    244    235    333    342    343    334
8    333    342    343    334    432    441    442    433
8    432    441    442    433    531    540    541    532
8     45     54     55     46    144    153    154    145
8    144    153    154    145    243    252    253    244
8    243    252    253    244    342    351    352    343
8    342    351    352    343    441    450    451    442
8    441    450    451    442    540    549    550    541
8     54     63     64     55    153    162    163    154
8    153    162    163    154    252    261    262    253
8    252    261    262    253    351    360    361    352
8    351    360    361    352    450    459    460    451
8    450    459    460    451    549    558    559    550
8     63     72     73     64    162    171    172    163
8    162    171    172    163    261    270    271    262
8    261    270    271    262    360    369    370    361
8    360    369    370    361    459    468    469    460
8    459    468    469    460    558    567    568    559
8     72     81     82     73    171    180    181    172
8    171    180    181    172    270    279    280    271
8    270    279    280    271    369    378    379    370
8    369    378    379    370    468    477    478    469
8    468    477    478    469    567    576    577    568
8     81     90     91     82    180    189    190    181
8    180    189    190    181    279    288    289    280
8    279    288    289    280    378    387    388    379
8    378    387    388    379    477    486    487    478
8    477    486    487    478    576    585    586    577
8      1     10     11      2    100    109    110    101
8    100    109    110    101    199    208    209    200
8    199    208    209    200    298    307    308    299
8    298    307    308    299    397    406    407    398
8    397    406    407    398    496    505    506    497
8     10     19     20     11    109    118    119    110
8    109    118    119    110    208    217    218    209
8    208    217    218    209    307    316    317    308
8    307    316    317    308    406    415    416    407
8    406    415    416    407    505    514    515    506
8     19     28     29     20    118    127    128    119
8    118    127    128    119    217    226    227    218
8    217    226    227    218    316    325    326    317
8    316    325    326    317    415    424    425    416
8    415    424    425    416    514    523    524    515
8     28     37     38     29    127    136    137    128
8    127    136    137    128    226    235    236    227
8    226    235    236    227    325    334    335    326
8    325    334    335    326    424    433    434    425
8    424    433    434    425    523    532    533    524
8     37     46     47     38    136    145    146    137
8    136    145    146    137    235    244    245    236
8    235    244    245    236    334    343    344    335
8    334    343    344    335    433    442    443    434
8    433    442    443    434    532    541    542    533
8     46     55     56     47    145    154    155    146
8    145    154    155    146    244    253    254    245
8    244    253    254    245    343    352    353    344
8    343    352    353    344    442    451    452    443
8    442    451    452    443    541    550    551    542
8     55     64     65     56    154    163    164    155
8    154    163    164    155    253    262    263    254
8    253    262    263    254    352    361    362    353
8    352    361    362    353    451    460    461    452
8    451    460    461    452    550    559    560    551
8     64     73     74     65    163    172    173    164
8    163    172    173    164    262    271    272    263
8    262    271    272    263    361    370    371    362
8    361    370    371    362    460    469    470    461
8    460    469    470    461    559    568    569    560
8     73     82     83     74    172    181    182    173
8    172    181    182    173    271    280    281    272
8    271    280    281    272    370    379    380    371
8    370    379    380    371    469    478    479    470
8    469    478    479    470    568    577    578    569
8     82     91     92     83    181    190    191    182
8    181    190    191    182    280    289    290    281
8    280    289    290    281    379    388    389    380
8    379    388    389    380    478    487    488    479
8    478    487    488    479    577    586    587    578
8      2     11     12      3    101    110    111    102
8    101    110    111    102    200    209    210    201
8    200    209    210    201    299    308    309    300
8    299    308    309    300    398    407    408    399
8    398    407    408    399    497    506    507    498
8     11     20     21     12    110    119    120    111
8    110    119    120    111    209    218    219    210
8    209    218    219    210    308    317    318    309
8    308    317    318    309    407    416    417    408
8    407    416    417    408    506    515    516    507
8     20     29     30     21    119    128    129    120
8    119    128    129    120    218    227    228    219
8    218    227    228    219    317    326    327    318
8    317    326    327    318    416    425    426    417
8    416    425    426    417    515    524    525    516
8     29     38     39     30    128    137    138    129
8    128    137    138    129    227    236    237    228
8    227    236    237    228    326    335    336    327
8    326    335    336    327    425    434    435    426
8    425    434    435    426    524    533    534    525
8     38     47     48     39    137    146    147    138
8    137    146    147    138    236    245    246    237
8    236    245    246    237    335    344    345    336
8    335    344    345    336    434    443    444    435
8    434    443    444    435    533    542    543    534
8     47     56     57     48    146    155    156    147
8    146    155    156    147    245    254    255    246
8    245    254    255    246    344    353    354    345
8    344    353    354    345    443    452    453    444
8    443    452    453    444    542    551    552    543
8     56     65     66     57    155    164    165    156
8    155    164    165    156    254    263    264    255
8    254    263    264    255    353    362    363    354
8    353    362    363    354    452    461    462    453
8    452    461    462    453    551    560    561    552
8     65     74     75     66    164    173    174    165
8    164    173    174    165    263    272    273    264
8    263    272    273    264    362    371    372    363
8    362    371    372    363    461    470    471    462
8    461    470    471    462    560    569    570    561
8     74     83     84     75    173    182    183    174
8    173    182    183    174    272    281    282    273
8    272    281    282    273    371    380    381    372
8    371    380    381    372    470    479    480    471
8    470    479    480    471    569    578    579    570
8     83     92     93     84    182    191    192    183
8    182    191    192    183    281    290    291    282
8    281    290    291    282    380    389    390    381
8    380    389    390    381    479    488    489    480
8    479    488    489    480    578    587    588    579
8      3     12     13      4    102    111    112    103
8    102    111    112    103    201    210    211    202
8    201    210    211    202    300    309    310    301
8    300    309    310    301    399    408    409    400
8    399    408    409    400    498    507    508    499
8     12     21     22     13    111    120    121    112
8    111    120    121    112    210    219    220    211
8    210    219    220    211    309    318    319    310
8    309    318    319    310    408    417    418    409
8    408    417    418    409    507    516    517    508
8     21     30     31     22    120    129    130    121
8    120    129    130    121    219    228    229    220
8    219    228    229    220    318    327    328    319
8    318    327    328    319    417    426    427    418
8    417    426    427    418    516    525    526    517
8     30     39     40     31    129    138    139    130
8    129    138    139    130    228    237    238    229
8    228    237    238    229    327    336    337    328
8    327    336    337    328    426    435    436    427
8    426    435    436    427    525    534    535    526
8     39     48     49     40    138    147    148    139
8    138    147    148    139    237    246    247    238
8    237    246    247    238    336    345    346    337
8    336    345    346    337    435    444    445    436
8    435    444    445    436    534    543    544    535
8     48     57     58     49    147    156    157    148
8    147    156    157    148    246    255    256    247
8    246    255    256    247    345    354    355    346
8    345    354    355    346    444    453    454    445
8    444    453    454    445    543    552    553    544
8     57     66     67     58    156    165    166    157
8    156    165    166    157    255    264    265    256
8    255    264    265    256    354    363    364    355
8    354    363    364    355    453    462    463    454
8    453    462    463    454    552    561    562    553
8     66     75     76     67    165    174    175    166
8    165    174    175    166    264    273    274    265
8    264    273    274    265    363    372    373    364
8    363    372    373    364    462    471    472    463
8    462    471    472    463    561    570    571    562
8     75     84     85     76    174    183    184    175
8    174    183    184    175    273    282    283    274
8    273    282    283    274    372    381    382    373
8    372    381    382    373    471    480    481    472
8    471    480    481    472    570    579    580    571
8     84     93     94     85    183    192    193    184
8    183    192    193    184    282    291    292    283
8    282    291    292    283    381    390    391    382
8    381    390    391    382    480    489    490    481
8    480    489    490    481    579    588    589    580
8      4     13     14      5    103    112    113    104
8    103    112    113    104    202    211    212    203
8    202    211    212    203    301    310    311    302
8    301    310    311    302    400    409    410    401
8    400    409    410    401    499    508    509    500
8     13     22     23     14    112    121    122    113
8    112    121    122    113    211    220    221    212
8    211    220    221    212    310    319    320    311
8    310    319    320    311    409    418    419    410
8    409    418    419    410    508    517    518    509
8     22     31     32     23    121    130    131    122
8    121    130    131    122    220    229    230    221
8    220    229    230    221    319    328    329    320
8    319    328    329    320    418    427    428    419
8    418    427    428    419    517    526    527    518
8     31     40     41     32    130    139    140    131
8    130    139    140    131    229    238    239    230
8    229    238    239    230    328    337    338    329
8    328    337    338    329    427    436    437    428
8    427    436    437    428    526    535    536    527
8     40     49     50     41    139    148    149    140
8    139    148    149    140    238    247    248    239
8    238    247    248    239    337    346    347    338
8    337    346    347    338    436    445    446    437
8    436    445    446    437    535    544    545    536
8     49     58     59     50    148    157    158    149
8    148    157    158    149    247    256    257    248
8    247    256    257    248    346    355    356    347
8    346    355    356    347    445    454    455    446
8    445    454    455    446    544    553    554    545
8     58     67     68     59    157    166    167    158
8    157    166    167    158    256    265    266    257
8    256    265    266    257    355    364    365    356
8    355    364    365    356    454    463    464    455
8    454    463    464    455    553    562    563    554
8     67     76     77     68    166    175    176    167
8    166    175    176    167    265    274    275    266
8    265    274    275    266    364    373    374    365
8    364    373    374    365    463    472    473    464
8    463    472    473    464    562    571    572    563
8     76     85     86     77    175    184    185    176
8    175    184    185    176    274    283    284    275
8    274    283    284    275    373    382    383    374
8    373    382    383    374    472    481    482    473
8    472    481    482    473    571    580    581    572
8     85     94     95     86    184    193    194    185
8    184    193    194    185    283    292    293    284
8    283    292    293    284    382    391    392    383
8    382    391    392    383    481    490    491    482
8    481    490    491    482    580    589    590    581
8      5     14     15      6    104    113    114    105
8    104    113    114    105    203    212    213    204
8    203    212    213    204    302    311    312    303
8    302    311    312    303    401    410    411    402
8    401    410    411    402    500    509    510    501
8     14     23     24     15    113    122    123    114
8    113    122    123    114    212    221    222    213
8    212    221    222    213    311    320    321    312
8    311    320    321    312    410    419    420    411
8    410    419    420    411    509    518    519    510
8     23     32     33     24    122    131    132    123
8    122    131    132    123    221    230    231    222
8    221    230    231    222    320    329    330    321
8    320    329    330    321    419    428    429    420
8    419    428    429    420    518    527    528    519
8     32     41     42     33    131    140    141    132
8    131    140    141    132    230    239    240    231
8    230    239    240    231    329    338    339    330
8    329    338    339    330    428    437    438    429
8    428    437    438    429    527    536    537    528
8     41     50     51     42    140    149    150    141
8    140    149    150    141    239    248    249    240
8    239    248    249    240    338    347    348    339
8    338    347    348    339    437    446    447    438
8    437    446    447    438    536    545    546    537
8     50     59     60     51    149    158    159    150
8    149    158    159    150    248    257    258    249
8    248    257    258    249    347    356    357    348
8    347    356    357    348    446    455    456    447
8    446    455    456    447    545    554    555    546
8     59     68     69     60    158    167    168    159
8    158    167    168    159    257    266    267    258
8    257    266    267    258    356    365    366    357
8    356    365    366    357    455    464    465    456
8    455    464    465    456    554    563    564    555
8     68     77     78     69    167    176    177    168
8    167    176    177    168    266    275    276    267
8    266    275    276    267    365    374    375    366
8    365    374    375    366    464    473    474    465
8    464    473    474    465    563    572    573    564
8     77     86     87     78    176    185    186    177
8    176    185    186    177    275    284    285    276
8    275    284    285    276    374    383    384    375
8    374    383    384    375    473    482    483    474
8    473    482    483    474    572    581    582    573
8     86     95     96     87    185    194    195    186
8    185    194    195    186    284    293    294    285
8    284    293    294    285    383    392    393    384
8    383    392    393    384    482    491    492    483
8    482    491    492    483    581    590    591    582
8      6     15     16      7    105    114    115    106
8    105    114    115    106    204    213    214    205
8    204    213    214    205    303    312    313    304
8    303    312    313    304    402    411    412    403
8    402    411    412    403    501    510    511    502
8     15     24     25     16    114    123    124    115
8    114    123    124    115    213    222    223    214
8    213    222    223    214    312    321    322    313
8    312    321    322    313    411    420    421    412
8    411    420    421    412    510    519    520    511
8     24     33     34     25    123    132    133    124
8    123    132    133    124    222    231    232    223
8    222    231    232    223    321    330    331    322
8    321    330    331    322    420    429    430    421
8    420    429    430    421    519    528    529    520
8     33     42     43     34    132    141    142    133
8    132    141    142    133    231    240    241    232
8    231    240    241    232    330    339    340    331
8    330    339    340    331    429    438    439    430
8    429    438    439    430    528    537    538    529
8     42     51     52     43    141    150    151    142
8    141    150    151    142    240    249    250    241
8    240    249    250    241    339    348    349    340
8    339    348    349    340    438    447    448    439
8    438    447    448    439    537    546    547    538
8     51     60     61     52    150    159    160    151
8    150    159    160    151    249    258    259    250
8    249    258    259    250    348    357    358    349
8    348    357    358    349    447    456    457    448
8    447    456    457    448    546    555    556    547
8     60     69     70     61    159    168    169    160
8    159    168    169    160    258    267    268    259
8    258    267    268    259    357    366    367    358
8    357    366    367    358    456    465    466    457
8    456    465    466    457    555    564    565    556
8     69     78     79     70    168    177    178    169
8    168    177    178    169    267    276    277    268
8    267    276    277    268    366    375    376    367
8    366    375    376    367    465    474    475    466
8    465    474    475    466    564    573    574    565
8     78     87     88     79    177    186    187    178
8    177    186    187    178    276    285    286    277
8    276    285    286    277    375    384    385    376
8    375    384    385    376    474    483    484    475
8    474    483    484    475    573    582    583    574
8     87     96     97     88    186    195    196    187
8    186    195    196    187    285    294    295    286
8    285    294    295    286    384    393    394    385
8    384    393    394    385    483    492    493    484
8    483    492    493    484    582    591    592    583
8      7     16     17      8    106    115    116    107
8    106    115    116    107    205    214    215    206
8    205    214    215    206    304    313    314    305
8    304    313    314    305    403    412    413    404
8    403    412    413    404    502    511    512    503
8     16     25     26     17    115    124    125    116
8    115    124    125    116    214    223    224    215
8    214    223    224    215    313    322    323    314
8    313    322    323    314    412    421    422    413
8    412    421    422    413    511    520    521    512
8     25     34     35     26    124    133    134    125
8    124    133    134    125    223    232    233    224
8    223    232    233    224    322    331    332    323
8    322    331    332    323    421    430    431    422
8    421    430    431    422    520    529    530    521
8     34     43     44     35    133    142    143    134
8    133    142    143    134    232    241    242    233
8    232    241    242    233    331    340    341    332
8    331    340    341    332    430    439    440    431
8    430    439    440    431    529    538    539    530
8     43     52     53     44    142    151    152    143
8    142    151    152    143    241    250    251    242
8    241    250    251    242    340    349    350    341
8    340    349    350    341    439    448    449    440
8    439    448    449    440    538    547    548    539
8     52     61     62     53    151    160    161    152
8    151    160    161    152    250    259    260    251
8    250    259    260    251    349    358    359    350
8    349    358    359    350    448    457    458    449
8    448    457    458    449    547    556    557    548
8     61     70     71     62    160    169    170    161
8    160    169    170    161    259    268    269    260
8    259    268    269    260    358    367    368    359
8    358    367    368    359    457    466    467    458
8    457    466    467    458    556    565    566    557
8     70     79     80     71    169    178    179    170
8    169    178    179    170    268    277    278    269
8    268    277    278    269    367    376    377    368
8    367    376    377    368    466    475    476    467
8    466    475    476    467    565    574    575    566
8     79     88     89     80    178    187    188    179
8    178    187    188    179    277    286    287    278
8    277    286    287    278    376    385    386    377
8    376    385    386    377    475    484    485    476
8    475    484    485    476    574    583    584    575
8     88     97     98     89    187    196    197    188
8    187    196    197    188    286    295    296    287
8    286    295    296    287    385    394    395    386
8    385    394    395    386    484    493    494    485
8    484    493    494    485    583    592    593    584
8     53     62    605    594    152    161    671    660
8    152    161    671    660    251    260    737    726
8    251    260    737    726    350    359    803    792
8    350    359    803    792    449    458    869    858
8    449    458    869    858    548    557    935    924
8     62     71    616    605    161    170    682    671
8    161    170    682    671    260    269    748    737
8    260    269    748    737    359    368    814    803
8    359    368    814    803    458    467    880    869
8    458    467    880    869    557    566    946    935
8     71     80    627    616    170    179    693    682
8    170    179    693    682    269    278    759    748
8    269    278    759    748    368    377    825    814
8    368    377    825    814    467    476    891    880
8    467    476    891    880    566    575    957    946
8     80     89    638    627    179    188    704    693
8    179    188    704    693    278    287    770    759
8    278    287    770    759    377    386    836    825
8    377    386    836    825    476    485    902    891
8    476    485    902    891    575    584    968    957
8     89     98    649    638    188    197    715    704
8    188    197    715    704    287    296    781    770
8    287    296    781    770    386    395    847    836
8    386    395    847    836    485    494    913    902
8    485    494    913    902    584    593    979    968
8      8     17   1025   1034    107    116   1079   1088
8    107    116   1079   1088    206    215   1133   1142
8    206    215   1133   1142    305    314   1187   1196
8    305    314   1187   1196    404    413   1241   1250
8    404    413   1241   1250    503    512   1295   1304
8     17     26   1016   1025    116    125   1070   1079
8    116    125   1070   1079    215    224   1124   1133
8    215    224   1124   1133    314    323   1178   1187
8    314    323   1178   1187    413    422   1232   1241
8    413    422   1232   1241    512    521   1286   1295
8     26     35   1007   1016    125    134   1061   1070
8    125    134   1061   1070    224    233   1115   1124
8    224    233   1115   1124    323    332   1169   1178
8    323    332   1169   1178    422    431   1223   1232
8    422    431   1223   1232    521    530   1277   1286
8     35     44    998   1007    134    143   1052   1061
8    134    143   1052   1061    233    242   1106   1115
8    233    242   1106   1115    332    341   1160   1169
8    332    341   1160   1169    431    440   1214   1223
8    431    440   1214   1223    530    539   1268   1277
8     44     53    594    998    143    152   1043   1052
8    143    152   1043   1052    242    251   1097   1106
8    242    251   1097   1106    341    350   1151   1160
8    341    350   1151   1160    440    449   1205   1214
8    440    449   1205   1214    539    548   1259   1268
8    594    605    606    595    660    671    672    661
8    660    671    672    661    726    737    738    727
8    726    737    738    727    792    803    804    793
8    792    803    804    793    858    869    870    859
8    858    869    870    859    924    935    936    925
8    605    616    617    606    671    682    683    672
8    671    682    683    672    737    748    749    738
8    737    748    749    738    803    814    815    804
8    803    814    815    804    869    880    881    870
8    869    880    881    870    935    946    947    936
8    616    627    628    617    682    693    694    683
8    682    693    694    683    748    759    760    749
8    748    759    760    749    814    825    826    815
8    814    825    826    815    880    891    892    881
8    880    891    892    881    946    957    958    947
8    627    638    639    628    693    704    705    694
8    693    704    705    694    759    770    771    760
8    759    770    771    760    825    836    837    826
8    825    836    837    826    891    902    903    892
8    891    902    903    892    957    968    969    958
8    638    649    650    639    704    715    716    705
8    704    715    716    705    770    781    782    771
8    770    781    782    771    836    847    848    837
8    836    847    848    837    902    913    914    903
8    902    913    914    903    968    979    980    969
8    595    606    607    596    661    672    673    662
8    661    672    673    662    727    738    739    728
8    727    738    739    728    793    804    805    794
8    793    804    805    794    859    870    871    860
8    859    870    871    860    925    936    937    926
8    606    617    618    607    672    683    684    673
8    672    683    684    673    738    749    750    739
8    738    749    750    739    804    815    816    805
8    804    815    816    805    870    881    882    871
8    870    881    882    871    936    947    948    937
8    617    628    629    618    683    694    695    684
8    683    694    695    684    749    760    761    750
8    749    760    761    750    815    826    827    816
8    815    826    827    816    881    892    893    882
8    881    892    893    882    947    958    959    948
8    628    639    640    629    694    705    706    695
8    694    705    706    695    760    771    772    761
8    760    771    772    761    826    837    838    827
8    826    837    838    827    892    903    904    893
8    892    903    904    893    958    969    970    959
8    639    650    651    640    705    716    717    706
8    705    716    717    706    771    782    783    772
8    771    782    783    772    837    848    849    838
8    837    848    849    838    903    914    915    904
8    903    914    915    904    969    980    981    970
8    596    607    608    597    662    673    674    663
8    662    673    674    663    728    739    740    729
8    728    739    740    729    794    805    806    795
8    794    805    806    795    860    871    872    861
8    860    871    872    861    926    937    938    927
8    607    618    619    608    673    684    685    674
8    673    684    685    674    739    750    751    740
8    739    750    751    740    805    816    817    806
8    805    816    817    806    871    882    883    872
8    871    882    883    872    937    948    949    938
8    618    629    630    619    684    695    696    685
8    684    695    696    685    750    761    762    751
8    750    761    762    751    816    827    828    817
8    816    827    828    817    882    893    894    883
8    882    893    894    883    948    959    960    949
8    629    640    641    630    695    706    707    696
8    695    706    707    696    761    772    773    762
8    761    772    773    762    827    838    839    828
8    827    838    839    828    893    904    905    894
8    893    904    905    894    959    970    971    960
8    640    651    652    641    706    717    718    707
8    706    717    718    707    772    783    784    773
8    772    783    784    773    838    849    850    839
8    838    849    850    839    904    915    916    905
8    904    915    916    905    970    981    982    971
8    597    608    609    598    663    674    675    664
8    663    674    675    664    729    740    741    730
8    729    740    741    730    795    806    807    796
8    795    806    807    796    861    872    873    862
8    861    872    873    862    927    938    939    928
8    608    619    620    609    674    685    686    675
8    674    685    686    675    740    751    752    741
8    740    751    752    741    806    817    818    807
8    806    817    818    807    872    883    884    873
8    872    883    884    873    938    949    950    939
8    619    630    631    620    685    696    697    686
8    685    696    697    686    751    762    763    752
8    751    762    763    752    817    828    829    818
8    817    828    829    818    883    894    895    884
8    883    894    895    884    949    960    961    950
8    630    641    642    631    696    707    708    697
8    696    707    708    697    762    773    774    763
8    762    773    774    763    828    839    840    829
8    828    839    840    829    894    905    906    895
8    894    905    906    895    960    971    972    961
8    641    652    653    642    707    718    719    708
8    707    718    719    708    773    784    785    774
8    773    784    785    774    839    850    851    840
8    839    850    851    840    905    916    917    906
8    905    916    917    906    971    982    983    972
8    598    609    610    599    664    675    676    665
8    664    675    676    665    730    741    742    731
8    730    741    742    731    796    807    808    797
8    796    807    808    797    862    873    874    863
8    862    873    874    863    928    939    940    929
8    609    620    621    610    675    686    687    676
8    675    686    687    676    741    752    753    742
8    741    752    753    742    807    818    819    808
8    807    818    819    808    873    884    885    874
8    873    884    885    874    939    950    951    940
8    620    631    632    621    686    697    698    687
8    686    697    698    687    752    763    764    753
8    752    763    764    753    818    829    830    819
8    818    829    830    819    884    895    896    885
8    884    895    896    885    950    961    962    951
8    631    642    643    632    697    708    709    698
8    697    708    709    698    763    774    775    764
8    763    774    775    764    829    840    841    830
8    829    840    841    830    895    906    907    896
8    895    906    907    896    961    972    973    962
8    642    653    654    643    708    719    720    709
8    708    719    720    709    774    785    786    775
8    774    785    786    775    840    851    852    841
8    840    851    852    841    906    917    918    907
8    906    917    918    907    972    983    984    973
8    599    610    611    600    665    676    677    666
8    665    676    677    666    731    742    743    732
8    731    742    743    732    797    808    809    798
8    797    808    809    798    863    874    875    864
8    863    874    875    864    929    940    941    930
8    610    621    622    611    676    687    688    677
8    676    687    688    677    742    753    754    743
8    742    753    754    743    808    819    820    809
8    808    819    820    809    874    885    886    875
8    874    885    886    875    940    951    952    941
8    621    632    633    622    687    698    699    688
8    687    698    699    688    753    764    765    754
8    753    764    765    754    819    830    831    820
8    819    830    831    820    885    896    897    886
8    885    896    897    886    951    962    963    952
8    632    643    644    633    698    709    710    699
8    698    709    710    699    764    775    776    765
8    764    775    776    765    830    841    842    831
8    830    841    842    831    896    907    908    897
8    896    907    908    897    962    973    974    963
8    643    654    655    644    709    720    721    710
8    709    720    721    710    775    786    787    776
8    775    786    787    776    841    852    853    842
8    841    852    853    842    907    918    919    908
8    907    918    919    908    973    984    985    974
8    600    611    612    601    666    677    678    667
8    666    677    678    667    732    743    744    733
8    732    743    744    733    798    809    810    799
8    798    809    810    799    864    875    876    865
8    864    875    876    865    930    941    942    931
8    611    622    623    612    677    688    689    678
8    677    688    689    678    743    754    755    744
8    743    754    755    744    809    820    821    810
8    809    820    821    810    875    886    887    876
8    875    886    887    876    941    952    953    942
8    622    633    634    623    688    699    700    689
8    688    699    700    689    754    765    766    755
8    754    765    766    755    820    831    832    821
8    820    831    832    821    886    897    898    887
8    886    897    898    887    952    963    964    953
8    633    644    645    634    699    710    711    700
8    699    710    711    700    765    776    777    766
8    765    776    777    766    831    842    843    832
8    831    842    843    832    897    908    909    898
8    897    908    909    898    963    974    975    964
8    644    655    656    645    710    721    722    711
8    710    721    722    711    776    787    788    777
8    776    787    788    777    842    853    854    843
8    842    853    854    843    908    919    920    909
8    908    919    920    909    974    985    986    975
8    601    612    613    602    667    678    679    668
8    667    678    679    668    733    744    745    734
8    733    744    745    734    799    810    811    800
8    799    810    811    800    865    876    877    866
8    865    876    877    866    931    942    943    932
8    612    623    624    613    678    689    690    679
8    678    689    690    679    744    755    756    745
8    744    755    756    745    810    821    822    811
8    810    821    822    811    876    887    888    877
8    876    887    888    877    942    953    954    943
8    623    634    635    624    689    700    701    690
8    689    700    701    690    755    766    767    756
8    755    766    767    756    821    832    833    822
8    821    832    833    822    887    898    899    888
8    887    898    899    888    953    964    965    954
8    634    645    646    635    700    711    712    701
8    700    711    712    701    766    777    778    767
8    766    777    778    767    832    843    844    833
8    832    843    844    833    898    909    910    899
8    898    909    910    899    964    975    976    965
8    645    656    657    646    711    722    723    712
8    711    722    723    712    777    788    789    778
8    777    788    789    778    843    854    855    844
8    843    854    855    844    909    920    921    910
8    909    920    921    910    975    986    987    976
8    602    613    614    603    668    679    680    669
8    668    679    680    669    734    745    746    735
8    734    745    746    735    800    811    812    801
8    800    811    812    801    866    877    878    867
8    866    877    878    867    932    943    944    933
8    613    624    625    614    679    690    691    680
8    679    690    691    680    745    756    757    746
8    745    756    757    746    811    822    823    812
8    811    822    823    812    877    888    889    878
8    877    888    889    878    943    954    955    944
8    624    635    636    625    690    701    702    691
8    690    701    702    691    756    767    768    757
8    756    767    768    757    822    833    834    823
8    822    833    834    823    888    899    900    889
8    888    899    900    889    954    965    966    955
8    635    646    647    636    701    712    713    702
8    701    712    713    702    767    778    779    768
8    767    778    779    768    833    844    845    834
8    833    844    845    834    899    910    911    900
8    899    910    911    900    965    976    977    966
8    646    657    658    647    712    723    724    713
8    712    723    724    713    778    789    790    779
8    778    789    790    779    844    855    856    845
8    844    855    856    845    910    921    922    911
8    910    921    922    911    976    987    988    977
8    603    614    615    604    669    680    681    670
8    669    680    681    670    735    746    747    736
8    735    746    747    736    801    812    813    802
8    801    812    813    802    867    878    879    868
8    867    878    879    868    933    944    945    934
8    614    625    626    615    680    691    692    681
8    680    691    692    681    746    757    758    747
8    746    757    758    747    812    823    824    813
8    812    823    824    813    878    889    890    879
8    878    889    890    879    944    955    956    945
8    625    636    637    626    691    702    703    692
8    691    702    703    692    757    768    769    758
8    757    768    769    758    823    834    835    824
8    823    834    835    824    889    900    901    890
8    889    900    901    890    955    966    967    956
8    636    647    648    637    702    713    714    703
8    702    713    714    703    768    779    780    769
8    768    779    780    769    834    845    846    835
8    834    845    846    835    900    911    912    901
8    900    911    912    901    966    977    978    967
8    647    658    659    648    713    724    725    714
8    713    724    725    714    779    790    791    780
8    779    790    791    780    845    856    857    846
8    845    856    857    846    911    922    923    912
8    911    922    923    912    977    988    989    978
8    998    594    990    999   1052   1043   1044   1053
8   1052   1043   1044   1053   1106   1097   1098   1107
8   1106   1097   1098   1107   1160   1151   1152   1161
8   1160   1151   1152   1161   1214   1205   1206   1215
8   1214   1205   1206   1215   1268   1259   1260   1269
8   1007    998    999   1008   1061   1052   1053   1062
8   1061   1052   1053   1062   1115   1106   1107   1116
8   1115   1106   1107   1116   1169   1160   1161   1170
8   1169   1160   1161   1170   1223   1214   1215   1224
8   1223   1214   1215   1224   1277   1268   1269   1278
8   1016   1007   1008   1017   1070   1061   1062   1071
8   1070   1061   1062   1071   1124   1115   1116   1125
8   1124   1115   1116   1125   1178   1169   1170   1179
8   1178   1169   1170   1179   1232   1223   1224   1233
8   1232   1223   1224   1233   1286   1277   1278   1287
8   1025   1016   1017   1026   1079   1070   1071   1080
8   1079   1070   1071   1080   1133   1124   1125   1134
8   1133   1124   1125   1134   1187   1178   1179   1188
8   1187   1178   1179   1188   1241   1232   1233   1242
8   1241   1232   1233   1242   1295   1286   1287   1296
8   1034   1025   1026   1035   1088   1079   1080   1089
8   1088   1079   1080   1089   1142   1133   1134   1143
8   1142   1133   1134   1143   1196   1187   1188   1197
8   1196   1187   1188   1197   1250   1241   1242   1251
8   1250   1241   1242   1251   1304   1295   1296   1305
8    999    990    991   1000   1053   1044   1045   1054
8   1053   1044   1045   1054   1107   1098   1099   1108
8   1107   1098   1099   1108   1161   1152   1153   1162
8   1161   1152   1153   1162   1215   1206   1207   1216
8   1215   1206   1207   1216   1269   1260   1261   1270
8   1008    999   1000   1009   1062   1053   1054   1063
8   1062   1053   1054   1063   1116   1107   1108   1117
8   1116   1107   1108   1117   1170   1161   1162   1171
8   1170   1161   1162   1171   1224   1215   1216   1225
8   1224   1215   1216   1225   1278   1269   1270   1279
8   1017   1008   1009   1018   1071   1062   1063   1072
8   1071   1062   1063   1072   1125   1116   1117   1126
8   1125   1116   1117   1126   1179   1170   1171   1180
8   1179   1170   1171   1180   1233   1224   1225   1234
8   1233   1224   1225   1234   1287   1278   1279   1288
8   1026   1017   1018   1027   1080   1071   1072   1081
8   1080   1071   1072   1081   1134   1125   1126   1135
8   1134   1125   1126   1135   1188   1179   1180   1189
8   1188   1179   1180   1189   1242   1233   1234   1243
8   1242   1233   1234   1243   1296   1287   1288   1297
8   1035   1026   1027   1036   1089   1080   1081   1090
8   1089   1080   1081   1090   1143   1134   1135   1144
8   1143   1134   1135   1144   1197   1188   1189   1198
8   1197   1188   1189   1198   1251   1242   1243   1252
8   1251   1242   1243   1252   1305   1296   1297   1306
8   1000    991    992   1001   1054   1045   1046   1055
8   1054   1045   1046   1055   1108   1099   1100   1109
8   1108   1099   1100   1109   1162   1153   1154   1163
8   1162   1153   1154   1163   1216   1207   1208   1217
8   1216   1207   1208   1217   1270   1261   1262   1271
8   1009   1000   1001   1010   1063   1054   1055   1064
8   1063   1054   1055   1064   1117   1108   1109   1118
8   1117   1108   1109   1118   1171   1162   1163   1172
8   1171   1162   1163   1172   1225   1216   1217   1226
8   1225   1216   1217   1226   1279   1270   1271   1280
8   1018   1009   1010   1019   1072   1063   1064   1073
8   1072   1063   1064   1073   1126   1117   1118   1127
8   1126   1117   1118   1127   1180   1171   1172   1181
8   1180   1171   1172   1181   1234   1225   1226   1235
8   1234   1225   1226   1235   1288   1279   1280   1289
8   1027   1018   1019   1028   1081   1072   1073   1082
8   1081   1072   1073   1082   1135   1126   1127   1136
8   1135   1126   1127   1136   1189   1180   1181   1190
8   1189   1180   1181   1190   1243   1234   1235   1244
8   1243   1234   1235   1244   1297   1288   1289   1298
8   1036   1027   1028   1037   1090   1081   1082   1091
8   1090   1081   1082   1091   1144   1135   1136   1145
8   1144   1135   1136   1145   1198   1189   1190   1199
8   1198   1189   1190   1199   1252   1243   1244   1253
8   1252   1243   1244   1253   1306   1297   1298   1307
8   1001    992    993   1002   1055   1046   1047   1056
8   1055   1046   1047   1056   1109   1100   1101   1110
8   1109   1100   1101   1110   1163   1154   1155   1164
8   1163   1154   1155   1164   1217   1208   1209   1218
8   1217   1208   1209   1218   1271   1262   1263   1272
8   1010   1001   1002   1011   1064   1055   1056   1065
8   1064   1055   1056   1065   1118   1109   1110   1119
8   1118   1109   1110   1119   1172   1163   1164   1173
8   1172   1163   1164   1173   1226   1217   1218   1227
8   1226   1217   1218   1227   1280   1271   1272   1281
8   1019   1010   1011   1020   1073   1064   1065   1074
8   1073   1064   1065   1074   1127   1118   1119   1128
8   1127   1118   1119   1128   1181   1172   1173   1182
8   1181   1172   1173   1182   1235   1226   1227   1236
8   1235   1226   1227   1236   1289   1280   1281   1290
8   1028   1019   1020   1029   1082   1073   1074   1083
8   1082   1073   1074   1083   1136   1127   1128   1137
8   1136   1127   1128   1137   1190   1181   1182   1191
8   1190   1181   1182   1191   1244   1235   1236   1245
8   1244   1235   1236   1245   1298   1289   1290   1299
8   1037   1028   1029   1038   1091   1082   1083   1092
8   1091   1082   1083   1092   1145   1136   1137   1146
8   1145   1136   1137   1146   1199   1190   1191   1200
8   1199   1190   1191   1200   1253   1244   1245   1254
8   1253   1244   1245   1254   1307   1298   1299   1308
8   1002    993    994   1003   1056   1047   1048   1057
8   1056   1047   1048   1057   1110   1101   1102   1111
8   1110   1101   1102   1111   1164   1155   1156   1165
8   1164   1155   1156   1165   1218   1209   1210   1219
8   1218   1209   1210   1219   1272   1263   1264   1273
8   1011   1002   1003   1012   1065   1056   1057   1066
8   1065   1056   1057   1066   1119   1110   1111   1120
8   1119   1110   1111   1120   1173   1164   1165   1174
8   1173   1164   1165   1174   1227   1218   1219   1228
8   1227   1218   1219   1228   1281   1272   1273   1282
8   1020   1011   1012   1021   1074   1065   1066   1075
8   1074   1065   1066   1075   1128   1119   1120   1129
8   1128   1119   1120   1129   1182   1173   1174   1183
8   1182   1173   1174   1183   1236   1227   1228   1237
8   1236   1227   1228   1237   1290   1281   1282   1291
8   1029   1020   1021   1030   1083   1074   1075   1084
8   1083   1074   1075   1084   1137   1128   1129   1138
8   1137   1128   1129   1138   1191   1182   1183   1192
8   1191   1182   1183   1192   1245   1236   1237   1246
8   1245   1236   1237   1246   1299   1290   1291   1300
8   1038   1029   1030   1039   1092   1083   1084   1093
8   1092   1083   1084   1093   1146   1137   1138   1147
8   1146   1137   1138   1147   1200   1191   1192   1201
8   1200   1191   1192   1201   1254   1245   1246   1255
8   1254   1245   1246   1255   1308   1299   1300   1309
8   1003    994    995   1004   1057   1048   1049   1058
8   1057   1048   1049   1058   1111   1102   1103   1112
8   1111   1102   1103   1112   1165   1156   1157   1166
8   1165   1156   1157   1166   1219   1210   1211   1220
8   1219   1210   1211   1220   1273   1264   1265   1274
8   1012   1003   1004   1013   1066   1057   1058   1067
8   1066   1057   1058   1067   1120   1111   1112   1121
8   1120   1111   1112   1121   1174   1165   1166   1175
8   1174   1165   1166   1175   1228   1219   1220   1229
8   1228   1219   1220   1229   1282   1273   1274   1283
8   1021   1012   1013   1022   1075   1066   1067   1076
8   1075   1066   1067   1076   1129   1120   1121   1130
8   1129   1120   1121   1130   1183   1174   1175   1184
8   1183   1174   1175   1184   1237   1228   1229   1238
8   1237   1228   1229   1238   1291   1282   1283   1292
8   1030   1021   1022   1031   1084   1075   1076   1085
8   1084   1075   1076   1085   1138   1129   1130   1139
8   1138   1129   1130   1139   1192   1183   1184   1193
8   1192   1183   1184   1193   1246   1237   1238   1247
8   1246   1237   1238   1247   1300   1291   1292   1301
8   1039   1030   1031   1040   1093   1084   1085   1094
8   1093   1084   1085   1094   1147   1138   1139   1148
8   1147   1138   1139   1148   1201   1192   1193   1202
8   1201   1192   1193   1202   1255   1246   1247   1256
8   1255   1246   1247   1256   1309   1300   1301   1310
8   1004    995    996   1005   1058   1049   1050   1059
8   1058   1049   1050   1059   1112   1103   1104   1113
8   1112   1103   1104   1113   1166   1157   1158   1167
8   1166   1157   1158   1167   1220   1211   1212   1221
8   1220   1211   1212   1221   1274   1265   1266   1275
8   1013   1004   1005   1014   1067   1058   1059   1068
8   1067   1058   1059   1068   1121   1112   1113   1122
8   1121   1112   1113   1122   1175   1166   1167   1176
8   1175   1166   1167   1176   1229   1220   1221   1230
8   1229   1220   1221   1230   1283   1274   1275   1284
8   1022   1013   1014   1023   1076   1067   1068   1077
8   1076   1067   1068   1077   1130   1121   1122   1131
8   1130   1121   1122   1131   1184   1175   1176   1185
8   1184   1175   1176   1185   1238   1229   1230   1239
8   1238   1229   1230   1239   1292   1283   1284   1293
8   1031   1022   1023   1032   1085   1076   1077   1086
8   1085   1076   1077   1086   1139   1130   1131   1140
8   1139   1130   1131   1140   1193   1184   1185   1194
8   1193   1184   1185   1194   1247   1238   1239   1248
8   1247   1238   1239   1248   1301   1292   1293   1302
8   1040   1031   1032   1041   1094   1085   1086   1095
8   1094   1085   1086   1095   1148   1139   1140   1149
8   1148   1139   1140   1149   1202   1193   1194   1203
8   1202   1193   1194   1203   1256   1247   1248   1257
8   1256   1247   1248   1257   1310   1301   1302   1311
8   1005    996    997   1006   1059   1050   1051   1060
8   1059   1050   1051   1060   1113   1104   1105   1114
8   1113   1104   1105   1114   1167   1158   1159   1168
8   1167   1158   1159   1168   1221   1212   1213   1222
8   1221   1212   1213   1222   1275   1266   1267   1276
8   1014   1005   1006   1015   1068   1059   1060   1069
8   1068   1059   1060   1069   1122   1113   1114   1123
8   1122   1113   1114   1123   1176   1167   1168   1177
8   1176   1167   1168   1177   1230   1221   1222   1231
8   1230   1221   1222   1231   1284   1275   1276   1285
8   1023   1014   1015   1024   1077   1068   1069   1078
8   1077   1068   1069   1078   1131   1122   1123   1132
8   1131   1122   1123   1132   1185   1176   1177   1186
8   1185   1176   1177   1186   1239   1230   1231   1240
8   1239   1230   1231   1240   1293   1284   1285   1294
8   1032   1023   1024   1033   1086   1077   1078   1087
8   1086   1077   1078   1087   1140   1131   1132   1141
8   1140   1131   1132   1141   1194   1185   1186   1195
8   1194   1185   1186   1195   1248   1239   1240   1249
8   1248   1239   1240   1249   1302   1293   1294   1303
8   1041   1032   1033   1042   1095   1086   1087   1096
8   1095   1086   1087   1096   1149   1140   1141   1150
8   1149   1140   1141   1150   1203   1194   1195   1204
8   1203   1194   1195   1204   1257   1248   1249   1258
8   1257   1248   1249   1258   1311   1302   1303   1312
8      0   1314   1324     99      1   1315   1325    100
8     99   1324   1334    198    100   1325   1335    199
8    198   1334   1344    297    199   1335   1345    298
8    297   1344   1354    396    298   1345   1355    397
8    396   1354   1364    495    397   1355   1365    496
8    495   1364   1374    504    496   1365   1375    505
8    504   1374   1384    513    505   1375   1385    514
8    513   1384   1394    522    514   1385   1395    523
8    522   1394   1404    531    523   1395   1405    532
8    531   1404   1414    540    532   1405   1415    541
8    540   1414   1424    549    541   1415   1425    550
8    549   1424   1434    558    550   1425   1435    559
8    558   1434   1444    567    559   1435   1445    568
8    567   1444   1454    576    568   1445   1455    577
8    576   1454   1464    585    577   1455   1465    586
8     90    189   1504   1514     91    190   1505   1515
8    189    288   1494   1504    190    289   1495   1505
8    288    387   1484   1494    289    388   1485   1495
8    387    486   1474   1484    388    487   1475   1485
8    486    585   1464   1474    487    586   1465   1475
8      1   1315   1325    100      2   1316   1326    101
8    100   1325   1335    199    101   1326   1336    200
8    199   1335   1345    298    200   1336   1346    299
8    298   1345   1355    397    299   1346   1356    398
8    397   1355   1365    496    398   1356   1366    497
8    496   1365   1375    505    497   1366   1376    506
8    505   1375   1385    514    506   1376   1386    515
8    514   1385   1395    523    515   1386   1396    524
8    523   1395   1405    532    524   1396   1406    533
8    532   1405   1415    541    533   1406   1416    542
8    541   1415   1425    550    542   1416   1426    551
8    550   1425   1435    559    551   1426   1436    560
8    559   1435   1445    568    560   1436   1446    569
8    568   1445   1455    577    569   1446   1456    578
8    577   1455   1465    586    578   1456   1466    587
8     91    190   1505   1515     92    191   1506   1516
8    190    289   1495   1505    191    290   1496   1506
8    289    388   1485   1495    290    389   1486   1496
8    388    487   1475   1485    389    488   1476   1486
8    487    586   1465   1475    488    587   1466   1476
8      2   1316   1326    101      3   1317   1327    102
8    101   1326   1336    200    102   1327   1337    201
8    200   1336   1346    299    201   1337   1347    300
8    299   1346   1356    398    300   1347   1357    399
8    398   1356   1366    497    399   1357   1367    498
8    497   1366   1376    506    498   1367   1377    507
8    506   1376   1386    515    507   1377   1387    516
8    515   1386   1396    524    516   1387   1397    525
8    524   1396   1406    533    525   1397   1407    534
8    533   1406   1416    542    534   1407   1417    543
8    542   1416   1426    551    543   1417   1427    552
8    551   1426   1436    560    552   1427   1437    561
8    560   1436   1446    569    561   1437   1447    570
8    569   1446   1456    578    570   1447   1457    579
8    578   1456   1466    587    579   1457   1467    588
8     92    191   1506   1516     93    192   1507   1517
8    191    290   1496   1506    192    291   1497   1507
8    290    389   1486   1496    291    390   1487   1497
8    389    488   1476   1486    390    489   1477   1487
8    488    587   1466   1476    489    588   1467   1477
8      3   1317   1327    102      4   1318   1328    103
8    102   1327   1337    201    103   1328   1338    202
8    201   1337   1347    300    202   1338   1348    301
8    300   1347   1357    399    301   1348   1358    400
8    399   1357   1367    498    400   1358   1368    499
8    498   1367   1377    507    499   1368   1378    508
8    507   1377   1387    516    508   1378   1388    517
8    516   1387   1397    525    517   1388   1398    526
8    525   1397   1407    534    526   1398   1408    535
8    534   1407   1417    543    535   1408   1418    544
8    543   1417   1427    552    544   1418   1428    553
8    552   1427   1437    561    553   1428   1438    562
8    561   1437   1447    570    562   1438   1448    571
8    570   1447   1457    579    571   1448   1458    580
8    579   1457   1467    588    580   1458   1468    589
8     93    192   1507   1517     94    193   1508   1518
8    192    291   1497   1507    193    292   1498   1508
8    291    390   1487   1497    292    391   1488   1498
8    390    489   1477   1487    391    490   1478   1488
8    489    588   1467   1477    490    589   1468   1478
8      4   1318   1328    103      5   1319   1329    104
8    103   1328   1338    202    104   1329   1339    203
8    202   1338   1348    301    203   1339   1349    302
8    301   1348   1358    400    302   1349   1359    401
8    400   1358   1368    499    401   1359   1369    500
8    499   1368   1378    508    500   1369   1379    509
8    508   1378   1388    517    509   1379   1389    518
8    517   1388   1398    526    518   1389   1399    527
8    526   1398   1408    535    527   1399   1409    536
8    535   1408   1418    544    536   1409   1419    545
8    544   1418   1428    553    545   1419   1429    554
8    553   1428   1438    562    554   1429   1439    563
8    562   1438   1448    571    563   1439   1449    572
8    571   1448   1458    580    572   1449   1459    581
8    580   1458   1468    589    581   1459   1469    590
8     94    193   1508   1518     95    194   1509   1519
8    193    292   1498   1508    194    293   1499   1509
8    292    391   1488   1498    293    392   1489   1499
8    391    490   1478   1488    392    491   1479   1489
8    490    589   1468   1478    491    590   1469   1479
8      5   1319   1329    104      6   1320   1330    105
8    104   1329   1339    203    105   1330   1340    204
8    203   1339   1349    302    204   1340   1350    303
8    302   1349   1359    401    303   1350   1360    402
8    401   1359   1369    500    402   1360   1370    501
8    500   1369   1379    509    501   1370   1380    510
8    509   1379   1389    518    510   1380   1390    519
8    518   1389   1399    527    519   1390   1400    528
8    527   1399   1409    536    528   1400   1410    537
8    536   1409   1419    545    537   1410   1420    546
8    545   1419   1429    554    546   1420   1430    555
8    554   1429   1439    563    555   1430   1440    564
8    563   1439   1449    572    564   1440   1450    573
8    572   1449   1459    581    573   1450   1460    582
8    581   1459   1469    590    582   1460   1470    591
8     95    194   1509   1519     96    195   1510   1520
8    194    293   1499   1509    195    294   1500   1510
8    293    392   1489   1499    294    393   1490   1500
8    392    491   1479   1489    393    492   1480   1490
8    491    590   1469   1479    492    591   1470   1480
8      6   1320   1330    105      7   1321   1331    106
8    105   1330   1340    204    106   1331   1341    205
8    204   1340   1350    303    205   1341   1351    304
8    303   1350   1360    402    304   1351   1361    403
8    402   1360   1370    501    403   1361   1371    502
8    501   1370   1380    510    502   1371   1381    511
8    510   1380   1390    519    511   1381   1391    520
8    519   1390   1400    528    520   1391   1401    529
8    528   1400   1410    537    529   1401   1411    538
8    537   1410   1420    546    538   1411   1421    547
8    546   1420   1430    555    547   1421   1431    556
8    555   1430   1440    564    556   1431   1441    565
8    564   1440   1450    573    565   1441   1451    574
8    573   1450   1460    582    574   1451   1461    583
8    582   1460   1470    591    583   1461   1471    592
8     96    195   1510   1520     97    196   1511   1521
8    195    294   1500   1510    196    295   1501   1511
8    294    393   1490   1500    295    394   1491   1501
8    393    492   1480   1490    394    493   1481   1491
8    492    591   1470   1480    493    592   1471   1481
8      7   1321   1331    106      8   1322   1332    107
8    106   1331   1341    205    107   1332   1342    206
8    205   1341   1351    304    206   1342   1352    305
8    304   1351   1361    403    305   1352   1362    404
8    403   1361   1371    502    404   1362   1372    503
8    502   1371   1381    511    503   1372   1382    512
8    511   1381   1391    520    512   1382   1392    521
8    520   1391   1401    529    521   1392   1402    530
8    529   1401   1411    538    530   1402   1412    539
8    538   1411   1421    547    539   1412   1422    548
8    547   1421   1431    556    548   1422   1432    557
8    556   1431   1441    565    557   1432   1442    566
8    565   1441   1451    574    566   1442   1452    575
8    574   1451   1461    583    575   1452   1462    584
8    583   1461   1471    592    584   1462   1472    593
8     97    196   1511   1521     98    197   1512   1522
8    196    295   1501   1511    197    296   1502   1512
8    295    394   1491   1501    296    395   1492   1502
8    394    493   1481   1491    395    494   1482   1492
8    493    592   1471   1481    494    593   1472   1482
8   1523   1524      9      0   1534   1535    108     99
8   1534   1535    108     99   1545   1546    207    198
8   1545   1546    207    198   1556   1557    306    297
8   1556   1557    306    297   1567   1568    405    396
8   1567   1568    405    396   1578   1579    504    495
8   1524   1525     18      9   1535   1536    117    108
8   1535   1536    117    108   1546   1547    216    207
8   1546   1547    216    207   1557   1558    315    306
8   1557   1558    315    306   1568   1569    414    405
8   1568   1569    414    405   1579   1580    513    504
8   1525   1526     27     18   1536   1537    126    117
8   1536   1537    126    117   1547   1548    225    216
8   1547   1548    225    216   1558   1559    324    315
8   1558   1559    324    315   1569   1570    423    414
8   1569   1570    423    414   1580   1581    522    513
8   1526   1527     36     27   1537   1538    135    126
8   1537   1538    135    126   1548   1549    234    225
8   1548   1549    234    225   1559   1560    333    324
8   1559   1560    333    324   1570   1571    432    423
8   1570   1571    432    423   1581   1582    531    522
8   1527   1528     45     36   1538   1539    144    135
8   1538   1539    144    135   1549   1550    243    234
8   1549   1550    243    234   1560   1561    342    333
8   1560   1561    342    333   1571   1572    441    432
8   1571   1572    441    432   1582   1583    540    531
8   1528   1529     54     45   1539   1540    153    144
8   1539   1540    153    144   1550   1551    252    243
8   1550   1551    252    243   1561   1562    351    342
8   1561   1562    351    342   1572   1573    450    441
8   1572   1573    450    441   1583   1584    549    540
8   1529   1530     63     54   1540   1541    162    153
8   1540   1541    162    153   1551   1552    261    252
8   1551   1552    261    252   1562   1563    360    351
8   1562   1563    360    351   1573   1574    459    450
8   1573   1574    459    450   1584   1585    558    549
8   1530   1531     72     63   1541   1542    171    162
8   1541   1542    171    162   1552   1553    270    261
8   1552   1553    270    261   1563   1564    369    360
8   1563   1564    369    360   1574   1575    468    459
8   1574   1575    468    459   1585   1586    567    558
8   1531   1532     81     72   1542   1543    180    171
8   1542   1543    180    171   1553   1554    279    270
8   1553   1554    279    270   1564   1565    378    369
8   1564   1565    378    369   1575   1576    477    468
8   1575   1576    477    468   1586   1587    576    567
8   1532   1533     90     81   1543   1544    189    180
8   1543   1544    189    180   1554   1555    288    279
8   1554   1555    288    279   1565   1566    387    378
8   1565   1566    387    378   1576   1577    486    477
8   1576   1577    486    477   1587   1588    585    576
8   1523   1313   1323   1534      0   1314   1324     99
8   1534   1323   1333   1545     99   1324   1334    198
8   1545   1333   1343   1556    198   1334   1344    297
8   1556   1343   1353   1567    297   1344   1354    396
8   1567   1353   1363   1578    396   1354   1364    495
8   1578   1363   1373   1579    495   1364   1374    504
8   1579   1373   1383   1580    504   1374   1384    513
8   1580   1383   1393   1581    513   1384   1394    522
8   1581   1393   1403   1582    522   1394   1404    531
8   1582   1403   1413   1583    531   1404   1414    540
8   1583   1413   1423   1584    540   1414   1424    549
8   1584   1423   1433   1585    549   1424   1434    558
8   1585   1433   1443   1586    558   1434   1444    567
8   1586   1443   1453   1587    567   1444   1454    576
8   1587   1453   1463   1588    576   1454   1464    585
8   1533   1544   1503   1513     90    189   1504   1514
8   1544   1555   1493   1503    189    288   1494   1504
8   1555   1566   1483   1493    288    387   1484   1494
8   1566   1577   1473   1483    387    486   1474   1484
8   1577   1588   1463   1473    486    585   1464   1474
CELL_TYPES  1130
12
12
12
12
12
12
12
12
12
12
12
12
12
12
12
12
12
12
12
12
12
12
12
12
12
12
12
12
12
12
12
12
12
12
12
12
12
12
12
12
12
12
12
12
12
12
12
12
12
12
12
12
12
12
12
12
12
12
12
12
12
12
12
12
12
12
12
12
12
12
12
12
12
12
12
12
12
12
12
12
12
12
12
12
12
12
12
12
12
12
12
12
12
12
12
12
12
12
12
12
12
12
12
12
12
12
12
12
12
12
12
12
12
12
12
12
12
12
12
12
12
12
12
12
12
12
12
12
12
12
12
12
12
12
12
12
12
12
12
12
12
12
12
12
12
12
12
12
12
12
12
12
12
12
12
12
12
12
12
12
12
12
12
12
12
12
12
12
12
12
12
12
12
12
12
12
12
12
12
12
12
12
12
12
12
12
12
12
12
12
12
12
12
12
12
12
12
12
12
12
12
12
12
12
12
12
12
12
12
12
12
12
12
12
12
12
12
12
12
12
12
12
12
12
12
12
12
12
12
12
12
12
12
12
12
12
12
12
12
12
12
12
12
12
12
12
12
12
12
12
12
12
12
12
12
12
12
12
12
12
12
12
12
12
12
12
12
12
12
12
12
12
12
12
12
12
12
12
12
12
12
12
12
12
12
12
12
12
12
12
12
12
12
12
12
12
12
12
12
12
12
12
12
12
12
12
12
12
12
12
12
12
12
12
12
12
12
12
12
12
12
12
12
12
12
12
12
12
12
12
12
12
12
12
12
12
12
12
12
12
12
12
12
12
12
12
12
12
12
12
12
12
12
12
12
12
12
12
12
12
12
12
12
12
12
12
12
12
12
12
12
12
12
12
12
12
12
12
12
12
12
12
12
12
12
12
12
12
12
12
12
12
12
12
12
12
12
12
12
12
12
12
12
12
12
12
12
12
12
12
12
12
12
12
12
12
12
12
12
12
12
12
12
12
12
12
12
12
12
12
12
12
12
12
12
12
12
12
12
12
12
12
12
12
12
12
12
12
12
12
12
12
12
12
12
12
12
12
12
12
12
12
12
12
12
12
12
12
12
12
12
12
12
12
12
12
12
12
12
12
12
12
12
12
12
12
12
12
12
12
12
12
12
12
12
12
12
12
12
12
12
12
12
12
12
12
12
12
12
12
12
12
12
12
12
12
12
12
12
12
12
12
12
12
12
12
12
12
12
12
12
12
12
12
12
12
12
12
12
12
12
12
12
12
12
12
12
12
12
12
12
12
12
12
12
12
12
12
12
12
12
12
12
12
12
12
12
12
12
12
12
12
12
12
12
12
12
12
12
12
12
12
12
12
12
12
12
12
12
12
12
12
12
12
12
12
12
12
12
12
12
12
12
12
12
12
12
12
12
12
12
12
12
12
12
12
12
12
12
12
12
12
12
12
12
12
12
12
12
12
12
12
12
12
12
12
12
12
12
12
12
12
12
12
12
12
12
12
12
12
12
12
12
12
12
12
12
12
12
12
12
12
12
12
12
12
12
12
12
12
12
12
12
12
12
12
12
12
12
12
12
12
12
12
12
12
12
12
12
12
12
12
12
12
12
12
12
12
12
12
12
12
12
12
12
12
12
12
12
12
12
12
12
12
12
12
12
12
12
12
12
12
12
12
12
12
12
12
12
12
12
12
12
12
12
12
12
12
12
12
12
12
12
12
12
12
12
12
12
12
12
12
12
12
12
12
12
12
12
12
12
12
12
12
12
12
12
12
12
12
12
12
12
12
12
12
12
12
12
12
12
12
12
12
12
12
12
12
12
12
12
12
12
12
12
12
12
12
12
12
12
12
12
12
12
12
12
12
12
12
12
12
12
12
12
12
12
12
12
12
12
12
12
12
12
12
12
12
12
12
12
12
12
12
12
12
12
12
12
12
12
12
12
12
12
12
12
12
12
12
12
12
12
12
12
12
12
12
12
12
12
12
12
12
12
12
12
12
12
12
12
12
12
12
12
12
12
12
12
12
12
12
12
12
12
12
12
12
12
12
12
12
12
12
12
12
12
12
12
12
12
12
12
12
12
12
12
12
12
12
12
12
12
12
12
12
12
12
12
12
12
12
12
12
12
12
12
12
12
12
12
12
12
12
12
12
12
12
12
12
12
12
12
12
12
12
12
12
12
12
12
12
12
12
12
12
12
12
12
12
12
12
12
12
12
12
12
12
12
12
12
12
12
12
12
12
12
12
12
12
12
12
12
12
12
12
12
12
12
12
12
12
12
12
12
12
12
12
12
12
12
12
12
12
12
12
12
12
12
12
12
12
12
12
12
12
12
12
12
12
12
12
12
12
12
12
12
12
12
12
12
12
12
12
12
12
12
12
12
12
12
12
12
12
12
12
12
12
12
12
12
12
12
12
12
12
12
12
12
12
12
12
12
12
12
12
12
12
12
12
12
12
12
12
12
12
12
12
12
12
12
12
12
12
12
12
12
12
12
12
12
12
12
12
12
12
12
12
12
12
12
12
12
12
12
12
12
12
12
12
12
12
12
12
12
12
12
12
12
12
12
12
12
12
12
12
12
12
12
12
POINT_DATA      1589
VECTORS Velocities float 
     0.00000000     0.00000000     0.00000000
     0.00000000     0.00000000     0.00000000
     0.00000000     0.00000000     0.00000000
     0.00000000     0.00000000     0.00000000
     0.00000000     0.00000000     0.00000000
     0.00000000     0.00000000     0.00000000
     0.00000000     0.00000000     0.00000000
     0.00000000     0.00000000     0.00000000
     0.00000000     0.00000000     0.00000000
     0.00000000     0.00000000     0.00000000
    -5.64148637     7.50264177     0.00000000
   -15.41990239     9.00298524     0.00000000
   -20.37204130     5.76871574     0.00000000
   -20.72633881     0.71881126     0.00000000
   -18.45324678    -3.79987289     0.00000000
   -11.01944767    -7.80097304     0.00000000
    -8.49938734    -1.78480895     0.00000000
    -5.53072567     1.04902742     0.00000000
     0.00000000     0.00000000     0.00000000
    -5.44609770    13.51863939     0.00000000
   -14.75937499    13.86869116     0.00000000
   -17.85550474     5.45162731     0.00000000
   -14.10397447    -3.85557274     0.00000000
    -8.75769420   -11.66045222     0.00000000
    -6.98484330   -10.84095548     0.00000000
    -2.61347445     1.55138822     0.00000000
     7.09784267     5.59925108     0.00000000
     0.00000000     0.00000000     0.00000000
     0.76197626    11.45201457     0.00000000
     2.15961217    10.66921139     0.00000000
     5.76074672     0.72918294     0.00000000
     9.78270879    -7.02655830     0.00000000
     2.56970818   -13.40265685     0.00000000
   -10.57008101    -8.03924771     0.00000000
   -11.92291369     2.34053626     0.00000000
     1.83960982     7.63909356     0.00000000
     0.00000000     0.00000000     0.00000000
     7.71572043    -0.51820945     0.00000000
    20.05836137    -2.30533157     0.00000000
    26.39618827    -4.22837678     0.00000000
    27.76453711    -3.84673867     0.00000000
    13.93860648    -2.71350824     0.00000000
    -9.75524630     1.28600178     0.00000000
   -17.91315940     4.88407749     0.00000000
    -8.85878901     7.01418382     0.00000000
     0.00000000     0.00000000     0.00000000
     6.88536188   -13.91002298     0.00000000
    15.74240123   -15.62394720     0.00000000
    20.90904499    -6.46960588     0.00000000
    22.62015817     2.89929335     0.00000000
     7.99795905    12.95511258     0.00000000
    -9.94480008     8.28889170     0.00000000
    -9.41379227     0.48179248     0.00000000
     0.00000000     0.00000000     0.00000000
     0.00000000     0.00000000     0.00000000
     2.18134262   -21.85050760     0.00000000
     1.14169641   -20.67022955     0.00000000
     0.88177812    -6.46490624     0.00000000
    -0.07683638     9.70032871     0.00000000
    -7.24849883    20.16640099     0.00000000
   -14.18360624    10.74365553     0.00000000
   -12.11194886    -1.38665446     0.00000000
    -6.17851583    -0.22342414     0.00000000
     0.00000000     0.00000000     0.00000000
    -3.31469533   -23.35682615     0.00000000
   -11.67252683   -19.24286791     0.00000000
   -17.35211641    -6.09044683     0.00000000
   -16.86835955     8.83445427     0.00000000
   -15.38071376    15.47062165     0.00000000
    -9.29428798     8.80623392     0.00000000
    -8.44818555    -1.00375585     0.00000000
    -4.94302090    -2.76768192     0.00000000
     0.00000000     0.00000000     0.00000000
    -6.91481371   -18.27564426     0.00000000
   -19.03497962   -15.80235896     0.00000000
   -23.45333981    -7.58684539     0.00000000
   -20.90158641     0.76981716     0.00000000
   -14.55328364     6.42660122     0.00000000
    -7.01776635     4.45571672     0.00000000
     0.66210013    -2.51050282     0.00000000
     3.84419429    -4.82275741     0.00000000
     0.00000000     0.00000000     0.00000000
    -5.83998775    -8.60673301     0.00000000
   -15.54964410    -9.37423278     0.00000000
   -19.80550706    -6.96773941     0.00000000
   -19.37046105    -2.57516933     0.00000000
   -15.52605811     0.75943054     0.00000000
    -6.60945824     3.29381556     0.00000000
    -2.82212869    -0.06931644     0.00000000
     3.22064363    -0.72828853     0.00000000
     0.00000000     0.00000000     0.00000000
     0.00000000     0.00000000     0.00000000
     0.00000000     0.00000000     0.00000000
     0.00000000     0.00000000     0.00000000
     0.00000000     0.00000000     0.00000000
     0.00000000     0.00000000     0.00000000
     0.00000000     0.00000000     0.00000000
     0.00000000     0.00000000     0.00000000
     0.00000000     0.00000000     0.00000000
     0.00000000     0.00000000     0.00000000
     0.00000000     0.00000000     0.00000000
     0.00000000     0.00000000     0.00000000
     0.00000000     0.00000000     0.00000000
     0.00000000     0.00000000     0.00000000
     0.00000000     0.00000000     0.00000000
     0.00000000     0.00000000     0.00000000
     0.00000000     0.00000000     0.00000000
     0.00000000     0.00000000     0.00000000
     0.00000000     0.00000000     0.00000000
    -6.14933583     8.59010170     2.74417871
   -14.03629713     8.34159565     2.25460417
   -17.79276114     5.94671928     1.12314626
   -18.48380558     1.65180558     0.49409553
   -16.03967846    -2.02473942     0.19304481
    -8.91474028    -7.00005332    -1.38730378
    -4.72857718    -3.44542043    -4.17256390
    -2.91201164    -0.63693847    -4.51680204
     0.00000000     0.00000000     0.00000000
    -6.17125322    13.24061541     2.91512805
   -13.88394987    13.94860007     1.05224749
   -16.84288351     6.92092825    -1.09204590
   -14.11889944    -0.77111166     0.03012882
    -5.67799847    -7.91034757     2.16030516
     0.09894976   -10.55121559     1.28374954
     3.22364180    -3.81447586    -5.27802561
     6.86310595     1.57646146    -7.66398095
     0.00000000     0.00000000     0.00000000
    -0.47124461    10.27945833     3.94507937
     2.01316988    10.77352349     1.52155294
     5.82287551     2.78154238    -1.75899439
     7.98667239    -5.11660440    -1.44311485
     8.98818440    -9.57375811     3.88705484
     5.10447524    -9.43199190     4.17644198
    -1.52431793    -5.11968425    -5.92110766
    -1.13990978     3.16619013    -7.44854938
     0.00000000     0.00000000     0.00000000
     5.87010707    -0.48071665     4.65855387
    18.42080476    -2.15173223     4.63085159
    28.25524755    -3.91435552     1.95194031
    25.97905705    -3.74503384    -1.18631689
    20.02786218    -1.73607763     3.43133952
     7.49215722    -0.29867573     5.19056313
    -4.06025838     0.82990547    -4.20862987
   -11.66829080     4.44031237    -1.90695514
     0.00000000     0.00000000     0.00000000
     4.79079579   -12.65941395     2.84156001
    14.82833234   -15.58425242     2.11692103
    20.80928104    -7.86172768    -1.83268254
    18.51530655     1.64010089    -3.91401616
    12.38033993    10.27255095     3.27811037
     3.25051235    10.19452689     4.63299828
    -0.72532628     3.84180764    -4.15256436
     0.00000000     0.00000000     0.00000000
     0.00000000     0.00000000     0.00000000
     0.32066948   -20.92700085     2.01483428
     0.69789860   -20.75728359     0.63277303
    -0.84164710    -7.81447741    -3.88173240
    -2.89074737     6.66812097    -2.25736301
    -1.81015783    17.59754678     3.66683664
    -4.81181839    16.61029261     1.59988597
    -5.53012883     5.73232346    -3.38343149
    -5.16074865    -0.59426028    -2.43944311
     0.00000000     0.00000000     0.00000000
    -5.42661886   -22.85521496     2.39420575
   -11.39959670   -19.17226564     2.27343756
   -15.32041337    -7.10575766     1.56182054
   -15.00010911     6.57567173     3.21278522
   -10.59723518    15.84850895     3.88792354
    -5.35403830    16.36258934    -0.95582153
    -5.74316766     7.34767764    -3.43389827
    -5.62960636    -1.80176207    -0.52615551
     0.00000000     0.00000000     0.00000000
    -8.63827789   -18.53890971     2.25354009
   -18.29485120   -15.27031159     2.62862325
   -21.85241342    -7.53762151     1.73704870
   -19.39864433     1.66614663     1.87607348
   -12.65273609     9.99252270     0.17725207
    -6.17708560    12.05556664    -4.50238878
     0.59620530     5.64147836    -5.56664149
     2.14336659    -1.91086170    -2.83229211
     0.00000000     0.00000000     0.00000000
    -7.09350146   -10.28628358     2.20880156
   -15.44695376    -8.88164592     1.79973796
   -19.51323093    -6.56149075    -0.06179435
   -20.15937716    -1.18802692    -1.87675492
   -15.93770590     3.59379736    -3.89145410
    -6.55911284     7.19372996    -6.30771594
    -1.76192915     3.01785297    -6.95388605
     3.65313784     0.79522206    -4.61373220
     0.00000000     0.00000000     0.00000000
     0.00000000     0.00000000     0.00000000
     0.00000000     0.00000000     0.00000000
     0.00000000     0.00000000     0.00000000
     0.00000000     0.00000000     0.00000000
     0.00000000     0.00000000     0.00000000
     0.00000000     0.00000000     0.00000000
     0.00000000     0.00000000     0.00000000
     0.00000000     0.00000000     0.00000000
     0.00000000     0.00000000     0.00000000
     0.00000000     0.00000000     0.00000000
     0.00000000     0.00000000     0.00000000
     0.00000000     0.00000000     0.00000000
     0.00000000     0.00000000     0.00000000
     0.00000000     0.00000000     0.00000000
     0.00000000     0.00000000     0.00000000
     0.00000000     0.00000000     0.00000000
     0.00000000     0.00000000     0.00000000
     0.00000000     0.00000000     0.00000000
    -3.11037402     6.21668496     4.63371998
    -9.02207960     7.63862570     2.78610440
   -12.35881571     5.57992496     1.35795156
   -13.19723525     1.95076706    -0.34306148
   -12.36897577    -0.58344168    -1.26352854
    -6.36457949    -6.78548146    -2.24567330
    -4.87393403    -4.47873685    -3.58088843
    -3.23061100    -4.09929870    -5.82500776
     0.00000000     0.00000000     0.00000000
    -2.01242370     9.35794406     6.69115610
    -8.02508378    12.72965729     1.54307625
   -12.09789115     8.02735514    -1.35047825
   -10.70747864     2.22875985    -2.03021661
    -3.34143235    -2.98243578    -0.32716201
     2.96642362    -7.24908744    -0.23923921
     5.35342035    -5.98215362    -4.75827974
     6.37385914    -3.44482544   -11.57670156
     0.00000000     0.00000000     0.00000000
     2.13692825     6.02350356     8.21740658
     5.40436025     8.18756430     4.77063395
     7.61786910     3.70428043     1.09860223
    10.35233649    -1.45249312     0.00075407
    11.27800676    -3.65416461     1.28479339
    14.42036895    -4.32333473     2.54156325
     8.45791654    -4.97949586    -3.60970787
    -1.09488826    -3.01060770   -11.66721239
     0.00000000     0.00000000     0.00000000
     5.91166585    -2.71867990     8.39068383
    16.72570199    -4.85071107     7.73805584
    24.72515908    -5.35782051     4.94916443
    25.96796436    -3.65902828     2.02082074
    21.36819173    -0.37911533     0.66520318
    17.53134963     1.66276364     1.95011011
     9.59180744    -0.14659167    -3.25596582
    -5.55320422     0.67098967    -6.62356545
     0.00000000     0.00000000     0.00000000
     5.07291257   -12.20852809     6.22057636
    12.10370265   -16.26454676     3.05456147
    14.94975642   -11.00433749    -1.16020764
    14.91319576    -2.94769976    -3.84065951
    12.10027428     5.42378174    -2.24439181
    11.48657362     9.69685748     1.38237108
     7.12835787     6.50761134    -5.24910736
     0.00000000     0.00000000     0.00000000
     0.00000000     0.00000000     0.00000000
     1.58857641   -18.74356496     5.44386216
     0.23123579   -20.68395032     0.92330661
    -2.99620980   -12.33270624    -3.19705359
    -4.49837974    -2.21025987    -5.21579832
    -0.55462124     9.11701480    -2.77811402
     2.42564992    16.68886748    -0.69948079
     2.45454874    11.98818614    -3.93586627
    -0.15905181     1.06265898    -5.79578392
     0.00000000     0.00000000     0.00000000
    -3.08972696   -20.32692923     5.70376165
    -9.68669140   -19.27508671     2.63654304
   -13.63073266   -10.84250710     1.69587635
   -12.24073486    -0.52940035     0.45327248
    -7.94740442    10.76747589    -0.68022685
    -1.29440774    19.56785038    -2.65556461
    -2.19436213    14.35643093    -4.10208343
    -2.74843174     2.41663778    -2.76025960
     0.00000000     0.00000000     0.00000000
    -5.71143164   -16.42691024     6.09315462
   -15.61090860   -15.29695415     3.30289599
   -19.43002076    -8.78530800     2.64210188
   -18.02835409     0.07443856     0.14012585
   -11.69379180    11.30389593    -2.81860832
    -7.08276323    18.28886268    -6.40950714
    -1.44093823    12.19182532    -6.98188930
     1.10117419     2.97644768    -5.03398732
     0.00000000     0.00000000     0.00000000
    -4.95281364    -8.67615638     4.46493538
   -12.91291807    -8.86107118     2.93419670
   -17.62627204    -6.59025945     1.88094897
   -19.77321019    -0.59788982    -0.99172616
   -16.70001750     5.82676251    -4.06247384
    -6.97994555    11.57923063    -6.91970255
    -4.41544185     6.77246305    -7.17353651
     1.11105741     4.29149047    -6.60277733
     0.00000000     0.00000000     0.00000000
     0.00000000     0.00000000     0.00000000
     0.00000000     0.00000000     0.00000000
     0.00000000     0.00000000     0.00000000
     0.00000000     0.00000000     0.00000000
     0.00000000     0.00000000     0.00000000
     0.00000000     0.00000000     0.00000000
     0.00000000     0.00000000     0.00000000
     0.00000000     0.00000000     0.00000000
     0.00000000     0.00000000     0.00000000
     0.00000000     0.00000000     0.00000000
     0.00000000     0.00000000     0.00000000
     0.00000000     0.00000000     0.00000000
     0.00000000     0.00000000     0.00000000
     0.00000000     0.00000000     0.00000000
     0.00000000     0.00000000     0.00000000
     0.00000000     0.00000000     0.00000000
     0.00000000     0.00000000     0.00000000
     0.00000000     0.00000000     0.00000000
    -0.60289829     3.50484446     4.18003820
    -2.72817571     4.36584452     2.40177669
    -5.84668827     4.01684481     0.29367719
    -7.18036974     0.57603228    -1.09627206
    -8.42067922    -0.48201883    -2.33621178
    -4.68774586    -5.70371689    -2.07208924
    -2.06470318    -3.28508166    -0.91203776
    -4.80575071    -6.25520686    -4.62763576
     0.00000000     0.00000000     0.00000000
     1.29337710     3.83365269     6.80736095
     0.94887979     6.29464759     3.75206514
    -0.47146075     3.97589725    -0.41376062
    -2.42609646     1.02116115    -2.41730873
    -0.56895478    -2.29069764    -3.44638317
     0.44969611    -5.81739924    -2.06951925
     1.32669629    -5.05869192    -1.57668475
     5.29103827    -5.51867424    -9.37653455
     0.00000000     0.00000000     0.00000000
     3.14652814     1.55433137     8.91475877
     9.68707124     1.80761538     8.71764105
    13.48594296     1.00578004     5.35778332
    14.66552672    -0.72338140     2.69911632
    13.01915863    -0.38842856     0.05293801
    10.50890886    -2.03653010    -0.61696814
     8.18591487    -2.11969263    -1.51500125
    -0.04878786    -3.54233071    -9.31831792
     0.00000000     0.00000000     0.00000000
     5.26229231    -4.21895204     8.93450179
    13.82992042    -6.28970875     9.92447272
    22.06225090    -5.28304366     7.59741283
    23.17275714    -1.53831507     4.18546441
    22.35193783     2.30910908     1.20344345
    13.24338853     5.98297445    -1.17575101
    11.49810383     0.79237590    -2.25339995
     4.30545631    -1.41520556    -6.16954236
     0.00000000     0.00000000     0.00000000
     3.99752127   -10.56209033     6.96606678
    10.96388703   -14.37467973     5.43939524
    14.77002731   -11.32679956     1.03089184
    17.61170129    -4.00128254    -2.22248194
    15.34186148     5.50366409    -4.23265513
    11.41641770    12.25341132    -3.39430247
     6.51150010     9.12718526    -4.82005755
     0.00000000     0.00000000     0.00000000
     0.00000000     0.00000000     0.00000000
     1.75758229   -14.94611197     6.21057079
     2.54297198   -18.48319900     3.89709015
     3.03401650   -14.28558241    -1.75340199
     3.36618955    -5.89682923    -6.52211040
     5.65709812     8.06488251    -8.94463868
     3.60092281    16.88756544    -5.23596122
     5.11703489    15.13973196    -2.11754846
     3.25878344     3.21410296    -6.92754924
     0.00000000     0.00000000     0.00000000
    -1.56339043   -16.15351678     6.57787055
    -4.72455242   -17.82578879     4.75945512
    -8.71658457   -14.47822300     0.09106596
    -8.07794058    -5.00228122    -4.64696603
    -6.16177732     9.06477223    -8.86098213
    -1.84836890    20.22300761    -6.24829909
    -0.58014097    15.81474881    -2.40287893
    -1.49193661     6.45091149    -3.95236750
     0.00000000     0.00000000     0.00000000
    -3.46036928   -13.10500395     6.30939818
    -9.50860883   -14.30076828     5.44919122
   -14.17937405   -11.51641893     2.39366599
   -16.26439972    -4.44381028    -1.07232082
   -13.37730981     9.28380528    -6.20183297
    -8.03196295    18.37671600    -7.18117119
    -2.32249730    14.27224668    -3.92139071
    -0.95310664     6.58772304    -5.80094045
     0.00000000     0.00000000     0.00000000
    -2.93204909    -7.21093684     4.80720368
    -7.85988859    -7.82304650     4.20289686
   -12.48800622    -7.43499995     3.36170988
   -15.50833521    -2.87017611     1.82613467
   -15.31387217     3.25848949    -1.45065376
    -6.01586563    10.63722532    -4.46172094
    -3.03202078     5.65455401    -4.00846006
    -1.70189434     7.56003932    -6.11662804
     0.00000000     0.00000000     0.00000000
     0.00000000     0.00000000     0.00000000
     0.00000000     0.00000000     0.00000000
     0.00000000     0.00000000     0.00000000
     0.00000000     0.00000000     0.00000000
     0.00000000     0.00000000     0.00000000
     0.00000000     0.00000000     0.00000000
     0.00000000     0.00000000     0.00000000
     0.00000000     0.00000000     0.00000000
     0.00000000     0.00000000     0.00000000
     0.00000000     0.00000000     0.00000000
     0.00000000     0.00000000     0.00000000
     0.00000000     0.00000000     0.00000000
     0.00000000     0.00000000     0.00000000
     0.00000000     0.00000000     0.00000000
     0.00000000     0.00000000     0.00000000
     0.00000000     0.00000000     0.00000000
     0.00000000     0.00000000     0.00000000
     0.00000000     0.00000000     0.00000000
     1.09907114     0.52958297     2.51729831
     1.43915492     0.47654852     1.15126154
    -0.44681635     0.19985243    -0.21347259
    -1.59596814    -0.76075574    -1.30398977
    -3.35035595    -1.01084270    -1.27855132
    -2.52893312    -2.88068209    -1.54245267
     0.23220873    -0.81064234    -0.02388451
    -3.18510637    -4.49164937    -1.59729479
     0.00000000     0.00000000     0.00000000
     2.80797554     0.06302171     4.65635176
     5.54236925     0.18298330     3.22646615
     5.36386257    -0.68765037     1.08446643
     3.65150389    -1.14050577    -1.13187013
     0.65335002    -0.99735981    -1.85118759
    -0.38039666    -4.42016092    -2.01223791
    -0.82485047    -0.80859312     0.35207216
     2.25307165    -3.67124768    -3.65526034
     0.00000000     0.00000000     0.00000000
     3.99387481    -0.74802929     6.25627572
    10.27170303    -0.69216844     6.88071894
    12.54571465     0.04237845     5.37049077
    12.08721483     0.78689103     2.79974396
     8.73326888     2.15730882     0.20528048
     3.00244437    -0.96268327    -0.19409931
     1.43287369    -0.11866001    -0.18538106
     1.08162134    -3.01890007    -4.20916239
     0.00000000     0.00000000     0.00000000
     4.72324075    -2.34830330     6.67541060
    12.22539874    -2.10003602     7.89343232
    16.60355771     0.52586496     6.29072456
    16.90487603     4.26847553     4.00300464
    12.90171937     7.12423092     0.48827705
     7.25087442     6.45813146     0.97874066
    -1.54230848     4.10528630    -0.49323140
    10.71338254    -2.74948752    -3.47459004
     0.00000000     0.00000000     0.00000000
     4.78149492    -5.16030958     6.23051819
    11.98608016    -5.09619156     6.03205279
    15.67169112    -1.44061601     3.77594804
    16.50336687     5.17122204    -0.14688502
    12.03923071    12.28580812    -2.14149158
     3.49939625    13.45133595    -1.60949513
     1.43478232     7.86185886    -2.07693256
     0.00000000     0.00000000     0.00000000
     0.00000000     0.00000000     0.00000000
     3.12071340    -7.59685893     5.70536297
     7.49595792    -8.44242479     4.95303498
    10.19749735    -5.81760827     1.62287416
     9.46294174     2.11228701    -4.08350083
     6.45033793    13.04697107    -6.26526760
     0.59015803    19.45487537    -4.66397384
     1.59629113     5.05778591     0.79604420
     3.83773398     8.20601256    -6.31822993
     0.00000000     0.00000000     0.00000000
     1.47772826    -8.29776985     5.59289883
     2.83114612    -9.92038264     4.93343169
     1.41919403    -9.37711776     2.15410870
    -1.16129288    -2.89325250    -4.07732372
    -4.40191107     9.39740178    -7.35049084
    -3.63537372    19.21304321    -6.78935672
    -1.58941189     7.62154400     0.59853539
     0.05172891    10.84690824    -4.58889620
     0.00000000     0.00000000     0.00000000
    -0.04350285    -7.06739682     5.15166012
    -1.36643513    -8.72991159     4.70063946
    -3.97790347    -8.87712347     3.65074891
    -9.04390344    -5.85553887    -0.10969971
   -10.55380589     3.80227166    -2.75337262
    -7.95011405    13.65307651    -6.22774497
    -1.98165154     6.64213342     0.96896351
    -1.22317342     8.13034946    -4.82417118
     0.00000000     0.00000000     0.00000000
    -0.50366088    -3.85916629     3.40262027
    -2.19946983    -4.80759432     3.23163856
    -4.75898535    -5.42273081     3.33212282
    -7.87689174    -3.80362631     2.23544311
    -9.46314306    -0.36053776     1.23630484
    -3.89825005     6.00679564    -2.92298256
    -2.19129550     2.13826313     0.57290960
    -1.56872477     6.35906287    -3.22875513
     0.00000000     0.00000000     0.00000000
     0.00000000     0.00000000     0.00000000
     0.00000000     0.00000000     0.00000000
     0.00000000     0.00000000     0.00000000
     0.00000000     0.00000000     0.00000000
     0.00000000     0.00000000     0.00000000
     0.00000000     0.00000000     0.00000000
     0.00000000     0.00000000     0.00000000
     0.00000000     0.00000000     0.00000000
     0.00000000     0.00000000     0.00000000
     0.00000000     0.00000000     0.00000000
     0.00000000     0.00000000     0.00000000
     0.00000000     0.00000000     0.00000000
     0.00000000     0.00000000     0.00000000
     0.00000000     0.00000000     0.00000000
     0.00000000     0.00000000     0.00000000
     0.00000000     0.00000000     0.00000000
     0.00000000     0.00000000     0.00000000
     0.00000000     0.00000000     0.00000000
     0.00000000     0.00000000     0.00000000
     0.00000000     0.00000000     0.00000000
     0.00000000     0.00000000     0.00000000
     0.00000000     0.00000000     0.00000000
     0.00000000     0.00000000     0.00000000
     0.00000000     0.00000000     0.00000000
     0.00000000     0.00000000     0.00000000
     0.00000000     0.00000000     0.00000000
     0.00000000     0.00000000     0.00000000
     0.00000000     0.00000000     0.00000000
     0.00000000     0.00000000     0.00000000
     0.00000000     0.00000000     0.00000000
     0.00000000     0.00000000     0.00000000
     0.00000000     0.00000000     0.00000000
     0.00000000     0.00000000     0.00000000
     0.00000000     0.00000000     0.00000000
     0.00000000     0.00000000     0.00000000
     0.00000000     0.00000000     0.00000000
     0.00000000     0.00000000     0.00000000
     0.00000000     0.00000000     0.00000000
     0.00000000     0.00000000     0.00000000
     0.00000000     0.00000000     0.00000000
     0.00000000     0.00000000     0.00000000
     0.00000000     0.00000000     0.00000000
     0.00000000     0.00000000     0.00000000
     0.00000000     0.00000000     0.00000000
     0.00000000     0.00000000     0.00000000
     0.00000000     0.00000000     0.00000000
     0.00000000     0.00000000     0.00000000
     0.00000000     0.00000000     0.00000000
     0.00000000     0.00000000     0.00000000
     0.00000000     0.00000000     0.00000000
     0.00000000     0.00000000     0.00000000
     0.00000000     0.00000000     0.00000000
     0.00000000     0.00000000     0.00000000
     0.00000000     0.00000000     0.00000000
     0.00000000     0.00000000     0.00000000
     0.00000000     0.00000000     0.00000000
     0.00000000     0.00000000     0.00000000
     0.00000000     0.00000000     0.00000000
     0.00000000     0.00000000     0.00000000
     0.00000000     0.00000000     0.00000000
     0.00000000     0.00000000     0.00000000
     0.00000000     0.00000000     0.00000000
     0.00000000     0.00000000     0.00000000
     0.00000000     0.00000000     0.00000000
     0.00000000     0.00000000     0.00000000
     0.00000000     0.00000000     0.00000000
     0.00000000     0.00000000     0.00000000
     0.00000000     0.00000000     0.00000000
     0.00000000     0.00000000     0.00000000
     0.00000000     0.00000000     0.00000000
     0.00000000     0.00000000     0.00000000
     0.00000000     0.00000000     0.00000000
     0.00000000     0.00000000     0.00000000
     0.00000000     0.00000000     0.00000000
     0.00000000     0.00000000     0.00000000
     0.00000000     0.00000000     0.00000000
     0.00000000     0.00000000     0.00000000
     0.00000000     0.00000000     0.00000000
     0.00000000     0.00000000     0.00000000
     0.00000000     0.00000000     0.00000000
     0.00000000     0.00000000     0.00000000
     0.00000000     0.00000000     0.00000000
     0.00000000     0.00000000     0.00000000
     0.00000000     0.00000000     0.00000000
     0.00000000     0.00000000     0.00000000
     0.00000000     0.00000000     0.00000000
     0.00000000     0.00000000     0.00000000
     0.00000000     0.00000000     0.00000000
     0.00000000     0.00000000     0.00000000
     0.00000000     0.00000000     0.00000000
     0.00000000     0.00000000     0.00000000
     0.00000000     0.00000000     0.00000000
     0.00000000     0.00000000     0.00000000
     0.00000000     0.00000000     0.00000000
     0.00000000     0.00000000     0.00000000
     0.00000000     0.00000000     0.00000000
     0.00000000     0.00000000     0.00000000
     0.00000000     0.00000000     0.00000000
     0.00000000     0.00000000     0.00000000
     0.00000000     0.00000000     0.00000000
     0.00000000     0.00000000     0.00000000
     0.00000000     0.00000000     0.00000000
     0.00000000     0.00000000     0.00000000
     0.00000000     0.00000000     0.00000000
     0.00000000     0.00000000     0.00000000
     0.00000000     0.00000000     0.00000000
     0.00000000     0.00000000     0.00000000
     0.00000000     0.00000000     0.00000000
     0.00000000     0.00000000     0.00000000
     0.00000000     0.00000000     0.00000000
     0.00000000     0.00000000     0.00000000
     0.00000000     0.00000000     0.00000000
     0.00000000     0.00000000     0.00000000
     0.00000000     0.00000000     0.00000000
     0.00000000     0.00000000     0.00000000
     0.00000000     0.00000000     0.00000000
     0.00000000     0.00000000     0.00000000
     0.00000000     0.00000000     0.00000000
    -3.33606961     1.93368858     0.00000000
    -6.45182450    -3.30976915     0.00000000
    -6.43342734    -0.38602164     0.00000000
    -6.43732508    -1.61062135     0.00000000
    -6.17240733    -2.06539231     0.00000000
    -5.32665321    -2.72319785     0.00000000
    -3.98862235    -2.95427170     0.00000000
    -2.44045418    -2.93936815     0.00000000
    -0.91883879    -2.28437421     0.00000000
    -0.11220368    -1.08528693     0.00000000
     0.00000000     0.00000000     0.00000000
    -5.89500186     2.19555860     0.00000000
    -1.67783239     1.95367504     0.00000000
    -3.79315597     0.95788698     0.00000000
    -3.32098394     0.19617478     0.00000000
    -2.82984807    -0.81610706     0.00000000
    -2.17502813    -2.56036150     0.00000000
    -1.29382855    -4.17096823     0.00000000
    -0.44152090    -5.32366733     0.00000000
     0.19288302    -5.15034349     0.00000000
     0.48457170    -3.31099697     0.00000000
     0.00000000     0.00000000     0.00000000
     3.52437960    -3.51980916     0.00000000
     2.31227975    -0.73206531     0.00000000
     4.69733120     1.97562915     0.00000000
     3.79129723     3.77648625     0.00000000
     3.60069527     3.02670662     0.00000000
     3.68047246     1.21539062     0.00000000
     4.06968945    -1.24936592     0.00000000
     3.84628766    -3.24439707     0.00000000
     3.02548144    -4.17436691     0.00000000
     1.51131336    -3.28462866     0.00000000
     0.00000000     0.00000000     0.00000000
     7.83134843    -6.93449119     0.00000000
     7.54303498    -3.32485247     0.00000000
     2.97246957     0.36679316     0.00000000
     2.35858501     2.41102853     0.00000000
     3.46213144     2.58149624     0.00000000
     4.67163409     2.18831717     0.00000000
     5.21114353     1.05616469     0.00000000
     4.59890464    -0.06804944     0.00000000
     3.03971880    -0.91120844     0.00000000
     1.11202133    -0.93367158     0.00000000
     0.00000000     0.00000000     0.00000000
     0.00000000     0.00000000     0.00000000
     0.00000000     0.00000000     0.00000000
     0.00000000     0.00000000     0.00000000
     0.00000000     0.00000000     0.00000000
     0.00000000     0.00000000     0.00000000
     0.00000000     0.00000000     0.00000000
     0.00000000     0.00000000     0.00000000
     0.00000000     0.00000000     0.00000000
     0.00000000     0.00000000     0.00000000
     0.00000000     0.00000000     0.00000000
     0.00000000     0.00000000     0.00000000
     0.00000000     0.00000000     0.00000000
     0.00000000     0.00000000     0.00000000
     0.00000000     0.00000000     0.00000000
     0.00000000     0.00000000     0.00000000
     0.00000000     0.00000000     0.00000000
     0.00000000     0.00000000     0.00000000
     0.00000000     0.00000000     0.00000000
     0.00000000     0.00000000     0.00000000
     0.00000000     0.00000000     0.00000000
     0.00000000     0.00000000     0.00000000
     0.00000000     0.00000000     0.00000000
    -1.93284419     0.99304133     0.64597188
    -6.12063195    -3.40092907    -0.69858947
    -5.73560926    -0.28143893    -0.42588439
    -6.06002349    -1.36879910    -0.08369450
    -5.84163331    -1.81193804    -0.15966096
    -5.07641731    -2.42110295    -0.04407995
    -3.92745908    -2.66658542    -0.04722152
    -2.36648556    -2.64360862     0.00099331
    -0.97112262    -2.05975939     0.00646150
    -0.09660360    -0.93469458     0.03949046
     0.00000000     0.00000000     0.00000000
    -4.45758813     0.63257674     0.13852721
    -1.75969052     1.14192047     0.07524376
    -3.40705466     0.95095499    -0.08451645
    -2.98554077     0.33579888    -0.68687628
    -2.85231461    -0.65541825    -0.97154990
    -2.24048209    -2.33935331    -0.98439429
    -1.52924196    -3.94466112    -0.66297748
    -0.65180448    -5.03053611    -0.26613522
     0.00899610    -4.84645348     0.07717242
     0.35378519    -3.07585076     0.16056056
     0.00000000     0.00000000     0.00000000
     2.62767390    -3.59833679     1.57027030
     1.84501406    -1.15409864     1.21440939
     4.59989413     1.62086033     1.09411158
     3.86692314     3.58534459     0.18469081
     3.47529808     2.83461003    -0.64257276
     3.67398129     1.09258844    -0.97522569
     3.78138143    -1.36946173    -0.68255116
     3.59888984    -3.26151154    -0.10155669
     2.72503628    -4.10284912     0.46671833
     1.38698453    -3.17455282     0.56535618
     0.00000000     0.00000000     0.00000000
     7.25412605    -6.16924006    -0.92629364
     6.56641218    -3.31092433     0.27504296
     2.71942289     0.24909794     0.53617509
     2.17726371     2.07570896     0.22398870
     3.39395052     2.35022487    -0.10965094
     4.51569967     1.94528868    -0.03152829
     4.96572779     0.83322929     0.12345343
     4.32552754    -0.24174705     0.45857522
     2.82570296    -1.02349098     0.72947361
     1.04811535    -0.98944592     0.73430891
     0.00000000     0.00000000     0.00000000
     0.00000000     0.00000000     0.00000000
     0.00000000     0.00000000     0.00000000
     0.00000000     0.00000000     0.00000000
     0.00000000     0.00000000     0.00000000
     0.00000000     0.00000000     0.00000000
     0.00000000     0.00000000     0.00000000
     0.00000000     0.00000000     0.00000000
     0.00000000     0.00000000     0.00000000
     0.00000000     0.00000000     0.00000000
     0.00000000     0.00000000     0.00000000
     0.00000000     0.00000000     0.00000000
     0.00000000     0.00000000     0.00000000
     0.00000000     0.00000000     0.00000000
     0.00000000     0.00000000     0.00000000
     0.00000000     0.00000000     0.00000000
     0.00000000     0.00000000     0.00000000
     0.00000000     0.00000000     0.00000000
     0.00000000     0.00000000     0.00000000
     0.00000000     0.00000000     0.00000000
     0.00000000     0.00000000     0.00000000
     0.00000000     0.00000000     0.00000000
     0.00000000     0.00000000     0.00000000
    -1.07992728    -1.41070648     2.90040482
    -4.28232371    -3.75216620    -1.25043072
    -4.41748965    -0.11107408    -0.69603197
    -4.74277885    -0.93254770    -0.21022560
    -4.81113609    -1.23152184    -0.23124731
    -4.44669892    -1.79097658    -0.04471680
    -3.49886661    -1.99558753    -0.12378113
    -2.25595316    -2.03589224    -0.03113885
    -0.91306808    -1.55677359    -0.07031786
    -0.16260588    -0.66610899     0.04238219
     0.00000000     0.00000000     0.00000000
    -2.27512364    -1.60274114     0.47205827
    -0.48739251    -0.66894817    -0.15601879
    -2.42526610     0.56902799     0.18833661
    -2.31037443     0.51151228    -0.87337059
    -2.38981062    -0.25594457    -1.28670754
    -2.32614837    -1.83863280    -1.37587269
    -1.82759227    -3.24950083    -0.97082593
    -1.08731347    -4.20544128    -0.37972550
    -0.35739719    -3.97233259     0.09848873
     0.17637712    -2.41882565     0.19594477
     0.00000000     0.00000000     0.00000000
     1.75893804    -3.34833410     1.83703603
     1.74056517    -1.91221290     1.03282595
     3.92507392     0.76505573     1.82443192
     3.34587803     2.87747325     0.26794409
     3.28624172     2.41218906    -0.88953489
     3.03309470     0.74775568    -1.33040222
     3.00015777    -1.52105820    -0.90795215
     2.57556237    -3.16161855    -0.00841842
     1.95940679    -3.72956809     0.77284707
     1.03008286    -2.76625754     0.86454652
     0.00000000     0.00000000     0.00000000
     5.22374675    -4.81448475    -1.06066847
     5.35548441    -2.41489883     0.64677225
     1.95071533    -0.27195016     0.63185205
     1.93083056     1.58159319     0.14219626
     3.05435616     1.83566866    -0.26725407
     3.96480988     1.42876557    -0.03589332
     4.17696586     0.37153981     0.20135570
     3.45921826    -0.58790295     0.74869922
     2.19538443    -1.20767849     1.10406776
     0.83570065    -1.07377968     1.13471733
     0.00000000     0.00000000     0.00000000
     0.00000000     0.00000000     0.00000000
     0.00000000     0.00000000     0.00000000
     0.00000000     0.00000000     0.00000000
     0.00000000     0.00000000     0.00000000
     0.00000000     0.00000000     0.00000000
     0.00000000     0.00000000     0.00000000
     0.00000000     0.00000000     0.00000000
     0.00000000     0.00000000     0.00000000
     0.00000000     0.00000000     0.00000000
     0.00000000     0.00000000     0.00000000
     0.00000000     0.00000000     0.00000000
     0.00000000     0.00000000     0.00000000
     0.00000000     0.00000000     0.00000000
     0.00000000     0.00000000     0.00000000
     0.00000000     0.00000000     0.00000000
     0.00000000     0.00000000     0.00000000
     0.00000000     0.00000000     0.00000000
     0.00000000     0.00000000     0.00000000
     0.00000000     0.00000000     0.00000000
     0.00000000     0.00000000     0.00000000
     0.00000000     0.00000000     0.00000000
     0.00000000     0.00000000     0.00000000
    -0.08894299    -1.31196186     4.28849397
    -2.28105086    -3.97715848    -0.44421870
    -2.25291689    -0.09969726    -1.38761276
    -2.78276262    -0.63217931     0.03293748
    -3.32164894    -0.71455027    -0.24843899
    -3.20904620    -1.09660797     0.01011035
    -2.72513882    -1.24635528    -0.18798156
    -1.77058963    -1.28465210    -0.07510916
    -0.80836795    -1.00489748    -0.17428951
    -0.14536912    -0.35085644    -0.00283765
     0.00000000     0.00000000     0.00000000
     0.54067969    -1.03411224    -0.27148260
     0.38393896    -2.79484294     0.62280022
    -1.48361990     0.12729286    -0.01137957
    -0.92228363     0.41958574    -0.59734510
    -1.62997582     0.02749356    -0.77537765
    -1.89109728    -1.17825311    -1.11402795
    -1.86235488    -2.23375273    -0.75669035
    -1.31052205    -2.93093075    -0.35801443
    -0.64320212    -2.71155372     0.07604848
    -0.07915222    -1.55293421     0.06225157
     0.00000000     0.00000000     0.00000000
     1.38543117    -1.15582976     0.84239421
     1.08360375    -2.35576161     1.03274640
     2.49679569    -0.51297353     1.24347764
     2.75961101     2.08756621     0.17273145
     2.36482145     1.68409600    -0.56514455
     2.03307451     0.46746926    -1.05895343
     1.56220381    -1.37186221    -0.56700647
     1.19818386    -2.50642295     0.10039907
     0.82110245    -2.80971034     0.76873414
     0.50561307    -1.99220525     0.69816456
     0.00000000     0.00000000     0.00000000
     3.29285444    -3.76021150    -1.66717399
     3.69141439    -1.39650095     1.66580699
     1.61333848    -0.50174255     0.02481895
     1.44817053     1.16728833     0.07459154
     2.29882314     1.25166708    -0.40729651
     2.82611028     0.89057249     0.02793799
     2.79566357     0.00326885     0.19394685
     2.10683003    -0.69997542     0.77869290
     1.21854790    -1.12419489     0.96574205
     0.49122181    -0.97840050     1.01967235
     0.00000000     0.00000000     0.00000000
     0.00000000     0.00000000     0.00000000
     0.00000000     0.00000000     0.00000000
     0.00000000     0.00000000     0.00000000
     0.00000000     0.00000000     0.00000000
     0.00000000     0.00000000     0.00000000
     0.00000000     0.00000000     0.00000000
     0.00000000     0.00000000     0.00000000
     0.00000000     0.00000000     0.00000000
     0.00000000     0.00000000     0.00000000
     0.00000000     0.00000000     0.00000000
     0.00000000     0.00000000     0.00000000
     0.00000000     0.00000000     0.00000000
     0.00000000     0.00000000     0.00000000
     0.00000000     0.00000000     0.00000000
     0.00000000     0.00000000     0.00000000
     0.00000000     0.00000000     0.00000000
     0.00000000     0.00000000     0.00000000
     0.00000000     0.00000000     0.00000000
     0.00000000     0.00000000     0.00000000
     0.00000000     0.00000000     0.00000000
     0.00000000     0.00000000     0.00000000
     0.00000000     0.00000000     0.00000000
    -2.66589525    -1.90464793     6.93905194
    -0.56546073    -2.11531788    -0.30801848
     0.14371636    -0.04956715    -0.88966149
    -1.34608226    -0.32866450     0.19736299
    -1.46245501    -0.31107772    -0.15923565
    -1.69589009    -0.49572048     0.07779958
    -1.44512713    -0.57867903    -0.17393648
    -1.04797696    -0.59735018    -0.07436859
    -0.43010838    -0.44424965    -0.17707805
    -0.11320968    -0.18117922    -0.05382938
     0.00000000     0.00000000     0.00000000
    -1.30861729     1.52402362     2.06592915
     0.36705961    -2.88362216     0.83541722
    -0.20662772     0.06291622    -0.45068583
    -0.11630898     0.04166015    -0.03330431
    -0.58402526     0.14812396    -0.26200005
    -0.97690303    -0.54229995    -0.37040317
    -1.24286019    -1.02167347    -0.30639691
    -0.99470009    -1.44429549    -0.20806345
    -0.52810890    -1.23583296    -0.01227868
    -0.03829075    -0.69927839    -0.06344196
     0.00000000     0.00000000     0.00000000
    -1.23947510     1.98993370     1.06717463
     0.47553385    -1.46449161     0.95902931
     1.68004103    -0.95126415     0.06426457
     1.39848754     0.90240148     0.24823417
     1.39500467     0.73986724    -0.26651877
     0.82825737     0.22051723    -0.30399186
     0.40532654    -0.81830078    -0.14992225
     0.05859704    -1.31328373     0.12291910
     0.08519712    -1.48250629     0.37384599
     0.15963335    -0.93711258     0.26115943
     0.00000000     0.00000000     0.00000000
    -0.36957254    -0.86655575    -1.26229361
     2.46841086    -0.79782724     1.31522264
     1.47974112    -0.11288516    -0.00463573
     0.82022570     0.40630077     0.05580968
     1.23766872     0.64740353    -0.26754970
     1.39474021     0.33865733     0.06779894
     1.21892465    -0.04291710     0.14376788
     0.76684384    -0.46623986     0.47450007
     0.37954048    -0.64552457     0.50934713
     0.12404974    -0.54948659     0.49086027
     0.00000000     0.00000000     0.00000000
     0.00000000     0.00000000     0.00000000
     0.00000000     0.00000000     0.00000000
     0.00000000     0.00000000     0.00000000
     0.00000000     0.00000000     0.00000000
     0.00000000     0.00000000     0.00000000
     0.00000000     0.00000000     0.00000000
     0.00000000     0.00000000     0.00000000
     0.00000000     0.00000000     0.00000000
     0.00000000     0.00000000     0.00000000
     0.00000000     0.00000000     0.00000000
     0.00000000     0.00000000     0.00000000
     0.00000000     0.00000000     0.00000000
     0.00000000     0.00000000     0.00000000
     0.00000000     0.00000000     0.00000000
     0.00000000     0.00000000     0.00000000
     0.00000000     0.00000000     0.00000000
     0.00000000     0.00000000     0.00000000
     0.00000000     0.00000000     0.00000000
     0.00000000     0.00000000     0.00000000
     0.00000000     0.00000000     0.00000000
     0.00000000     0.00000000     0.00000000
     0.00000000     0.00000000     0.00000000
     0.00000000     0.00000000     0.00000000
     0.00000000     0.00000000     0.00000000
     0.00000000     0.00000000     0.00000000
     0.00000000     0.00000000     0.00000000
     0.00000000     0.00000000     0.00000000
     0.00000000     0.00000000     0.00000000
     0.00000000     0.00000000     0.00000000
     0.00000000     0.00000000     0.00000000
     0.00000000     0.00000000     0.00000000
     0.00000000     0.00000000     0.00000000
     0.00000000     0.00000000     0.00000000
     0.00000000     0.00000000     0.00000000
     0.00000000     0.00000000     0.00000000
     0.00000000     0.00000000     0.00000000
     0.00000000     0.00000000     0.00000000
     0.00000000     0.00000000     0.00000000
     0.00000000     0.00000000     0.00000000
     0.00000000     0.00000000     0.00000000
     0.00000000     0.00000000     0.00000000
     0.00000000     0.00000000     0.00000000
     0.00000000     0.00000000     0.00000000
     0.00000000     0.00000000     0.00000000
     0.00000000     0.00000000     0.00000000
     0.00000000     0.00000000     0.00000000
     0.00000000     0.00000000     0.00000000
     0.00000000     0.00000000     0.00000000
     0.00000000     0.00000000     0.00000000
     0.00000000     0.00000000     0.00000000
     0.00000000     0.00000000     0.00000000
     0.00000000     0.00000000     0.00000000
     0.00000000     0.00000000     0.00000000
     0.00000000     0.00000000     0.00000000
     0.00000000     0.00000000     0.00000000
     0.00000000     0.00000000     0.00000000
     0.00000000     0.00000000     0.00000000
     0.00000000     0.00000000     0.00000000
     0.00000000     0.00000000     0.00000000
     0.00000000     0.00000000     0.00000000
     0.00000000     0.00000000     0.00000000
     0.00000000     0.00000000     0.00000000
     0.00000000     0.00000000     0.00000000
     0.00000000     0.00000000     0.00000000
     0.00000000     0.00000000     0.00000000
     0.00000000     0.00000000     0.00000000
     0.00000000     0.00000000     0.00000000
     0.00000000     0.00000000     0.00000000
     0.00000000     0.00000000     0.00000000
     0.00000000     0.00000000     0.00000000
     0.00000000     0.00000000     0.00000000
     0.00000000     0.00000000     0.00000000
     0.00000000     0.00000000     0.00000000
     0.00000000     0.00000000     0.00000000
     0.00000000     0.00000000     0.00000000
     0.00000000     0.00000000     0.00000000
     0.00000000     0.00000000     0.00000000
     0.00000000     0.00000000     0.00000000
     0.00000000     0.00000000     0.00000000
     0.00000000     0.00000000     0.00000000
     0.00000000     0.00000000     0.00000000
     0.00000000     0.00000000     0.00000000
     0.00000000     0.00000000     0.00000000
     0.00000000     0.00000000     0.00000000
     0.00000000     0.00000000     0.00000000
    -3.13637808     3.27945746     0.00000000
     2.98321824     9.38547521     0.00000000
     7.81354386    -0.15645995     0.00000000
     8.23726464    -3.82721150     0.00000000
     4.16780110    -3.58776356     0.00000000
     1.78607228    -2.04403766     0.00000000
    -0.34608545    -0.24774573     0.00000000
     0.22052523     0.51699067     0.00000000
     0.00000000     0.00000000     0.00000000
     6.86835636     4.92117034     0.00000000
     7.07425662    14.73816280     0.00000000
     3.50630121     4.58766037     0.00000000
     3.00947339    -4.26254909     0.00000000
     2.84345887    -6.30955875     0.00000000
     1.91535459    -4.62537992     0.00000000
     1.49118543    -1.64175391     0.00000000
     0.64047571     0.60660078     0.00000000
     0.00000000     0.00000000     0.00000000
     8.02662341     0.69957744     0.00000000
     3.19359378     9.02193350     0.00000000
    -1.13511528     4.38373201     0.00000000
    -3.28240803    -1.10904493     0.00000000
    -1.69364542    -4.17066946     0.00000000
    -0.00766431    -3.68341982     0.00000000
     1.11895676    -1.85024126     0.00000000
     0.63488497    -0.13873248     0.00000000
     0.00000000     0.00000000     0.00000000
     0.72500668    -1.74334297     0.00000000
     1.37139124     2.57575629     0.00000000
    -2.30996027     1.55095096     0.00000000
    -3.28836909     0.24858486     0.00000000
    -2.48156486    -0.73721630     0.00000000
    -0.97249645    -1.11755302     0.00000000
     0.18976169    -0.62991458     0.00000000
     0.11054471    -0.27340587     0.00000000
     0.00000000     0.00000000     0.00000000
     0.00000000     0.00000000     0.00000000
     0.00000000     0.00000000     0.00000000
     0.00000000     0.00000000     0.00000000
     0.00000000     0.00000000     0.00000000
     0.00000000     0.00000000     0.00000000
     0.00000000     0.00000000     0.00000000
     0.00000000     0.00000000     0.00000000
     0.00000000     0.00000000     0.00000000
     0.00000000     0.00000000     0.00000000
     0.00000000     0.00000000     0.00000000
     0.00000000     0.00000000     0.00000000
     0.00000000     0.00000000     0.00000000
     0.00000000     0.00000000     0.00000000
     0.00000000     0.00000000     0.00000000
     0.00000000     0.00000000     0.00000000
     0.00000000     0.00000000     0.00000000
     0.00000000     0.00000000     0.00000000
     0.00000000     0.00000000     0.00000000
    -3.91873612     3.32077917     3.49928138
     0.78419170     8.93799968     0.99651894
     7.96050301    -0.36166507    -0.19998990
     6.50411208    -3.58267277     0.29741918
     4.13447846    -3.29029233     0.33730118
     0.63393003    -1.67676291     0.41587014
     0.04577429    -0.26107543     0.15170348
    -0.35911149     0.58613724     0.20429466
     0.00000000     0.00000000     0.00000000
     5.14310503     4.09797713     1.90464344
     6.42073223    14.77251113     0.21262501
     2.63669852     3.95634287    -0.76509453
     2.59526912    -3.93722805    -0.47555627
     1.88881999    -5.77660563     0.09162677
     1.52354659    -3.97760751     0.33670459
     0.89183811    -1.30516676     0.38567923
     0.65421823     0.62378326     0.44336067
     0.00000000     0.00000000     0.00000000
     6.99442309     0.67639332     0.58500115
     3.59800775     8.40410377    -0.52830599
    -1.53816000     4.58275486    -0.37196693
    -3.35085654    -1.09471722    -0.58359685
    -2.11935249    -3.46637058    -0.05779841
    -0.17941773    -3.23865503     0.18785292
     0.72251019    -1.37473702     0.44672114
     0.63578607    -0.02447501     0.57196763
     0.00000000     0.00000000     0.00000000
     0.81627170    -1.77810786    -0.47810775
     1.53304512     2.46901096     0.49486763
    -2.09897802     1.48723643     0.12353136
    -3.19239594     0.49987747     0.27542472
    -2.51817483    -0.55268888     0.00743454
    -0.93911199    -0.85107203     0.22553889
    -0.02986626    -0.42335268     0.22351832
     0.18191982    -0.16411091     0.42201232
     0.00000000     0.00000000     0.00000000
     0.00000000     0.00000000     0.00000000
     0.00000000     0.00000000     0.00000000
     0.00000000     0.00000000     0.00000000
     0.00000000     0.00000000     0.00000000
     0.00000000     0.00000000     0.00000000
     0.00000000     0.00000000     0.00000000
     0.00000000     0.00000000     0.00000000
     0.00000000     0.00000000     0.00000000
     0.00000000     0.00000000     0.00000000
     0.00000000     0.00000000     0.00000000
     0.00000000     0.00000000     0.00000000
     0.00000000     0.00000000     0.00000000
     0.00000000     0.00000000     0.00000000
     0.00000000     0.00000000     0.00000000
     0.00000000     0.00000000     0.00000000
     0.00000000     0.00000000     0.00000000
     0.00000000     0.00000000     0.00000000
     0.00000000     0.00000000     0.00000000
    -9.41874024     2.24004892     6.77722175
    -0.82950205     8.23242288     0.59999572
     4.90524684    -0.55899075    -0.08186920
     4.98142533    -2.91374006     0.18020621
     1.60888601    -2.24624852     0.76814276
     0.20550063    -1.10884134     0.39501748
    -0.95388571     0.07550690     0.26121424
    -0.05936596     0.38994966     0.23201276
     0.00000000     0.00000000     0.00000000
     1.61543314     0.93953073     2.98326442
     3.56244945    13.99750205     0.00970585
     1.23213114     3.25243735    -1.01847578
     0.60445416    -3.26018185    -0.58137425
     0.40900759    -3.97540033     0.20530115
    -0.09437836    -2.52349355     0.48443239
     0.20405628    -0.54314786     0.50836412
     0.15259198     0.70775359     0.62672318
     0.00000000     0.00000000     0.00000000
     4.68681266    -1.51197171     0.00680137
     3.62300019     7.97587594    -0.37351625
    -1.89777084     4.06341114    -0.36552656
    -3.84971913    -0.27008926    -0.70038220
    -2.46996256    -2.36306606    -0.14546207
    -0.99178696    -1.80567577     0.35494983
     0.18157106    -0.57505910     0.58654379
     0.28789628     0.34049060     0.85824001
     0.00000000     0.00000000     0.00000000
     2.01808649    -1.14924175    -1.05674033
     1.97812526     1.62185094     0.91628078
    -1.72920600     1.71446715     0.65626599
    -2.98647790     0.76471350     0.10271974
    -2.33695422    -0.12622994     0.24845005
    -1.23235332    -0.31622062     0.16329925
    -0.08981941    -0.06633561     0.39938235
    -0.05441938     0.13656827     0.60681598
     0.00000000     0.00000000     0.00000000
     0.00000000     0.00000000     0.00000000
     0.00000000     0.00000000     0.00000000
     0.00000000     0.00000000     0.00000000
     0.00000000     0.00000000     0.00000000
     0.00000000     0.00000000     0.00000000
     0.00000000     0.00000000     0.00000000
     0.00000000     0.00000000     0.00000000
     0.00000000     0.00000000     0.00000000
     0.00000000     0.00000000     0.00000000
     0.00000000     0.00000000     0.00000000
     0.00000000     0.00000000     0.00000000
     0.00000000     0.00000000     0.00000000
     0.00000000     0.00000000     0.00000000
     0.00000000     0.00000000     0.00000000
     0.00000000     0.00000000     0.00000000
     0.00000000     0.00000000     0.00000000
     0.00000000     0.00000000     0.00000000
     0.00000000     0.00000000     0.00000000
   -14.98503684     1.12248152     6.23053432
    -4.24077666     7.33210278    -0.08460121
     3.19361539    -0.64629213    -0.59243196
     1.58173991    -1.44665347     0.43551521
     0.34387562    -1.20266809     0.52337770
    -1.12268670    -0.25485160     0.34829304
    -0.77605816     0.16699534     0.10145811
    -0.57219243     0.38627523     0.14598147
     0.00000000     0.00000000     0.00000000
    -1.92385768    -5.04354523     2.18899522
     1.30961861    12.99906352    -0.18584041
    -1.10563174     2.21923888    -0.98840274
    -0.75384596    -1.58598877    -0.30541121
    -1.44713069    -1.88196256     0.20866307
    -1.06205111    -0.92258137     0.34243215
    -0.80491022     0.18324393     0.35604679
    -0.03055228     0.64587045     0.45392152
     0.00000000     0.00000000     0.00000000
     1.05089812    -4.14235456    -1.52848317
     3.77297695     5.95694366     0.81065665
    -2.56814801     4.05019325    -0.16392853
    -3.40195307     0.15669669    -0.50721474
    -2.80423550    -0.79662423    -0.03821157
    -1.46096740    -0.57128409     0.21287890
    -0.52424962     0.21451218     0.49929091
     0.00024346     0.53337826     0.68715061
     0.00000000     0.00000000     0.00000000
     2.93545659    -0.88855986    -2.03897504
     1.46323915     1.22757986     1.98134326
    -1.10661751     1.66805567     0.53291284
    -2.26019888     0.90221573     0.21065755
    -2.28016907     0.22880097     0.21814101
    -0.99914633     0.11906395     0.08492480
    -0.54368226     0.24450481     0.35507600
     0.01385973     0.30928047     0.52025756
     0.00000000     0.00000000     0.00000000
     0.00000000     0.00000000     0.00000000
     0.00000000     0.00000000     0.00000000
     0.00000000     0.00000000     0.00000000
     0.00000000     0.00000000     0.00000000
     0.00000000     0.00000000     0.00000000
     0.00000000     0.00000000     0.00000000
     0.00000000     0.00000000     0.00000000
     0.00000000     0.00000000     0.00000000
     0.00000000     0.00000000     0.00000000
     0.00000000     0.00000000     0.00000000
     0.00000000     0.00000000     0.00000000
     0.00000000     0.00000000     0.00000000
     0.00000000     0.00000000     0.00000000
     0.00000000     0.00000000     0.00000000
     0.00000000     0.00000000     0.00000000
     0.00000000     0.00000000     0.00000000
     0.00000000     0.00000000     0.00000000
     0.00000000     0.00000000     0.00000000
   -14.51730739    -0.28577354     4.52994893
    -3.66788712     5.04810937    -2.17704386
     0.86609388    -0.19188463     0.20792593
     0.16419070    -0.32998629    -0.17424515
    -0.77246437    -0.18373700     0.50440882
    -0.76364606     0.03826018    -0.06122839
    -0.97832809     0.30010289     0.10133006
    -0.20468979     0.17594574    -0.03806135
     0.00000000     0.00000000     0.00000000
    -2.70619640    -6.68071886     0.84230421
    -0.70461053     9.14819811    -0.37662881
    -1.30533992     1.48183522    -0.66738979
    -1.51525244    -0.18718920     0.00726446
    -1.44172016    -0.26895412     0.04576303
    -1.45036910     0.00879141     0.12693364
    -0.78881122     0.40531791     0.08073011
    -0.29965500     0.46458790     0.12014264
     0.00000000     0.00000000     0.00000000
    -0.56444250    -5.46432246    -2.47706175
     1.99210713     4.35057220     1.90775164
    -1.45849219     2.73763330    -0.45934302
    -2.36021742     0.61911239     0.21318632
    -1.96918903     0.02876399    -0.26054997
    -1.32644487     0.22103517     0.21022491
    -0.72530602     0.40794096     0.11375151
    -0.15165021     0.45496793     0.29042307
     0.00000000     0.00000000     0.00000000
     0.44238295    -1.27117227    -1.72805454
     0.21668527     0.97454968     1.45092561
     0.28185674     1.23535025     0.46701853
    -1.77781921     0.55621334     0.23665575
    -1.19421309     0.39158813     0.03829322
    -0.88252651     0.18160294     0.06601987
    -0.39995711     0.30325291     0.15872173
    -0.17158386     0.27584663     0.24992173
     0.00000000     0.00000000     0.00000000
     0.00000000     0.00000000     0.00000000
     0.00000000     0.00000000     0.00000000
     0.00000000     0.00000000     0.00000000
     0.00000000     0.00000000     0.00000000
     0.00000000     0.00000000     0.00000000
     0.00000000     0.00000000     0.00000000
     0.00000000     0.00000000     0.00000000
     0.00000000     0.00000000     0.00000000
     0.00000000     0.00000000     0.00000000
     0.00000000     0.00000000     0.00000000
     0.00000000     0.00000000     0.00000000
     0.00000000     0.00000000     0.00000000
     0.00000000     0.00000000     0.00000000
     0.00000000     0.00000000     0.00000000
     0.00000000     0.00000000     0.00000000
     0.00000000     0.00000000     0.00000000
     0.00000000     0.00000000     0.00000000
     0.00000000     0.00000000     0.00000000
     0.00000000     0.00000000     0.00000000
     0.00000000     0.00000000     0.00000000
     0.00000000     0.00000000     0.00000000
     0.00000000     0.00000000     0.00000000
     0.00000000     0.00000000     0.00000000
     0.00000000     0.00000000     0.00000000
     0.00000000     0.00000000     0.00000000
     0.00000000     0.00000000     0.00000000
     0.00000000     0.00000000     0.00000000
     0.00000000     0.00000000     0.00000000
     0.00000000     0.00000000     0.00000000
     0.00000000     0.00000000     0.00000000
     0.00000000     0.00000000     0.00000000
     0.00000000     0.00000000     0.00000000
     0.00000000     0.00000000     0.00000000
     0.00000000     0.00000000     0.00000000
     0.00000000     0.00000000     0.00000000
     0.00000000     0.00000000     0.00000000
     0.00000000     0.00000000     0.00000000
     0.00000000     0.00000000     0.00000000
     0.00000000     0.00000000     0.00000000
     0.00000000     0.00000000     0.00000000
     0.00000000     0.00000000     0.00000000
     0.00000000     0.00000000     0.00000000
     0.00000000     0.00000000     0.00000000
     0.00000000     0.00000000     0.00000000
     0.00000000     0.00000000     0.00000000
     0.00000000     0.00000000     0.00000000
     0.00000000     0.00000000     0.00000000
     0.00000000     0.00000000     0.00000000
     0.00000000     0.00000000     0.00000000
     0.00000000     0.00000000     0.00000000
     0.00000000     0.00000000     0.00000000
     0.00000000     0.00000000     0.00000000
     0.00000000     0.00000000     0.00000000
     0.00000000     0.00000000     0.00000000
     0.00000000     0.00000000     0.00000000
     0.00000000     0.00000000     0.00000000
     0.00000000     0.00000000     0.00000000
     0.00000000     0.00000000     0.00000000
     0.00000000     0.00000000     0.00000000
     0.00000000     0.00000000     0.00000000
     0.00000000     0.00000000     0.00000000
     0.00000000     0.00000000     0.00000000
     0.00000000     0.00000000     0.00000000
     0.00000000     0.00000000     0.00000000
     0.00000000     0.00000000     0.00000000
     0.00000000     0.00000000     0.00000000
     0.00000000     0.00000000     0.00000000
     0.00000000     0.00000000     0.00000000
     0.00000000     0.00000000     0.00000000
     0.00000000     0.00000000     0.00000000
     0.00000000     0.00000000     0.00000000
     0.00000000     0.00000000     0.00000000
     0.00000000     0.00000000     0.00000000
     0.00000000     0.00000000     0.00000000
     0.00000000     0.00000000     0.00000000
     0.00000000     0.00000000     0.00000000
     0.00000000     0.00000000     0.00000000
     0.00000000     0.00000000     0.00000000
     0.00000000     0.00000000     0.00000000
     0.00000000     0.00000000     0.00000000
     0.00000000     0.00000000     0.00000000
     0.00000000     0.00000000     0.00000000
     0.00000000     0.00000000     0.00000000
     0.00000000     0.00000000     0.00000000
     0.00000000     0.00000000     0.00000000
     0.00000000     0.00000000     0.00000000
     0.00000000     0.00000000     0.00000000
     0.00000000     0.00000000     0.00000000
     0.00000000     0.00000000     0.00000000
     0.00000000     0.00000000     0.00000000
     0.00000000     0.00000000     0.00000000
     0.00000000     0.00000000     0.00000000
     0.00000000     0.00000000     0.00000000
     0.00000000     0.00000000     0.00000000
     0.00000000     0.00000000     0.00000000
     0.00000000     0.00000000     0.00000000
     0.00000000     0.00000000     0.00000000
     0.00000000     0.00000000     0.00000000
     0.00000000     0.00000000     0.00000000
     0.00000000     0.00000000     0.00000000
     0.00000000     0.00000000     0.00000000
     0.00000000     0.00000000     0.00000000
     0.00000000     0.00000000     0.00000000
     0.00000000     0.00000000     0.00000000
     0.00000000     0.00000000     0.00000000
     0.00000000     0.00000000     0.00000000
     0.00000000     0.00000000     0.00000000
     0.00000000     0.00000000     0.00000000
     0.00000000     0.00000000     0.00000000
     0.00000000     0.00000000     0.00000000
     0.00000000     0.00000000     0.00000000
     0.00000000     0.00000000     0.00000000
     0.00000000     0.00000000     0.00000000
     0.00000000     0.00000000     0.00000000
     0.00000000     0.00000000     0.00000000
     0.00000000     0.00000000     0.00000000
     0.00000000     0.00000000     0.00000000
     0.00000000     0.00000000     0.00000000
     0.00000000     0.00000000     0.00000000
     0.00000000     0.00000000     0.00000000
     0.00000000     0.00000000     0.00000000
     0.00000000     0.00000000     0.00000000
     0.00000000     0.00000000     0.00000000
     0.00000000     0.00000000     0.00000000
     0.00000000     0.00000000     0.00000000
     0.00000000     0.00000000     0.00000000
     0.00000000     0.00000000     0.00000000
     0.00000000     0.00000000     0.00000000
     0.00000000     0.00000000     0.00000000
     0.00000000     0.00000000     0.00000000
     0.00000000     0.00000000     0.00000000
     0.00000000     0.00000000     0.00000000
     0.00000000     0.00000000     0.00000000
     0.00000000     0.00000000     0.00000000
     0.00000000     0.00000000     0.00000000
     0.00000000     0.00000000     0.00000000
     0.00000000     0.00000000     0.00000000
     0.00000000     0.00000000     0.00000000
     0.00000000     0.00000000     0.00000000
     0.00000000     0.00000000     0.00000000
     0.00000000     0.00000000     0.00000000
     0.00000000     0.00000000     0.00000000
     0.00000000     0.00000000     0.00000000
     0.00000000     0.00000000     0.00000000
     0.00000000     0.00000000     0.00000000
     0.00000000     0.00000000     0.00000000
     0.00000000     0.00000000     0.00000000
     0.00000000     0.00000000     0.00000000
     0.00000000     0.00000000     0.00000000
     0.00000000     0.00000000     0.00000000
     0.00000000     0.00000000     0.00000000
     0.00000000     0.00000000     0.00000000
     0.00000000     0.00000000     0.00000000
     0.00000000     0.00000000     0.00000000
     0.00000000     0.00000000     0.00000000
     0.00000000     0.00000000     0.00000000
     0.00000000     0.00000000     0.00000000
     0.00000000     0.00000000     0.00000000
     0.00000000     0.00000000     0.00000000
     0.00000000     0.00000000     0.00000000
     0.00000000     0.00000000     0.00000000
     0.00000000     0.00000000     0.00000000
     0.00000000     0.00000000     0.00000000
     0.00000000     0.00000000     0.00000000
     0.00000000     0.00000000     0.00000000
     0.00000000     0.00000000     0.00000000
     0.00000000     0.00000000     0.00000000
     0.00000000     0.00000000     0.00000000
     0.00000000     0.00000000     0.00000000
     0.00000000     0.00000000     0.00000000
     0.00000000     0.00000000     0.00000000
     0.00000000     0.00000000     0.00000000
     0.00000000     0.00000000     0.00000000
     0.00000000     0.00000000     0.00000000
     0.00000000     0.00000000     0.00000000
     0.00000000     0.00000000     0.00000000
     0.00000000     0.00000000     0.00000000
     0.00000000     0.00000000     0.00000000
     0.00000000     0.00000000     0.00000000
     0.00000000     0.00000000     0.00000000
     0.00000000     0.00000000     0.00000000
     0.00000000     0.00000000     0.00000000
     0.00000000     0.00000000     0.00000000
     0.00000000     0.00000000     0.00000000
     0.00000000     0.00000000     0.00000000
     0.00000000     0.00000000     0.00000000
     0.00000000     0.00000000     0.00000000
     0.00000000     0.00000000     0.00000000
     0.00000000     0.00000000     0.00000000
     0.00000000     0.00000000     0.00000000
     0.00000000     0.00000000     0.00000000
     0.00000000     0.00000000     0.00000000
     0.00000000     0.00000000     0.00000000
     0.00000000     0.00000000     0.00000000
     0.00000000     0.00000000     0.00000000
     0.00000000     0.00000000     0.00000000
     0.00000000     0.00000000     0.00000000
     0.00000000     0.00000000     0.00000000
     0.00000000     0.00000000     0.00000000
     0.00000000     0.00000000     0.00000000
     0.00000000     0.00000000     0.00000000
     0.00000000     0.00000000     0.00000000
     0.00000000     0.00000000     0.00000000
     0.00000000     0.00000000     0.00000000
     0.00000000     0.00000000     0.00000000
     0.00000000     0.00000000     0.00000000
     0.00000000     0.00000000     0.00000000
     0.00000000     0.00000000     0.00000000
     0.00000000     0.00000000     0.00000000
     0.00000000     0.00000000     0.00000000
     0.00000000     0.00000000     0.00000000
     0.00000000     0.00000000     0.00000000
     0.00000000     0.00000000     0.00000000
     0.00000000     0.00000000     0.00000000
     0.00000000     0.00000000     0.00000000
     0.00000000     0.00000000     0.00000000
     0.00000000     0.00000000     0.00000000
     0.00000000     0.00000000     0.00000000
     0.00000000     0.00000000     0.00000000
     0.00000000     0.00000000     0.00000000
     0.00000000     0.00000000     0.00000000
     0.00000000     0.00000000     0.00000000
     0.00000000     0.00000000     0.00000000
     0.00000000     0.00000000     0.00000000
     0.00000000     0.00000000     0.00000000
     0.00000000     0.00000000     0.00000000
     0.00000000     0.00000000     0.00000000
     0.00000000     0.00000000     0.00000000
     0.00000000     0.00000000     0.00000000
     0.00000000     0.00000000     0.00000000
     0.00000000     0.00000000     0.00000000
     0.00000000     0.00000000     0.00000000
     0.00000000     0.00000000     0.00000000
     0.00000000     0.00000000     0.00000000
     0.00000000     0.00000000     0.00000000
     0.00000000     0.00000000     0.00000000
     0.00000000     0.00000000     0.00000000
     0.00000000     0.00000000     0.00000000
     0.00000000     0.00000000     0.00000000
     0.00000000     0.00000000     0.00000000
     0.00000000     0.00000000     0.00000000
     0.00000000     0.00000000     0.00000000
     0.00000000     0.00000000     0.00000000
     0.00000000     0.00000000     0.00000000
     0.00000000     0.00000000     0.00000000
     0.00000000     0.00000000     0.00000000
     0.00000000     0.00000000     0.00000000
     0.00000000     0.00000000     0.00000000
     0.00000000     0.00000000     0.00000000
     0.00000000     0.00000000     0.00000000
     0.00000000     0.00000000     0.00000000
     0.00000000     0.00000000     0.00000000
     0.00000000     0.00000000     0.00000000
     0.00000000     0.00000000     0.00000000
     0.00000000     0.00000000     0.00000000
     0.00000000     0.00000000     0.00000000
     0.00000000     0.00000000     0.00000000
     0.00000000     0.00000000     0.00000000
     0.00000000     0.00000000     0.00000000
     0.00000000     0.00000000     0.00000000
     0.00000000     0.00000000     0.00000000
     0.00000000     0.00000000     0.00000000
     0.00000000     0.00000000     0.00000000
     0.00000000     0.00000000     0.00000000
     0.00000000     0.00000000     0.00000000
     0.00000000     0.00000000     0.00000000
     0.00000000     0.00000000     0.00000000
     0.00000000     0.00000000     0.00000000
     0.00000000     0.00000000     0.00000000
     0.00000000     0.00000000     0.00000000
     0.00000000     0.00000000     0.00000000
     0.00000000     0.00000000     0.00000000
     0.00000000     0.00000000     0.00000000
     0.00000000     0.00000000     0.00000000
     0.00000000     0.00000000     0.00000000
     0.00000000     0.00000000     0.00000000
     0.00000000     0.00000000     0.00000000
     0.00000000     0.00000000     0.00000000
     0.00000000     0.00000000     0.00000000
     0.00000000     0.00000000     0.00000000
     0.00000000     0.00000000     0.00000000
     0.00000000     0.00000000     0.00000000
     0.00000000     0.00000000     0.00000000
     0.00000000     0.00000000     0.00000000
     0.00000000     0.00000000     0.00000000
     0.00000000     0.00000000     0.00000000
     0.00000000     0.00000000     0.00000000
     0.00000000     0.00000000     0.00000000
     0.00000000     0.00000000     0.00000000
     0.00000000     0.00000000     0.00000000
     0.00000000     0.00000000     0.00000000
     0.00000000     0.00000000     0.00000000
     0.00000000     0.00000000     0.00000000
     0.00000000     0.00000000     0.00000000
     0.00000000     0.00000000     0.00000000
     0.00000000     0.00000000     0.00000000
     0.00000000     0.00000000     0.00000000
     0.00000000     0.00000000     0.00000000
     0.00000000     0.00000000     0.00000000
     0.00000000     0.00000000     0.00000000
     0.00000000     0.00000000     0.00000000
     0.00000000     0.00000000     0.00000000
     0.00000000     0.00000000     0.00000000
     0.00000000     0.00000000     0.00000000
     0.00000000     0.00000000     0.00000000
     0.00000000     0.00000000     0.00000000
     0.00000000     0.00000000     0.00000000
     0.00000000     0.00000000     0.00000000
     0.00000000     0.00000000     0.00000000
     0.00000000     0.00000000     0.00000000
     0.00000000     0.00000000     0.00000000
     0.00000000     0.00000000     0.00000000
     0.00000000     0.00000000     0.00000000
     0.00000000     0.00000000     0.00000000
     0.00000000     0.00000000     0.00000000
     0.00000000     0.00000000     0.00000000
     0.00000000     0.00000000     0.00000000
     0.00000000     0.00000000     0.00000000
     0.00000000     0.00000000     0.00000000
     0.00000000     0.00000000     0.00000000
     0.00000000     0.00000000     0.00000000
     0.00000000     0.00000000     0.00000000
     0.00000000     0.00000000     0.00000000
     0.00000000     0.00000000     0.00000000
     0.00000000     0.00000000     0.00000000
     0.00000000     0.00000000     0.00000000
     0.00000000     0.00000000     0.00000000
     0.00000000     0.00000000     0.00000000
     0.00000000     0.00000000     0.00000000
     0.00000000     0.00000000     0.00000000
     0.00000000     0.00000000     0.00000000
     0.00000000     0.00000000     0.00000000
     0.00000000     0.00000000     0.00000000
     0.00000000     0.00000000     0.00000000
     0.00000000     0.00000000     0.00000000
     0.00000000     0.00000000     0.00000000
     0.00000000     0.00000000     0.00000000
     0.00000000     0.00000000     0.00000000
     0.00000000     0.00000000     0.00000000
SCALARS Temperatures float
LOOKUP_TABLE default
     0.00000000
     0.00000000
     0.00000000
     0.00000000
     0.00000000
     0.00000000
     0.00000000
     0.00000000
     0.00000000
     0.00000000
     0.00000000
     0.00000000
     0.00000000
     0.00000000
     0.00000000
     0.00000000
     0.00000000
     0.00000000
     0.00000000
     0.00000000
     0.00000000
     0.00000000
     0.00000000
     0.00000000
     0.00000000
     0.00000000
     0.00000000
     0.00000000
     0.00000000
     0.00000000
     0.00000000
     0.00000000
     0.00000000
     0.00000000
     0.00000000
     0.00000000
     0.00000000
     0.00000000
     0.00000000
     0.00000000
     0.00000000
     0.00000000
     0.00000000
     0.00000000
     0.00000000
     0.00000000
     0.00000000
     0.00000000
     0.00000000
     0.00000000
     0.00000000
     0.00000000
     0.00000000
     0.00000000
     0.00000000
     0.00000000
     0.00000000
     0.00000000
     0.00000000
     0.00000000
     0.00000000
     0.00000000
     0.00000000
     0.00000000
     0.00000000
     0.00000000
     0.00000000
     0.00000000
     0.00000000
     0.00000000
     0.00000000
     0.00000000
     0.00000000
     0.00000000
     0.00000000
     0.00000000
     0.00000000
     0.00000000
     0.00000000
     0.00000000
     0.00000000
     0.00000000
     0.00000000
     0.00000000
     0.00000000
     0.00000000
     0.00000000
     0.00000000
     0.00000000
     0.00000000
     0.00000000
     0.00000000
     0.00000000
     0.00000000
     0.00000000
     0.00000000
     0.00000000
     0.00000000
     0.00000000
     0.00000000
     0.00000000
     0.00000000
     0.00000000
     0.00000000
     0.00000000
     0.00000000
     0.00000000
     0.00000000
     0.00000000
     0.00000000
     0.00000000
     0.00000000
     0.00000000
     0.00000000
     0.00000000
     0.00000000
     0.00000000
     0.00000000
     0.00000000
     0.00000000
     0.00000000
     0.00000000
     0.00000000
     0.00000000
     0.00000000
     0.00000000
     0.00000000
     0.00000000
     0.00000000
     0.00000000
     0.00000000
     0.00000000
     0.00000000
     0.00000000
     0.00000000
     0.00000000
     0.00000000
     0.00000000
     0.00000000
     0.00000000
     0.00000000
     0.00000000
     0.00000000
     0.00000000
     0.00000000
     0.00000000
     0.00000000
     0.00000000
     0.00000000
     0.00000000
     0.00000000
     0.00000000
     0.00000000
     0.00000000
     0.00000000
     0.00000000
     0.00000000
     0.00000000
     0.00000000
     0.00000000
     0.00000000
     0.00000000
     0.00000000
     0.00000000
     0.00000000
     0.00000000
     0.00000000
     0.00000000
     0.00000000
     0.00000000
     0.00000000
     0.00000000
     0.00000000
     0.00000000
     0.00000000
     0.00000000
     0.00000000
     0.00000000
     0.00000000
     0.00000000
     0.00000000
     0.00000000
     0.00000000
     0.00000000
     0.00000000
     0.00000000
     0.00000000
     0.00000000
     0.00000000
     0.00000000
     0.00000000
     0.00000000
     0.00000000
     0.00000000
     0.00000000
     0.00000000
     0.00000000
     0.00000000
     0.00000000
     0.00000000
     0.00000000
     0.00000000
     0.00000000
     0.00000000
     0.00000000
     0.00000000
     0.00000000
     0.00000000
     0.00000000
     0.00000000
     0.00000000
     0.00000000
     0.00000000
     0.00000000
     0.00000000
     0.00000000
     0.00000000
     0.00000000
     0.00000000
     0.00000000
     0.00000000
     0.00000000
     0.00000000
     0.00000000
     0.00000000
     0.00000000
     0.00000000
     0.00000000
     0.00000000
     0.00000000
     0.00000000
     0.00000000
     0.00000000
     0.00000000
     0.00000000
     0.00000000
     0.00000000
     0.00000000
     0.00000000
     0.00000000
     0.00000000
     0.00000000
     0.00000000
     0.00000000
     0.00000000
     0.00000000
     0.00000000
     0.00000000
     0.00000000
     0.00000000
     0.00000000
     0.00000000
     0.00000000
     0.00000000
     0.00000000
     0.00000000
     0.00000000
     0.00000000
     0.00000000
     0.00000000
     0.00000000
     0.00000000
     0.00000000
     0.00000000
     0.00000000
     0.00000000
     0.00000000
     0.00000000
     0.00000000
     0.00000000
     0.00000000
     0.00000000
     0.00000000
     0.00000000
     0.00000000
     0.00000000
     0.00000000
     0.00000000
     0.00000000
     0.00000000
     0.00000000
     0.00000000
     0.00000000
     0.00000000
     0.00000000
     0.00000000
     0.00000000
     0.00000000
     0.00000000
     0.00000000
     0.00000000
     0.00000000
     0.00000000
     0.00000000
     0.00000000
     0.00000000
     0.00000000
     0.00000000
     0.00000000
     0.00000000
     0.00000000
     0.00000000
     0.00000000
     0.00000000
     0.00000000
     0.00000000
     0.00000000
     0.00000000
     0.00000000
     0.00000000
     0.00000000
     0.00000000
     0.00000000
     0.00000000
     0.00000000
     0.00000000
     0.00000000
     0.00000000
     0.00000000
     0.00000000
     0.00000000
     0.00000000
     0.00000000
     0.00000000
     0.00000000
     0.00000000
     0.00000000
     0.00000000
     0.00000000
     0.00000000
     0.00000000
     0.00000000
     0.00000000
     0.00000000
     0.00000000
     0.00000000
     0.00000000
     0.00000000
     0.00000000
     0.00000000
     0.00000000
     0.00000000
     0.00000000
     0.00000000
     0.00000000
     0.00000000
     0.00000000
     0.00000000
     0.00000000
     0.00000000
     0.00000000
     0.00000000
     0.00000000
     0.00000000
     0.00000000
     0.00000000
     0.00000000
     0.00000000
     0.00000000
     0.00000000
     0.00000000
     0.00000000
     0.00000000
     0.00000000
     0.00000000
     0.00000000
     0.00000000
     0.00000000
     0.00000000
     0.00000000
     0.00000000
     0.00000000
     0.00000000
     0.00000000
     0.00000000
     0.00000000
     0.00000000
     0.00000000
     0.00000000
     0.00000000
     0.00000000
     0.00000000
     0.00000000
     0.00000000
     0.00000000
     0.00000000
     0.00000000
     0.00000000
     0.00000000
     0.00000000
     0.00000000
     0.00000000
     0.00000000
     0.00000000
     0.00000000
     0.00000000
     0.00000000
     0.00000000
     0.00000000
     0.00000000
     0.00000000
     0.00000000
     0.00000000
     0.00000000
     0.00000000
     0.00000000
     0.00000000
     0.00000000
     0.00000000
     0.00000000
     0.00000000
     0.00000000
     0.00000000
     0.00000000
     0.00000000
     0.00000000
     0.00000000
     0.00000000
     0.00000000
     0.00000000
     0.00000000
     0.00000000
     0.00000000
     0.00000000
     0.00000000
     0.00000000
     0.00000000
     0.00000000
     0.00000000
     0.00000000
     0.00000000
     0.00000000
     0.00000000
     0.00000000
     0.00000000
     0.00000000
     0.00000000
     0.00000000
     0.00000000
     0.00000000
     0.00000000
     0.00000000
     0.00000000
     0.00000000
     0.00000000
     0.00000000
     0.00000000
     0.00000000
     0.00000000
     0.00000000
     0.00000000
     0.00000000
     0.00000000
     0.00000000
     0.00000000
     0.00000000
     0.00000000
     0.00000000
     0.00000000
     0.00000000
     0.00000000
     0.00000000
     0.00000000
     0.00000000
     0.00000000
     0.00000000
     0.00000000
     0.00000000
     0.00000000
     0.00000000
     0.00000000
     0.00000000
     0.00000000
     0.00000000
     0.00000000
     0.00000000
     0.00000000
     0.00000000
     0.00000000
     0.00000000
     0.00000000
     0.00000000
     0.00000000
     0.00000000
     0.00000000
     0.00000000
     0.00000000
     0.00000000
     0.00000000
     0.00000000
     0.00000000
     0.00000000
     0.00000000
     0.00000000
     0.00000000
     0.00000000
     0.00000000
     0.00000000
     0.00000000
     0.00000000
     0.00000000
     0.00000000
     0.00000000
     0.00000000
     0.00000000
     0.00000000
     0.00000000
     0.00000000
     0.00000000
     0.00000000
     0.00000000
     0.00000000
     0.00000000
     0.00000000
     0.00000000
     0.00000000
     0.00000000
     0.00000000
     0.00000000
     0.00000000
     0.00000000
     0.00000000
     0.00000000
     0.00000000
     0.00000000
     0.00000000
     0.00000000
     0.00000000
     0.00000000
     0.00000000
     0.00000000
     0.00000000
     0.00000000
     0.00000000
     0.00000000
     0.00000000
     0.00000000
     0.00000000
     0.00000000
     0.00000000
     0.00000000
     0.00000000
     0.00000000
     0.00000000
     0.00000000
     0.00000000
     0.00000000
     0.00000000
     0.00000000
     0.00000000
     0.00000000
     0.00000000
     0.00000000
     0.00000000
     0.00000000
     0.00000000
     0.00000000
     0.00000000
     0.00000000
     0.00000000
     0.00000000
     0.00000000
     0.00000000
     0.00000000
     0.00000000
     0.00000000
     0.00000000
     0.00000000
     0.00000000
     0.00000000
     0.00000000
     0.00000000
     0.00000000
     0.00000000
     0.00000000
     0.00000000
     0.00000000
     0.00000000
     0.00000000
     0.00000000
     0.00000000
     0.00000000
     0.00000000
     0.00000000
     0.00000000
     0.00000000
     0.00000000
     0.00000000
     0.00000000
     0.00000000
     0.00000000
     0.00000000
     0.00000000
     0.00000000
     0.00000000
     0.00000000
     0.00000000
     0.00000000
     0.00000000
     0.00000000
     0.00000000
     0.00000000
     0.00000000
     0.00000000
     0.00000000
     0.00000000
     0.00000000
     0.00000000
     0.00000000
     0.00000000
     0.00000000
     0.00000000
     0.00000000
     0.00000000
     0.00000000
     0.00000000
     0.00000000
     0.00000000
     0.00000000
     0.00000000
     0.00000000
     0.00000000
     0.00000000
     0.00000000
     0.00000000
     0.00000000
     0.00000000
     0.00000000
     0.00000000
     0.00000000
     0.00000000
     0.00000000
     0.00000000
     0.00000000
     0.00000000
     0.00000000
     0.00000000
     0.00000000
     0.00000000
     0.00000000
     0.00000000
     0.00000000
     0.00000000
     0.00000000
     0.00000000
     0.00000000
     0.00000000
     0.00000000
     0.00000000
     0.00000000
     0.00000000
     0.00000000
     0.00000000
     0.00000000
     0.00000000
     0.00000000
     0.00000000
     0.00000000
     0.00000000
     0.00000000
     0.00000000
     0.00000000
     0.00000000
     0.00000000
     0.00000000
     0.00000000
     0.00000000
     0.00000000
     0.00000000
     0.00000000
     0.00000000
     0.00000000
     0.00000000
     0.00000000
     0.00000000
     0.00000000
     0.00000000
     0.00000000
     0.00000000
     0.00000000
     0.00000000
     0.00000000
     0.00000000
     0.00000000
     0.00000000
     0.00000000
     0.00000000
     0.00000000
     0.00000000
     0.00000000
     0.00000000
     0.00000000
     0.00000000
     0.00000000
     0.00000000
     0.00000000
     0.00000000
     0.00000000
     0.00000000
     0.00000000
     0.00000000
     0.00000000
     0.00000000
     0.00000000
     0.00000000
     0.00000000
     0.00000000
     0.00000000
     0.00000000
     0.00000000
     0.00000000
     0.00000000
     0.00000000
     0.00000000
     0.00000000
     0.00000000
     0.00000000
     0.00000000
     0.00000000
     0.00000000
     0.00000000
     0.00000000
     0.00000000
     0.00000000
     0.00000000
     0.00000000
     0.00000000
     0.00000000
     0.00000000
     0.00000000
     0.00000000
     0.00000000
     0.00000000
     0.00000000
     0.00000000
     0.00000000
     0.00000000
     0.00000000
     0.00000000
     0.00000000
     0.00000000
     0.00000000
     0.00000000
     0.00000000
     0.00000000
     0.00000000
     0.00000000
     0.00000000
     0.00000000
     0.00000000
     0.00000000
     0.00000000
     0.00000000
     0.00000000
     0.00000000
     0.00000000
     0.00000000
     0.00000000
     0.00000000
     0.00000000
     0.00000000
     0.00000000
     0.00000000
     0.00000000
     0.00000000
     0.00000000
     0.00000000
     0.00000000
     0.00000000
     0.00000000
     0.00000000
     0.00000000
     0.00000000
     0.00000000
     0.00000000
     0.00000000
     0.00000000
     0.00000000
     0.00000000
     0.00000000
     0.00000000
     0.00000000
     0.00000000
     0.00000000
     0.00000000
     0.00000000
     0.00000000
     0.00000000
     0.00000000
     0.00000000
     0.00000000
     0.00000000
     0.00000000
     0.00000000
     0.00000000
     0.00000000
     0.00000000
     0.00000000
     0.00000000
     0.00000000
     0.00000000
     0.00000000
     0.00000000
     0.00000000
     0.00000000
     0.00000000
     0.00000000
     0.00000000
     0.00000000
     0.00000000
     0.00000000
     0.00000000
     0.00000000
     0.00000000
     0.00000000
     0.00000000
     0.00000000
     0.00000000
     0.00000000
     0.00000000
     0.00000000
     0.00000000
     0.00000000
     0.00000000
     0.00000000
     0.00000000
     0.00000000
     0.00000000
     0.00000000
     0.00000000
     0.00000000
     0.00000000
     0.00000000
     0.00000000
     0.00000000
     0.00000000
     0.00000000
     0.00000000
     0.00000000
     0.00000000
     0.00000000
     0.00000000
     0.00000000
     0.00000000
     0.00000000
     0.00000000
     0.00000000
     0.00000000
     0.00000000
     0.00000000
     0.00000000
     0.00000000
     0.00000000
     0.00000000
     0.00000000
     0.00000000
     0.00000000
     0.00000000
     0.00000000
     0.00000000
     0.00000000
     0.00000000
     0.00000000
     0.00000000
     0.00000000
     0.00000000
     0.00000000
     0.00000000
     0.00000000
     0.00000000
     0.00000000
     0.00000000
     0.00000000
     0.00000000
     0.00000000
     0.00000000
     0.00000000
     0.00000000
     0.00000000
     0.00000000
     0.00000000
     0.00000000
     0.00000000
     0.00000000
     0.00000000
     0.00000000
     0.00000000
     0.00000000
     0.00000000
     0.00000000
     0.00000000
     0.00000000
     0.00000000
     0.00000000
     0.00000000
     0.00000000
     0.00000000
     0.00000000
     0.00000000
     0.00000000
     0.00000000
     0.00000000
     0.00000000
     0.00000000
     0.00000000
     0.00000000
     0.00000000
     0.00000000
     0.00000000
     0.00000000
     0.00000000
     0.00000000
     0.00000000
     0.00000000
     0.00000000
     0.00000000
     0.00000000
     0.00000000
     0.00000000
     0.00000000
     0.00000000
     0.00000000
     0.00000000
     0.00000000
     0.00000000
     0.00000000
     0.00000000
     0.00000000
     0.00000000
     0.00000000
     0.00000000
     0.00000000
     0.00000000
     0.00000000
     0.00000000
     0.00000000
     0.00000000
     0.00000000
     0.00000000
     0.00000000
     0.00000000
     0.00000000
     0.00000000
     0.00000000
     0.00000000
     0.00000000
     0.00000000
     0.00000000
     0.00000000
     0.00000000
     0.00000000
     0.00000000
     0.00000000
     0.00000000
     0.00000000
     0.00000000
     0.00000000
     0.00000000
     0.00000000
     0.00000000
     0.00000000
     0.00000000
     0.00000000
     0.00000000
     0.00000000
     0.00000000
     0.00000000
     0.00000000
     0.00000000
     0.00000000
     0.00000000
     0.00000000
     0.00000000
     0.00000000
     0.00000000
     0.00000000
     0.00000000
     0.00000000
     0.00000000
     0.00000000
     0.00000000
     0.00000000
     0.00000000
     0.00000000
     0.00000000
     0.00000000
     0.00000000
     0.00000000
     0.00000000
     0.00000000
     0.00000000
     0.00000000
     0.00000000
     0.00000000
     0.00000000
     0.00000000
     0.00000000
     0.00000000
     0.00000000
     0.00000000
     0.00000000
     0.00000000
     0.00000000
     0.00000000
     0.00000000
     0.00000000
     0.00000000
     0.00000000
     0.00000000
     0.00000000
     0.00000000
     0.00000000
     0.00000000
     0.00000000
     0.00000000
     0.00000000
     0.00000000
     0.00000000
     0.00000000
     0.00000000
     0.00000000
     0.00000000
     0.00000000
     0.00000000
     0.00000000
     0.00000000
     0.00000000
     0.00000000
     0.00000000
     0.00000000
     0.00000000
     0.00000000
     0.00000000
     0.00000000
     0.00000000
     0.00000000
     0.00000000
     0.00000000
     0.00000000
     0.00000000
     0.00000000
     0.00000000
     0.00000000
     0.00000000
     0.00000000
     0.00000000
     0.00000000
     0.00000000
     0.00000000
     0.00000000
     0.00000000
     0.00000000
     0.00000000
     0.00000000
     0.00000000
     0.00000000
     0.00000000
     0.00000000
     0.00000000
     0.00000000
     0.00000000
     0.00000000
     0.00000000
     0.00000000
     0.00000000
     0.00000000
     0.00000000
     0.00000000
     0.00000000
     0.00000000
     0.00000000
     0.00000000
     0.00000000
     0.00000000
     0.00000000
     0.00000000
     0.00000000
     0.00000000
     0.00000000
     0.00000000
     0.00000000
     0.00000000
     0.00000000
     0.00000000
     0.00000000
     0.00000000
     0.00000000
     0.00000000
     0.00000000
     0.00000000
     0.00000000
     0.00000000
     0.00000000
     0.00000000
     0.00000000
     0.00000000
     0.00000000
     0.00000000
     0.00000000
     0.00000000
     0.00000000
     0.00000000
     0.00000000
     0.00000000
     0.00000000
     0.00000000
     0.00000000
     0.00000000
     0.00000000
     0.00000000
     0.00000000
     0.00000000
     0.00000000
     0.00000000
     0.00000000
     0.00000000
     0.00000000
     0.00000000
     0.00000000
     0.00000000
     0.00000000
     0.00000000
     0.00000000
     0.00000000
     0.00000000
     0.00000000
     0.00000000
     0.00000000
     0.00000000
     0.00000000
     0.00000000
     0.00000000
     0.00000000
     0.00000000
     0.00000000
     0.00000000
     0.00000000
     0.00000000
     0.00000000
     0.00000000
     0.00000000
     0.00000000
     0.00000000
     0.00000000
     0.00000000
     0.00000000
     0.00000000
     0.00000000
     0.00000000
     0.00000000
     0.00000000
     0.00000000
     0.00000000
     0.00000000
     0.00000000
     0.00000000
     0.00000000
     0.00000000
     0.00000000
     0.00000000
     0.00000000
     0.00000000
     0.00000000
     0.00000000
     0.00000000
     0.00000000
     0.00000000
     0.00000000
     0.00000000
     0.00000000
     0.00000000
     0.00000000
     0.00000000
     0.00000000
     0.00000000
     0.00000000
     0.00000000
     0.00000000
     0.00000000
     0.00000000
     0.00000000
     0.00000000
     0.00000000
     0.00000000
     0.00000000
     0.00000000
     0.00000000
     0.00000000
     0.00000000
     0.00000000
     0.00000000
     0.00000000
     0.00000000
     0.00000000
     0.00000000
     0.00000000
     0.00000000
     0.00000000
     0.00000000
     0.00000000
     0.00000000
     0.00000000
     0.00000000
     0.00000000
     0.00000000
     0.00000000
     0.00000000
     0.00000000
     0.00000000
     0.00000000
     0.00000000
     0.00000000
     0.00000000
     0.00000000
     0.00000000
     0.00000000
     0.00000000
     0.00000000
     0.00000000
     0.00000000
     0.00000000
     0.00000000
     0.00000000
     0.00000000
     0.00000000
     0.00000000
     0.00000000
     0.00000000
     0.00000000
     0.00000000
     0.00000000
     0.00000000
     0.00000000
     0.00000000
     0.00000000
     0.00000000
     0.00000000
     0.00000000
     0.00000000
     0.00000000
     0.00000000
     0.00000000
     0.00000000
     0.00000000
     0.00000000
     0.00000000
     0.00000000
     0.00000000
     0.00000000
     0.00000000
     0.00000000
     0.00000000
     0.00000000
     0.00000000
     0.00000000
     0.00000000
     0.00000000
     0.00000000
     0.00000000
     0.00000000
     0.00000000
     0.00000000
     0.00000000
     0.00000000
     0.00000000
     0.00000000
     0.00000000
     0.00000000
     0.00000000
     0.00000000
     0.00000000
     0.00000000
     0.00000000
     0.00000000
     0.00000000
     0.00000000
     0.00000000
     0.00000000
     0.00000000
     0.00000000
     0.00000000
     0.00000000
     0.00000000
     0.00000000
     0.00000000
     0.00000000
     0.00000000
     0.00000000
     0.00000000
     0.00000000
     0.00000000
     0.00000000
     0.00000000
     0.00000000
     0.00000000
     0.00000000
     0.00000000
     0.00000000
     0.00000000
     0.00000000
     0.00000000
     0.00000000
     0.00000000
     0.00000000
     0.00000000
     0.00000000
     0.00000000
     0.00000000
     0.00000000
     0.00000000
     0.00000000
     0.00000000
     0.00000000
     0.00000000
     0.00000000
     0.00000000
     0.00000000
     0.00000000
     0.00000000
     0.00000000
     0.00000000
     0.00000000
     0.00000000
     0.00000000
     0.00000000
     0.00000000
     0.00000000
     0.00000000
     0.00000000
     0.00000000
     0.00000000
     0.00000000
     0.00000000
     0.00000000
     0.00000000
     0.00000000
     0.00000000
     0.00000000
     0.00000000
     0.00000000
     0.00000000
     0.00000000
     0.00000000
     0.00000000
     0.00000000
     0.00000000
     0.00000000
     0.00000000
     0.00000000
     0.00000000
     0.00000000
     0.00000000
     0.00000000
     0.00000000
     0.00000000
     0.00000000
     0.00000000
     0.00000000
     0.00000000
     0.00000000
     0.00000000
     0.00000000
     0.00000000
     0.00000000
     0.00000000
     0.00000000
     0.00000000
     0.00000000
     0.00000000
     0.00000000
     0.00000000
     0.00000000
     0.00000000
     0.00000000
     0.00000000
     0.00000000
     0.00000000
     0.00000000
     0.00000000
     0.00000000
     0.00000000
     0.00000000
     0.00000000
     0.00000000
     0.00000000
     0.00000000
     0.00000000
     0.00000000
     0.00000000
     0.00000000
     0.00000000
     0.00000000
     0.00000000
     0.00000000
     0.00000000
     0.00000000
     0.00000000
     0.00000000
     0.00000000
     0.00000000
     0.00000000
     0.00000000
     0.00000000
     0.00000000
     0.00000000
     0.00000000
     0.00000000
     0.00000000
     0.00000000
     0.00000000
     0.00000000
     0.00000000
     0.00000000
     0.00000000
     0.00000000
     0.00000000
     0.00000000
     0.00000000
     0.00000000
     0.00000000
     0.00000000
     0.00000000
     0.00000000
     0.00000000
     0.00000000
     0.00000000
     0.00000000
     0.00000000
     0.00000000
     0.00000000
     0.00000000
     0.00000000
     0.00000000
     0.00000000
     0.00000000
     0.00000000
     0.00000000
     0.00000000
     0.00000000
     0.00000000
     0.00000000
     0.00000000
     0.00000000
     0.00000000
     0.00000000
     0.00000000
     0.00000000
     0.00000000
     0.00000000
     0.00000000
     0.00000000
     0.00000000
     0.00000000
     0.00000000
     0.00000000
     0.00000000
     0.00000000
     0.00000000
     0.00000000
     0.00000000
     0.00000000
     0.00000000
     0.00000000
     0.00000000
     0.00000000
     0.00000000
     0.00000000
     0.00000000
     0.00000000
     0.00000000
     0.00000000
     0.00000000
     0.00000000
     0.00000000
     0.00000000
     0.00000000
     0.00000000
     0.00000000
     0.00000000
     0.00000000
     0.00000000
     0.00000000
     0.00000000
     0.00000000
     0.00000000
     0.00000000
     0.00000000
     0.00000000
     0.00000000
     0.00000000
     0.00000000
     0.00000000
     0.00000000
     0.00000000
     0.00000000
     0.00000000
     0.00000000
     0.00000000
     0.00000000
     0.00000000
     0.00000000
     0.00000000
     0.00000000
     0.00000000
     0.00000000
     0.00000000
     0.00000000
     0.00000000
     0.00000000
     0.00000000
     0.00000000
     0.00000000
     0.00000000
     0.00000000
     0.00000000
     0.00000000
     0.00000000
     0.00000000
     0.00000000
     0.00000000
     0.00000000
     0.00000000
     0.00000000
     0.00000000
     0.00000000
     0.00000000
     0.00000000
     0.00000000
     0.00000000
     0.00000000
     0.00000000
     0.00000000
     0.00000000
     0.00000000
     0.00000000
     0.00000000
     0.00000000
     0.00000000
     0.00000000
     0.00000000
     0.00000000
     0.00000000
     0.00000000
     0.00000000
     0.00000000
     0.00000000
     0.00000000
     0.00000000
     0.00000000
     0.00000000
     0.00000000
     0.00000000
     0.00000000
     0.00000000
     0.00000000
     0.00000000
     0.00000000
     0.00000000
     0.00000000
     0.00000000
     0.00000000
     0.00000000
     0.00000000
     0.00000000
     0.00000000
     0.00000000
     0.00000000
     0.00000000
     0.00000000
     0.00000000
     0.00000000
     0.00000000
     0.00000000
     0.00000000
     0.00000000
     0.00000000
     0.00000000
     0.00000000
     0.00000000
     0.00000000
     0.00000000
     0.00000000
     0.00000000
     0.00000000
     0.00000000
     0.00000000
     0.00000000
     0.00000000
     0.00000000
VECTORS ShearStress float 
    -0.00072987     0.00111292     0.00009802
    -0.00749846     0.00598389     0.00064483
    -0.01186101     0.00596333     0.00042189
    -0.01294014     0.00379580     0.00016773
    -0.01210541     0.00136248     0.00001598
    -0.01039762    -0.00061143    -0.00009106
    -0.00736244    -0.00274538    -0.00031672
    -0.00554357    -0.00320026    -0.00059864
    -0.00612460    -0.00291413    -0.00118207
    -0.00001930     0.00484143     0.00033526
     0.00000000     0.00000000     0.00000000
     0.00000000     0.00000000     0.00000000
     0.00000000     0.00000000     0.00000000
     0.00000000     0.00000000     0.00000000
     0.00000000     0.00000000     0.00000000
     0.00000000     0.00000000     0.00000000
     0.00000000     0.00000000     0.00000000
     0.00000000     0.00000000     0.00000000
    -0.00003322     0.00824044     0.00041199
     0.00000000     0.00000000     0.00000000
     0.00000000     0.00000000     0.00000000
     0.00000000     0.00000000     0.00000000
     0.00000000     0.00000000     0.00000000
     0.00000000     0.00000000     0.00000000
     0.00000000     0.00000000     0.00000000
     0.00000000     0.00000000     0.00000000
     0.00000000     0.00000000     0.00000000
    -0.00002390     0.00671406     0.00054446
     0.00000000     0.00000000     0.00000000
     0.00000000     0.00000000     0.00000000
     0.00000000     0.00000000     0.00000000
     0.00000000     0.00000000     0.00000000
     0.00000000     0.00000000     0.00000000
     0.00000000     0.00000000     0.00000000
     0.00000000     0.00000000     0.00000000
     0.00000000     0.00000000     0.00000000
     0.00000184    -0.00045423     0.00061681
     0.00000000     0.00000000     0.00000000
     0.00000000     0.00000000     0.00000000
     0.00000000     0.00000000     0.00000000
     0.00000000     0.00000000     0.00000000
     0.00000000     0.00000000     0.00000000
     0.00000000     0.00000000     0.00000000
     0.00000000     0.00000000     0.00000000
     0.00000000     0.00000000     0.00000000
     0.00002867    -0.00871142     0.00041426
     0.00000000     0.00000000     0.00000000
     0.00000000     0.00000000     0.00000000
     0.00000000     0.00000000     0.00000000
     0.00000000     0.00000000     0.00000000
     0.00000000     0.00000000     0.00000000
     0.00000000     0.00000000     0.00000000
     0.00000000     0.00000000     0.00000000
    -0.02300516     0.00780596    -0.00086590
     0.00004149    -0.01392734     0.00030094
     0.00000000     0.00000000     0.00000000
     0.00000000     0.00000000     0.00000000
     0.00000000     0.00000000     0.00000000
     0.00000000     0.00000000     0.00000000
     0.00000000     0.00000000     0.00000000
     0.00000000     0.00000000     0.00000000
     0.00000000     0.00000000     0.00000000
     0.00000000     0.00000000     0.00000000
     0.00004827    -0.01492705     0.00032618
     0.00000000     0.00000000     0.00000000
     0.00000000     0.00000000     0.00000000
     0.00000000     0.00000000     0.00000000
     0.00000000     0.00000000     0.00000000
     0.00000000     0.00000000     0.00000000
     0.00000000     0.00000000     0.00000000
     0.00000000     0.00000000     0.00000000
     0.00000000     0.00000000     0.00000000
     0.00004697    -0.01171673     0.00031210
     0.00000000     0.00000000     0.00000000
     0.00000000     0.00000000     0.00000000
     0.00000000     0.00000000     0.00000000
     0.00000000     0.00000000     0.00000000
     0.00000000     0.00000000     0.00000000
     0.00000000     0.00000000     0.00000000
     0.00000000     0.00000000     0.00000000
     0.00000000     0.00000000     0.00000000
     0.00003424    -0.00580260     0.00027151
     0.00000000     0.00000000     0.00000000
     0.00000000     0.00000000     0.00000000
     0.00000000     0.00000000     0.00000000
     0.00000000     0.00000000     0.00000000
     0.00000000     0.00000000     0.00000000
     0.00000000     0.00000000     0.00000000
     0.00000000     0.00000000     0.00000000
     0.00000000     0.00000000     0.00000000
    -0.00080374    -0.00127009     0.00008302
    -0.00818047    -0.00671429     0.00056695
    -0.01219221    -0.00630531     0.00033942
    -0.01300927    -0.00395081     0.00003133
    -0.01166294    -0.00142106    -0.00024056
    -0.00889846     0.00047352    -0.00051042
    -0.00454358     0.00192832    -0.00089496
    -0.00151813     0.00114088    -0.00104080
     0.00356952    -0.00175556    -0.00120042
    -0.00077539     0.00123769     0.00044948
    -0.00779967     0.00672637     0.00284148
    -0.01135551     0.00604196     0.00182608
    -0.01219366     0.00373782     0.00081661
    -0.01147956     0.00134150     0.00022467
    -0.00968591    -0.00058805    -0.00015743
    -0.00658829    -0.00261200    -0.00122110
    -0.00451593    -0.00305117    -0.00300559
    -0.00459926    -0.00327882    -0.00643019
    -0.00001724     0.00503392     0.00154154
     0.00000000     0.00000000     0.00000000
     0.00000000     0.00000000     0.00000000
     0.00000000     0.00000000     0.00000000
     0.00000000     0.00000000     0.00000000
     0.00000000     0.00000000     0.00000000
     0.00000000     0.00000000     0.00000000
     0.00000000     0.00000000     0.00000000
     0.00000000     0.00000000     0.00000000
    -0.00002698     0.00785583     0.00199336
     0.00000000     0.00000000     0.00000000
     0.00000000     0.00000000     0.00000000
     0.00000000     0.00000000     0.00000000
     0.00000000     0.00000000     0.00000000
     0.00000000     0.00000000     0.00000000
     0.00000000     0.00000000     0.00000000
     0.00000000     0.00000000     0.00000000
     0.00000000     0.00000000     0.00000000
    -0.00001880     0.00599262     0.00258443
     0.00000000     0.00000000     0.00000000
     0.00000000     0.00000000     0.00000000
     0.00000000     0.00000000     0.00000000
     0.00000000     0.00000000     0.00000000
     0.00000000     0.00000000     0.00000000
     0.00000000     0.00000000     0.00000000
     0.00000000     0.00000000     0.00000000
     0.00000000     0.00000000     0.00000000
     0.00000465    -0.00058477     0.00285519
     0.00000000     0.00000000     0.00000000
     0.00000000     0.00000000     0.00000000
     0.00000000     0.00000000     0.00000000
     0.00000000     0.00000000     0.00000000
     0.00000000     0.00000000     0.00000000
     0.00000000     0.00000000     0.00000000
     0.00000000     0.00000000     0.00000000
     0.00000000     0.00000000     0.00000000
     0.00002853    -0.00816462     0.00198331
     0.00000000     0.00000000     0.00000000
     0.00000000     0.00000000     0.00000000
     0.00000000     0.00000000     0.00000000
     0.00000000     0.00000000     0.00000000
     0.00000000     0.00000000     0.00000000
     0.00000000     0.00000000     0.00000000
     0.00000000     0.00000000     0.00000000
    -0.02270954     0.00794508    -0.00435903
     0.00003889    -0.01332651     0.00150589
     0.00000000     0.00000000     0.00000000
     0.00000000     0.00000000     0.00000000
     0.00000000     0.00000000     0.00000000
     0.00000000     0.00000000     0.00000000
     0.00000000     0.00000000     0.00000000
     0.00000000     0.00000000     0.00000000
     0.00000000     0.00000000     0.00000000
     0.00000000     0.00000000     0.00000000
     0.00004664    -0.01449741     0.00161355
     0.00000000     0.00000000     0.00000000
     0.00000000     0.00000000     0.00000000
     0.00000000     0.00000000     0.00000000
     0.00000000     0.00000000     0.00000000
     0.00000000     0.00000000     0.00000000
     0.00000000     0.00000000     0.00000000
     0.00000000     0.00000000     0.00000000
     0.00000000     0.00000000     0.00000000
     0.00005094    -0.01167838     0.00157306
     0.00000000     0.00000000     0.00000000
     0.00000000     0.00000000     0.00000000
     0.00000000     0.00000000     0.00000000
     0.00000000     0.00000000     0.00000000
     0.00000000     0.00000000     0.00000000
     0.00000000     0.00000000     0.00000000
     0.00000000     0.00000000     0.00000000
     0.00000000     0.00000000     0.00000000
     0.00003948    -0.00627338     0.00129111
     0.00000000     0.00000000     0.00000000
     0.00000000     0.00000000     0.00000000
     0.00000000     0.00000000     0.00000000
     0.00000000     0.00000000     0.00000000
     0.00000000     0.00000000     0.00000000
     0.00000000     0.00000000     0.00000000
     0.00000000     0.00000000     0.00000000
     0.00000000     0.00000000     0.00000000
    -0.00091755    -0.00148678     0.00038284
    -0.00916310    -0.00799715     0.00246407
    -0.01256166    -0.00679228     0.00146169
    -0.01347254    -0.00416288     0.00015106
    -0.01252203    -0.00138567    -0.00111182
    -0.00968629     0.00085825    -0.00240466
    -0.00532513     0.00291500    -0.00415954
    -0.00205900     0.00212200    -0.00492105
     0.00324300    -0.00085599    -0.00572562
    -0.00051970     0.00102859     0.00082573
    -0.00537693     0.00603618     0.00531086
    -0.00891745     0.00558085     0.00304518
    -0.01002854     0.00345174     0.00126915
    -0.00967672     0.00110672    -0.00010259
    -0.00854988    -0.00076998    -0.00089532
    -0.00584195    -0.00284569    -0.00220286
    -0.00486057    -0.00405074    -0.00357688
    -0.00657064    -0.00707957    -0.01047846
    -0.00000721     0.00372660     0.00262400
     0.00000000     0.00000000     0.00000000
     0.00000000     0.00000000     0.00000000
     0.00000000     0.00000000     0.00000000
     0.00000000     0.00000000     0.00000000
     0.00000000     0.00000000     0.00000000
     0.00000000     0.00000000     0.00000000
     0.00000000     0.00000000     0.00000000
     0.00000000     0.00000000     0.00000000
    -0.00000955     0.00551497     0.00404431
     0.00000000     0.00000000     0.00000000
     0.00000000     0.00000000     0.00000000
     0.00000000     0.00000000     0.00000000
     0.00000000     0.00000000     0.00000000
     0.00000000     0.00000000     0.00000000
     0.00000000     0.00000000     0.00000000
     0.00000000     0.00000000     0.00000000
     0.00000000     0.00000000     0.00000000
    -0.00000618     0.00352901     0.00501952
     0.00000000     0.00000000     0.00000000
     0.00000000     0.00000000     0.00000000
     0.00000000     0.00000000     0.00000000
     0.00000000     0.00000000     0.00000000
     0.00000000     0.00000000     0.00000000
     0.00000000     0.00000000     0.00000000
     0.00000000     0.00000000     0.00000000
     0.00000000     0.00000000     0.00000000
     0.00001413    -0.00179994     0.00511584
     0.00000000     0.00000000     0.00000000
     0.00000000     0.00000000     0.00000000
     0.00000000     0.00000000     0.00000000
     0.00000000     0.00000000     0.00000000
     0.00000000     0.00000000     0.00000000
     0.00000000     0.00000000     0.00000000
     0.00000000     0.00000000     0.00000000
     0.00000000     0.00000000     0.00000000
     0.00003328    -0.00773691     0.00399492
     0.00000000     0.00000000     0.00000000
     0.00000000     0.00000000     0.00000000
     0.00000000     0.00000000     0.00000000
     0.00000000     0.00000000     0.00000000
     0.00000000     0.00000000     0.00000000
     0.00000000     0.00000000     0.00000000
     0.00000000     0.00000000     0.00000000
    -0.01126391     0.00465643    -0.01159875
     0.00003642    -0.01185042     0.00346135
     0.00000000     0.00000000     0.00000000
     0.00000000     0.00000000     0.00000000
     0.00000000     0.00000000     0.00000000
     0.00000000     0.00000000     0.00000000
     0.00000000     0.00000000     0.00000000
     0.00000000     0.00000000     0.00000000
     0.00000000     0.00000000     0.00000000
     0.00000000     0.00000000     0.00000000
     0.00003968    -0.01281319     0.00356269
     0.00000000     0.00000000     0.00000000
     0.00000000     0.00000000     0.00000000
     0.00000000     0.00000000     0.00000000
     0.00000000     0.00000000     0.00000000
     0.00000000     0.00000000     0.00000000
     0.00000000     0.00000000     0.00000000
     0.00000000     0.00000000     0.00000000
     0.00000000     0.00000000     0.00000000
     0.00005120    -0.01032301     0.00359236
     0.00000000     0.00000000     0.00000000
     0.00000000     0.00000000     0.00000000
     0.00000000     0.00000000     0.00000000
     0.00000000     0.00000000     0.00000000
     0.00000000     0.00000000     0.00000000
     0.00000000     0.00000000     0.00000000
     0.00000000     0.00000000     0.00000000
     0.00000000     0.00000000     0.00000000
     0.00003672    -0.00547670     0.00254092
     0.00000000     0.00000000     0.00000000
     0.00000000     0.00000000     0.00000000
     0.00000000     0.00000000     0.00000000
     0.00000000     0.00000000     0.00000000
     0.00000000     0.00000000     0.00000000
     0.00000000     0.00000000     0.00000000
     0.00000000     0.00000000     0.00000000
     0.00000000     0.00000000     0.00000000
    -0.00079019    -0.00146229     0.00081372
    -0.00806184    -0.00851743     0.00533611
    -0.01224323    -0.00757246     0.00315435
    -0.01397582    -0.00489267     0.00149890
    -0.01395671    -0.00154669    -0.00084251
    -0.01154259     0.00158989    -0.00334403
    -0.00704342     0.00494100    -0.00599448
    -0.00440733     0.00496141    -0.00658523
    -0.00022919     0.00316438    -0.00986201
    -0.00018295     0.00071268     0.00093964
    -0.00200713     0.00465213     0.00634864
    -0.00437895     0.00402794     0.00353402
    -0.00650437     0.00255148     0.00099397
    -0.00705021     0.00045398    -0.00086421
    -0.00739913    -0.00127701    -0.00175114
    -0.00534390    -0.00329547    -0.00268660
    -0.00407621    -0.00405271    -0.00240311
    -0.01098684    -0.01366895    -0.01165968
     0.00000119     0.00200345     0.00245947
     0.00000000     0.00000000     0.00000000
     0.00000000     0.00000000     0.00000000
     0.00000000     0.00000000     0.00000000
     0.00000000     0.00000000     0.00000000
     0.00000000     0.00000000     0.00000000
     0.00000000     0.00000000     0.00000000
     0.00000000     0.00000000     0.00000000
     0.00000000     0.00000000     0.00000000
    -0.00000032     0.00238363     0.00417208
     0.00000000     0.00000000     0.00000000
     0.00000000     0.00000000     0.00000000
     0.00000000     0.00000000     0.00000000
     0.00000000     0.00000000     0.00000000
     0.00000000     0.00000000     0.00000000
     0.00000000     0.00000000     0.00000000
     0.00000000     0.00000000     0.00000000
     0.00000000     0.00000000     0.00000000
     0.00000518     0.00090837     0.00539189
     0.00000000     0.00000000     0.00000000
     0.00000000     0.00000000     0.00000000
     0.00000000     0.00000000     0.00000000
     0.00000000     0.00000000     0.00000000
     0.00000000     0.00000000     0.00000000
     0.00000000     0.00000000     0.00000000
     0.00000000     0.00000000     0.00000000
     0.00000000     0.00000000     0.00000000
     0.00002255    -0.00255996     0.00546811
     0.00000000     0.00000000     0.00000000
     0.00000000     0.00000000     0.00000000
     0.00000000     0.00000000     0.00000000
     0.00000000     0.00000000     0.00000000
     0.00000000     0.00000000     0.00000000
     0.00000000     0.00000000     0.00000000
     0.00000000     0.00000000     0.00000000
     0.00000000     0.00000000     0.00000000
     0.00003550    -0.00647703     0.00449807
     0.00000000     0.00000000     0.00000000
     0.00000000     0.00000000     0.00000000
     0.00000000     0.00000000     0.00000000
     0.00000000     0.00000000     0.00000000
     0.00000000     0.00000000     0.00000000
     0.00000000     0.00000000     0.00000000
     0.00000000     0.00000000     0.00000000
     0.00391065    -0.00082150    -0.01266351
     0.00003995    -0.00923521     0.00401343
     0.00000000     0.00000000     0.00000000
     0.00000000     0.00000000     0.00000000
     0.00000000     0.00000000     0.00000000
     0.00000000     0.00000000     0.00000000
     0.00000000     0.00000000     0.00000000
     0.00000000     0.00000000     0.00000000
     0.00000000     0.00000000     0.00000000
     0.00000000     0.00000000     0.00000000
     0.00003265    -0.00991739     0.00409318
     0.00000000     0.00000000     0.00000000
     0.00000000     0.00000000     0.00000000
     0.00000000     0.00000000     0.00000000
     0.00000000     0.00000000     0.00000000
     0.00000000     0.00000000     0.00000000
     0.00000000     0.00000000     0.00000000
     0.00000000     0.00000000     0.00000000
     0.00000000     0.00000000     0.00000000
     0.00003704    -0.00805297     0.00387876
     0.00000000     0.00000000     0.00000000
     0.00000000     0.00000000     0.00000000
     0.00000000     0.00000000     0.00000000
     0.00000000     0.00000000     0.00000000
     0.00000000     0.00000000     0.00000000
     0.00000000     0.00000000     0.00000000
     0.00000000     0.00000000     0.00000000
     0.00000000     0.00000000     0.00000000
     0.00003178    -0.00437022     0.00273395
     0.00000000     0.00000000     0.00000000
     0.00000000     0.00000000     0.00000000
     0.00000000     0.00000000     0.00000000
     0.00000000     0.00000000     0.00000000
     0.00000000     0.00000000     0.00000000
     0.00000000     0.00000000     0.00000000
     0.00000000     0.00000000     0.00000000
     0.00000000     0.00000000     0.00000000
    -0.00062812    -0.00147263     0.00109393
    -0.00646017    -0.00949720     0.00774891
    -0.01033204    -0.00855722     0.00562980
    -0.01323042    -0.00627362     0.00390016
    -0.01452165    -0.00265736     0.00145868
    -0.01338763     0.00163376    -0.00196719
    -0.00793062     0.00629850    -0.00575159
    -0.00495166     0.00629887    -0.00550838
    -0.00496460     0.00954081    -0.01238599
     0.00023469     0.00023572     0.00087522
     0.00218573     0.00181888     0.00619911
     0.00133614     0.00100338     0.00295422
    -0.00152178     0.00045042    -0.00000968
    -0.00330837    -0.00081480    -0.00182314
    -0.00524068    -0.00175497    -0.00205353
    -0.00429850    -0.00351415    -0.00273992
    -0.00204091    -0.00276428    -0.00140066
    -0.01276770    -0.01787258    -0.00854012
     0.00000185     0.00041819     0.00149111
     0.00000000     0.00000000     0.00000000
     0.00000000     0.00000000     0.00000000
     0.00000000     0.00000000     0.00000000
     0.00000000     0.00000000     0.00000000
     0.00000000     0.00000000     0.00000000
     0.00000000     0.00000000     0.00000000
     0.00000000     0.00000000     0.00000000
     0.00000000     0.00000000     0.00000000
     0.00000372     0.00024498     0.00274292
     0.00000000     0.00000000     0.00000000
     0.00000000     0.00000000     0.00000000
     0.00000000     0.00000000     0.00000000
     0.00000000     0.00000000     0.00000000
     0.00000000     0.00000000     0.00000000
     0.00000000     0.00000000     0.00000000
     0.00000000     0.00000000     0.00000000
     0.00000000     0.00000000     0.00000000
     0.00001069    -0.00034521     0.00365617
     0.00000000     0.00000000     0.00000000
     0.00000000     0.00000000     0.00000000
     0.00000000     0.00000000     0.00000000
     0.00000000     0.00000000     0.00000000
     0.00000000     0.00000000     0.00000000
     0.00000000     0.00000000     0.00000000
     0.00000000     0.00000000     0.00000000
     0.00000000     0.00000000     0.00000000
     0.00001823    -0.00154263     0.00390035
     0.00000000     0.00000000     0.00000000
     0.00000000     0.00000000     0.00000000
     0.00000000     0.00000000     0.00000000
     0.00000000     0.00000000     0.00000000
     0.00000000     0.00000000     0.00000000
     0.00000000     0.00000000     0.00000000
     0.00000000     0.00000000     0.00000000
     0.00000000     0.00000000     0.00000000
     0.00002537    -0.00328578     0.00361528
     0.00000000     0.00000000     0.00000000
     0.00000000     0.00000000     0.00000000
     0.00000000     0.00000000     0.00000000
     0.00000000     0.00000000     0.00000000
     0.00000000     0.00000000     0.00000000
     0.00000000     0.00000000     0.00000000
     0.00000000     0.00000000     0.00000000
     0.01329610    -0.00552700    -0.00833419
     0.00002985    -0.00472086     0.00332157
     0.00000000     0.00000000     0.00000000
     0.00000000     0.00000000     0.00000000
     0.00000000     0.00000000     0.00000000
     0.00000000     0.00000000     0.00000000
     0.00000000     0.00000000     0.00000000
     0.00000000     0.00000000     0.00000000
     0.00000000     0.00000000     0.00000000
     0.00000000     0.00000000     0.00000000
     0.00002679    -0.00512288     0.00322909
     0.00000000     0.00000000     0.00000000
     0.00000000     0.00000000     0.00000000
     0.00000000     0.00000000     0.00000000
     0.00000000     0.00000000     0.00000000
     0.00000000     0.00000000     0.00000000
     0.00000000     0.00000000     0.00000000
     0.00000000     0.00000000     0.00000000
     0.00000000     0.00000000     0.00000000
     0.00001934    -0.00429004     0.00292270
     0.00000000     0.00000000     0.00000000
     0.00000000     0.00000000     0.00000000
     0.00000000     0.00000000     0.00000000
     0.00000000     0.00000000     0.00000000
     0.00000000     0.00000000     0.00000000
     0.00000000     0.00000000     0.00000000
     0.00000000     0.00000000     0.00000000
     0.00000000     0.00000000     0.00000000
     0.00001518    -0.00235487     0.00190232
     0.00000000     0.00000000     0.00000000
     0.00000000     0.00000000     0.00000000
     0.00000000     0.00000000     0.00000000
     0.00000000     0.00000000     0.00000000
     0.00000000     0.00000000     0.00000000
     0.00000000     0.00000000     0.00000000
     0.00000000     0.00000000     0.00000000
     0.00000000     0.00000000     0.00000000
    -0.00030504    -0.00126177     0.00119023
    -0.00323850    -0.00926934     0.00914512
    -0.00621262    -0.00882091     0.00743610
    -0.00962204    -0.00765386     0.00623657
    -0.01293208    -0.00450612     0.00395290
    -0.01365811     0.00023354     0.00093875
    -0.00787545     0.00700601    -0.00484226
    -0.00499189     0.00576067    -0.00135952
    -0.00782561     0.01469301    -0.01119951
     0.00019716     0.00009924     0.00044319
     0.00144900     0.00072830     0.00269169
     0.00108955     0.00031232     0.00125579
    -0.00032303     0.00003363    -0.00007466
    -0.00125499    -0.00057642    -0.00083437
    -0.00225983    -0.00097879    -0.00086467
    -0.00185561    -0.00186138    -0.00116291
    -0.00078274    -0.00149101    -0.00060781
    -0.00589387    -0.01083559    -0.00359322
     0.00039804     0.00018487     0.00082271
     0.00370182     0.00161085     0.00554816
     0.00298509     0.00072617     0.00275667
     0.00016257    -0.00004611     0.00009049
    -0.00182045    -0.00136751    -0.00136153
    -0.00388815    -0.00216262    -0.00142459
    -0.00317857    -0.00407958    -0.00200269
    -0.00127366    -0.00321527    -0.00107244
    -0.00982479    -0.02652246    -0.00846323
     0.00054653     0.00004253     0.00094557
     0.00531969     0.00058342     0.00575236
     0.00630269     0.00005727     0.00402405
     0.00524302    -0.00061425     0.00155198
     0.00335834    -0.00106076    -0.00016294
     0.00102475    -0.00128982    -0.00084078
    -0.00029167    -0.00308406    -0.00165050
    -0.00054209    -0.00209041    -0.00083365
     0.00267904    -0.01554691    -0.01468241
     0.00060559    -0.00011368     0.00099351
     0.00610100    -0.00043938     0.00560397
     0.00890641    -0.00037413     0.00511558
     0.00908673     0.00020705     0.00314937
     0.00779983     0.00080909     0.00125071
     0.00533240     0.00126448     0.00001212
     0.00209120     0.00004613    -0.00080963
     0.00076210    -0.00016042    -0.00136064
     0.00412133    -0.01133061    -0.01294332
     0.00059664    -0.00037341     0.00096015
     0.00605304    -0.00207125     0.00513141
     0.00920869    -0.00143144     0.00497525
     0.01010415     0.00031821     0.00334853
     0.00927509     0.00235837     0.00152322
     0.00683394     0.00383664     0.00010207
     0.00340326     0.00406646    -0.00064645
     0.00088324     0.00374210    -0.00102847
     0.00678949    -0.00467364    -0.01495164
     0.00052448    -0.00077125     0.00089665
     0.00530335    -0.00451500     0.00475808
     0.00790586    -0.00345645     0.00443276
     0.00871236    -0.00084582     0.00280848
     0.00822761     0.00263067     0.00096861
     0.00595223     0.00599033    -0.00048846
     0.00236714     0.00758082    -0.00105019
     0.00110516     0.00742666    -0.00179256
     0.00246920     0.00341762    -0.00375025
     0.00038651    -0.00117139     0.00086563
     0.00382967    -0.00714406     0.00475638
     0.00529573    -0.00601316     0.00408048
     0.00560774    -0.00312915     0.00240304
     0.00481798     0.00164640     0.00029805
     0.00326340     0.00711601    -0.00153353
     0.00074313     0.01063029    -0.00225847
     0.00009664     0.00730328    -0.00154591
     0.00586763     0.01948578    -0.01105062
     0.00024080    -0.00143759     0.00093624
     0.00225215    -0.00928899     0.00553765
     0.00222449    -0.00843393     0.00441557
     0.00082454    -0.00596374     0.00250437
    -0.00099125    -0.00062997     0.00015721
    -0.00226916     0.00660117    -0.00219354
    -0.00225564     0.01224770    -0.00356042
    -0.00204689     0.00991428    -0.00113880
     0.00066478     0.02743236    -0.00914638
     0.00008518    -0.00153617     0.00104272
     0.00052848    -0.01076220     0.00675960
    -0.00121331    -0.01024717     0.00514219
    -0.00385614    -0.00827742     0.00342386
    -0.00742573    -0.00369948     0.00120357
    -0.00832748     0.00400535    -0.00148699
    -0.00613204     0.01179123    -0.00396779
    -0.00383551     0.01016440    -0.00100794
    -0.00269600     0.02668050    -0.01066096
    -0.00004146    -0.00136728     0.00107240
    -0.00082176    -0.01055924     0.00779750
    -0.00376180    -0.01040146     0.00592837
    -0.00744904    -0.00933784     0.00471728
    -0.01146697    -0.00563894     0.00295347
    -0.01262186     0.00044506     0.00084657
    -0.00691559     0.00879871    -0.00370631
    -0.00447855     0.00770226    -0.00034567
    -0.00689652     0.02735198    -0.01281595
    -0.00009073    -0.00067974     0.00060491
    -0.00084257    -0.00448988     0.00394999
    -0.00220485    -0.00442007     0.00317836
    -0.00390104    -0.00402226     0.00269398
    -0.00569885    -0.00250806     0.00178777
    -0.00631738    -0.00004370     0.00063761
    -0.00359053     0.00376896    -0.00205572
    -0.00234763     0.00316583    -0.00022815
    -0.00362703     0.00956741    -0.00545743
    -0.01133781     0.00296673     0.00102986
    -0.01303484    -0.01353980     0.00002452
    -0.01799267    -0.00482619    -0.00006194
    -0.01853280    -0.00496842    -0.00003177
    -0.01812196    -0.00487030    -0.00017853
    -0.01627433    -0.00438561    -0.00030556
    -0.01294115    -0.00350242    -0.00042790
    -0.00872598    -0.00237739    -0.00048201
    -0.00433808    -0.00119650    -0.00041862
    -0.00128296    -0.00036056    -0.00020603
     0.00008833    -0.00077831    -0.00001472
     0.00000000     0.00000000     0.00000000
     0.00000000     0.00000000     0.00000000
     0.00000000     0.00000000     0.00000000
     0.00000000     0.00000000     0.00000000
     0.00000000     0.00000000     0.00000000
     0.00000000     0.00000000     0.00000000
     0.00000000     0.00000000     0.00000000
     0.00000000     0.00000000     0.00000000
     0.00000000     0.00000000     0.00000000
     0.00000000     0.00000000     0.00000000
     0.00220132    -0.00821547     0.00007684
     0.00000000     0.00000000     0.00000000
     0.00000000     0.00000000     0.00000000
     0.00000000     0.00000000     0.00000000
     0.00000000     0.00000000     0.00000000
     0.00000000     0.00000000     0.00000000
     0.00000000     0.00000000     0.00000000
     0.00000000     0.00000000     0.00000000
     0.00000000     0.00000000     0.00000000
     0.00000000     0.00000000     0.00000000
     0.00000000     0.00000000     0.00000000
     0.00602699    -0.02249296     0.00030693
     0.00000000     0.00000000     0.00000000
     0.00000000     0.00000000     0.00000000
     0.00000000     0.00000000     0.00000000
     0.00000000     0.00000000     0.00000000
     0.00000000     0.00000000     0.00000000
     0.00000000     0.00000000     0.00000000
     0.00000000     0.00000000     0.00000000
     0.00000000     0.00000000     0.00000000
     0.00000000     0.00000000     0.00000000
     0.00000000     0.00000000     0.00000000
     0.00643049    -0.02399884     0.00087038
     0.00000000     0.00000000     0.00000000
     0.00000000     0.00000000     0.00000000
     0.00000000     0.00000000     0.00000000
     0.00000000     0.00000000     0.00000000
     0.00000000     0.00000000     0.00000000
     0.00000000     0.00000000     0.00000000
     0.00000000     0.00000000     0.00000000
     0.00000000     0.00000000     0.00000000
     0.00000000     0.00000000     0.00000000
     0.00000000     0.00000000     0.00000000
     0.00257529    -0.00961109     0.00101847
     0.02985953    -0.02259419    -0.00083327
     0.02531009    -0.01460947     0.00030414
     0.00914457     0.00241364     0.00044892
     0.00842933     0.00227423    -0.00019124
     0.01129113     0.00305675    -0.00038416
     0.01405365     0.00378197    -0.00020021
     0.01458099     0.00389367     0.00016358
     0.01215131     0.00321029     0.00056031
     0.00750643     0.00194636     0.00079755
     0.00263326     0.00065166     0.00066197
     0.00048602    -0.00084440     0.00019740
    -0.00435981    -0.00113535     0.00200856
    -0.01301505    -0.01449204    -0.00129672
    -0.01718734    -0.00475008    -0.00085029
    -0.01815918    -0.00490621    -0.00024292
    -0.01793527    -0.00489928    -0.00051094
    -0.01625129    -0.00447451    -0.00061024
    -0.01311125    -0.00368262    -0.00084107
    -0.00880306    -0.00254161    -0.00089096
    -0.00443131    -0.00134633    -0.00076746
    -0.00124365    -0.00040121    -0.00031959
     0.00006979    -0.00068631    -0.00000323
     0.00000000     0.00000000     0.00000000
     0.00000000     0.00000000     0.00000000
     0.00000000     0.00000000     0.00000000
     0.00000000     0.00000000     0.00000000
     0.00000000     0.00000000     0.00000000
     0.00000000     0.00000000     0.00000000
     0.00000000     0.00000000     0.00000000
     0.00000000     0.00000000     0.00000000
     0.00000000     0.00000000     0.00000000
     0.00000000     0.00000000     0.00000000
     0.00195395    -0.00729221     0.00032963
     0.00000000     0.00000000     0.00000000
     0.00000000     0.00000000     0.00000000
     0.00000000     0.00000000     0.00000000
     0.00000000     0.00000000     0.00000000
     0.00000000     0.00000000     0.00000000
     0.00000000     0.00000000     0.00000000
     0.00000000     0.00000000     0.00000000
     0.00000000     0.00000000     0.00000000
     0.00000000     0.00000000     0.00000000
     0.00000000     0.00000000     0.00000000
     0.00557505    -0.02080638     0.00134545
     0.00000000     0.00000000     0.00000000
     0.00000000     0.00000000     0.00000000
     0.00000000     0.00000000     0.00000000
     0.00000000     0.00000000     0.00000000
     0.00000000     0.00000000     0.00000000
     0.00000000     0.00000000     0.00000000
     0.00000000     0.00000000     0.00000000
     0.00000000     0.00000000     0.00000000
     0.00000000     0.00000000     0.00000000
     0.00000000     0.00000000     0.00000000
     0.00615012    -0.02295255     0.00390596
     0.00000000     0.00000000     0.00000000
     0.00000000     0.00000000     0.00000000
     0.00000000     0.00000000     0.00000000
     0.00000000     0.00000000     0.00000000
     0.00000000     0.00000000     0.00000000
     0.00000000     0.00000000     0.00000000
     0.00000000     0.00000000     0.00000000
     0.00000000     0.00000000     0.00000000
     0.00000000     0.00000000     0.00000000
     0.00000000     0.00000000     0.00000000
     0.00258631    -0.00965229     0.00458309
     0.02865317    -0.02142465    -0.00412066
     0.02403103    -0.01434554     0.00103863
     0.00874794     0.00203855     0.00165711
     0.00824199     0.00222561     0.00000468
     0.01141656     0.00322612    -0.00083240
     0.01415519     0.00386420    -0.00036048
     0.01453328     0.00377060     0.00064269
     0.01198794     0.00284491     0.00193583
     0.00735600     0.00144753     0.00278815
     0.00262078     0.00024989     0.00242757
     0.00049232    -0.00091158     0.00082744
    -0.00390793    -0.00541452     0.00766788
    -0.01223804    -0.01711962    -0.00209105
    -0.01500560    -0.00463855    -0.00176995
    -0.01637293    -0.00451951    -0.00040888
    -0.01689318    -0.00474116    -0.00063758
    -0.01599738    -0.00456360    -0.00079702
    -0.01312897    -0.00400626    -0.00138054
    -0.00903070    -0.00296293    -0.00152251
    -0.00445949    -0.00170793    -0.00143247
    -0.00129018    -0.00054541    -0.00055377
     0.00000995    -0.00050012    -0.00002273
     0.00000000     0.00000000     0.00000000
     0.00000000     0.00000000     0.00000000
     0.00000000     0.00000000     0.00000000
     0.00000000     0.00000000     0.00000000
     0.00000000     0.00000000     0.00000000
     0.00000000     0.00000000     0.00000000
     0.00000000     0.00000000     0.00000000
     0.00000000     0.00000000     0.00000000
     0.00000000     0.00000000     0.00000000
     0.00000000     0.00000000     0.00000000
     0.00140677    -0.00525007     0.00036332
     0.00000000     0.00000000     0.00000000
     0.00000000     0.00000000     0.00000000
     0.00000000     0.00000000     0.00000000
     0.00000000     0.00000000     0.00000000
     0.00000000     0.00000000     0.00000000
     0.00000000     0.00000000     0.00000000
     0.00000000     0.00000000     0.00000000
     0.00000000     0.00000000     0.00000000
     0.00000000     0.00000000     0.00000000
     0.00000000     0.00000000     0.00000000
     0.00437895    -0.01634244     0.00174978
     0.00000000     0.00000000     0.00000000
     0.00000000     0.00000000     0.00000000
     0.00000000     0.00000000     0.00000000
     0.00000000     0.00000000     0.00000000
     0.00000000     0.00000000     0.00000000
     0.00000000     0.00000000     0.00000000
     0.00000000     0.00000000     0.00000000
     0.00000000     0.00000000     0.00000000
     0.00000000     0.00000000     0.00000000
     0.00000000     0.00000000     0.00000000
     0.00523320    -0.01953058     0.00588889
     0.00000000     0.00000000     0.00000000
     0.00000000     0.00000000     0.00000000
     0.00000000     0.00000000     0.00000000
     0.00000000     0.00000000     0.00000000
     0.00000000     0.00000000     0.00000000
     0.00000000     0.00000000     0.00000000
     0.00000000     0.00000000     0.00000000
     0.00000000     0.00000000     0.00000000
     0.00000000     0.00000000     0.00000000
     0.00000000     0.00000000     0.00000000
     0.00248797    -0.00928522     0.00705604
     0.02415614    -0.01782638    -0.00619400
     0.02162381    -0.01365433     0.00280901
     0.00771826     0.00116495     0.00261062
     0.00803410     0.00231419    -0.00041300
     0.01145488     0.00363673    -0.00159860
     0.01401684     0.00390049    -0.00042020
     0.01392296     0.00322026     0.00143536
     0.01105067     0.00165359     0.00371819
     0.00662323     0.00002988     0.00499392
     0.00243855    -0.00084915     0.00431340
     0.00047992    -0.00104067     0.00134306
    -0.00487845    -0.00587729     0.01579773
    -0.01115384    -0.01955321     0.00010000
    -0.01010482    -0.00475677    -0.00379672
    -0.01299434    -0.00358398    -0.00021214
    -0.01493534    -0.00424869    -0.00047815
    -0.01492679    -0.00428982    -0.00055251
    -0.01275768    -0.00423153    -0.00151061
    -0.00886129    -0.00332585    -0.00175827
    -0.00444809    -0.00219753    -0.00185376
    -0.00122495    -0.00070320    -0.00068775
    -0.00003810    -0.00030012    -0.00006536
     0.00000000     0.00000000     0.00000000
     0.00000000     0.00000000     0.00000000
     0.00000000     0.00000000     0.00000000
     0.00000000     0.00000000     0.00000000
     0.00000000     0.00000000     0.00000000
     0.00000000     0.00000000     0.00000000
     0.00000000     0.00000000     0.00000000
     0.00000000     0.00000000     0.00000000
     0.00000000     0.00000000     0.00000000
     0.00000000     0.00000000     0.00000000
     0.00079077    -0.00295115     0.00002975
     0.00000000     0.00000000     0.00000000
     0.00000000     0.00000000     0.00000000
     0.00000000     0.00000000     0.00000000
     0.00000000     0.00000000     0.00000000
     0.00000000     0.00000000     0.00000000
     0.00000000     0.00000000     0.00000000
     0.00000000     0.00000000     0.00000000
     0.00000000     0.00000000     0.00000000
     0.00000000     0.00000000     0.00000000
     0.00000000     0.00000000     0.00000000
     0.00277993    -0.01037469     0.00090766
     0.00000000     0.00000000     0.00000000
     0.00000000     0.00000000     0.00000000
     0.00000000     0.00000000     0.00000000
     0.00000000     0.00000000     0.00000000
     0.00000000     0.00000000     0.00000000
     0.00000000     0.00000000     0.00000000
     0.00000000     0.00000000     0.00000000
     0.00000000     0.00000000     0.00000000
     0.00000000     0.00000000     0.00000000
     0.00000000     0.00000000     0.00000000
     0.00365379    -0.01363615     0.00481726
     0.00000000     0.00000000     0.00000000
     0.00000000     0.00000000     0.00000000
     0.00000000     0.00000000     0.00000000
     0.00000000     0.00000000     0.00000000
     0.00000000     0.00000000     0.00000000
     0.00000000     0.00000000     0.00000000
     0.00000000     0.00000000     0.00000000
     0.00000000     0.00000000     0.00000000
     0.00000000     0.00000000     0.00000000
     0.00000000     0.00000000     0.00000000
     0.00200496    -0.00748256     0.00630073
     0.01902997    -0.01314575    -0.00883337
     0.01863877    -0.01348520     0.00643054
     0.00791017     0.00080384     0.00244381
     0.00778502     0.00257818    -0.00089737
     0.01090806     0.00408212    -0.00214860
     0.01293064     0.00355217    -0.00017479
     0.01215419     0.00212392     0.00208617
     0.00897571    -0.00017468     0.00478555
     0.00499518    -0.00181000     0.00586353
     0.00189939    -0.00218011     0.00501918
     0.00039291    -0.00104384     0.00134247
    -0.01519421    -0.00841974     0.03569889
    -0.00852931    -0.01810802     0.00442095
    -0.00169151    -0.00361246    -0.00415725
    -0.00931609    -0.00231781     0.00022442
    -0.01118039    -0.00318514    -0.00025933
    -0.01243457    -0.00340314    -0.00010334
    -0.01080791    -0.00388514    -0.00130367
    -0.00786748    -0.00326304    -0.00151748
    -0.00369697    -0.00233940    -0.00176995
    -0.00111490    -0.00090131    -0.00078569
    -0.00006938    -0.00019605    -0.00011015
     0.00000000     0.00000000     0.00000000
     0.00000000     0.00000000     0.00000000
     0.00000000     0.00000000     0.00000000
     0.00000000     0.00000000     0.00000000
     0.00000000     0.00000000     0.00000000
     0.00000000     0.00000000     0.00000000
     0.00000000     0.00000000     0.00000000
     0.00000000     0.00000000     0.00000000
     0.00000000     0.00000000     0.00000000
     0.00000000     0.00000000     0.00000000
     0.00036292    -0.00135444    -0.00028588
     0.00000000     0.00000000     0.00000000
     0.00000000     0.00000000     0.00000000
     0.00000000     0.00000000     0.00000000
     0.00000000     0.00000000     0.00000000
     0.00000000     0.00000000     0.00000000
     0.00000000     0.00000000     0.00000000
     0.00000000     0.00000000     0.00000000
     0.00000000     0.00000000     0.00000000
     0.00000000     0.00000000     0.00000000
     0.00000000     0.00000000     0.00000000
     0.00127105    -0.00474361    -0.00006884
     0.00000000     0.00000000     0.00000000
     0.00000000     0.00000000     0.00000000
     0.00000000     0.00000000     0.00000000
     0.00000000     0.00000000     0.00000000
     0.00000000     0.00000000     0.00000000
     0.00000000     0.00000000     0.00000000
     0.00000000     0.00000000     0.00000000
     0.00000000     0.00000000     0.00000000
     0.00000000     0.00000000     0.00000000
     0.00000000     0.00000000     0.00000000
     0.00173017    -0.00645703     0.00201343
     0.00000000     0.00000000     0.00000000
     0.00000000     0.00000000     0.00000000
     0.00000000     0.00000000     0.00000000
     0.00000000     0.00000000     0.00000000
     0.00000000     0.00000000     0.00000000
     0.00000000     0.00000000     0.00000000
     0.00000000     0.00000000     0.00000000
     0.00000000     0.00000000     0.00000000
     0.00000000     0.00000000     0.00000000
     0.00000000     0.00000000     0.00000000
     0.00104568    -0.00390251     0.00313305
     0.00489200    -0.00067582    -0.00855875
     0.01571501    -0.01180502     0.00719096
     0.01011194     0.00083964     0.00243936
     0.00706009     0.00223102    -0.00045687
     0.00920275     0.00387835    -0.00186234
     0.01031154     0.00257929     0.00023019
     0.00891263     0.00083201     0.00203994
     0.00579874    -0.00172359     0.00431226
     0.00283779    -0.00296435     0.00491152
     0.00094748    -0.00278127     0.00401137
     0.00019994    -0.00074480     0.00084690
    -0.01065546    -0.00512942     0.02018104
    -0.00407539    -0.00999087     0.00289152
    -0.00011446    -0.00205076    -0.00171183
    -0.00474905    -0.00112926     0.00012087
    -0.00574229    -0.00158760    -0.00004838
    -0.00651626    -0.00179416    -0.00003703
    -0.00564829    -0.00220723    -0.00057842
    -0.00412055    -0.00197728    -0.00072136
    -0.00187566    -0.00149808    -0.00082625
    -0.00056599    -0.00061749    -0.00038572
    -0.00006356    -0.00009582    -0.00005742
    -0.03041293    -0.01008453     0.04891354
    -0.00902636    -0.02688323     0.00884978
    -0.00038540    -0.00490700    -0.00267418
    -0.01102050    -0.00256182     0.00020655
    -0.01368204    -0.00350182     0.00003732
    -0.01573587    -0.00472434    -0.00019485
    -0.01393019    -0.00617520    -0.00118643
    -0.01020082    -0.00611096    -0.00160188
    -0.00468263    -0.00478771    -0.00171856
    -0.00133042    -0.00217151    -0.00085682
    -0.00007697    -0.00035708    -0.00012558
    -0.01180348     0.01243711     0.01434752
    -0.00154924    -0.01994937     0.00571630
     0.00031832    -0.00251818    -0.00037360
    -0.00091282     0.00045554     0.00006678
    -0.00340862     0.00029513     0.00012126
    -0.00609442    -0.00342363    -0.00033123
    -0.00752262    -0.00680563    -0.00073164
    -0.00625211    -0.00898885    -0.00108038
    -0.00332204    -0.00785051    -0.00099063
    -0.00052892    -0.00447208    -0.00061031
     0.00010570    -0.00096108    -0.00008839
    -0.00924929     0.01611200     0.00410931
     0.00237765    -0.01213079     0.00601294
     0.00959359    -0.00462750     0.00120801
     0.00875549     0.00399273    -0.00023896
     0.00807790     0.00460478    -0.00043079
     0.00510076     0.00108250    -0.00001918
     0.00235174    -0.00470827     0.00079749
     0.00043337    -0.00833478     0.00132294
     0.00044174    -0.00921487     0.00151048
     0.00081063    -0.00591806     0.00101201
     0.00027845    -0.00130736     0.00030744
     0.00307608     0.00358422    -0.00744504
     0.01745434    -0.01735861     0.00537828
     0.01483830    -0.00120424     0.00254835
     0.00982869     0.00363200    -0.00047921
     0.01208446     0.00612123    -0.00150128
     0.01302207     0.00313909     0.00020162
     0.01102322    -0.00083334     0.00189999
     0.00709349    -0.00524084     0.00365237
     0.00368534    -0.00703957     0.00410152
     0.00147250    -0.00572607     0.00317155
     0.00025462    -0.00106319     0.00068272
     0.00169284     0.00081545    -0.00394757
     0.00792037    -0.00659643     0.00300560
     0.00581195     0.00007546     0.00122231
     0.00374487     0.00125823    -0.00020672
     0.00478747     0.00226861    -0.00082220
     0.00536613     0.00128336     0.00012967
     0.00461873     0.00007865     0.00096125
     0.00299309    -0.00152600     0.00193962
     0.00149264    -0.00221312     0.00217769
     0.00053247    -0.00193479     0.00173486
     0.00008363    -0.00035985     0.00031987
     0.00166613    -0.00031405    -0.00162451
     0.02784908    -0.00740017    -0.00076181
     0.03246800    -0.00875263     0.00064608
     0.02007402    -0.00546025     0.00099977
     0.00832637    -0.00229671     0.00080634
     0.00022484    -0.00008259     0.00027419
    -0.00021592     0.00005564     0.00002721
     0.00006902     0.00032953     0.00002730
     0.00000000     0.00000000     0.00000000
     0.00000000     0.00000000     0.00000000
     0.00000000     0.00000000     0.00000000
     0.00000000     0.00000000     0.00000000
     0.00000000     0.00000000     0.00000000
     0.00000000     0.00000000     0.00000000
     0.00000000     0.00000000     0.00000000
     0.00000000     0.00000000     0.00000000
     0.00078330     0.00292329     0.00026363
     0.00000000     0.00000000     0.00000000
     0.00000000     0.00000000     0.00000000
     0.00000000     0.00000000     0.00000000
     0.00000000     0.00000000     0.00000000
     0.00000000     0.00000000     0.00000000
     0.00000000     0.00000000     0.00000000
     0.00000000     0.00000000     0.00000000
     0.00000000     0.00000000     0.00000000
     0.00102719     0.00383353     0.00054978
     0.00000000     0.00000000     0.00000000
     0.00000000     0.00000000     0.00000000
     0.00000000     0.00000000     0.00000000
     0.00000000     0.00000000     0.00000000
     0.00000000     0.00000000     0.00000000
     0.00000000     0.00000000     0.00000000
     0.00000000     0.00000000     0.00000000
     0.00000000     0.00000000     0.00000000
     0.00015583     0.00058159     0.00069041
     0.00000000     0.00000000     0.00000000
     0.00000000     0.00000000     0.00000000
     0.00000000     0.00000000     0.00000000
     0.00000000     0.00000000     0.00000000
     0.00000000     0.00000000     0.00000000
     0.00000000     0.00000000     0.00000000
     0.00000000     0.00000000     0.00000000
     0.00000000     0.00000000     0.00000000
    -0.00024704    -0.00092196     0.00049762
     0.00004512    -0.00142455    -0.00108212
     0.00162765    -0.00035350     0.00101390
    -0.00929240     0.00252786     0.00046643
    -0.01233286     0.00330825     0.00004537
    -0.00873227     0.00231126    -0.00035105
    -0.00291819     0.00076446    -0.00021461
     0.00071852    -0.00019035     0.00002676
     0.00071735    -0.00017270     0.00023939
     0.00004532    -0.00014479     0.00008718
    -0.02262143     0.00629717     0.00972202
    -0.00391309     0.00129840    -0.00057861
     0.02752588    -0.00709489    -0.00138788
     0.02935644    -0.00822833     0.00189221
     0.01881716    -0.00557918     0.00276822
     0.00561404    -0.00194858     0.00236882
     0.00013386    -0.00020844     0.00093537
    -0.00138081     0.00029506     0.00045931
    -0.00010504     0.00032385     0.00016599
     0.00000000     0.00000000     0.00000000
     0.00000000     0.00000000     0.00000000
     0.00000000     0.00000000     0.00000000
     0.00000000     0.00000000     0.00000000
     0.00000000     0.00000000     0.00000000
     0.00000000     0.00000000     0.00000000
     0.00000000     0.00000000     0.00000000
     0.00000000     0.00000000     0.00000000
     0.00070019     0.00261312     0.00114093
     0.00000000     0.00000000     0.00000000
     0.00000000     0.00000000     0.00000000
     0.00000000     0.00000000     0.00000000
     0.00000000     0.00000000     0.00000000
     0.00000000     0.00000000     0.00000000
     0.00000000     0.00000000     0.00000000
     0.00000000     0.00000000     0.00000000
     0.00000000     0.00000000     0.00000000
     0.00104257     0.00389092     0.00243751
     0.00000000     0.00000000     0.00000000
     0.00000000     0.00000000     0.00000000
     0.00000000     0.00000000     0.00000000
     0.00000000     0.00000000     0.00000000
     0.00000000     0.00000000     0.00000000
     0.00000000     0.00000000     0.00000000
     0.00000000     0.00000000     0.00000000
     0.00000000     0.00000000     0.00000000
     0.00030186     0.00112657     0.00308760
     0.00000000     0.00000000     0.00000000
     0.00000000     0.00000000     0.00000000
     0.00000000     0.00000000     0.00000000
     0.00000000     0.00000000     0.00000000
     0.00000000     0.00000000     0.00000000
     0.00000000     0.00000000     0.00000000
     0.00000000     0.00000000     0.00000000
     0.00000000     0.00000000     0.00000000
    -0.00009689    -0.00036164     0.00221578
     0.00149546    -0.00185510    -0.00462205
     0.00265433    -0.00014910     0.00289496
    -0.00901059     0.00272608     0.00156132
    -0.01280576     0.00354479     0.00067542
    -0.00940507     0.00243549    -0.00040110
    -0.00342143     0.00091930     0.00011770
     0.00008959     0.00010087     0.00072183
     0.00070493     0.00005437     0.00135980
     0.00007180    -0.00005335     0.00041908
    -0.03974997     0.00993866     0.02046415
    -0.01431075     0.00539615    -0.00399105
     0.02065723    -0.00482043    -0.00197380
     0.02410207    -0.00750228     0.00294657
     0.01116281    -0.00480256     0.00517614
     0.00188881    -0.00165442     0.00331114
    -0.00323503     0.00038157     0.00142158
    -0.00142540     0.00021656     0.00051329
    -0.00007364     0.00023551     0.00018727
     0.00000000     0.00000000     0.00000000
     0.00000000     0.00000000     0.00000000
     0.00000000     0.00000000     0.00000000
     0.00000000     0.00000000     0.00000000
     0.00000000     0.00000000     0.00000000
     0.00000000     0.00000000     0.00000000
     0.00000000     0.00000000     0.00000000
     0.00000000     0.00000000     0.00000000
     0.00055513     0.00207168     0.00141057
     0.00000000     0.00000000     0.00000000
     0.00000000     0.00000000     0.00000000
     0.00000000     0.00000000     0.00000000
     0.00000000     0.00000000     0.00000000
     0.00000000     0.00000000     0.00000000
     0.00000000     0.00000000     0.00000000
     0.00000000     0.00000000     0.00000000
     0.00000000     0.00000000     0.00000000
     0.00100133     0.00373690     0.00344439
     0.00000000     0.00000000     0.00000000
     0.00000000     0.00000000     0.00000000
     0.00000000     0.00000000     0.00000000
     0.00000000     0.00000000     0.00000000
     0.00000000     0.00000000     0.00000000
     0.00000000     0.00000000     0.00000000
     0.00000000     0.00000000     0.00000000
     0.00000000     0.00000000     0.00000000
     0.00061094     0.00227998     0.00457519
     0.00000000     0.00000000     0.00000000
     0.00000000     0.00000000     0.00000000
     0.00000000     0.00000000     0.00000000
     0.00000000     0.00000000     0.00000000
     0.00000000     0.00000000     0.00000000
     0.00000000     0.00000000     0.00000000
     0.00000000     0.00000000     0.00000000
     0.00000000     0.00000000     0.00000000
     0.00020118     0.00075079     0.00323518
     0.00585994    -0.00359835    -0.00908464
     0.00596968     0.00048441     0.00584278
    -0.00852339     0.00384909     0.00440691
    -0.01390150     0.00404843     0.00092081
    -0.01080531     0.00288601    -0.00001105
    -0.00531452     0.00142512     0.00003736
    -0.00088534     0.00076575     0.00153240
    -0.00006711     0.00084490     0.00239506
     0.00001524     0.00017120     0.00065690
    -0.06315101     0.01658479     0.02822455
    -0.03474056     0.01480674    -0.00975291
     0.01405116    -0.00176340    -0.00369770
     0.01253758    -0.00534992     0.00371682
     0.00331570    -0.00370152     0.00525264
    -0.00486344    -0.00032554     0.00307398
    -0.00533006     0.00095766     0.00090537
    -0.00343373     0.00085274     0.00015819
    -0.00034301     0.00023532     0.00009542
     0.00000000     0.00000000     0.00000000
     0.00000000     0.00000000     0.00000000
     0.00000000     0.00000000     0.00000000
     0.00000000     0.00000000     0.00000000
     0.00000000     0.00000000     0.00000000
     0.00000000     0.00000000     0.00000000
     0.00000000     0.00000000     0.00000000
     0.00000000     0.00000000     0.00000000
     0.00037564     0.00140192     0.00091394
     0.00000000     0.00000000     0.00000000
     0.00000000     0.00000000     0.00000000
     0.00000000     0.00000000     0.00000000
     0.00000000     0.00000000     0.00000000
     0.00000000     0.00000000     0.00000000
     0.00000000     0.00000000     0.00000000
     0.00000000     0.00000000     0.00000000
     0.00000000     0.00000000     0.00000000
     0.00085229     0.00318073     0.00256791
     0.00000000     0.00000000     0.00000000
     0.00000000     0.00000000     0.00000000
     0.00000000     0.00000000     0.00000000
     0.00000000     0.00000000     0.00000000
     0.00000000     0.00000000     0.00000000
     0.00000000     0.00000000     0.00000000
     0.00000000     0.00000000     0.00000000
     0.00000000     0.00000000     0.00000000
     0.00074315     0.00277343     0.00372293
     0.00000000     0.00000000     0.00000000
     0.00000000     0.00000000     0.00000000
     0.00000000     0.00000000     0.00000000
     0.00000000     0.00000000     0.00000000
     0.00000000     0.00000000     0.00000000
     0.00000000     0.00000000     0.00000000
     0.00000000     0.00000000     0.00000000
     0.00000000     0.00000000     0.00000000
     0.00041374     0.00154413     0.00277142
     0.00946483    -0.00765494    -0.01498577
     0.00741442     0.00362200     0.01034871
    -0.00714798     0.00554368     0.00666210
    -0.01447465     0.00498378     0.00201867
    -0.01322914     0.00368955     0.00027710
    -0.00687597     0.00196784     0.00023395
    -0.00316461     0.00189357     0.00195354
    -0.00042906     0.00165056     0.00287039
     0.00003121     0.00035762     0.00066543
    -0.07632776     0.01589439     0.03404471
    -0.04603166     0.02752515    -0.01960773
     0.00422510     0.00097838    -0.00278444
     0.00329592    -0.00183086     0.00130183
    -0.00542158    -0.00178706     0.00428334
    -0.00753154     0.00112444     0.00121794
    -0.00856656     0.00200169     0.00040278
    -0.00299376     0.00119825    -0.00049913
    -0.00024554     0.00019850    -0.00008251
     0.00000000     0.00000000     0.00000000
     0.00000000     0.00000000     0.00000000
     0.00000000     0.00000000     0.00000000
     0.00000000     0.00000000     0.00000000
     0.00000000     0.00000000     0.00000000
     0.00000000     0.00000000     0.00000000
     0.00000000     0.00000000     0.00000000
     0.00000000     0.00000000     0.00000000
     0.00019881     0.00074200     0.00002162
     0.00000000     0.00000000     0.00000000
     0.00000000     0.00000000     0.00000000
     0.00000000     0.00000000     0.00000000
     0.00000000     0.00000000     0.00000000
     0.00000000     0.00000000     0.00000000
     0.00000000     0.00000000     0.00000000
     0.00000000     0.00000000     0.00000000
     0.00000000     0.00000000     0.00000000
     0.00051408     0.00191861     0.00085151
     0.00000000     0.00000000     0.00000000
     0.00000000     0.00000000     0.00000000
     0.00000000     0.00000000     0.00000000
     0.00000000     0.00000000     0.00000000
     0.00000000     0.00000000     0.00000000
     0.00000000     0.00000000     0.00000000
     0.00000000     0.00000000     0.00000000
     0.00000000     0.00000000     0.00000000
     0.00054173     0.00202177     0.00166543
     0.00000000     0.00000000     0.00000000
     0.00000000     0.00000000     0.00000000
     0.00000000     0.00000000     0.00000000
     0.00000000     0.00000000     0.00000000
     0.00000000     0.00000000     0.00000000
     0.00000000     0.00000000     0.00000000
     0.00000000     0.00000000     0.00000000
     0.00000000     0.00000000     0.00000000
     0.00031101     0.00116069     0.00136960
    -0.00011663    -0.01436110    -0.01787268
     0.00327674     0.00716530     0.01057755
    -0.00152952     0.00710388     0.00870100
    -0.01529697     0.00600047     0.00248948
    -0.01274154     0.00388561     0.00060719
    -0.00851138     0.00256396     0.00037249
    -0.00431674     0.00257348     0.00186114
    -0.00166135     0.00228076     0.00242339
    -0.00012965     0.00039129     0.00045166
    -0.04098094     0.00218877     0.01837996
    -0.02508504     0.01897516    -0.01015644
     0.00154559     0.00119329    -0.00132277
     0.00099444    -0.00093378     0.00053729
    -0.00379718    -0.00115886     0.00182324
    -0.00430637     0.00057392     0.00047555
    -0.00494789     0.00121209     0.00010143
    -0.00152657     0.00077997    -0.00030531
    -0.00016428     0.00012363    -0.00006036
    -0.10838398    -0.01037847     0.05670006
    -0.05741042     0.05594374    -0.02025408
     0.00214543     0.00627171    -0.00315608
     0.00023544    -0.00270442     0.00127069
    -0.01060388    -0.00329771     0.00322184
    -0.01166107     0.00099260     0.00103501
    -0.01227934     0.00329720     0.00005287
    -0.00385156     0.00241337    -0.00066501
    -0.00029818     0.00034772    -0.00009998
    -0.02563429    -0.05216866     0.00742697
    -0.01184734     0.05860899    -0.00880697
    -0.01093773     0.01997230    -0.00251398
    -0.01382293     0.00054941     0.00055658
    -0.01420006    -0.00184516     0.00091808
    -0.01316628     0.00044010     0.00051853
    -0.00816509     0.00342680    -0.00014782
    -0.00309281     0.00358366    -0.00037847
    -0.00024045     0.00063213     0.00002826
    -0.00182667    -0.05086250    -0.01913802
     0.01016213     0.03286112     0.00505925
    -0.01096341     0.02383638     0.00321984
    -0.02087050     0.00697894     0.00035093
    -0.01828014     0.00105702    -0.00053100
    -0.01284988     0.00226696    -0.00010021
    -0.00702853     0.00393961     0.00036640
    -0.00201845     0.00407544     0.00060128
    -0.00010928     0.00071162     0.00024152
     0.00017684    -0.03146838    -0.02079582
     0.00558621     0.01639456     0.00886019
    -0.00104184     0.01689631     0.00839844
    -0.02178933     0.00936151     0.00189571
    -0.01802352     0.00518633     0.00032544
    -0.01257156     0.00351407     0.00012539
    -0.00627578     0.00446205     0.00146607
    -0.00237187     0.00419989     0.00185544
    -0.00019601     0.00062314     0.00036553
    -0.00050021    -0.00980711    -0.00875469
     0.00159174     0.00505159     0.00459843
     0.00001755     0.00519445     0.00431315
    -0.00833732     0.00356582     0.00111717
    -0.00683060     0.00218922     0.00030079
    -0.00477360     0.00143270     0.00013442
    -0.00237948     0.00163132     0.00083114
    -0.00096485     0.00149894     0.00103943
    -0.00012441     0.00025400     0.00019003
     0.00000000     0.00000000     0.00000000
     0.00000000     0.00000000     0.00000000
     0.00000000     0.00000000     0.00000000
     0.00000000     0.00000000     0.00000000
     0.00000000     0.00000000     0.00000000
     0.00000000     0.00000000     0.00000000
     0.00000000     0.00000000     0.00000000
     0.00000000     0.00000000     0.00000000
     0.00000000     0.00000000     0.00000000
     0.00000000     0.00000000     0.00000000
     0.00000000     0.00000000     0.00000000
     0.00000000     0.00000000     0.00000000
     0.00000000     0.00000000     0.00000000
     0.00000000     0.00000000     0.00000000
     0.00000000     0.00000000     0.00000000
     0.00000000     0.00000000     0.00000000
     0.00000000     0.00000000     0.00000000
     0.00000000     0.00000000     0.00000000
     0.00000000     0.00000000     0.00000000
     0.00000000     0.00000000     0.00000000
     0.00000000     0.00000000     0.00000000
     0.00000000     0.00000000     0.00000000
     0.00000000     0.00000000     0.00000000
     0.00000000     0.00000000     0.00000000
     0.00000000     0.00000000     0.00000000
     0.00000000     0.00000000     0.00000000
     0.00000000     0.00000000     0.00000000
     0.00000000     0.00000000     0.00000000
     0.00000000     0.00000000     0.00000000
     0.00000000     0.00000000     0.00000000
     0.00000000     0.00000000     0.00000000
     0.00000000     0.00000000     0.00000000
     0.00000000     0.00000000     0.00000000
     0.00000000     0.00000000     0.00000000
     0.00000000     0.00000000     0.00000000
     0.00000000     0.00000000     0.00000000
     0.00000000     0.00000000     0.00000000
     0.00000000     0.00000000     0.00000000
     0.00000000     0.00000000     0.00000000
     0.00000000     0.00000000     0.00000000
     0.00000000     0.00000000     0.00000000
     0.00000000     0.00000000     0.00000000
     0.00000000     0.00000000     0.00000000
     0.00000000     0.00000000     0.00000000
     0.00000000     0.00000000     0.00000000
     0.00000000     0.00000000     0.00000000
     0.00000000     0.00000000     0.00000000
     0.00000000     0.00000000     0.00000000
     0.00000000     0.00000000     0.00000000
     0.00000000     0.00000000     0.00000000
     0.00000000     0.00000000     0.00000000
     0.00000000     0.00000000     0.00000000
     0.00000000     0.00000000     0.00000000
     0.00000000     0.00000000     0.00000000
     0.00000000     0.00000000     0.00000000
     0.00000000     0.00000000     0.00000000
     0.00000000     0.00000000     0.00000000
     0.00000000     0.00000000     0.00000000
     0.00000000     0.00000000     0.00000000
     0.00000000     0.00000000     0.00000000
     0.00000000     0.00000000     0.00000000
     0.00000000     0.00000000     0.00000000
     0.00000000     0.00000000     0.00000000
     0.00000000     0.00000000     0.00000000
     0.00000000     0.00000000     0.00000000
     0.00000000     0.00000000     0.00000000
     0.00000000     0.00000000     0.00000000
     0.00000000     0.00000000     0.00000000
     0.00000000     0.00000000     0.00000000
     0.00000000     0.00000000     0.00000000
     0.00000000     0.00000000     0.00000000
     0.00000000     0.00000000     0.00000000
     0.00000000     0.00000000     0.00000000
     0.00000000     0.00000000     0.00000000
     0.00000000     0.00000000     0.00000000
     0.00000000     0.00000000     0.00000000
     0.00000000     0.00000000     0.00000000
     0.00000000     0.00000000     0.00000000
     0.00000000     0.00000000     0.00000000
     0.00000000     0.00000000     0.00000000
     0.00000000     0.00000000     0.00000000
     0.00000000     0.00000000     0.00000000
     0.00000000     0.00000000     0.00000000
     0.00000000     0.00000000     0.00000000
     0.00000000     0.00000000     0.00000000
     0.00000000     0.00000000     0.00000000
     0.00000000     0.00000000     0.00000000
     0.00000000     0.00000000     0.00000000
     0.00000000     0.00000000     0.00000000
     0.00000000     0.00000000     0.00000000
     0.00000000     0.00000000     0.00000000
     0.00000000     0.00000000     0.00000000
     0.00000000     0.00000000     0.00000000
     0.00000000     0.00000000     0.00000000
     0.00000000     0.00000000     0.00000000
     0.00000000     0.00000000     0.00000000
     0.00000000     0.00000000     0.00000000
     0.00000000     0.00000000     0.00000000
     0.00000000     0.00000000     0.00000000
     0.00000000     0.00000000     0.00000000
     0.00000000     0.00000000     0.00000000
     0.00000000     0.00000000     0.00000000
     0.00000000     0.00000000     0.00000000
     0.00000000     0.00000000     0.00000000
     0.00000000     0.00000000     0.00000000
     0.00000000     0.00000000     0.00000000
     0.00000000     0.00000000     0.00000000
     0.00000000     0.00000000     0.00000000
     0.00000000     0.00000000     0.00000000
     0.00000000     0.00000000     0.00000000
     0.00000000     0.00000000     0.00000000
     0.00000000     0.00000000     0.00000000
     0.00000000     0.00000000     0.00000000
     0.00000000     0.00000000     0.00000000
     0.00000000     0.00000000     0.00000000
     0.00000000     0.00000000     0.00000000
     0.00000000     0.00000000     0.00000000
     0.00000000     0.00000000     0.00000000
     0.00000000     0.00000000     0.00000000
     0.00000000     0.00000000     0.00000000
     0.00000000     0.00000000     0.00000000
     0.00000000     0.00000000     0.00000000
     0.00000000     0.00000000     0.00000000
     0.00000000     0.00000000     0.00000000
     0.00000000     0.00000000     0.00000000
     0.00000000     0.00000000     0.00000000
     0.00000000     0.00000000     0.00000000
     0.00000000     0.00000000     0.00000000
     0.00000000     0.00000000     0.00000000
     0.00000000     0.00000000     0.00000000
     0.00000000     0.00000000     0.00000000
     0.00000000     0.00000000     0.00000000
     0.00000000     0.00000000     0.00000000
     0.00000000     0.00000000     0.00000000
     0.00000000     0.00000000     0.00000000
     0.00000000     0.00000000     0.00000000
     0.00000000     0.00000000     0.00000000
     0.00000000     0.00000000     0.00000000
     0.00000000     0.00000000     0.00000000
     0.00000000     0.00000000     0.00000000
     0.00000000     0.00000000     0.00000000
     0.00000000     0.00000000     0.00000000
     0.00000000     0.00000000     0.00000000
     0.00000000     0.00000000     0.00000000
     0.00000000     0.00000000     0.00000000
     0.00000000     0.00000000     0.00000000
     0.00000000     0.00000000     0.00000000
     0.00000000     0.00000000     0.00000000
     0.00000000     0.00000000     0.00000000
     0.00000000     0.00000000     0.00000000
     0.00000000     0.00000000     0.00000000
     0.00000000     0.00000000     0.00000000
     0.00000000     0.00000000     0.00000000
     0.00000000     0.00000000     0.00000000
     0.00000000     0.00000000     0.00000000
     0.00000000     0.00000000     0.00000000
     0.00000000     0.00000000     0.00000000
     0.00000000     0.00000000     0.00000000
     0.00000000     0.00000000     0.00000000
     0.00000000     0.00000000     0.00000000
     0.00000000     0.00000000     0.00000000
     0.00000000     0.00000000     0.00000000
     0.00000000     0.00000000     0.00000000
     0.00000000     0.00000000     0.00000000
     0.00000000     0.00000000     0.00000000
     0.00000000     0.00000000     0.00000000
     0.00000000     0.00000000     0.00000000
     0.00000000     0.00000000     0.00000000
     0.00000000     0.00000000     0.00000000
     0.00000000     0.00000000     0.00000000
     0.00000000     0.00000000     0.00000000
     0.00000000     0.00000000     0.00000000
     0.00000000     0.00000000     0.00000000
     0.00000000     0.00000000     0.00000000
     0.00000000     0.00000000     0.00000000
     0.00000000     0.00000000     0.00000000
     0.00000000     0.00000000     0.00000000
     0.00000000     0.00000000     0.00000000
     0.00000000     0.00000000     0.00000000
     0.00000000     0.00000000     0.00000000
     0.00000000     0.00000000     0.00000000
     0.00000000     0.00000000     0.00000000
     0.00000000     0.00000000     0.00000000
     0.00000000     0.00000000     0.00000000
     0.00000000     0.00000000     0.00000000
     0.00000000     0.00000000     0.00000000
     0.00000000     0.00000000     0.00000000
     0.00000000     0.00000000     0.00000000
     0.00000000     0.00000000     0.00000000
     0.00000000     0.00000000     0.00000000
     0.00000000     0.00000000     0.00000000
     0.00000000     0.00000000     0.00000000
     0.00000000     0.00000000     0.00000000
     0.00000000     0.00000000     0.00000000
     0.00000000     0.00000000     0.00000000
     0.00000000     0.00000000     0.00000000
     0.00000000     0.00000000     0.00000000
     0.00000000     0.00000000     0.00000000
     0.00000000     0.00000000     0.00000000
     0.00000000     0.00000000     0.00000000
     0.00000000     0.00000000     0.00000000
     0.00000000     0.00000000     0.00000000
     0.00000000     0.00000000     0.00000000
     0.00000000     0.00000000     0.00000000
     0.00000000     0.00000000     0.00000000
     0.00000000     0.00000000     0.00000000
     0.00000000     0.00000000     0.00000000
     0.00000000     0.00000000     0.00000000
     0.00000000     0.00000000     0.00000000
     0.00000000     0.00000000     0.00000000
     0.00000000     0.00000000     0.00000000
     0.00000000     0.00000000     0.00000000
     0.00000000     0.00000000     0.00000000
     0.00000000     0.00000000     0.00000000
     0.00000000     0.00000000     0.00000000
     0.00000000     0.00000000     0.00000000
     0.00000000     0.00000000     0.00000000
     0.00000000     0.00000000     0.00000000
     0.00000000     0.00000000     0.00000000
     0.00000000     0.00000000     0.00000000
     0.00000000     0.00000000     0.00000000
     0.00000000     0.00000000     0.00000000
     0.00000000     0.00000000     0.00000000
     0.00000000     0.00000000     0.00000000
     0.00000000     0.00000000     0.00000000
     0.00000000     0.00000000     0.00000000
     0.00000000     0.00000000     0.00000000
     0.00000000     0.00000000     0.00000000
     0.00000000     0.00000000     0.00000000
     0.00000000     0.00000000     0.00000000
     0.00000000     0.00000000     0.00000000
     0.00000000     0.00000000     0.00000000
     0.00000000     0.00000000     0.00000000
     0.00000000     0.00000000     0.00000000
     0.00000000     0.00000000     0.00000000
     0.00000000     0.00000000     0.00000000
     0.00000000     0.00000000     0.00000000
     0.00000000     0.00000000     0.00000000
     0.00000000     0.00000000     0.00000000
     0.00000000     0.00000000     0.00000000
     0.00000000     0.00000000     0.00000000
     0.00000000     0.00000000     0.00000000
     0.00000000     0.00000000     0.00000000
     0.00000000     0.00000000     0.00000000
     0.00000000     0.00000000     0.00000000
     0.00000000     0.00000000     0.00000000
     0.00000000     0.00000000     0.00000000
     0.00000000     0.00000000     0.00000000
     0.00000000     0.00000000     0.00000000
     0.00000000     0.00000000     0.00000000
     0.00000000     0.00000000     0.00000000
     0.00000000     0.00000000     0.00000000
     0.00000000     0.00000000     0.00000000
     0.00000000     0.00000000     0.00000000
     0.00000000     0.00000000     0.00000000
     0.00000000     0.00000000     0.00000000
     0.00000000     0.00000000     0.00000000
     0.00000000     0.00000000     0.00000000
     0.00000000     0.00000000     0.00000000
     0.00000000     0.00000000     0.00000000
     0.00000000     0.00000000     0.00000000
     0.00000000     0.00000000     0.00000000
     0.00000000     0.00000000     0.00000000
     0.00000000     0.00000000     0.00000000
     0.00000000     0.00000000     0.00000000
     0.00000000     0.00000000     0.00000000
     0.00000000     0.00000000     0.00000000
     0.00000000     0.00000000     0.00000000
     0.00000000     0.00000000     0.00000000
     0.00000000     0.00000000     0.00000000
     0.00000000     0.00000000     0.00000000
     0.00000000     0.00000000     0.00000000
     0.00000000     0.00000000     0.00000000
     0.00000000     0.00000000     0.00000000
     0.00000000     0.00000000     0.00000000
     0.00000000     0.00000000     0.00000000
SCALARS Pressures float
LOOKUP_TABLE default
  2321.91170315
  4625.06487803
  4599.18620825
  4595.86497551
  4590.01253659
  4583.69447899
  4576.80207622
  4594.24643999
  6217.14725463
  4664.46196227
  9263.39429690
  9196.35018536
  9190.14546353
  9177.94250730
  9162.50495145
  9157.30572999
  9177.71749693
  9217.55747950
  4675.50745487
  9271.77675423
  9192.42542502
  9185.37878752
  9172.25289235
  9158.68517622
  9153.99173838
  9160.25366634
  9096.71347082
  4671.73809981
  9267.43482101
  9189.47394466
  9179.79152924
  9168.22547394
  9161.19902611
  9154.88368040
  9159.32542902
  9125.98577392
  4670.80171013
  9267.43001372
  9187.80582076
  9175.05898744
  9166.49430531
  9163.55924147
  9166.26250434
  9194.11217922
  9176.03851768
  4670.58548474
  9267.94358999
  9185.47141439
  9170.86733091
  9163.93302083
  9163.05295652
  9173.15945166
  9217.80474764
  9194.15847239
  4670.80194461
  9267.87013388
  9184.58254683
  9168.85342504
  9163.23416568
  9159.34715736
  9157.46460086
  9163.77232420
  9183.70227075
  4670.58557689
  9269.46988565
  9187.73005325
  9171.87063719
  9163.66834737
  9158.01499178
  9142.73578274
  9127.37445699
  9148.96857631
  4671.72251940
  9272.61876905
  9195.19643784
  9180.39334941
  9169.69362605
  9165.27313443
  9153.49791163
  9143.80768885
  9151.87268168
  4659.88851301
  9263.84694324
  9201.62740487
  9189.89732683
  9181.99973309
  9184.95871013
  9184.89698905
  9183.40373510
  9214.81836972
  2326.51430456
  4627.32898788
  4601.45656383
  4597.02276278
  4594.08155656
  4599.17144752
  4604.96280241
  4609.43356708
  6173.73505326
  2322.68040165
  4626.66553166
  4599.80545443
  4594.83917814
  4588.47663039
  4580.08089364
  4575.95403376
  4592.40205547
  6218.04357030
  4657.32116868
  9258.91522766
  9198.17830329
  9188.29379904
  9175.25177036
  9157.28808878
  9152.68062708
  9173.22514197
  9216.64214082
  4662.36533517
  9262.55248384
  9195.59397148
  9184.22953010
  9170.95881186
  9156.44142391
  9150.93654740
  9155.23292831
  9090.40205902
  4662.04511094
  9261.69209141
  9193.12464541
  9179.55525711
  9168.36675534
  9159.47440311
  9152.64675942
  9153.32314871
  9121.51956530
  4662.39831471
  9262.44557682
  9190.68127468
  9174.87689295
  9166.91573134
  9161.26597902
  9162.73112711
  9190.18483703
  9179.99637109
  4662.10424244
  9262.86189345
  9187.63546255
  9170.22810507
  9163.57663441
  9160.94962421
  9170.34410307
  9214.12728778
  9193.71606338
  4661.10699981
  9261.99926090
  9186.89398977
  9168.02688531
  9162.04281590
  9157.61240016
  9154.94148658
  9161.69904530
  9181.36428194
  4659.84098852
  9263.19783422
  9190.77436125
  9171.15803621
  9162.57649625
  9156.58573508
  9142.80091254
  9124.69143080
  9144.99353525
  4660.16875923
  9265.34015882
  9197.83223301
  9179.15912360
  9168.59639320
  9163.03972370
  9152.58548027
  9137.90695671
  9141.71293941
  4654.44562872
  9261.09907331
  9202.77676570
  9188.30889761
  9180.47191125
  9181.44281405
  9179.97254953
  9174.42020339
  9205.64417802
  2327.03732874
  4628.76310801
  4601.68261483
  4596.41248494
  4593.25318491
  4597.30024481
  4601.29627651
  4602.36138983
  6167.34287145
  2321.86823255
  4625.47372296
  4600.33527765
  4593.32496676
  4585.93391517
  4576.31008881
  4573.71292832
  4582.23428607
  6214.53782971
  4648.19582212
  9252.31863415
  9200.35006242
  9185.81308717
  9170.93006016
  9153.43149400
  9150.69332042
  9167.48186362
  9216.36895325
  4648.76854134
  9253.29535785
  9199.71671005
  9183.10714915
  9169.43156563
  9155.82240477
  9153.04125383
  9161.57205120
  9092.52888519
  4650.16563436
  9254.87314126
  9197.76611885
  9179.60596135
  9168.90301311
  9158.34833196
  9153.14994895
  9152.92823218
  9125.68366246
  4652.59742150
  9256.87959149
  9194.73534080
  9175.56935981
  9167.25867057
  9160.43107718
  9160.15875456
  9183.01935038
  9193.41375914
  4652.78588897
  9256.64980817
  9191.66573054
  9171.11568511
  9163.27204522
  9160.24976416
  9166.54480045
  9204.24287970
  9195.87459788
  4651.90741807
  9255.19971114
  9190.85993317
  9168.71214822
  9160.39200991
  9156.07008553
  9153.69571400
  9160.82327598
  9175.87266909
  4650.37579632
  9255.18311769
  9193.78866807
  9171.41931531
  9160.35082611
  9153.76645447
  9144.02280371
  9121.20486379
  9135.65358511
  4650.44426107
  9256.45206156
  9198.90128025
  9178.19857931
  9165.94161481
  9157.95821634
  9149.50573575
  9125.23532566
  9121.21713030
  4649.15163642
  9255.99542809
  9202.28909051
  9185.71975410
  9176.24021152
  9173.00627056
  9167.43641075
  9155.29008701
  9187.30627674
  2325.08890367
  4627.71968433
  4601.31112847
  4594.76159978
  4590.73838004
  4592.21044251
  4591.73289782
  4588.26363701
  6155.93501258
  2317.95604965
  4623.02206486
  4600.50858129
  4592.52254393
  4584.90694091
  4578.22777927
  4574.40547512
  4578.08276470
  6198.39076977
  4644.64307085
  9249.58176199
  9200.73975670
  9184.82386741
  9170.27461604
  9158.20169469
  9154.96903685
  9169.39242949
  9221.32141487
  4646.64047894
  9252.28215712
  9200.49960504
  9183.13818385
  9170.83159429
  9160.61256187
  9159.34325160
  9179.49991855
  9119.52537337
  4648.08605418
  9253.62315679
  9198.47379372
  9180.55034637
  9170.46800214
  9161.58833209
  9161.12576266
  9167.70303513
  9143.43983874
  4651.06808603
  9255.27647993
  9196.01675096
  9177.58694458
  9168.55867583
  9163.37411964
  9165.81487237
  9182.07312232
  9205.53440946
  4650.47617805
  9254.65057987
  9194.30155656
  9174.17015663
  9164.83544841
  9163.31943400
  9166.60042123
  9196.57809533
  9195.36163002
  4649.37970418
  9252.78963947
  9193.25123265
  9171.79668066
  9161.66288641
  9158.15466978
  9154.29795603
  9159.75325042
  9169.95731932
  4648.09805942
  9251.90848541
  9193.95614928
  9173.15292408
  9160.64797698
  9153.35702536
  9144.66869605
  9122.95428902
  9133.16912168
  4648.28142697
  9252.39219031
  9196.46556662
  9177.78604120
  9164.44570817
  9154.32181674
  9146.17590571
  9118.47311900
  9116.23537403
  4646.08049759
  9251.19023308
  9199.12543282
  9182.72464055
  9171.92179488
  9163.08924742
  9153.05748907
  9132.19711018
  9174.16242024
  2324.05811432
  4625.19168544
  4599.85495250
  4592.59154083
  4587.74203284
  4584.86478625
  4580.38394502
  4570.94278416
  6143.21182938
  2317.54565890
  4622.53890675
  4600.67117688
  4592.08124550
  4585.89251341
  4581.12251694
  4577.60044035
  4581.43019414
  6173.30448066
  4642.59517137
  9247.38924529
  9200.66817078
  9184.27910962
  9172.64756398
  9163.82279943
  9159.33635321
  9173.61279055
  9219.74513920
  4644.55405642
  9249.43429283
  9199.61707833
  9183.45933652
  9173.40451103
  9166.00201581
  9164.85348706
  9184.98770696
  9153.39414889
  4646.52405780
  9250.74025410
  9197.49767517
  9181.81358962
  9173.01573607
  9166.27893720
  9171.25345591
  9184.62700927
  9162.32699949
  4647.87470542
  9251.01289126
  9195.50564367
  9179.49588276
  9171.75529756
  9166.40906139
  9173.46628078
  9195.69273686
  9212.66062536
  4646.93650255
  9250.05800688
  9193.98759623
  9176.81906512
  9168.67569147
  9165.99956022
  9167.87516877
  9191.96007775
  9200.09248335
  4646.40607566
  9248.76669413
  9192.92386152
  9174.79060465
  9165.64787538
  9161.99017384
  9155.00159764
  9157.48255144
  9176.93334963
  4645.41189817
  9247.72621211
  9193.01408761
  9174.61694443
  9164.09383952
  9156.89322972
  9143.82582664
  9126.99770185
  9155.62294284
  4644.88014783
  9247.36996548
  9194.18731465
  9176.53538386
  9164.93187483
  9155.04257277
  9141.55197994
  9113.75344301
  9140.81328654
  4643.73027547
  9246.31525584
  9196.01872656
  9179.03605741
  9168.77350201
  9156.79369779
  9141.42677233
  9109.73041243
  9169.37888962
  2323.93726114
  4623.10622377
  4598.28118130
  4590.20231290
  4585.57426085
  4579.22188361
  4571.24379110
  4553.58135945
  6124.51557811
  1546.31105564
  3081.14329627
  3067.04736390
  3061.30263726
  3057.93216743
  3054.62822979
  3052.47319719
  3053.73717338
  4619.97239641
  2321.05773510
  4622.90803825
  4600.27526589
  4592.04726209
  4587.02249139
  4583.01698568
  4581.03287470
  4587.33583118
  6142.57236869
  2322.07051108
  4623.78338684
  4599.45292437
  4591.88816549
  4587.17211668
  4584.11302292
  4584.61081108
  4591.95374447
  6112.46978279
  2322.42757696
  4624.01555767
  4598.40232722
  4591.20971210
  4587.19672868
  4584.16404701
  4588.07272299
  4596.19177211
  6114.72552649
  2322.40658124
  4623.88543287
  4597.44586921
  4590.13089876
  4586.78671362
  4583.97966065
  4588.21028803
  4603.51021750
  6144.75048372
  2322.43471340
  4623.16713672
  4596.45201485
  4588.97015399
  4585.50216429
  4583.50674443
  4584.05517074
  4594.39994817
  6138.62483202
  2323.22776204
  4623.11257184
  4595.92984568
  4588.10589943
  4583.95126582
  4581.96676811
  4578.19016945
  4578.73969381
  6124.44740377
  2323.14143500
  4622.53795299
  4595.93727177
  4587.66061805
  4583.05436609
  4579.72441965
  4571.74691314
  4564.24407431
  6116.79754555
  2322.73548241
  4622.39906244
  4596.38901419
  4587.98547307
  4582.67820129
  4578.27581587
  4569.04528552
  4554.51253739
  6106.69125899
  2322.30004208
  4621.94484915
  4597.21932099
  4588.67093676
  4583.61987394
  4577.74726194
  4568.28163901
  4550.10505342
  6112.38367061
  1548.25049870
  3080.71414480
  3065.04403246
  3059.29502439
  3056.47760189
  3051.80402509
  3045.03715813
  3031.01014133
  4585.14512473
  9105.80770338
  9132.45351619
  9085.60989857
  9076.80788755
  9091.38451433
  9076.82748699
  9092.44047928
  9084.67487621
  9094.92767835
  9087.11983891
  8879.55195038
  9238.85914001
  9169.20348147
  9071.28345621
  9072.77463019
  9074.03849816
  9076.16386819
  9080.97637320
  9084.37606150
  9087.85112602
  9085.82017751
  9070.54422702
  9217.91256350
  9158.55155510
  9048.58913505
  9042.00948179
  9042.54649234
  9050.70554376
  9063.64182162
  9076.03298801
  9081.98146802
  9085.39781514
  9089.96853644
  9195.86407521
  9140.70505980
  9032.46912923
  9010.91345763
  9014.78376722
  9037.53161597
  9061.53151059
  9080.33589637
  9088.92092580
  9093.09857863
  9097.81087041
  9289.02266201
  9212.90773472
  9087.49395148
  9061.95485009
  9052.18316925
  9064.32659554
  9083.19537973
  9096.56977773
  9104.27295450
  9103.00275229
  9087.43577565
  9390.38871229
  9255.55501330
  9150.27090076
  9117.36037567
  9103.19930673
  9079.50079727
  9101.09911442
  9100.45649195
  9113.89241977
  9106.08346149
  8897.65037969
  9232.08067566
  9125.79059443
  9085.10195971
  9073.98573017
  9088.37268591
  9076.52140856
  9091.15589345
  9084.31859076
  9093.74922878
  9086.50357376
  8885.35032138
  9231.02221942
  9163.68667649
  9070.22102207
  9070.88250142
  9072.61238927
  9075.14098543
  9080.36125258
  9083.70479143
  9087.14647330
  9085.20879071
  9068.54474236
  9213.91214535
  9154.41555977
  9045.16702968
  9040.04178005
  9041.44892365
  9050.46253806
  9063.75021371
  9075.79003441
  9081.64424787
  9084.87491968
  9090.03105846
  9189.86294414
  9137.09443240
  9027.66010742
  9009.41175950
  9015.82975024
  9038.37875986
  9062.06710532
  9079.90836501
  9088.16810665
  9091.98290738
  9097.27610534
  9284.81174596
  9210.31549059
  9084.19320715
  9059.54016008
  9051.48042619
  9063.77278721
  9082.63027111
  9095.21645421
  9102.69390031
  9101.26013749
  9084.67104746
  9387.75813115
  9253.69047737
  9148.06017439
  9112.56108861
  9097.34710658
  9077.95256853
  9099.06014729
  9099.10525513
  9111.79636524
  9104.39029191
  8903.11283781
  9200.89104846
  9109.19734800
  9080.89125621
  9068.61018431
  9083.06986308
  9076.07413125
  9088.40359175
  9083.43905121
  9091.09025586
  9085.15961670
  8907.97084913
  9213.01486774
  9147.71623436
  9065.72031528
  9065.84053010
  9069.34717059
  9073.30269271
  9079.09796390
  9082.60899846
  9085.71232125
  9084.05016469
  9065.09700986
  9202.05827901
  9140.57595980
  9037.80037344
  9035.77780151
  9039.78766775
  9050.89818281
  9064.17210570
  9075.53268780
  9080.90041921
  9083.66309234
  9088.69361445
  9179.47560248
  9128.23719499
  9020.50669777
  9008.69123787
  9018.70176029
  9041.50917965
  9062.69594488
  9078.68083209
  9085.93656909
  9089.22279564
  9094.38101006
  9279.88103972
  9206.54344520
  9077.08074786
  9052.95612112
  9049.70629412
  9063.49030936
  9080.46660128
  9091.69312847
  9098.33934328
  9097.28105359
  9077.80423531
  9379.78874549
  9251.52929932
  9138.19947270
  9097.01449364
  9085.95992506
  9075.22737086
  9094.09318817
  9095.31102264
  9106.27200013
  9100.50198790
  8922.01050884
  9171.26482728
  9094.23416960
  9069.19808725
  9066.64289171
  9077.11606514
  9076.21649897
  9084.75776464
  9083.48674268
  9088.24630693
  9084.07629932
  8973.06354065
  9188.40879767
  9123.06375882
  9054.32861163
  9059.41211072
  9066.03437185
  9071.39757234
  9077.80436411
  9081.80834813
  9084.54969887
  9083.03755050
  9067.29670928
  9185.75821625
  9122.59320305
  9029.06061542
  9032.44378638
  9041.13828903
  9052.95928055
  9065.61373213
  9075.65366058
  9080.61135381
  9082.46513455
  9086.20027602
  9183.00015025
  9130.15746970
  9018.93500143
  9012.56296262
  9026.09539431
  9046.29195853
  9064.19803540
  9077.29387191
  9083.88084386
  9086.29559912
  9090.24650174
  9284.02195714
  9206.86397251
  9066.23513396
  9044.94844851
  9049.64070231
  9062.64337565
  9077.37258239
  9087.01040694
  9093.54847957
  9093.07890917
  9077.74532157
  9368.00727823
  9246.70606369
  9113.26235989
  9077.47721481
  9074.41451550
  9072.04274964
  9086.72559464
  9090.61043763
  9099.70488822
  9096.49808752
  8985.86831379
  9154.02557954
  9074.12040100
  9054.57003507
  9062.09816579
  9071.12641223
  9074.41750118
  9081.20949960
  9083.32692002
  9086.13887709
  9083.22163084
  9022.90892455
  9176.20377730
  9093.11750633
  9040.87897098
  9053.78046416
  9061.67313430
  9068.67546020
  9075.81948787
  9080.74661551
  9083.52549630
  9082.70415487
  9069.61214015
  9196.72251065
  9109.86121702
  9021.73294689
  9031.75337848
  9041.93762678
  9054.53545347
  9066.69597293
  9075.42585103
  9080.37104211
  9082.52936363
  9084.75934187
  9223.74150865
  9138.76741979
  9015.90541766
  9019.57582109
  9032.61799250
  9050.76204472
  9065.76821353
  9076.49386417
  9082.60428535
  9085.19468408
  9087.63930966
  9299.92909557
  9193.03070758
  9046.73749686
  9039.65547635
  9046.60264347
  9061.21274810
  9073.97309215
  9083.65555707
  9090.01443179
  9090.34415709
  9076.18925775
  9347.43822008
  9216.13439798
  9077.94214529
  9058.20330495
  9059.62469912
  9067.03889447
  9079.37222697
  9087.00877687
  9094.65026159
  9093.17099437
  9030.30322416
  9149.10694182
  9059.03948611
  9047.93238722
  9056.96734401
  9068.79956284
  9072.33493680
  9079.83934581
  9082.59615180
  9085.39487284
  9082.72258784
  9024.48377368
  9178.43439591
  9077.37009221
  9035.38276133
  9051.42739443
  9058.78558572
  9067.04305848
  9074.48004335
  9080.06101032
  9082.93441678
  9082.83613422
  9068.27962376
  9216.13341963
  9105.40838310
  9019.20048550
  9032.10070890
  9040.82265604
  9054.72917908
  9066.65008721
  9075.06267568
  9080.01318728
  9083.10261863
  9084.41178011
  9256.57210869
  9140.21048513
  9012.10314240
  9023.49813130
  9033.57298370
  9052.73262794
  9065.92954595
  9076.28081505
  9081.90473367
  9085.37652505
  9086.80629566
  9310.97552639
  9177.69711408
  9034.27375869
  9038.20082784
  9042.55878742
  9060.90038473
  9072.06905960
  9082.81342651
  9088.49574490
  9089.57508032
  9070.59002371
  9333.31182468
  9190.08932579
  9059.90906817
  9047.71936601
  9050.84531093
  9064.04269159
  9076.45846084
  9085.66470546
  9092.73443632
  9091.65266719
  9024.31554248
  8587.94668221
  8537.94535351
  8527.85875463
  8593.80024195
  8643.09511077
  8699.86088637
  8713.60460408
  8436.61352238
  8873.57379648
  8558.16283131
  8505.62817407
  8509.22392875
  8558.57615295
  8623.11908054
  8679.38955376
  8705.45777636
  8692.07675217
  8796.07513654
  8479.93230313
  8426.36923775
  8430.12041673
  8502.51307192
  8587.02997088
  8651.59141602
  8691.90543902
  8709.99086979
  8798.38524187
  8485.57534188
  8362.00443706
  8376.73095682
  8491.09265375
  8590.04113287
  8651.14005393
  8691.23645026
  8711.51618470
  9095.37422517
  8752.56887063
  8496.40122581
  8453.90266979
  8535.55759561
  8615.38640957
  8668.81592609
  8696.62537690
  8684.38001965
  9404.63136178
  8965.47268337
  8648.22105837
  8523.99515653
  8570.60396361
  8621.60744486
  8679.61635522
  8697.27778268
  8418.16942751
  8933.24931523
  8550.95962119
  8524.55468953
  8524.23643208
  8589.41678464
  8643.91755077
  8695.20684820
  8713.77317178
  8485.72524481
  8860.01035951
  8529.75387791
  8495.15989912
  8505.21442136
  8554.54381232
  8619.94407360
  8676.72510488
  8704.12518220
  8693.09582474
  8783.72091573
  8458.13219610
  8409.67914142
  8423.81722496
  8501.70274024
  8583.20659617
  8648.39509133
  8687.94995360
  8706.53203635
  8778.67812210
  8459.26730376
  8352.83955707
  8380.59948982
  8495.40996766
  8589.09603846
  8646.85378629
  8684.99224421
  8703.94800382
  9093.68816650
  8745.13995445
  8492.79088111
  8458.65450877
  8539.22935066
  8615.22327753
  8665.22909989
  8691.47917305
  8683.82233683
  9410.69051647
  8979.46155894
  8633.49582222
  8517.55207717
  8571.37340647
  8622.69707403
  8675.29744831
  8694.39657226
  8472.34633404
  8873.23115325
  8484.05274510
  8508.25789142
  8519.91964132
  8576.13198343
  8642.36242306
  8685.26914044
  8713.16721364
  8593.06119592
  8836.21197889
  8469.85734428
  8471.98391095
  8496.44159099
  8545.57753362
  8613.52691645
  8670.12428878
  8701.35859037
  8699.10259511
  8762.22504774
  8407.41473261
  8376.40033631
  8417.56024872
  8505.17425129
  8577.88023897
  8641.76451834
  8680.18747855
  8694.78251234
  8745.96325359
  8406.93490782
  8341.63791050
  8400.55479553
  8508.28371900
  8588.93485528
  8638.36860114
  8672.67903839
  8689.08021171
  9091.44389104
  8721.51514450
  8481.22803584
  8470.15279447
  8548.48584889
  8614.43780866
  8657.15448700
  8680.59725649
  8671.76776157
  9416.21856587
  8988.32799512
  8596.27099282
  8501.35295463
  8575.72967854
  8622.07497486
  8666.12137127
  8686.66142620
  8549.79613009
  8881.84580299
  8441.65814650
  8503.48838151
  8514.77733538
  8558.17188203
  8632.18143606
  8676.34158650
  8710.67012093
  8545.39020688
  8823.51543995
  8414.67377261
  8449.52315752
  8484.79476127
  8537.73172081
  8607.64842287
  8662.90775061
  8698.32102253
  8680.88407714
  8738.54943780
  8359.32952682
  8363.17847562
  8429.85708550
  8516.43793914
  8581.46208852
  8640.25422026
  8676.26543351
  8693.24528515
  8736.68966696
  8380.22140932
  8354.85246475
  8434.78466012
  8526.64446422
  8593.46775950
  8636.51346178
  8666.14444755
  8682.45140127
  9083.13646782
  8680.11794640
  8458.31340633
  8482.08629480
  8556.46432484
  8612.51599839
  8650.41871892
  8671.64753634
  8655.96599951
  9404.80740042
  8930.76272907
  8537.72090086
  8499.50525320
  8575.22403993
  8617.90524513
  8658.84504008
  8677.56512048
  8517.14181939
  8871.17371199
  8410.73644516
  8470.94719726
  8492.28084445
  8543.04239493
  8616.79522658
  8666.74932252
  8704.92469571
  8553.89160604
  8804.62862389
  8381.19512443
  8425.90610293
  8472.74110412
  8532.92784395
  8603.73038885
  8658.03040722
  8695.34350479
  8680.33824943
  8735.43817964
  8337.14947543
  8369.56402369
  8449.78615251
  8526.54574770
  8590.75933162
  8646.13314970
  8677.54639816
  8689.43678248
  8768.31726676
  8386.58682588
  8374.69002375
  8460.40706059
  8539.52366905
  8599.04938523
  8642.20215747
  8667.70866132
  8681.91749120
  9070.50848692
  8621.14498646
  8425.91072352
  8487.72525717
  8556.10959265
  8610.69521086
  8646.81043153
  8668.19360235
  8628.61655177
  9337.17526380
  8791.76146831
  8460.70443832
  8501.00733438
  8563.45004962
  8614.14476337
  8652.17135561
  8670.30036453
  8465.48679328
  8824.27020907
  8392.28952736
  8440.26938880
  8474.23219126
  8536.97166531
  8609.21243638
  8660.80094287
  8700.90183736
  8668.28822291
  8788.20340312
  8371.41246769
  8412.04208854
  8467.57095372
  8531.03584184
  8602.44869820
  8656.43323477
  8693.96955720
  8702.99863748
  8746.86088425
  8334.13727337
  8372.58272368
  8457.46459827
  8529.67171115
  8594.97174270
  8650.08812891
  8678.94241822
  8678.87481641
  8796.21070445
  8393.64138311
  8379.27626193
  8467.88636919
  8542.59856608
  8600.88201797
  8645.54707499
  8669.73846615
  8680.71278033
  9065.62971244
  8587.37333086
  8408.47016963
  8488.17716592
  8553.36112770
  8610.17389678
  8645.45012552
  8667.95367577
  8605.57197365
  9280.42318733
  8705.20303422
  8419.73847449
  8494.60107380
  8555.76852715
  8612.84228303
  8647.91683221
  8667.27797865
  8469.75896741
     0.00000000
     0.00000000
     0.00000000
     0.00000000
     0.00000000
     0.00000000
     0.00000000
     0.00000000
     0.00000000
     0.00000000
     0.00000000
     0.00000000
     0.00000000
     0.00000000
     0.00000000
     0.00000000
     0.00000000
     0.00000000
     0.00000000
     0.00000000
     0.00000000
     0.00000000
     0.00000000
     0.00000000
     0.00000000
     0.00000000
     0.00000000
     0.00000000
     0.00000000
     0.00000000
     0.00000000
     0.00000000
     0.00000000
     0.00000000
     0.00000000
     0.00000000
     0.00000000
     0.00000000
     0.00000000
     0.00000000
     0.00000000
     0.00000000
     0.00000000
     0.00000000
     0.00000000
     0.00000000
     0.00000000
     0.00000000
     0.00000000
     0.00000000
     0.00000000
     0.00000000
     0.00000000
     0.00000000
     0.00000000
     0.00000000
     0.00000000
     0.00000000
     0.00000000
     0.00000000
     0.00000000
     0.00000000
     0.00000000
     0.00000000
     0.00000000
     0.00000000
     0.00000000
     0.00000000
     0.00000000
     0.00000000
     0.00000000
     0.00000000
     0.00000000
     0.00000000
     0.00000000
     0.00000000
     0.00000000
     0.00000000
     0.00000000
     0.00000000
     0.00000000
     0.00000000
     0.00000000
     0.00000000
     0.00000000
     0.00000000
     0.00000000
     0.00000000
     0.00000000
     0.00000000
     0.00000000
     0.00000000
     0.00000000
     0.00000000
     0.00000000
     0.00000000
     0.00000000
     0.00000000
     0.00000000
     0.00000000
     0.00000000
     0.00000000
     0.00000000
     0.00000000
     0.00000000
     0.00000000
     0.00000000
     0.00000000
     0.00000000
     0.00000000
     0.00000000
     0.00000000
     0.00000000
     0.00000000
     0.00000000
     0.00000000
     0.00000000
     0.00000000
     0.00000000
     0.00000000
     0.00000000
     0.00000000
     0.00000000
     0.00000000
     0.00000000
     0.00000000
     0.00000000
     0.00000000
     0.00000000
     0.00000000
     0.00000000
     0.00000000
     0.00000000
     0.00000000
     0.00000000
     0.00000000
     0.00000000
     0.00000000
     0.00000000
     0.00000000
     0.00000000
     0.00000000
     0.00000000
     0.00000000
     0.00000000
     0.00000000
     0.00000000
     0.00000000
     0.00000000
     0.00000000
     0.00000000
     0.00000000
     0.00000000
     0.00000000
     0.00000000
     0.00000000
     0.00000000
     0.00000000
     0.00000000
     0.00000000
     0.00000000
     0.00000000
     0.00000000
     0.00000000
     0.00000000
     0.00000000
     0.00000000
     0.00000000
     0.00000000
     0.00000000
     0.00000000
     0.00000000
     0.00000000
     0.00000000
     0.00000000
     0.00000000
     0.00000000
     0.00000000
     0.00000000
     0.00000000
     0.00000000
     0.00000000
     0.00000000
     0.00000000
     0.00000000
     0.00000000
     0.00000000
     0.00000000
     0.00000000
     0.00000000
     0.00000000
     0.00000000
     0.00000000
     0.00000000
     0.00000000
     0.00000000
     0.00000000
     0.00000000
     0.00000000
     0.00000000
     0.00000000
     0.00000000
     0.00000000
     0.00000000
     0.00000000
     0.00000000
     0.00000000
     0.00000000
     0.00000000
     0.00000000
     0.00000000
     0.00000000
     0.00000000
     0.00000000
     0.00000000
     0.00000000
     0.00000000
     0.00000000
     0.00000000
     0.00000000
     0.00000000
     0.00000000
     0.00000000
     0.00000000
     0.00000000
     0.00000000
     0.00000000
     0.00000000
     0.00000000
     0.00000000
     0.00000000
     0.00000000
     0.00000000
     0.00000000
     0.00000000
     0.00000000
     0.00000000
     0.00000000
     0.00000000
     0.00000000
     0.00000000
     0.00000000
     0.00000000
     0.00000000
     0.00000000
     0.00000000
     0.00000000
     0.00000000
     0.00000000
     0.00000000
     0.00000000
     0.00000000
     0.00000000
     0.00000000
     0.00000000
     0.00000000
     0.00000000
     0.00000000
     0.00000000
     0.00000000
     0.00000000
     0.00000000
     0.00000000
     0.00000000
     0.00000000
     0.00000000
     0.00000000
     0.00000000
     0.00000000
     0.00000000
     0.00000000
     0.00000000
     0.00000000
     0.00000000
     0.00000000
     0.00000000
VECTORS Displacements float 
     3.02619083    -0.28042315     0.00000000
     2.61038571    -0.33106951     0.00000000
     2.19742599    -0.35185331     0.00000000
     1.78163001    -0.34935614     0.00000000
     1.36484540    -0.32502619     0.00000000
     0.94425906    -0.26941285     0.00000000
     0.51588227    -0.17617954     0.00000000
     0.21240517    -0.03188685    -0.00000000
     0.00000000     0.00000000    -0.00000000
     3.02376806    -0.23688473    -0.00697001
     2.56302178    -0.28235658     0.00000000
     2.12844507    -0.29640632     0.00000000
     1.69555628    -0.29197797     0.00000000
     1.26226742    -0.26644058     0.00000000
     0.83217011    -0.21228907     0.00000000
     0.41931680    -0.11444174     0.00000000
     0.19278872     0.01785154     0.00000000
     0.08239422     0.02242029     0.00000000
     3.02020638    -0.19503044    -0.00892587
     2.54210538    -0.23399908     0.00000000
     2.08340406    -0.24158199     0.00000000
     1.63548548    -0.23360971     0.00000000
     1.19830717    -0.20814188     0.00000000
     0.78178607    -0.15832712     0.00000000
     0.41210874    -0.07311519     0.00000000
     0.21172785     0.01880936     0.00000000
     0.12569091     0.01094525     0.00000000
     3.01764985    -0.15297072    -0.01070369
     2.52763899    -0.18096386     0.00000000
     2.05507603    -0.18413683     0.00000000
     1.59776180    -0.17533431     0.00000000
     1.16026458    -0.15370073     0.00000000
     0.75484574    -0.11503887     0.00000000
     0.40628820    -0.05500355     0.00000000
     0.21343819     0.00175987     0.00000000
     0.13085289    -0.00563693     0.00000000
     3.01514339    -0.11130423    -0.01167588
     2.51856554    -0.12525384     0.00000000
     2.03739370    -0.12446382     0.00000000
     1.57466914    -0.11702395     0.00000000
     1.13648820    -0.10246006     0.00000000
     0.73484710    -0.07893564     0.00000000
     0.39110266    -0.04610849     0.00000000
     0.18724366    -0.01472221     0.00000000
     0.09368855    -0.01254260     0.00000000
     3.01296310    -0.06968915    -0.01246127
     2.51222911    -0.06797971     0.00000000
     2.02695597    -0.06340420     0.00000000
     1.56104517    -0.05858479     0.00000000
     1.12198372    -0.05273847     0.00000000
     0.72171854    -0.04586526     0.00000000
     0.38060859    -0.03971912     0.00000000
     0.15132246    -0.01161790     0.00000000
     0.00000000     0.00000000    -0.00000000
     3.01098473    -0.02810042    -0.01255654
     2.50978705    -0.01023570     0.00000000
     2.02350834    -0.00198950     0.00000000
     1.55729471    -0.00020556     0.00000000
     1.11955139    -0.00409645     0.00000000
     0.72556421    -0.01470659     0.00000000
     0.40299242    -0.04148607     0.00000000
     0.22281638    -0.03539686     0.00000000
     0.12438753    -0.02740436     0.00000000
     3.00939482     0.01346505    -0.01234691
     2.51005358     0.04687036     0.00000000
     2.02747131     0.05870913     0.00000000
     1.56256732     0.05801145     0.00000000
     1.12353577     0.04486810     0.00000000
     0.72751210     0.01552406     0.00000000
     0.40593994    -0.04445595     0.00000000
     0.26314749    -0.06715795     0.00000000
     0.20032622    -0.03611664     0.00000000
     3.00727218     0.05561601    -0.01085240
     2.51522297     0.10191217     0.00000000
     2.04193587     0.11766928     0.00000000
     1.58142257     0.11672416     0.00000000
     1.13659968     0.09745875     0.00000000
     0.72290608     0.05372611     0.00000000
     0.37572506    -0.03559917     0.00000000
     0.24526037    -0.09109484     0.00000000
     0.20335579    -0.04796908     0.00000000
     3.00495870     0.09760853    -0.00854614
     2.52599892     0.15225620     0.00000000
     2.07450761     0.17436951     0.00000000
     1.62451386     0.17673682     0.00000000
     1.17580013     0.15660432     0.00000000
     0.73346172     0.10843821     0.00000000
     0.32339910     0.00541378     0.00000000
     0.17604622    -0.09288025     0.00000000
     0.11502869    -0.03519774     0.00000000
     2.99969093     0.14148362     0.00000000
     2.56560033     0.20308756     0.00000000
     2.13284576     0.23210698     0.00000000
     1.69951803     0.23691142     0.00000000
     1.26472733     0.21934941     0.00000000
     0.82498014     0.17304205     0.00000000
     0.37192532     0.08549946    -0.00000000
     0.12719606    -0.03214938    -0.00000000
     0.00000000     0.00000000    -0.00000000
     3.02599040    -0.27759266     0.10631066
     2.61056991    -0.32844025     0.14119195
     2.19806092    -0.34806932     0.16076387
     1.78274450    -0.34538581     0.17091325
     1.36695626    -0.32119499     0.17385637
     0.94734805    -0.26579626     0.16891732
     0.52226386    -0.17400172     0.15672811
     0.22322544    -0.03417489     0.11703053
     0.00000000     0.00000000     0.00000000
     3.02360026    -0.23605164     0.11775666
     2.56636366    -0.28103445     0.15863131
     2.13327985    -0.29466240     0.17908669
     1.70257641    -0.29014134     0.19069210
     1.27133336    -0.26468129     0.19314968
     0.84315105    -0.21138338     0.18611003
     0.42995340    -0.11825359     0.15920160
     0.19494702     0.01037185     0.10741285
     0.07603914     0.02226109    -0.02240748
     3.02084032    -0.19455130     0.12553752
     2.54625660    -0.23337219     0.17232621
     2.08998426    -0.24101289     0.19496723
     1.64482868    -0.23309606     0.20566512
     1.20947092    -0.20791814     0.20592595
     0.79246291    -0.15932945     0.19255484
     0.41758009    -0.07747598     0.16262184
     0.20830776     0.01443002     0.10668298
     0.11360481     0.01170994    -0.03302134
     3.01823812    -0.15304753     0.13103086
     2.53245349    -0.18077446     0.18184821
     2.06216369    -0.18416314     0.20535160
     1.60761290    -0.17549206     0.21580315
     1.17150870    -0.15403452     0.21447012
     0.76492608    -0.11611795     0.19916935
     0.41059910    -0.05717853     0.16769351
     0.20795705     0.00092654     0.10721086
     0.11724849    -0.00366706    -0.03642855
     3.01571638    -0.11109624     0.13362705
     2.52277246    -0.12521760     0.18680730
     2.04434092    -0.12462813     0.21064013
     1.58427651    -0.11735718     0.22101908
     1.14749837    -0.10287547     0.21931043
     0.74532826    -0.07944518     0.20403186
     0.39758691    -0.04614976     0.17229158
     0.18479906    -0.01361279     0.11067143
     0.08217106    -0.01008580    -0.03100337
     3.01312874    -0.06955808     0.13340334
     2.51669708    -0.06796939     0.18676116
     2.03359618    -0.06350802     0.21077680
     1.57018281    -0.05882365     0.22095892
     1.13231388    -0.05305859     0.21890733
     0.73164586    -0.04581237     0.20289561
     0.38774335    -0.03862013     0.17305474
     0.15522036    -0.01209911     0.10971310
     0.00000000     0.00000000     0.00000000
     3.01138157    -0.02812927     0.13329309
     2.51382625    -0.01027241     0.18772471
     2.03021620    -0.00201053     0.21194563
     1.56629076    -0.00027837     0.22190163
     1.12906896    -0.00415491     0.21867094
     0.73290159    -0.01398602     0.19948963
     0.40362273    -0.03824707     0.16284036
     0.21687916    -0.03314523     0.09418977
     0.11449300    -0.02415680    -0.02541746
     3.00974914     0.01373893     0.13048835
     2.51470447     0.04654822     0.18365629
     2.03418549     0.05863614     0.20806234
     1.57148565     0.05796471     0.21800215
     1.13253630     0.04507866     0.21437075
     0.73324745     0.01725329     0.19403360
     0.40315793    -0.03844554     0.15330041
     0.25163922    -0.06242478     0.08382394
     0.18562869    -0.03239143    -0.03708180
     3.00778991     0.05525632     0.12515439
     2.51940404     0.10096405     0.17485715
     2.04837362     0.11709882     0.19904842
     1.59020009     0.11621263     0.20963642
     1.14609730     0.09745356     0.20791304
     0.72998763     0.05572954     0.18858488
     0.37495032    -0.02729680     0.14770299
     0.23530997    -0.08420602     0.08242120
     0.18924888    -0.04510825    -0.03732151
     3.00475759     0.09697879     0.11802816
     2.52979756     0.15025163     0.16152518
     2.07958592     0.17273321     0.18409513
     1.63167544     0.17484292     0.19639789
     1.18500264     0.15515840     0.19826544
     0.74366012     0.10833915     0.18766904
     0.33119826     0.01257088     0.14637290
     0.17418100    -0.08489405     0.08686946
     0.10745764    -0.03412145    -0.02134557
     2.99984570     0.13884750     0.10728509
     2.56625993     0.19958008     0.14473881
     2.13384568     0.22815002     0.16558651
     1.70133742     0.23281432     0.17675827
     1.26732456     0.21511329     0.17928526
     0.82993839     0.16947718     0.17395599
     0.37853384     0.08381440     0.15026089
     0.13430002    -0.02928751     0.09783976
     0.00000000     0.00000000     0.00000000
     3.02564716    -0.26966006     0.21153967
     2.61136182    -0.31911423     0.27922705
     2.19986033    -0.33703579     0.31715681
     1.78615678    -0.33375069     0.33723823
     1.37272685    -0.30968402     0.34200403
     0.95678667    -0.25550012     0.33248175
     0.54040052    -0.16789856     0.30535910
     0.24754351    -0.03612161     0.22951934
     0.00000000     0.00000000     0.00000000
     3.02365059    -0.23088811     0.23541142
     2.57309481    -0.27373155     0.31398806
     2.14524651    -0.28694138     0.35460940
     1.71974067    -0.28187909     0.37699906
     1.29457041    -0.25708904     0.38152919
     0.87203203    -0.20591309     0.36767336
     0.45938782    -0.12382076     0.31714386
     0.20465073    -0.00300177     0.22079179
     0.06156458     0.02011730    -0.03622331
     3.02190400    -0.19115483     0.25364068
     2.55541446    -0.22771101     0.34209860
     2.10708830    -0.23549975     0.38631193
     1.66978134    -0.22785841     0.40764585
     1.24049056    -0.20390590     0.40885005
     0.82421807    -0.15890518     0.38477206
     0.43947250    -0.08545735     0.32742302
     0.20782536     0.00458792     0.22450513
     0.08683008     0.01133306    -0.05286910
     3.01971222    -0.15031006     0.26644828
     2.54253645    -0.17698371     0.36183588
     2.08160503    -0.18071255     0.40751098
     1.63550171    -0.17259184     0.42874828
     1.20476560    -0.15238291     0.42731289
     0.79703742    -0.11718242     0.39904777
     0.43115487    -0.06205465     0.33957049
     0.20370394    -0.00231022     0.22866685
     0.08594226    -0.00068687    -0.05824715
     3.01636771    -0.10994582     0.27393548
     2.53342208    -0.12311040     0.37209666
     2.06438193    -0.12304041     0.41880447
     1.61272439    -0.11631032     0.43990979
     1.18131507    -0.10274383     0.43768629
     0.77880338    -0.08041447     0.40852272
     0.42308594    -0.04713967     0.34827775
     0.18800813    -0.01249162     0.23513787
     0.05685275    -0.00550550    -0.04919083
     3.01384880    -0.06928706     0.27352495
     2.52684799    -0.06775480     0.37303012
     2.05332781    -0.06357593     0.41981810
     1.59793315    -0.05931121     0.44070733
     1.16479032    -0.05407934     0.43779094
     0.76326958    -0.04620786     0.40693652
     0.41221964    -0.03685883     0.34876208
     0.16886491    -0.01372914     0.22629944
     0.00000000     0.00000000     0.00000000
     3.01164215    -0.02866458     0.27396006
     2.52428117    -0.01208446     0.37391011
     2.05011762    -0.00368822     0.42136766
     1.59383290    -0.00211586     0.44195703
     1.15951611    -0.00574108     0.43734141
     0.75793317    -0.01314394     0.40187036
     0.41172517    -0.03065524     0.33273712
     0.20496992    -0.02723823     0.20478540
     0.08935538    -0.01510402    -0.04472859
     3.01065759     0.01153744     0.26654113
     2.52445879     0.04277354     0.36545796
     2.05346279     0.05513060     0.41280396
     1.59812549     0.05481789     0.43343793
     1.16128236     0.04318026     0.42841866
     0.75406899     0.02029604     0.39142290
     0.40270391    -0.02366381     0.31495723
     0.22433180    -0.04836962     0.18722165
     0.14598465    -0.02110628    -0.06368708
     3.00842715     0.05236783     0.25403524
     2.52842420     0.09486736     0.34732510
     2.06550550     0.11152256     0.39419018
     1.61465415     0.11109873     0.41572924
     1.17425005     0.09419305     0.41379900
     0.75347624     0.05878583     0.37930261
     0.38001237    -0.00752477     0.30132981
     0.21360147    -0.06506701     0.18127831
     0.15258189    -0.03616254    -0.06356535
     3.00489356     0.09219597     0.23637262
     2.53721831     0.14210889     0.32015936
     2.09235958     0.16473937     0.36439508
     1.64991018     0.16648373     0.38819434
     1.20957024     0.14801106     0.39179896
     0.77285603     0.10499427     0.37192017
     0.35695143     0.02825040     0.29515445
     0.17165393    -0.06441026     0.18659215
     0.08936755    -0.03266791    -0.03569279
     3.00047480     0.13120471     0.21315584
     2.56804829     0.18913810     0.28550409
     2.13688450     0.21647377     0.32687757
     1.70637875     0.22065292     0.34847786
     1.27540052     0.20281486     0.35334782
     0.84261771     0.15915294     0.34156615
     0.40145744     0.07836764     0.29825323
     0.16287457    -0.02341394     0.19296940
     0.00000000     0.00000000     0.00000000
     3.02536398    -0.25689579     0.31139579
     2.61275421    -0.30281909     0.41026335
     2.20265567    -0.31908832     0.46536543
     1.79156751    -0.31505221     0.49406007
     1.38138667    -0.29094318     0.50025613
     0.97216391    -0.23969416     0.48407753
     0.56667309    -0.15750339     0.44133596
     0.27741875    -0.03696588     0.33078859
     0.00000000     0.00000000     0.00000000
     3.02457121    -0.22145628     0.34836976
     2.58232040    -0.26028430     0.46224169
     2.16329588    -0.27307268     0.52295055
     1.74543128    -0.26751033     0.55503158
     1.32872149    -0.24356120     0.56031301
     0.91652200    -0.19679245     0.54030490
     0.50909571    -0.12541675     0.46953782
     0.23006138    -0.01579162     0.34146591
     0.04501354     0.01529308    -0.03929361
     3.02368602    -0.18382208     0.37775927
     2.56703530    -0.21691344     0.50495211
     2.13336801    -0.22467480     0.57030617
     1.70887114    -0.21774074     0.60242960
     1.28942972    -0.19524676     0.60508566
     0.87919450    -0.15652965     0.57342958
     0.48694504    -0.09262087     0.49346885
     0.22579577    -0.00651998     0.35621283
     0.05844567     0.00965789    -0.05678074
     3.02037391    -0.14622958     0.40001296
     2.55640765    -0.16932414     0.53507008
     2.11239787    -0.17337263     0.60325607
     1.68113670    -0.16633048     0.63579412
     1.26058573    -0.14758626     0.63586068
     0.85654743    -0.11798764     0.59765558
     0.48035963    -0.06824219     0.51535828
     0.22161444    -0.00729217     0.36741252
     0.05444639     0.00129668    -0.06287133
     3.01761594    -0.10795808     0.41138385
     2.54811307    -0.11906224     0.55209410
     2.09703071    -0.11927729     0.62161460
     1.66086034    -0.11353242     0.65441011
     1.23938514    -0.10122744     0.65319022
     0.84147347    -0.08226267     0.61212310
     0.47758475    -0.05036225     0.52742299
     0.21594712    -0.01338227     0.37570751
     0.03517081    -0.00216210    -0.05447775
     3.01498660    -0.06896930     0.41286055
     2.54175290    -0.06731169     0.55509266
     2.08624215    -0.06342523     0.62502054
     1.64615806    -0.05978354     0.65774617
     1.22212714    -0.05520471     0.65567273
     0.82330682    -0.04828561     0.61219724
     0.46177457    -0.03553667     0.52812459
     0.20016763    -0.01570197     0.35486252
     0.00000000     0.00000000     0.00000000
     3.01260554    -0.02999699     0.41173453
     2.53886146    -0.01532332     0.55459338
     2.08310893    -0.00721013     0.62532736
     1.64174512    -0.00559854     0.65798860
     1.21482786    -0.00881238     0.65463079
     0.81081742    -0.01404531     0.60755725
     0.44302288    -0.02183612     0.51263444
     0.20685432    -0.02014357     0.34062726
     0.05928377    -0.00450588    -0.05424188
     3.01069723     0.00822130     0.40075193
     2.53833785     0.03555944     0.54004225
     2.08503852     0.04797757     0.61074008
     1.64434019     0.04826412     0.64330988
     1.21390339     0.03838771     0.64009894
     0.80154241     0.02162848     0.59241194
     0.42244525    -0.00677923     0.48914349
     0.20628157    -0.03145677     0.32126748
     0.09390770    -0.00514003    -0.07211351
     3.00966277     0.04577307     0.37883687
     2.53974461     0.08413080     0.51210398
     2.09252167     0.10068309     0.58116264
     1.65465070     0.10125096     0.61420152
     1.22201429     0.08677723     0.61407651
     0.79948055     0.06067565     0.57042701
     0.40205845     0.01370871     0.46379785
     0.19657227    -0.03946826     0.30590490
     0.10245926    -0.02085798    -0.07066278
     3.00584996     0.08337049     0.35007057
     2.54669261     0.12844563     0.47098200
     2.11100245     0.15038866     0.53685468
     1.67692905     0.15212146     0.57106271
     1.24514431     0.13557587     0.57548651
     0.81803445     0.10028974     0.54848789
     0.40013586     0.04235795     0.44554495
     0.17922151    -0.04095187     0.30495242
     0.06717704    -0.02604666    -0.04081845
     3.00161528     0.11868855     0.31365394
     2.57080406     0.17214576     0.41910169
     2.14164330     0.19750027     0.47947493
     1.71424847     0.20084842     0.51043373
     1.28781694     0.18341527     0.51706382
     0.86314997     0.14269813     0.49795658
     0.43686972     0.06940624     0.43562611
     0.19603838    -0.01893889     0.28794817
     0.00000000     0.00000000     0.00000000
     3.02587263    -0.23911564     0.40298041
     2.61404648    -0.28072440     0.53098031
     2.20635968    -0.29478841     0.60159109
     1.79799394    -0.28991328     0.63765803
     1.39246229    -0.26626220     0.64405126
     0.99030952    -0.21907348     0.62054056
     0.59718227    -0.14341010     0.55936404
     0.31288585    -0.03759530     0.41832367
     0.00000000     0.00000000     0.00000000
     3.02615036    -0.20746593     0.45529264
     2.59486433    -0.24238910     0.60116273
     2.18673838    -0.25354888     0.68068660
     1.77679673    -0.24777942     0.72129798
     1.36981492    -0.22604727     0.72631312
     0.96865899    -0.18126827     0.69870100
     0.57970992    -0.12576294     0.61013718
     0.27803539    -0.02974152     0.46285096
     0.02845378     0.01207438    -0.03059551
     3.02374159    -0.17497267     0.49876329
     2.58427504    -0.20212905     0.65803948
     2.17003800    -0.20904696     0.74463165
     1.75902743    -0.20313524     0.78698424
     1.35274040    -0.18415444     0.79111953
     0.95279597    -0.14571733     0.75255767
     0.56961492    -0.10309860     0.65298526
     0.27114557    -0.02309107     0.49873030
     0.03540238     0.01144172    -0.04578230
     3.02153100    -0.14084969     0.52924558
     2.57619469    -0.15901636     0.69966945
     2.15655387    -0.16224012     0.79016477
     1.74346096    -0.15638556     0.83465646
     1.33669397    -0.14189706     0.83690532
     0.94132158    -0.11106450     0.78991287
     0.57061840    -0.07971519     0.68702888
     0.26897827    -0.01914398     0.52192696
     0.03258791     0.00547521    -0.05205800
     3.01953639    -0.10500281     0.54681612
     2.56974149    -0.11382872     0.72433437
     2.14561997    -0.11336433     0.81731284
     1.72961071    -0.10862173     0.86256295
     1.32269384    -0.09895117     0.86415742
     0.93011100    -0.07952941     0.81074684
     0.57552684    -0.05908095     0.70245705
     0.27353561    -0.01807157     0.53265472
     0.02378235    -0.00303276    -0.05066866
     3.01709850    -0.06873884     0.55085942
     2.56418777    -0.06685789     0.73122564
     2.13648978    -0.06347606     0.82504761
     1.71745959    -0.05964281     0.87079278
     1.30780607    -0.05570316     0.87156394
     0.91295861    -0.04850084     0.81587102
     0.55570873    -0.04109559     0.70708433
     0.25767221    -0.01640456     0.49990395
     0.00000000     0.00000000     0.00000000
     3.01458016    -0.03242329     0.54751880
     2.56087766    -0.01993565     0.72742601
     2.13252015    -0.01311086     0.82184641
     1.71212632    -0.01060440     0.86792756
     1.29900766    -0.01148883     0.86821002
     0.89758789    -0.01657792     0.81164150
     0.52670650    -0.02036646     0.69650902
     0.23604785    -0.00862948     0.50942914
     0.03179880     0.00828448    -0.05020203
     3.01190622     0.00332821     0.53064947
     2.55865819     0.02575459     0.70542966
     2.13106905     0.03631325     0.79953281
     1.70912634     0.03814958     0.84465800
     1.29341604     0.03243859     0.84615045
     0.88331664     0.01666608     0.79139120
     0.49786658     0.00413096     0.67018325
     0.21194837    -0.00890672     0.49689888
     0.04728158     0.00295374    -0.05988055
     3.00987448     0.03744693     0.50057502
     2.55863715     0.06949551     0.66653005
     2.13206288     0.08452714     0.75730759
     1.70944979     0.08572809     0.80174165
     1.29051680     0.07590816     0.80464645
     0.87533446     0.05101995     0.75583733
     0.47425226     0.02976820     0.63105687
     0.19893075    -0.01035579     0.46274393
     0.05234853    -0.01067566    -0.05574527
     3.00812337     0.07006818     0.45735829
     2.56024885     0.11089125     0.61090209
     2.13627259     0.13062957     0.69657676
     1.71104278     0.13213042     0.73979019
     1.29012515     0.11923729     0.74447292
     0.87266289     0.08698171     0.70975976
     0.46793799     0.05270950     0.58894151
     0.19457699    -0.00883313     0.43953500
     0.04262197    -0.01864058    -0.03455697
     3.00375089     0.10148805     0.40571303
     2.57387049     0.14938736     0.54283616
     2.14783803     0.17210975     0.62009613
     1.72393102     0.17444399     0.65957088
     1.30316526     0.15830544     0.66695064
     0.88656279     0.12137056     0.64204897
     0.47674058     0.05802058     0.55990362
     0.23589440    -0.01216834     0.38344849
     0.00000000     0.00000000     0.00000000
     3.02690127    -0.21649879     0.48463550
     2.61526909    -0.25365921     0.63856594
     2.20996731    -0.26480794     0.72241357
     1.80515935    -0.25939668     0.76480382
     1.40392562    -0.23678198     0.77055859
     1.00844151    -0.19453247     0.73938457
     0.62741010    -0.12702299     0.65772636
     0.34939539    -0.03669881     0.49217109
     0.00000000     0.00000000     0.00000000
     3.02541551    -0.19183034     0.55607224
     2.61647095    -0.22179290     0.72988348
     2.21332548    -0.23017597     0.82560692
     1.81121522    -0.22439986     0.87255049
     1.41477611    -0.20399357     0.87786013
     1.02462183    -0.16636741     0.83859489
     0.65231869    -0.10930628     0.73551422
     0.38495262    -0.03457010     0.55706531
     0.00000000     0.00000000     0.00000000
     3.02422799    -0.16409790     0.61283615
     2.61698631    -0.18608471     0.80415408
     2.21499792    -0.19193588     0.90815730
     1.81633890    -0.18597279     0.95959267
     1.42180761    -0.16838896     0.96350733
     1.03850972    -0.13702120     0.91662549
     0.66811256    -0.08949509     0.79700286
     0.41346735    -0.03305868     0.60233167
     0.00000000     0.00000000     0.00000000
     3.02349548    -0.13332409     0.65414229
     2.61590572    -0.14805427     0.85850200
     2.21556377    -0.15046356     0.96973353
     1.81756918    -0.14544852     1.02320321
     1.42676545    -0.13060157     1.02736304
     1.04368112    -0.10695592     0.97180788
     0.67884147    -0.07022764     0.84053445
     0.43067751    -0.02870995     0.63087468
     0.00000000     0.00000000     0.00000000
     3.02217488    -0.10141495     0.67924078
     2.61386121    -0.10753979     0.89263389
     2.21319814    -0.10790620     1.00773393
     1.81638282    -0.10232381     1.06422773
     1.42511877    -0.09294581     1.06546932
     1.04573639    -0.07505666     1.00865203
     0.67050760    -0.05134031     0.86066081
     0.44184248    -0.02313599     0.63861098
     0.00000000     0.00000000     0.00000000
     3.02014759    -0.06835273     0.68809252
     2.61037852    -0.06687490     0.90513037
     2.20847639    -0.06332732     1.02247071
     1.81092655    -0.05981283     1.07988901
     1.41898879    -0.05296048     1.08092790
     1.03862472    -0.04586749     1.02087281
     0.66587251    -0.02903400     0.87250782
     0.41819761    -0.01512318     0.60243993
     0.00000000     0.00000000     0.00000000
     3.01757317    -0.03582877     0.68041736
     2.60537762    -0.02542484     0.89584740
     2.20158346    -0.01978891     1.01331368
     1.80102478    -0.01582026     1.07020454
     1.40809077    -0.01530606     1.07238994
     1.02457661    -0.01401936     1.01211383
     0.65095292    -0.01377944     0.85999958
     0.41420102    -0.00260458     0.63261530
     0.00000000     0.00000000     0.00000000
     3.01448412    -0.00369317     0.65600954
     2.59968520     0.01443715     0.86535465
     2.19166257     0.02367641     0.97956174
     1.78880530     0.02625701     1.03620862
     1.39022824     0.02291870     1.03827661
     1.00683000     0.01460444     0.98292310
     0.62611755     0.00255025     0.82818446
     0.39867213    -0.00092581     0.62805622
     0.00000000     0.00000000     0.00000000
     3.01141340     0.02672547     0.61551313
     2.59276056     0.05265816     0.81329441
     2.18103616     0.06499463     0.92293865
     1.77208342     0.06703761     0.97655763
     1.37062013     0.05927963     0.98145676
     0.97842936     0.04214091     0.92914613
     0.59750110     0.01623893     0.78387226
     0.36173609    -0.00130986     0.58725036
     0.00000000     0.00000000     0.00000000
     3.00920796     0.05452507     0.55865912
     2.58597188     0.08811064     0.74142776
     2.16845388     0.10356378     0.84281368
     1.75497671     0.10507429     0.89330151
     1.34562961     0.09272810     0.89903394
     0.94752430     0.06775626     0.85368371
     0.55697769     0.02664058     0.72560551
     0.32048044    -0.00596157     0.53321380
     0.00000000     0.00000000     0.00000000
     3.00744535     0.07934648     0.48714657
     2.57752528     0.12330128     0.64857794
     2.15529433     0.14162921     0.74054756
     1.73544309     0.14312036     0.78691852
     1.31916030     0.12839489     0.79352786
     0.90881910     0.09586427     0.76155562
     0.50638755     0.04340405     0.65474181
     0.26560138    -0.01023288     0.48313713
     0.00000000     0.00000000     0.00000000
     0.00000000     0.00000000    -0.00000000
     0.00000000     0.00000000    -0.00000000
     0.00000000     0.00000000    -0.00000000
     0.00000000     0.00000000    -0.00000000
     0.00000000     0.00000000    -0.00000000
     0.00000000     0.00000000    -0.00000000
     0.00000000     0.00000000    -0.00000000
     0.00000000     0.00000000    -0.00000000
     0.00000000     0.00000000    -0.00000000
     0.00000000     0.00000000    -0.00000000
     0.00000000     0.00000000    -0.00000000
     0.06135605    -0.01064908     0.00000000
     0.09118538     0.01662213     0.00000000
     0.09216209     0.00174167     0.00000000
     0.08400149     0.00242277     0.00000000
     0.07335793     0.00195504     0.00000000
     0.06167049     0.00044684     0.00000000
     0.04974840    -0.00180009     0.00000000
     0.03785181    -0.00441276     0.00000000
     0.02608292    -0.00696772     0.00000000
     0.01447623    -0.00927032     0.00000000
     0.00000000     0.00000000    -0.00000000
     0.18472225    -0.01570725     0.00000000
     0.18828608     0.01914060     0.00000000
     0.18004265     0.02145315     0.00000000
     0.15761956     0.02365898     0.00000000
     0.13202188     0.02236297     0.00000000
     0.10666586     0.01825971     0.00000000
     0.08217084     0.01311746     0.00000000
     0.05869484     0.00758608     0.00000000
     0.03643495     0.00197356     0.00000000
     0.01592820    -0.00200837     0.00000000
     0.00000000     0.00000000    -0.00000000
     0.22480101    -0.03665623     0.00000000
     0.21075090     0.00423038     0.00000000
     0.18783908     0.03767162     0.00000000
     0.15887996     0.04435059     0.00000000
     0.13090032     0.04133017     0.00000000
     0.10421248     0.03603114     0.00000000
     0.07905842     0.02985767     0.00000000
     0.05525519     0.02352306     0.00000000
     0.03279955     0.01736201     0.00000000
     0.01284718     0.01031531     0.00000000
     0.00000000     0.00000000    -0.00000000
     0.11449217    -0.02620718     0.00000000
     0.12852757    -0.01180846     0.00000000
     0.09499002     0.03370051     0.00000000
     0.07806020     0.03389864     0.00000000
     0.06397690     0.03229425     0.00000000
     0.05154390     0.02921294     0.00000000
     0.03993624     0.02596268     0.00000000
     0.02877282     0.02270323     0.00000000
     0.01795906     0.01927008     0.00000000
     0.00740406     0.01555932     0.00000000
     0.00000000     0.00000000    -0.00000000
     0.00000000     0.00000000    -0.00000000
     0.00000000     0.00000000    -0.00000000
     0.00000000     0.00000000    -0.00000000
     0.00000000     0.00000000    -0.00000000
     0.00000000     0.00000000    -0.00000000
     0.00000000     0.00000000    -0.00000000
     0.00000000     0.00000000    -0.00000000
     0.00000000     0.00000000    -0.00000000
     0.00000000     0.00000000    -0.00000000
     0.00000000     0.00000000    -0.00000000
     0.00000000     0.00000000    -0.00000000
     0.00000000     0.00000000     0.00000000
     0.00000000     0.00000000     0.00000000
     0.00000000     0.00000000     0.00000000
     0.00000000     0.00000000     0.00000000
     0.00000000     0.00000000     0.00000000
     0.00000000     0.00000000     0.00000000
     0.00000000     0.00000000     0.00000000
     0.00000000     0.00000000     0.00000000
     0.00000000     0.00000000     0.00000000
     0.00000000     0.00000000     0.00000000
     0.00000000     0.00000000     0.00000000
     0.05528777    -0.01053504    -0.00318638
     0.08538890     0.01526350    -0.00708595
     0.08551465     0.00103272     0.00172447
     0.07775886     0.00192147     0.00407326
     0.06800402     0.00159259     0.00473657
     0.05734142     0.00029907     0.00481553
     0.04645818    -0.00171208     0.00471009
     0.03555186    -0.00409714     0.00454613
     0.02470900    -0.00646228     0.00424805
     0.01389777    -0.00871874     0.00347035
     0.00000000     0.00000000     0.00000000
     0.17104354    -0.01532154    -0.01642927
     0.17790594     0.01772246    -0.00848076
     0.16945356     0.01986029     0.00416648
     0.14790920     0.02195787     0.00948692
     0.12383224     0.02082217     0.01110419
     0.10023221     0.01706898     0.01102818
     0.07750620     0.01233930     0.01043348
     0.05567803     0.00720313     0.00961424
     0.03485349     0.00192866     0.00824400
     0.01541132    -0.00188235     0.00547412
     0.00000000     0.00000000     0.00000000
     0.20939097    -0.03495523    -0.01879638
     0.19973647     0.00355338    -0.00731565
     0.17704561     0.03562163     0.00463824
     0.14915190     0.04183436     0.01053157
     0.12278492     0.03894966     0.01195309
     0.09792332     0.03400312     0.01159679
     0.07457896     0.02826555     0.01078053
     0.05243729     0.02236734     0.00982266
     0.03140712     0.01661165     0.00837747
     0.01246458     0.00994377     0.00556088
     0.00000000     0.00000000     0.00000000
     0.10402841    -0.02350503    -0.00708869
     0.12017767    -0.01141362    -0.00467551
     0.08747805     0.03151660     0.00507795
     0.07176516     0.03143568     0.00595144
     0.05894733     0.03005538     0.00553969
     0.04770965     0.02726003     0.00495674
     0.03719350     0.02430572     0.00452668
     0.02700411     0.02132610     0.00423558
     0.01706178     0.01817465     0.00392230
     0.00719062     0.01480515     0.00322616
     0.00000000     0.00000000     0.00000000
     0.00000000     0.00000000     0.00000000
     0.00000000     0.00000000     0.00000000
     0.00000000     0.00000000     0.00000000
     0.00000000     0.00000000     0.00000000
     0.00000000     0.00000000     0.00000000
     0.00000000     0.00000000     0.00000000
     0.00000000     0.00000000     0.00000000
     0.00000000     0.00000000     0.00000000
     0.00000000     0.00000000     0.00000000
     0.00000000     0.00000000     0.00000000
     0.00000000     0.00000000     0.00000000
     0.00000000     0.00000000     0.00000000
     0.00000000     0.00000000     0.00000000
     0.00000000     0.00000000     0.00000000
     0.00000000     0.00000000     0.00000000
     0.00000000     0.00000000     0.00000000
     0.00000000     0.00000000     0.00000000
     0.00000000     0.00000000     0.00000000
     0.00000000     0.00000000     0.00000000
     0.00000000     0.00000000     0.00000000
     0.00000000     0.00000000     0.00000000
     0.00000000     0.00000000     0.00000000
     0.04079775    -0.01122908    -0.00295592
     0.07060686     0.01135019    -0.01109492
     0.06853684    -0.00078914     0.00338415
     0.06202624     0.00059424     0.00679152
     0.05466828     0.00071236     0.00765818
     0.04663998     0.00003727     0.00773218
     0.03834644    -0.00139180     0.00756817
     0.02993483    -0.00323752     0.00735311
     0.02136249    -0.00508068     0.00695623
     0.01254039    -0.00720029     0.00584692
     0.00000000     0.00000000     0.00000000
     0.13390448    -0.01435177    -0.02467151
     0.14887816     0.01328830    -0.01478760
     0.13940016     0.01528720     0.00787301
     0.12041877     0.01712806     0.01629994
     0.10076108     0.01655408     0.01844935
     0.08216542     0.01387146     0.01807916
     0.06438860     0.01027832     0.01707173
     0.04717813     0.00623336     0.01583897
     0.03035502     0.00191087     0.01379932
     0.01395691    -0.00139453     0.00942683
     0.00000000     0.00000000     0.00000000
     0.16684694    -0.02940777    -0.02965836
     0.16852213     0.00211369    -0.01301458
     0.14625295     0.02968664     0.00894746
     0.12153477     0.03455654     0.01832257
     0.09993469     0.03206402     0.01997941
     0.08033772     0.02813795     0.01907268
     0.06207183     0.02362174     0.01767574
     0.04457659     0.01896875     0.01620959
     0.02752221     0.01434338     0.01404626
     0.01146732     0.00875675     0.00959540
     0.00000000     0.00000000     0.00000000
     0.07732443    -0.01632480    -0.00860082
     0.09858751    -0.00986831    -0.00746502
     0.06851267     0.02572150     0.00882306
     0.05605016     0.02529889     0.00974226
     0.04657688     0.02450599     0.00884243
     0.03843111     0.02239949     0.00785900
     0.03059200     0.02017497     0.00721048
     0.02280461     0.01791820     0.00681132
     0.01499182     0.01539736     0.00640109
     0.00681346     0.01285655     0.00542684
     0.00000000     0.00000000     0.00000000
     0.00000000     0.00000000     0.00000000
     0.00000000     0.00000000     0.00000000
     0.00000000     0.00000000     0.00000000
     0.00000000     0.00000000     0.00000000
     0.00000000     0.00000000     0.00000000
     0.00000000     0.00000000     0.00000000
     0.00000000     0.00000000     0.00000000
     0.00000000     0.00000000     0.00000000
     0.00000000     0.00000000     0.00000000
     0.00000000     0.00000000     0.00000000
     0.00000000     0.00000000     0.00000000
     0.00000000     0.00000000     0.00000000
     0.00000000     0.00000000     0.00000000
     0.00000000     0.00000000     0.00000000
     0.00000000     0.00000000     0.00000000
     0.00000000     0.00000000     0.00000000
     0.00000000     0.00000000     0.00000000
     0.00000000     0.00000000     0.00000000
     0.00000000     0.00000000     0.00000000
     0.00000000     0.00000000     0.00000000
     0.00000000     0.00000000     0.00000000
     0.00000000     0.00000000     0.00000000
     0.02019881    -0.01256138     0.00399639
     0.04865964     0.00535392    -0.01028524
     0.04390206    -0.00310028     0.00452597
     0.03992300    -0.00108112     0.00703420
     0.03610821    -0.00012381     0.00766760
     0.03163731    -0.00019719     0.00772452
     0.02679067    -0.00094454     0.00758220
     0.02170244    -0.00206780     0.00740396
     0.01646521    -0.00335155     0.00718540
     0.01038710    -0.00499689     0.00644029
     0.00000000     0.00000000     0.00000000
     0.08011485    -0.01402580    -0.01758157
     0.10405263     0.00615129    -0.01608764
     0.09265640     0.00806753     0.01036261
     0.07856414     0.00967263     0.01755581
     0.06633135     0.01038220     0.01884685
     0.05538275     0.00915471     0.01820447
     0.04484657     0.00714338     0.01719309
     0.03433302     0.00465860     0.01613291
     0.02353736     0.00169008     0.01454673
     0.01159092    -0.00072940     0.01061932
     0.00000000     0.00000000     0.00000000
     0.10312914    -0.02112277    -0.02427356
     0.11930130    -0.00020427    -0.01458395
     0.09756967     0.01996741     0.01213314
     0.07885641     0.02314639     0.02008183
     0.06559232     0.02156525     0.02053420
     0.05414633     0.01929940     0.01926929
     0.04334499     0.01663924     0.01784886
     0.03261685     0.01382073     0.01655240
     0.02153209     0.01099600     0.01484735
     0.00978155     0.00689901     0.01084409
     0.00000000     0.00000000     0.00000000
     0.04226919    -0.00858781    -0.00195330
     0.06783605    -0.00719470    -0.00733922
     0.04183173     0.01752662     0.01028438
     0.03431567     0.01691645     0.00983974
     0.02988926     0.01663959     0.00860468
     0.02570491     0.01553986     0.00769440
     0.02131387     0.01428635     0.00712445
     0.01666734     0.01295385     0.00680289
     0.01184597     0.01154053     0.00658269
     0.00612120     0.00991048     0.00597189
     0.00000000     0.00000000     0.00000000
     0.00000000     0.00000000     0.00000000
     0.00000000     0.00000000     0.00000000
     0.00000000     0.00000000     0.00000000
     0.00000000     0.00000000     0.00000000
     0.00000000     0.00000000     0.00000000
     0.00000000     0.00000000     0.00000000
     0.00000000     0.00000000     0.00000000
     0.00000000     0.00000000     0.00000000
     0.00000000     0.00000000     0.00000000
     0.00000000     0.00000000     0.00000000
     0.00000000     0.00000000     0.00000000
     0.00000000     0.00000000     0.00000000
     0.00000000     0.00000000     0.00000000
     0.00000000     0.00000000     0.00000000
     0.00000000     0.00000000     0.00000000
     0.00000000     0.00000000     0.00000000
     0.00000000     0.00000000     0.00000000
     0.00000000     0.00000000     0.00000000
     0.00000000     0.00000000     0.00000000
     0.00000000     0.00000000     0.00000000
     0.00000000     0.00000000     0.00000000
     0.00000000     0.00000000     0.00000000
    -0.00513759    -0.01919809     0.02052950
     0.02013898     0.00047067    -0.00457935
     0.01571292    -0.00387838     0.00353529
     0.01602622    -0.00074683     0.00442105
     0.01591376    -0.00026003     0.00477161
     0.01491662    -0.00011861     0.00479967
     0.01344045    -0.00038183     0.00472825
     0.01168087    -0.00082428     0.00467429
     0.00977101    -0.00113543     0.00450425
     0.00804065    -0.00251588     0.00473632
     0.00000000     0.00000000     0.00000000
     0.01552917    -0.01299244     0.01155282
     0.04633714    -0.00207443    -0.00952970
     0.03506336     0.00030885     0.00876932
     0.03049085     0.00281456     0.01072381
     0.02773546     0.00405746     0.01128423
     0.02515890     0.00398725     0.01083881
     0.02210938     0.00345877     0.01036804
     0.01859646     0.00264231     0.00994930
     0.01458937     0.00140677     0.00922792
     0.00914242     0.00002122     0.00820657
     0.00000000     0.00000000     0.00000000
     0.02275421    -0.00805997     0.00767678
     0.05407385    -0.00400215    -0.00848685
     0.03569131     0.00684898     0.01064760
     0.02933997     0.00905911     0.01230739
     0.02687409     0.00917825     0.01223415
     0.02437034     0.00899854     0.01145078
     0.02135302     0.00834519     0.01076393
     0.01779697     0.00742600     0.01022673
     0.01360173     0.00648184     0.00944369
     0.00807692     0.00483033     0.00840564
     0.00000000     0.00000000     0.00000000
     0.00076686     0.00296890     0.01492099
     0.03035746    -0.00548588    -0.00308132
     0.01118239     0.00716090     0.00764147
     0.01232303     0.00633018     0.00559806
     0.01239771     0.00750039     0.00510914
     0.01185366     0.00750375     0.00459704
     0.01065526     0.00728802     0.00434511
     0.00909134     0.00690003     0.00423490
     0.00743975     0.00623720     0.00408068
     0.00540514     0.00655624     0.00436694
     0.00000000     0.00000000     0.00000000
     0.00000000     0.00000000     0.00000000
     0.00000000     0.00000000     0.00000000
     0.00000000     0.00000000     0.00000000
     0.00000000     0.00000000     0.00000000
     0.00000000     0.00000000     0.00000000
     0.00000000     0.00000000     0.00000000
     0.00000000     0.00000000     0.00000000
     0.00000000     0.00000000     0.00000000
     0.00000000     0.00000000     0.00000000
     0.00000000     0.00000000     0.00000000
     0.00000000     0.00000000     0.00000000
     0.00000000     0.00000000     0.00000000
     0.00000000     0.00000000     0.00000000
     0.00000000     0.00000000     0.00000000
     0.00000000     0.00000000     0.00000000
     0.00000000     0.00000000     0.00000000
     0.00000000     0.00000000     0.00000000
     0.00000000     0.00000000     0.00000000
     0.00000000     0.00000000     0.00000000
     0.00000000     0.00000000     0.00000000
     0.00000000     0.00000000     0.00000000
     0.00000000     0.00000000     0.00000000
     0.00000000     0.00000000     0.00000000
     0.00000000     0.00000000     0.00000000
     0.00000000     0.00000000     0.00000000
     0.00000000     0.00000000     0.00000000
     0.00000000     0.00000000     0.00000000
     0.00000000     0.00000000     0.00000000
     0.00000000     0.00000000     0.00000000
     0.00000000     0.00000000     0.00000000
     0.00000000     0.00000000     0.00000000
     0.00000000     0.00000000     0.00000000
     0.00000000     0.00000000     0.00000000
     0.00000000     0.00000000     0.00000000
     0.00000000     0.00000000     0.00000000
     0.00000000     0.00000000     0.00000000
     0.00000000     0.00000000     0.00000000
     0.00000000     0.00000000     0.00000000
     0.00000000     0.00000000     0.00000000
     0.00000000     0.00000000     0.00000000
     0.00000000     0.00000000     0.00000000
     0.00000000     0.00000000     0.00000000
     0.00000000     0.00000000     0.00000000
     0.00000000     0.00000000     0.00000000
     0.00000000     0.00000000     0.00000000
     0.00000000     0.00000000     0.00000000
     0.00000000     0.00000000     0.00000000
     0.00000000     0.00000000     0.00000000
     0.00000000     0.00000000     0.00000000
     0.00000000     0.00000000     0.00000000
     0.00000000     0.00000000     0.00000000
     0.00000000     0.00000000     0.00000000
     0.00000000     0.00000000     0.00000000
     0.00000000     0.00000000     0.00000000
     0.00000000     0.00000000     0.00000000
     0.00000000     0.00000000     0.00000000
     0.00000000     0.00000000     0.00000000
     0.00000000     0.00000000     0.00000000
     0.00000000     0.00000000     0.00000000
     0.00000000     0.00000000     0.00000000
     0.00000000     0.00000000     0.00000000
     0.00000000     0.00000000     0.00000000
     0.00000000     0.00000000     0.00000000
     0.00000000     0.00000000     0.00000000
     0.00000000     0.00000000     0.00000000
     0.00000000     0.00000000     0.00000000
     0.00000000     0.00000000     0.00000000
     0.00000000     0.00000000     0.00000000
     0.00000000     0.00000000     0.00000000
     0.00000000     0.00000000     0.00000000
     0.00000000     0.00000000     0.00000000
     0.00000000     0.00000000     0.00000000
     0.00000000     0.00000000     0.00000000
     0.00000000     0.00000000     0.00000000
     0.00000000     0.00000000     0.00000000
     0.00000000     0.00000000     0.00000000
     0.00000000     0.00000000     0.00000000
     0.00000000     0.00000000    -0.00000000
     0.00000000     0.00000000    -0.00000000
     0.00000000     0.00000000    -0.00000000
     0.00000000     0.00000000    -0.00000000
     0.00000000     0.00000000    -0.00000000
     0.00000000     0.00000000    -0.00000000
     0.00000000     0.00000000    -0.00000000
     0.00000000     0.00000000    -0.00000000
     0.11782567    -0.01790958     0.00000000
     0.10995494    -0.02134596     0.00000000
     0.08835334    -0.01638748     0.00000000
     0.06746075    -0.01160532     0.00000000
     0.05015535    -0.00727286     0.00000000
     0.03571840    -0.00356835     0.00000000
     0.02309138    -0.00037271     0.00000000
     0.01178196     0.00298733     0.00000000
     0.00000000     0.00000000    -0.00000000
     0.16293181    -0.02219435     0.00000000
     0.15158636    -0.03509242     0.00000000
     0.12394649    -0.03175448     0.00000000
     0.09588845    -0.02465610     0.00000000
     0.07113092    -0.01764379     0.00000000
     0.04952301    -0.01144108     0.00000000
     0.03020917    -0.00586680     0.00000000
     0.01285734    -0.00114443     0.00000000
     0.00000000     0.00000000    -0.00000000
     0.15647918    -0.01705081     0.00000000
     0.13982220    -0.04002131     0.00000000
     0.11297657    -0.03778661     0.00000000
     0.08762530    -0.03073613     0.00000000
     0.06529076    -0.02373309     0.00000000
     0.04550221    -0.01746883     0.00000000
     0.02740984    -0.01198996     0.00000000
     0.01101445    -0.00675507     0.00000000
     0.00000000     0.00000000    -0.00000000
     0.09754073    -0.01015502     0.00000000
     0.07720228    -0.02919442     0.00000000
     0.06221198    -0.02593361     0.00000000
     0.04922538    -0.02220427     0.00000000
     0.03793883    -0.01824932     0.00000000
     0.02752322    -0.01477329     0.00000000
     0.01759508    -0.01150980     0.00000000
     0.00783183    -0.00884675     0.00000000
     0.00000000     0.00000000    -0.00000000
     0.00000000     0.00000000     0.00000000
     0.00000000     0.00000000    -0.00000000
     0.00000000     0.00000000    -0.00000000
     0.00000000     0.00000000    -0.00000000
     0.00000000     0.00000000    -0.00000000
     0.00000000     0.00000000    -0.00000000
     0.00000000     0.00000000    -0.00000000
     0.00000000     0.00000000    -0.00000000
     0.00000000     0.00000000    -0.00000000
     0.00000000     0.00000000     0.00000000
     0.00000000     0.00000000     0.00000000
     0.00000000     0.00000000     0.00000000
     0.00000000     0.00000000     0.00000000
     0.00000000     0.00000000     0.00000000
     0.00000000     0.00000000     0.00000000
     0.00000000     0.00000000     0.00000000
     0.00000000     0.00000000     0.00000000
     0.00000000     0.00000000     0.00000000
     0.10537706    -0.01677096    -0.00962688
     0.09670565    -0.01853556     0.00580430
     0.07848803    -0.01485745     0.00739256
     0.06093549    -0.01069402     0.00577401
     0.04600469    -0.00684926     0.00418822
     0.03318572    -0.00345169     0.00320326
     0.02172033    -0.00048386     0.00264591
     0.01126218     0.00270989     0.00215660
     0.00000000     0.00000000     0.00000000
     0.14841178    -0.02130690    -0.01449896
     0.13643838    -0.03171658     0.00553483
     0.11198535    -0.02875495     0.00899436
     0.08750318    -0.02259350     0.00816992
     0.06569856    -0.01637832     0.00647220
     0.04629874    -0.01076623     0.00519875
     0.02860541    -0.00561379     0.00426026
     0.01235814    -0.00116217     0.00290099
     0.00000000     0.00000000     0.00000000
     0.14324098    -0.01686941    -0.01422366
     0.12635091    -0.03651529     0.00462248
     0.10251780    -0.03428309     0.00844270
     0.08028212    -0.02813191     0.00740869
     0.06050188    -0.02196599     0.00590626
     0.04265012    -0.01635283     0.00481017
     0.02601400    -0.01135326     0.00401204
     0.01062560    -0.00645922     0.00276284
     0.00000000     0.00000000     0.00000000
     0.08859867    -0.01076438    -0.00762585
     0.06907046    -0.02631347     0.00386030
     0.05622798    -0.02333802     0.00457057
     0.04506391    -0.02019590     0.00367327
     0.03513475    -0.01678247     0.00286922
     0.02574737    -0.01371482     0.00241220
     0.01665761    -0.01076961     0.00216582
     0.00757140    -0.00835569     0.00189112
     0.00000000     0.00000000     0.00000000
     0.00000000     0.00000000     0.00000000
     0.00000000     0.00000000     0.00000000
     0.00000000     0.00000000     0.00000000
     0.00000000     0.00000000     0.00000000
     0.00000000     0.00000000     0.00000000
     0.00000000     0.00000000     0.00000000
     0.00000000     0.00000000     0.00000000
     0.00000000     0.00000000     0.00000000
     0.00000000     0.00000000     0.00000000
     0.00000000     0.00000000     0.00000000
     0.00000000     0.00000000     0.00000000
     0.00000000     0.00000000     0.00000000
     0.00000000     0.00000000     0.00000000
     0.00000000     0.00000000     0.00000000
     0.00000000     0.00000000     0.00000000
     0.00000000     0.00000000     0.00000000
     0.00000000     0.00000000     0.00000000
     0.00000000     0.00000000     0.00000000
     0.07681444    -0.01382594    -0.01207182
     0.06621397    -0.01213395     0.00874863
     0.05581510    -0.01124229     0.01097484
     0.04591418    -0.00866179     0.00864350
     0.03634051    -0.00593366     0.00641154
     0.02722938    -0.00323129     0.00503257
     0.01847188    -0.00081726     0.00426919
     0.01006159     0.00193892     0.00360701
     0.00000000     0.00000000     0.00000000
     0.11259749    -0.01902838    -0.02057382
     0.09882558    -0.02320339     0.00885963
     0.08193710    -0.02116654     0.01395246
     0.06621937    -0.01742744     0.01253832
     0.05171153    -0.01320513     0.01003974
     0.03785710    -0.00906004     0.00824791
     0.02432162    -0.00498888     0.00696427
     0.01102084    -0.00127722     0.00492929
     0.00000000     0.00000000     0.00000000
     0.11072870    -0.01651863    -0.02129733
     0.09310385    -0.02780223     0.00765238
     0.07627257    -0.02549922     0.01315873
     0.06167830    -0.02150943     0.01144611
     0.04821248    -0.01738994     0.00921036
     0.03522416    -0.01339825     0.00766584
     0.02232542    -0.00961655     0.00658159
     0.00962916    -0.00561009     0.00471069
     0.00000000     0.00000000     0.00000000
     0.06794170    -0.01175916    -0.01089717
     0.05038855    -0.01976136     0.00603997
     0.04238230    -0.01744186     0.00692564
     0.03543668    -0.01554103     0.00560586
     0.02857888    -0.01332513     0.00445905
     0.02155973    -0.01119246     0.00383007
     0.01445028    -0.00896669     0.00351556
     0.00702542    -0.00711945     0.00317699
     0.00000000     0.00000000     0.00000000
     0.00000000     0.00000000     0.00000000
     0.00000000     0.00000000     0.00000000
     0.00000000     0.00000000     0.00000000
     0.00000000     0.00000000     0.00000000
     0.00000000     0.00000000     0.00000000
     0.00000000     0.00000000     0.00000000
     0.00000000     0.00000000     0.00000000
     0.00000000     0.00000000     0.00000000
     0.00000000     0.00000000     0.00000000
     0.00000000     0.00000000     0.00000000
     0.00000000     0.00000000     0.00000000
     0.00000000     0.00000000     0.00000000
     0.00000000     0.00000000     0.00000000
     0.00000000     0.00000000     0.00000000
     0.00000000     0.00000000     0.00000000
     0.00000000     0.00000000     0.00000000
     0.00000000     0.00000000     0.00000000
     0.00000000     0.00000000     0.00000000
     0.04495429    -0.00924424    -0.00657941
     0.03326644    -0.00562743     0.00790463
     0.03113787    -0.00705178     0.00956493
     0.02857656    -0.00619207     0.00776056
     0.02437032    -0.00457021     0.00600703
     0.01926125    -0.00276215     0.00490177
     0.01393119    -0.00104930     0.00432924
     0.00826263     0.00095123     0.00393080
     0.00000000     0.00000000     0.00000000
     0.06907876    -0.01518614    -0.01583673
     0.05380625    -0.01278311     0.00903944
     0.04605343    -0.01207883     0.01287632
     0.04036381    -0.01119836     0.01144233
     0.03404299    -0.00911234     0.00940363
     0.02662612    -0.00670422     0.00802251
     0.01841901    -0.00400486     0.00713231
     0.00905307    -0.00136185     0.00547428
     0.00000000     0.00000000     0.00000000
     0.07016012    -0.01535151    -0.01850338
     0.05235423    -0.01664624     0.00834594
     0.04408552    -0.01480325     0.01225035
     0.03850749    -0.01340661     0.01056255
     0.03230976    -0.01160249     0.00870090
     0.02512395    -0.00946529     0.00750951
     0.01711567    -0.00725305     0.00677727
     0.00810147    -0.00439113     0.00526218
     0.00000000     0.00000000     0.00000000
     0.04313787    -0.01156088    -0.00906874
     0.02867341    -0.01203195     0.00602107
     0.02599619    -0.01047789     0.00627063
     0.02343987    -0.00988967     0.00520094
     0.01986491    -0.00895016     0.00428306
     0.01562407    -0.00779940     0.00378239
     0.01116039    -0.00654820     0.00358976
     0.00610323    -0.00536219     0.00348315
     0.00000000     0.00000000     0.00000000
     0.00000000     0.00000000     0.00000000
     0.00000000     0.00000000     0.00000000
     0.00000000     0.00000000     0.00000000
     0.00000000     0.00000000     0.00000000
     0.00000000     0.00000000     0.00000000
     0.00000000     0.00000000     0.00000000
     0.00000000     0.00000000     0.00000000
     0.00000000     0.00000000     0.00000000
     0.00000000     0.00000000     0.00000000
     0.00000000     0.00000000     0.00000000
     0.00000000     0.00000000     0.00000000
     0.00000000     0.00000000     0.00000000
     0.00000000     0.00000000     0.00000000
     0.00000000     0.00000000     0.00000000
     0.00000000     0.00000000     0.00000000
     0.00000000     0.00000000     0.00000000
     0.00000000     0.00000000     0.00000000
     0.00000000     0.00000000     0.00000000
     0.01897551    -0.00462481     0.00127481
     0.01102705    -0.00179037     0.00405322
     0.01264175    -0.00360385     0.00509775
     0.01332952    -0.00335201     0.00427033
     0.01226543    -0.00260610     0.00352645
     0.01022604    -0.00170892     0.00302968
     0.00790188    -0.00102205     0.00271557
     0.00609608     0.00004023     0.00282842
     0.00000000     0.00000000     0.00000000
     0.02851313    -0.01167922    -0.00435521
     0.01664167    -0.00335922     0.00567806
     0.01663673    -0.00512849     0.00682851
     0.01754864    -0.00535140     0.00618959
     0.01658907    -0.00474854     0.00536323
     0.01411274    -0.00378808     0.00484568
     0.01091777    -0.00261134     0.00445875
     0.00684225    -0.00132864     0.00412910
     0.00000000     0.00000000     0.00000000
     0.03013035    -0.01338262    -0.00772502
     0.01699849    -0.00527557     0.00579420
     0.01658021    -0.00571707     0.00651079
     0.01723478    -0.00605866     0.00578457
     0.01605770    -0.00582065     0.00501182
     0.01354211    -0.00505438     0.00457521
     0.01034747    -0.00417460     0.00425884
     0.00635743    -0.00296531     0.00400244
     0.00000000     0.00000000     0.00000000
     0.01914441    -0.00989659    -0.00416766
     0.01079743    -0.00447844     0.00387509
     0.01163057    -0.00442413     0.00341628
     0.01142818    -0.00466678     0.00299817
     0.01022596    -0.00451047     0.00257175
     0.00842113    -0.00408782     0.00237051
     0.00653412    -0.00342637     0.00225300
     0.00487407    -0.00337374     0.00251990
     0.00000000     0.00000000     0.00000000
     0.00000000     0.00000000     0.00000000
     0.00000000     0.00000000     0.00000000
     0.00000000     0.00000000     0.00000000
     0.00000000     0.00000000     0.00000000
     0.00000000     0.00000000     0.00000000
     0.00000000     0.00000000     0.00000000
     0.00000000     0.00000000     0.00000000
     0.00000000     0.00000000     0.00000000
     0.00000000     0.00000000     0.00000000
     0.00000000     0.00000000     0.00000000
     0.00000000     0.00000000     0.00000000
     0.00000000     0.00000000     0.00000000
     0.00000000     0.00000000     0.00000000
     0.00000000     0.00000000     0.00000000
     0.00000000     0.00000000     0.00000000
     0.00000000     0.00000000     0.00000000
     0.00000000     0.00000000     0.00000000
     0.00000000     0.00000000     0.00000000
     0.00000000     0.00000000     0.00000000
     0.00000000     0.00000000     0.00000000
     0.00000000     0.00000000     0.00000000
     0.00000000     0.00000000     0.00000000
     0.00000000     0.00000000     0.00000000
     0.00000000     0.00000000     0.00000000
     0.00000000     0.00000000     0.00000000
     0.00000000     0.00000000     0.00000000
     0.00000000     0.00000000     0.00000000
     0.00000000     0.00000000     0.00000000
     0.00000000     0.00000000     0.00000000
     0.00000000     0.00000000     0.00000000
     0.00000000     0.00000000     0.00000000
     0.00000000     0.00000000     0.00000000
     0.00000000     0.00000000     0.00000000
     0.00000000     0.00000000     0.00000000
     0.00000000     0.00000000     0.00000000
     0.00000000     0.00000000     0.00000000
     0.00000000     0.00000000     0.00000000
     0.00000000     0.00000000     0.00000000
     0.00000000     0.00000000     0.00000000
     0.00000000     0.00000000     0.00000000
     0.00000000     0.00000000     0.00000000
     0.00000000     0.00000000     0.00000000
     0.00000000     0.00000000     0.00000000
     0.00000000     0.00000000     0.00000000
     0.00000000     0.00000000     0.00000000
     0.00000000     0.00000000     0.00000000
     0.00000000     0.00000000     0.00000000
     0.00000000     0.00000000     0.00000000
     0.00000000     0.00000000     0.00000000
     0.00000000     0.00000000     0.00000000
     0.00000000     0.00000000     0.00000000
     0.00000000     0.00000000     0.00000000
     0.00000000     0.00000000     0.00000000
     0.00000000     0.00000000     0.00000000
     0.00000000     0.00000000     0.00000000
     0.00000000     0.00000000     0.00000000
     0.00000000     0.00000000     0.00000000
     0.00000000     0.00000000     0.00000000
     0.00000000     0.00000000     0.00000000
     0.00000000     0.00000000     0.00000000
     0.00000000     0.00000000     0.00000000
     0.00000000     0.00000000     0.00000000
     0.00000000     0.00000000     0.00000000
     3.34455334    -0.27802922     0.00000000
     3.02632615    -0.38289420     0.00000000
     2.61250951    -0.43585310     0.00000000
     2.19605674    -0.46206120     0.00000000
     1.77916533    -0.46536839     0.00000000
     1.36228334    -0.44788908     0.00000000
     0.94331322    -0.40735809     0.00000000
     0.52653022    -0.32255233     0.00000000
     0.23764245    -0.25450674     0.00000000
     0.00000000     0.00000000     0.00000000
     3.34481367    -0.27518423     0.10427292
     3.02681802    -0.37843559     0.15973911
     2.61286604    -0.43113031     0.19304328
     2.19685075    -0.45673193     0.21427889
     1.78030661    -0.45987282     0.22572970
     1.36426144    -0.44198844     0.23033725
     0.94590782    -0.40208366     0.22831275
     0.53156519    -0.31710911     0.22083470
     0.24370634    -0.24742787     0.20050632
     0.00000000     0.00000000     0.13997463
     3.34518979    -0.26721135     0.20528609
     3.02756192    -0.36623546     0.31408651
     2.61396483    -0.41723631     0.38172433
     2.19909762    -0.44114836     0.42230590
     1.78389307    -0.44333051     0.44491102
     1.36968280    -0.42502889     0.45277246
     0.95440604    -0.38571237     0.44843827
     0.54537338    -0.30200794     0.43012314
     0.25586309    -0.23366128     0.39138644
     0.00000000     0.00000000     0.27201263
     3.34530977    -0.25439645     0.30208248
     3.02829759    -0.34681713     0.46135463
     2.61584656    -0.39447146     0.56030382
     2.20259076    -0.41594250     0.61890050
     1.78976689    -0.41652149     0.65078668
     1.37821412    -0.39773288     0.66099561
     0.96832990    -0.35890247     0.65122321
     0.56716582    -0.27997228     0.62070202
     0.27836286    -0.21403572     0.55911357
     0.00000000     0.00000000     0.38269434
     3.34570625    -0.23672080     0.39168061
     3.02888928    -0.32034782     0.59757204
     2.61806001    -0.36363811     0.72416690
     2.20731204    -0.38185481     0.79884782
     1.79704449    -0.38073144     0.83828117
     1.38973459    -0.36145489     0.84864590
     0.98544175    -0.32359153     0.83156849
     0.59161240    -0.25214981     0.78499121
     0.30160608    -0.18911503     0.69435536
     0.00000000     0.00000000     0.46439711
     3.34601873    -0.21537080     0.47120737
     3.02889523    -0.28891043     0.71804884
     2.62066849    -0.32526156     0.86974215
     2.21215524    -0.34025792     0.95789250
     1.80560803    -0.33739348     1.00293502
     1.40214436    -0.31820374     1.01198464
     1.00436206    -0.28266187     0.98665119
     0.61486238    -0.21924676     0.91976190
     0.32054959    -0.16312953     0.79604836
     0.00000000     0.00000000     0.51563722
     3.34477156    -0.19138530     0.53959427
     3.02972216    -0.25151429     0.82100349
     2.62252253    -0.28103473     0.99356433
     2.21709597    -0.29212855     1.09267403
     1.81330526    -0.28819734     1.14179744
     1.41466258    -0.27029679     1.14909772
     1.02165008    -0.23716988     1.11458521
     0.63883558    -0.18473907     1.02452152
     0.33569542    -0.13326796     0.86989684
     0.00000000     0.00000000     0.54641458
     3.34316904    -0.16305006     0.59581770
     3.02922944    -0.20968525     0.90458775
     2.62394399    -0.23146339     1.09318725
     2.22012724    -0.23937348     1.20087060
     1.82012844    -0.23429843     1.25255611
     1.42345771    -0.21902407     1.25979200
     1.03719043    -0.19000586     1.21279219
     0.65585840    -0.14751332     1.10578710
     0.34574301    -0.10524289     0.91721005
     0.00000000     0.00000000     0.53801800
     3.34193558    -0.13322702     0.63608663
     3.02802380    -0.16378775     0.96625376
     2.62343941    -0.17874058     1.16670542
     2.22165616    -0.18225347     1.28065323
     1.82266512    -0.17792952     1.33456983
     1.42974804    -0.16451976     1.34060057
     1.04418435    -0.14255300     1.28528673
     0.66687001    -0.11020095     1.16640887
     0.34160451    -0.07936420     0.94807311
     0.00000000     0.00000000     0.50586415
     3.34074895    -0.10087353     0.66084612
     3.02586303    -0.11680815     1.00402483
     2.62132742    -0.12253807     1.21288240
     2.21956548    -0.12355840     1.33092636
     1.82195537    -0.11827994     1.38645074
     1.42890959    -0.10989473     1.39183459
     1.04665236    -0.09265425     1.32958913
     0.66000273    -0.07335298     1.20971679
     0.32280973    -0.05583916     0.95981307
     0.00000000     0.00000000     0.46416587
     3.33911513    -0.06897031     0.66931897
     3.02276706    -0.06747606     1.01796807
     2.61698007    -0.06597157     1.23056335
     2.21419688    -0.06233511     1.35085627
     1.81604088    -0.05890383     1.40727429
     1.42246016    -0.05232661     1.41258491
     1.03908680    -0.04547962     1.34737129
     0.65658991    -0.03208132     1.22620791
     0.28322254    -0.03407586     0.95604756
     0.00000000     0.00000000     0.40157908
     3.33707655    -0.03595499     0.66161182
     3.01877382    -0.01927500     1.00743107
     2.61030259    -0.00820468     1.21960026
     2.20571269    -0.00192675     1.33964032
     1.80465627     0.00224140     1.39668163
     1.41009480     0.00330580     1.40244253
     1.02419227     0.00495193     1.33806630
     0.63883617     0.00243548     1.21609152
     0.31418528    -0.00516668     0.97264505
     0.00000000     0.00000000     0.54315217
     3.33504431    -0.00472354     0.63771588
     3.01372395     0.02875453     0.97262375
     2.60229595     0.04773315     1.17960640
     2.19336670     0.05854353     1.29770171
     1.78998583     0.06153645     1.35373050
     1.39008395     0.06009109     1.36231440
     1.00338703     0.05203835     1.30016729
     0.61323244     0.04139216     1.18223436
     0.32445653     0.01495605     0.96401144
     0.00000000     0.00000000     0.58786992
     3.33297284     0.02557227     0.59774286
     3.00877522     0.07380869     0.91387093
     2.59238793     0.10196169     1.11149522
     2.17980815     0.11633677     1.22439425
     1.77035223     0.11976237     1.28007433
     1.36728374     0.11470068     1.28918666
     0.97179757     0.09932282     1.23706743
     0.58027004     0.07817817     1.12542299
     0.31018728     0.03768472     0.93996340
     0.00000000     0.00000000     0.62135992
     3.33176827     0.05286515     0.54239161
     3.00310195     0.11536718     0.83293524
     2.58254714     0.15220086     1.01600781
     2.16408532     0.17066707     1.12168676
     1.75016232     0.17460766     1.17533617
     1.33931875     0.16660967     1.18660923
     0.93822586     0.14536129     1.14912956
     0.54062685     0.11234610     1.05726736
     0.29148769     0.06660546     0.90462539
     0.00000000     0.00000000     0.64279968
     3.33016854     0.07627191     0.47310955
     2.99889911     0.15124585     0.73118355
     2.57393203     0.19538969     0.89558477
     2.15085706     0.21767969     0.98919388
     1.73066628     0.22252575     1.03862840
     1.31438073     0.21265695     1.04945587
     0.90434536     0.18522001     1.02293015
     0.50156276     0.14123985     0.94724665
     0.25818996     0.09277767     0.82373559
     0.00000000     0.00000000     0.60373659
     3.32776779     0.09649598     0.39351464
     2.99730956     0.18356546     0.60753141
     2.56858792     0.23665221     0.74349871
     2.14256302     0.26163010     0.82302604
     1.71832190     0.26807635     0.86576609
     1.29742031     0.25656984     0.87705676
     0.88127260     0.22623948     0.85586740
     0.47655165     0.16930773     0.80244273
     0.24524573     0.11206536     0.71986581
     0.00000000     0.00000000     0.53008460
     3.32520468     0.11431282     0.30337142
     2.99442441     0.21132541     0.46879760
     2.56370750     0.26936447     0.57578879
     2.13471049     0.29809853     0.63817592
     1.70737359     0.30646564     0.67264373
     1.28130765     0.29569104     0.68389980
     0.85899062     0.26486157     0.67046925
     0.44607995     0.19955604     0.63934688
     0.21902919     0.14600309     0.58208319
     0.00000000     0.00000000     0.42714579
     3.32372727     0.12698397     0.20616151
     2.99198478     0.23125155     0.31954391
     2.55990658     0.29353018     0.39255914
     2.12894107     0.32488421     0.43570676
     1.69883900     0.33490030     0.46002978
     1.26897073     0.32533798     0.46897856
     0.83954379     0.29465487     0.46229591
     0.41609086     0.22633829     0.44431240
     0.19846302     0.17361687     0.40735068
     0.00000000     0.00000000     0.29857683
     3.32250576     0.13478141     0.10474100
     2.99053964     0.24349856     0.16258276
     2.55747663     0.30836853     0.19883179
     2.12531624     0.34143861     0.22099891
     1.69345387     0.35273616     0.23368458
     1.26136671     0.34379830     0.23846390
     0.82699111     0.31410377     0.23614615
     0.39967715     0.24606674     0.22772154
     0.19099904     0.19621136     0.20765417
     0.00000000     0.00000000     0.15347621
     3.32188490     0.13761378     0.00000000
     2.99011128     0.24769275     0.00000000
     2.55660849     0.31334340     0.00000000
     2.12413125     0.34701726     0.00000000
     1.69155502     0.35884187     0.00000000
     1.25887569     0.34999467     0.00000000
     0.82289493     0.32080970     0.00000000
     0.39273201     0.25401407     0.00000000
     0.18830939     0.20638737     0.00000000
     0.00000000     0.00000000     0.00000000
     3.41754183    -0.17162068     0.00000000
     3.42556257    -0.15123790     0.00000000
     3.43145407    -0.13123102     0.00000000
     3.43549010    -0.11074199     0.00000000
     3.43743712    -0.09027758     0.00000000
     3.43731562    -0.06974117     0.00000000
     3.43538679    -0.04922550     0.00000000
     3.43160064    -0.02885577     0.00000000
     3.42608296    -0.00841551     0.00000000
     3.41903219     0.01152512     0.00000000
     3.40981830     0.03191746     0.00000000
     3.41769869    -0.17039038     0.04990293
     3.42499605    -0.15088008     0.05490362
     3.43064979    -0.13100931     0.05878833
     3.43439876    -0.11081544     0.06157387
     3.43635653    -0.09019535     0.06282633
     3.43629507    -0.06968852     0.06270123
     3.43433249    -0.04924298     0.06249690
     3.43053297    -0.02869653     0.06086521
     3.42531740    -0.00857857     0.05777361
     3.41847692     0.01126549     0.05388511
     3.40999464     0.03077658     0.04924534
     3.41783696    -0.16676716     0.10033436
     3.42383041    -0.14847845     0.11195851
     3.42845889    -0.12939510     0.12085976
     3.43171595    -0.10951076     0.12703068
     3.43321894    -0.08966168     0.13043024
     3.43323668    -0.06957297     0.12993456
     3.43129351    -0.04950399     0.13003119
     3.42802430    -0.02974279     0.12618642
     3.42331665    -0.00989271     0.11966427
     3.41749922     0.00915187     0.11073906
     3.41031457     0.02738665     0.09937058
     3.41785649    -0.16067002     0.14868775
     3.42217273    -0.14385706     0.16697278
     3.42550030    -0.12578019     0.18159536
     3.42730013    -0.10745944     0.19241515
     3.42834701    -0.08866399     0.19767235
     3.42813253    -0.06941553     0.19806250
     3.42655960    -0.05015493     0.19719753
     3.42382569    -0.03135704     0.19147190
     3.42065277    -0.01301774     0.18020147
     3.41620318     0.00506221     0.16546699
     3.41073970     0.02168229     0.14755597
     3.41800021    -0.15197188     0.19322417
     3.42020022    -0.13694585     0.21922284
     3.42099819    -0.12125534     0.24070989
     3.42147659    -0.10470971     0.25582126
     3.42149799    -0.08722087     0.26432289
     3.42112339    -0.06926771     0.26601211
     3.41985489    -0.05136011     0.26385525
     3.41826987    -0.03379724     0.25487358
     3.41640813    -0.01714551     0.23929481
     3.41457604    -0.00134496     0.21751151
     3.41141662     0.01355959     0.19171886
     3.41802880    -0.14105710     0.23323206
     3.41688898    -0.12909458     0.26820906
     3.41550254    -0.11574588     0.29651219
     3.41416453    -0.10114613     0.31705272
     3.41297814    -0.08527024     0.32976819
     3.41208662    -0.06932401     0.33389874
     3.41150432    -0.05292474     0.32935798
     3.41132504    -0.03737633     0.31646948
     3.41133555    -0.02255930     0.29540866
     3.41162736    -0.00908548     0.26674045
     3.41200988     0.00291710     0.23160898
