# vtk DataFile Version 3.0
Example VTK
ASCII
DATASET UNSTRUCTURED_GRID
POINTS  1589 float
 -0.785635925063E+01 -0.452914173637E+01  0.108792244619E-26
 -0.642221435035E+01 -0.604097368976E+01  0.243738627345E-26
 -0.498796095929E+01 -0.697585280638E+01  0.271358611471E-26
 -0.355797780393E+01 -0.755038894849E+01  0.289171585331E-26
 -0.212909642965E+01 -0.784166434080E+01  0.289169032157E-26
 -0.707308183917E+00 -0.786619558264E+01  0.260208394706E-26
  0.709335272550E+00 -0.763871238872E+01  0.156923420345E-26
  0.158030057524E+01 -0.706020147479E+01 -0.340927794222E-28
  0.255688000000E+01 -0.652469000000E+01 -0.157809479280E-26
 -0.785909814961E+01 -0.364059057823E+01 -0.902818618455E-02
 -0.648988584130E+01 -0.485677468088E+01  0.000000000000E+00
 -0.508460877900E+01 -0.560133653408E+01  0.000000000000E+00
 -0.367885582740E+01 -0.605817924066E+01  0.000000000000E+00
 -0.227432595385E+01 -0.628287154312E+01  0.000000000000E+00
 -0.862609497573E+00 -0.629096556332E+01  0.000000000000E+00
  0.574760599704E+00 -0.608183118485E+01  0.000000000000E+00
  0.162042329503E+01 -0.570732938688E+01  0.000000000000E+00
  0.282835530415E+01 -0.541087998448E+01  0.000000000000E+00
 -0.786345955753E+01 -0.275429095292E+01 -0.113376506083E-01
 -0.651863779690E+01 -0.367347775005E+01  0.000000000000E+00
 -0.514822298033E+01 -0.422759979881E+01  0.000000000000E+00
 -0.376401492231E+01 -0.456362046959E+01  0.000000000000E+00
 -0.236478497290E+01 -0.472420505317E+01  0.000000000000E+00
 -0.934876953551E+00 -0.471860503024E+01  0.000000000000E+00
  0.561254030924E+00 -0.454538781515E+01  0.000000000000E+00
  0.172322838617E+01 -0.441385063441E+01  0.000000000000E+00
  0.304118393258E+01 -0.434839247413E+01  0.000000000000E+00
 -0.786704720666E+01 -0.186770575428E+01 -0.134614324600E-01
 -0.653878633588E+01 -0.248314860968E+01  0.000000000000E+00
 -0.518833523579E+01 -0.284984953721E+01  0.000000000000E+00
 -0.381771356959E+01 -0.306896501388E+01  0.000000000000E+00
 -0.241925712542E+01 -0.316996245235E+01  0.000000000000E+00
 -0.974287693063E+00 -0.315893099693E+01  0.000000000000E+00
  0.551243963262E+00 -0.303883301342E+01  0.000000000000E+00
  0.180189906274E+01 -0.314507826523E+01  0.000000000000E+00
  0.320345883548E+01 -0.329260670418E+01  0.000000000000E+00
 -0.787096426956E+01 -0.981662120436E+00 -0.145811359585E-01
 -0.655193126693E+01 -0.128881685243E+01  0.000000000000E+00
 -0.521379093876E+01 -0.146871727304E+01  0.000000000000E+00
 -0.385095463230E+01 -0.157400818552E+01  0.000000000000E+00
 -0.245354000225E+01 -0.161935383324E+01  0.000000000000E+00
 -0.100338228040E+01 -0.160805285071E+01  0.000000000000E+00
  0.529013456861E+00 -0.154441345340E+01  0.000000000000E+00
  0.184295656372E+01 -0.187574729962E+01  0.000000000000E+00
  0.330726491425E+01 -0.222332114697E+01  0.000000000000E+00
 -0.787489979990E+01 -0.957462848800E-01 -0.155489517700E-01
 -0.656173861126E+01 -0.922179616802E-01  0.000000000000E+00
 -0.522945346135E+01 -0.855636696811E-01  0.000000000000E+00
 -0.387099343096E+01 -0.787890995237E-01  0.000000000000E+00
 -0.247461859882E+01 -0.704240853080E-01  0.000000000000E+00
 -0.102229337065E+01 -0.607671350379E-01  0.000000000000E+00
  0.514210297429E+00 -0.532759487756E-01  0.000000000000E+00
  0.187106931031E+01 -0.579467373135E+00  0.000000000000E+00
  0.333333000000E+01 -0.112691000000E+01 -0.135299210971E-26
 -0.787887003880E+01  0.790123055807E+00 -0.157925116478E-01
 -0.656676319610E+01  0.110498088971E+01  0.000000000000E+00
 -0.523568500935E+01  0.129796237435E+01  0.000000000000E+00
 -0.387728050528E+01  0.141618522552E+01  0.000000000000E+00
 -0.247859084974E+01  0.147701193267E+01  0.000000000000E+00
 -0.101699195763E+01  0.148400411640E+01  0.000000000000E+00
  0.545703409446E+00  0.142670107893E+01  0.000000000000E+00
  0.183192436639E+01  0.905134548588E+00  0.000000000000E+00
  0.322841621003E+01  0.365254222097E+00  0.000000000000E+00
 -0.788268342471E+01  0.167602451451E+01 -0.157372093091E-01
 -0.656842566587E+01  0.230110910211E+01  0.000000000000E+00
 -0.523183122761E+01  0.268015804669E+01  0.000000000000E+00
 -0.387093185132E+01  0.291052636478E+01  0.000000000000E+00
 -0.247334675789E+01  0.302446679927E+01  0.000000000000E+00
 -0.101394261049E+01  0.302704475792E+01  0.000000000000E+00
  0.550530924774E+00  0.290501754265E+01  0.000000000000E+00
  0.174956484872E+01  0.237882019633E+01  0.000000000000E+00
  0.305696206709E+01  0.188318765725E+01  0.000000000000E+00
 -0.788765197091E+01  0.256275525674E+01 -0.139933903445E-01
 -0.656367144661E+01  0.349397485716E+01  0.000000000000E+00
 -0.521325185101E+01  0.405941024873E+01  0.000000000000E+00
 -0.384521132302E+01  0.440492908191E+01  0.000000000000E+00
 -0.245480392058E+01  0.457601523011E+01  0.000000000000E+00
 -0.101925046298E+01  0.457970216878E+01  0.000000000000E+00
  0.509562618368E+00  0.439892711511E+01  0.000000000000E+00
  0.158695566464E+01  0.386327979814E+01  0.000000000000E+00
  0.278443137667E+01  0.339707297926E+01  0.000000000000E+00
 -0.789351141195E+01  0.344926508581E+01 -0.111589955508E-01
 -0.655119273706E+01  0.467969202075E+01  0.000000000000E+00
 -0.516916401657E+01  0.543485599748E+01  0.000000000000E+00
 -0.378531059276E+01  0.590040809580E+01  0.000000000000E+00
 -0.239983508009E+01  0.613518959211E+01  0.000000000000E+00
 -0.100348581942E+01  0.615246639734E+01  0.000000000000E+00
  0.440152015289E+00  0.593412111880E+01  0.000000000000E+00
  0.135373952778E+01  0.537768367024E+01  0.000000000000E+00
  0.238828924164E+01  0.494326065530E+01  0.000000000000E+00
 -0.790321101086E+01  0.433826513773E+01  0.951975324909E-27
 -0.649740027512E+01  0.586591394842E+01  0.222058174240E-26
 -0.508952235835E+01  0.681115123245E+01  0.254057518849E-26
 -0.368215349986E+01  0.739497486424E+01  0.268109917732E-26
 -0.227623021611E+01  0.769785860786E+01  0.261640864000E-26
 -0.876856687753E+00  0.773685506190E+01  0.218684351819E-26
  0.506471637382E+00  0.751430502182E+01  0.729713114921E-27
  0.115698345992E+01  0.696827731456E+01 -0.895296363589E-27
  0.195297000000E+01  0.652469000000E+01 -0.139505541527E-26
 -0.785650766177E+01 -0.447423110337E+01  0.794593654220E+00
 -0.642178908471E+01 -0.596867181907E+01  0.106848167584E+01
 -0.498688697756E+01 -0.689060474332E+01  0.123734132101E+01
 -0.355603236937E+01 -0.745794370495E+01  0.134192316523E+01
 -0.212623333112E+01 -0.774528993267E+01  0.139676523259E+01
 -0.702656275941E+00 -0.776926128755E+01  0.140725668075E+01
  0.715639624270E+00 -0.754430000878E+01  0.137598858529E+01
  0.159278202327E+01 -0.698312933006E+01  0.121094717027E+01
  0.256440000000E+01 -0.647239000000E+01  0.677093000000E+00
 -0.785924352025E+01 -0.361693016160E+01  0.882428036180E+00
 -0.648510850012E+01 -0.482464703851E+01  0.118954094706E+01
 -0.507763995144E+01 -0.556368696182E+01  0.137531506303E+01
 -0.366899716823E+01 -0.601709134928E+01  0.149178740630E+01
 -0.226189312044E+01 -0.624044281264E+01  0.155142080209E+01
 -0.848503172522E+00 -0.624902797199E+01  0.155874155661E+01
  0.587685859130E+00 -0.604425524033E+01  0.150297110769E+01
  0.162509622287E+01 -0.568029917452E+01  0.130777631334E+01
  0.282115036044E+01 -0.539712427304E+01  0.748686213585E+00
 -0.786267328873E+01 -0.274765235351E+01  0.948733319844E+00
 -0.651292601584E+01 -0.366453371756E+01  0.128337748854E+01
 -0.513896956905E+01 -0.421740885959E+01  0.148429854031E+01
 -0.375099165667E+01 -0.455258338175E+01  0.160692751051E+01
 -0.234959782058E+01 -0.471329003618E+01  0.166710711445E+01
 -0.920768170422E+00 -0.470874293935E+01  0.166646692455E+01
  0.568292870144E+00 -0.453853324941E+01  0.160258111007E+01
  0.171898651819E+01 -0.440965378242E+01  0.139608629852E+01
  0.302490224646E+01 -0.434880300747E+01  0.804090656997E+00
 -0.786627451848E+01 -0.186905652273E+01  0.993695800547E+00
 -0.653230268693E+01 -0.248461551827E+01  0.134687783083E+01
 -0.517849259333E+01 -0.285186382876E+01  0.155712410027E+01
 -0.380411308406E+01 -0.307127591181E+01  0.168448849294E+01
 -0.240395037738E+01 -0.317273083668E+01  0.174456936291E+01
 -0.960815055546E+00 -0.316232988188E+01  0.174171124498E+01
  0.556916337610E+00 -0.304276553956E+01  0.167450900023E+01
  0.179443506557E+01 -0.314780303873E+01  0.145600037507E+01
  0.318452870467E+01 -0.329371769474E+01  0.832259744369E+00
 -0.787024931051E+01 -0.983621711996E+00  0.101526243836E+01
 -0.654625225741E+01 -0.129180606463E+01  0.137790822535E+01
 -0.520420341820E+01 -0.147247171562E+01  0.159249897372E+01
 -0.383773157005E+01 -0.157826837173E+01  0.172209719239E+01
 -0.243854086785E+01 -0.162397292998E+01  0.178249395214E+01
 -0.989291371415E+00 -0.161260174931E+01  0.177999015437E+01
  0.537681183832E+00 -0.154788900819E+01  0.171195685308E+01
  0.183945857923E+01 -0.187733353569E+01  0.148684133039E+01
  0.329158251479E+01 -0.222064993662E+01  0.834637305148E+00
 -0.787472460813E+01 -0.955571583626E-01  0.101271581665E+01
 -0.655579918467E+01 -0.922509863386E-01  0.137484458665E+01
 -0.522030925303E+01 -0.857798084220E-01  0.158914432549E+01
 -0.385844083353E+01 -0.791894287473E-01  0.171808199225E+01
 -0.246055181976E+01 -0.709688763642E-01  0.177751922963E+01
 -0.100893437369E+01 -0.607774996444E-01  0.177377906733E+01
  0.523770722983E+00 -0.518314223808E-01  0.170844349221E+01
  0.187635050222E+01 -0.579919347272E+00  0.147754628939E+01
  0.333333000000E+01 -0.112691000000E+01  0.833333000000E+00
 -0.787843416926E+01  0.792335677331E+00  0.101482564913E+01
 -0.656134224931E+01  0.110787324852E+01  0.137912773705E+01
 -0.522644658508E+01  0.130131005443E+01  0.159422928938E+01
 -0.386492617265E+01  0.141974586969E+01  0.172316004891E+01
 -0.246567408528E+01  0.148075901419E+01  0.178101304877E+01
 -0.100721009659E+01  0.148869954064E+01  0.177274933135E+01
  0.546435479257E+00  0.143447417507E+01  0.169778706733E+01
  0.182361781023E+01  0.911955733684E+00  0.148793937414E+01
  0.321847151491E+01  0.351361505604E+00  0.935275259091E+00
 -0.788227867020E+01  0.167765004597E+01  0.992979869384E+00
 -0.656221063404E+01  0.230228687174E+01  0.134928660881E+01
 -0.522255673964E+01  0.268188533812E+01  0.156073574429E+01
 -0.385869898958E+01  0.291242260903E+01  0.168724972417E+01
 -0.246121106080E+01  0.302685255919E+01  0.174336894803E+01
 -0.100644124367E+01  0.303125628715E+01  0.173319408514E+01
  0.546568621022E+00  0.291429510846E+01  0.165296606984E+01
  0.173355697784E+01  0.239045706968E+01  0.145985687325E+01
  0.303962445079E+01  0.187478948809E+01  0.983532673969E+00
 -0.788706698578E+01  0.255628260185E+01  0.948238914222E+00
 -0.655794827664E+01  0.348447416333E+01  0.128674475461E+01
 -0.520425194568E+01  0.404908628061E+01  0.148975018199E+01
 -0.383310706312E+01  0.439379949354E+01  0.161215014751E+01
 -0.244196862705E+01  0.456517637873E+01  0.166879821840E+01
 -0.100992973138E+01  0.457119103515E+01  0.166018795080E+01
  0.508289263008E+00  0.439780127215E+01  0.158090294365E+01
  0.157374717498E+01  0.386865014278E+01  0.140027588368E+01
  0.276647984444E+01  0.339543528396E+01  0.972134706702E+00
 -0.789367863387E+01  0.342587995476E+01  0.882816179288E+00
 -0.654576988186E+01  0.464651156262E+01  0.119344696488E+01
 -0.516187753859E+01  0.539725055002E+01  0.138208266979E+01
 -0.377526602566E+01  0.585924483135E+01  0.149939682869E+01
 -0.238727478278E+01  0.609292442854E+01  0.155818306599E+01
 -0.989831889850E+00  0.611127817863E+01  0.156081769963E+01
  0.450095068598E+00  0.590185372811E+01  0.148474971348E+01
  0.135369508179E+01  0.535665838244E+01  0.130795952334E+01
  0.238034807682E+01  0.493028127806E+01  0.908699672049E+00
 -0.790278597729E+01  0.428361653866E+01  0.795923359721E+00
 -0.649621458420E+01  0.579229161852E+01  0.107333462777E+01
 -0.508780706916E+01  0.672574928248E+01  0.124390900532E+01
 -0.367931431228E+01  0.730225384059E+01  0.134972472872E+01
 -0.227235253833E+01  0.760102369655E+01  0.140423285881E+01
 -0.870997395457E+00  0.763966644373E+01  0.141378601225E+01
  0.514470913152E+00  0.742065754010E+01  0.136866912194E+01
  0.117281303427E+01  0.688826701919E+01  0.119225147475E+01
  0.196387000000E+01  0.646426000000E+01  0.786055000000E+00
 -0.785669094572E+01 -0.431151588314E+01  0.157162677448E+01
 -0.642028818789E+01 -0.575122995007E+01  0.211111744477E+01
 -0.498371753233E+01 -0.663743664095E+01  0.244378776258E+01
 -0.355048560287E+01 -0.718291923874E+01  0.265003748507E+01
 -0.211760061533E+01 -0.745870669297E+01  0.275771551357E+01
 -0.690135595703E+00 -0.748115710654E+01  0.277779110907E+01
  0.738177878242E+00 -0.726382275872E+01  0.271089159213E+01
  0.163425123830E+01 -0.675241744545E+01  0.238342602252E+01
  0.258678000000E+01 -0.631679000000E+01  0.133751000000E+01
 -0.785899540490E+01 -0.350669470748E+01  0.175166320740E+01
 -0.647523238585E+01 -0.467556365527E+01  0.235731655019E+01
 -0.506023294902E+01 -0.539142482175E+01  0.272581069781E+01
 -0.364439206247E+01 -0.582954744788E+01  0.295590794657E+01
 -0.222947282993E+01 -0.604614491867E+01  0.307381070680E+01
 -0.809515550899E+00 -0.605486064922E+01  0.308811198750E+01
  0.626233913640E+00 -0.586402467768E+01  0.298042222121E+01
  0.164685607864E+01 -0.553836717037E+01  0.260418603830E+01
  0.281415211719E+01 -0.530331941889E+01  0.149582727565E+01
 -0.786123125611E+01 -0.267646358849E+01  0.189093541676E+01
 -0.650004900817E+01 -0.356705117805E+01  0.255018223663E+01
 -0.511460126222E+01 -0.410563048364E+01  0.294864305925E+01
 -0.371586385612E+01 -0.443174849431E+01  0.319274341812E+01
 -0.230675586955E+01 -0.458939072358E+01  0.331328695680E+01
 -0.877751000367E+00 -0.458721583628E+01  0.331507696570E+01
  0.597435017439E+00 -0.442738574383E+01  0.319181223314E+01
  0.172369399562E+01 -0.432029200014E+01  0.279316995344E+01
  0.299697522337E+01 -0.428869888960E+01  0.161560979639E+01
 -0.786437110642E+01 -0.182627452625E+01  0.198636762284E+01
 -0.651829123688E+01 -0.242670480691E+01  0.268240580184E+01
 -0.515112590369E+01 -0.278592369086E+01  0.309990228606E+01
 -0.376514569515E+01 -0.300054951941E+01  0.335447547908E+01
 -0.235808897175E+01 -0.310100635366E+01  0.347576439746E+01
 -0.917185412817E+00 -0.309238450198E+01  0.347327154932E+01
  0.584431526616E+00 -0.297745105474E+01  0.334416934637E+01
  0.179198757455E+01 -0.309204806940E+01  0.292189342852E+01
  0.314716706150E+01 -0.325205984442E+01  0.167772257907E+01
 -0.786935728598E+01 -0.964074418600E+00  0.203558304053E+01
 -0.653161298905E+01 -0.126479060694E+01  0.274926759295E+01
 -0.517614197024E+01 -0.144226870326E+01  0.317661980047E+01
 -0.379811254766E+01 -0.154631416471E+01  0.343614650734E+01
 -0.239196274330E+01 -0.159205110627E+01  0.355828930774E+01
 -0.943729739524E+00 -0.158117613837E+01  0.355549665881E+01
  0.572015329415E+00 -0.151625281571E+01  0.342413891080E+01
  0.184526761581E+01 -0.184805108362E+01  0.298772179079E+01
  0.325992337539E+01 -0.219436757045E+01  0.168345453411E+01
 -0.787381215835E+01 -0.951697626177E-01  0.203379738993E+01
 -0.654180729921E+01 -0.920843907836E-01  0.274880952323E+01
 -0.519270810328E+01 -0.860917404525E-01  0.317595529710E+01
 -0.381981250407E+01 -0.801127316651E-01  0.343481996325E+01
 -0.241583452704E+01 -0.727590587430E-01  0.355533235136E+01
 -0.965872901927E+00 -0.616421364111E-01  0.354980559187E+01
  0.556740110499E+00 -0.497858049821E-01  0.342137628123E+01
  0.189478999897E+01 -0.581979702102E+00  0.296466522136E+01
  0.333333000000E+01 -0.112691000000E+01  0.166667000000E+01
 -0.787809072481E+01  0.773666429063E+00  0.203564903243E+01
 -0.654691668803E+01  0.108099387279E+01  0.275167250186E+01
 -0.519851261397E+01  0.127055913482E+01  0.318002077858E+01
 -0.382653881602E+01  0.138620848865E+01  0.343868032775E+01
 -0.242378378065E+01  0.144605543398E+01  0.355665359424E+01
 -0.973333424024E+00  0.145652064388E+01  0.354424612904E+01
  0.556987444646E+00  0.141120767702E+01  0.340014547471E+01
  0.180996767269E+01  0.891106449723E+00  0.299292515803E+01
  0.319210903283E+01  0.321528133665E+00  0.187502244562E+01
 -0.788115978334E+01  0.163561391960E+01  0.198653775568E+01
 -0.654859504305E+01  0.224412699730E+01  0.268723440481E+01
 -0.519538833719E+01  0.261548660227E+01  0.310695830489E+01
 -0.382154639785E+01  0.284092447958E+01  0.336043963665E+01
 -0.242175968311E+01  0.295407565152E+01  0.347512568214E+01
 -0.978522652448E+00  0.296368529811E+01  0.345962221174E+01
  0.545331034939E+00  0.286213948938E+01  0.330637554207E+01
  0.170178631442E+01  0.234958522628E+01  0.293595416842E+01
  0.299691359999E+01  0.182904024255E+01  0.197368239764E+01
 -0.788615651630E+01  0.248578492254E+01  0.189150691415E+01
 -0.654516603971E+01  0.338613432697E+01  0.255715987381E+01
 -0.517989162462E+01  0.393691798016E+01  0.295918648216E+01
 -0.379889528987E+01  0.427276787258E+01  0.320338647015E+01
 -0.240332319222E+01  0.444180325506E+01  0.331787288843E+01
 -0.978505438542E+00  0.445438571171E+01  0.330557990488E+01
  0.514587398137E+00  0.430245482986E+01  0.315315282572E+01
  0.155335793179E+01  0.379270908187E+01  0.280775002107E+01
  0.273087412067E+01  0.333059723273E+01  0.194755716598E+01
 -0.789313227965E+01  0.331615352156E+01  0.175300907126E+01
 -0.653479264781E+01  0.449603953311E+01  0.236568048839E+01
 -0.514330141554E+01  0.522446585543E+01  0.273900544732E+01
 -0.374936145187E+01  0.567134231838E+01  0.297092924113E+01
 -0.235329278737E+01  0.589883080091E+01  0.308709993623E+01
 -0.950315121251E+00  0.592022173591E+01  0.309375333632E+01
  0.483630453220E+00  0.573488350756E+01  0.294917703152E+01
  0.136433992121E+01  0.522154053518E+01  0.261346991011E+01
  0.237483227306E+01  0.482296936776E+01  0.181136457751E+01
 -0.790133564637E+01  0.412128942695E+01  0.157385462614E+01
 -0.649294494556E+01  0.557319964680E+01  0.211966645313E+01
 -0.508265515687E+01  0.647181584205E+01  0.245692907508E+01
 -0.367131362550E+01  0.702639058688E+01  0.266523117222E+01
 -0.226084279208E+01  0.731334482212E+01  0.277324064794E+01
 -0.854307391568E+00  0.735092878807E+01  0.278980575788E+01
  0.545979691021E+00  0.714176737802E+01  0.270036201165E+01
  0.123115275586E+01  0.664999897071E+01  0.235039307091E+01
  0.199630000000E+01  0.628446000000E+01  0.155276000000E+01
 -0.785667731077E+01 -0.404513901459E+01  0.230966058849E+01
 -0.641776790635E+01 -0.539324680960E+01  0.310159282980E+01
 -0.497878612443E+01 -0.622277934517E+01  0.358951465677E+01
 -0.354196568827E+01 -0.673231105618E+01  0.389135562841E+01
 -0.210419820480E+01 -0.698944320347E+01  0.404867059315E+01
 -0.668290816939E+00 -0.700974747657E+01  0.407382911597E+01
  0.773767373285E+00 -0.680454237136E+01  0.396707082877E+01
  0.169761173812E+01 -0.637281519836E+01  0.348503954659E+01
  0.262348000000E+01 -0.606170000000E+01  0.196500000000E+01
 -0.785757652010E+01 -0.331290940610E+01  0.258924543713E+01
 -0.646148539066E+01 -0.441325220945E+01  0.348136451756E+01
 -0.503384766518E+01 -0.508902685557E+01  0.402702249812E+01
 -0.360712491042E+01 -0.550099401940E+01  0.436577789883E+01
 -0.218093449195E+01 -0.570541096044E+01  0.453831906811E+01
 -0.747929938851E+00 -0.571531359609E+01  0.455898975322E+01
  0.693429628823E+00 -0.554057434057E+01  0.440431860980E+01
  0.169675866390E+01 -0.528034200929E+01  0.386969923089E+01
  0.281634565703E+01 -0.513246833758E+01  0.223120780419E+01
 -0.785888683475E+01 -0.254174361031E+01  0.280882483059E+01
 -0.648308337506E+01 -0.338392813990E+01  0.378192257443E+01
 -0.507662289155E+01 -0.389533228051E+01  0.437333403454E+01
 -0.366007729564E+01 -0.420472595198E+01  0.473685857982E+01
 -0.223789857582E+01 -0.435563840635E+01  0.491681868211E+01
 -0.801880758656E+00 -0.435759065321E+01  0.492462236882E+01
  0.661825915069E+00 -0.421185141760E+01  0.474960032098E+01
  0.175875746129E+01 -0.414577477480E+01  0.417944383510E+01
  0.297497492356E+01 -0.417026747872E+01  0.242912848759E+01
 -0.786329228698E+01 -0.174277007518E+01  0.296391383996E+01
 -0.649833748767E+01 -0.231116600118E+01  0.399167410448E+01
 -0.510701222080E+01 -0.265384320153E+01  0.461417107682E+01
 -0.370036306705E+01 -0.285896343645E+01  0.499541864135E+01
 -0.227989036934E+01 -0.295603443028E+01  0.517893998919E+01
 -0.835199669669E+00 -0.295183068718E+01  0.518116995607E+01
  0.651301880095E+00 -0.284484940738E+01  0.499780931703E+01
  0.182280505436E+01 -0.298054433159E+01  0.439177160756E+01
  0.311491313212E+01 -0.317173823884E+01  0.253367612356E+01
 -0.786758043549E+01 -0.923989382454E+00  0.304597994790E+01
 -0.651052297579E+01 -0.120895104927E+01  0.410480170361E+01
 -0.512955377002E+01 -0.137876579771E+01  0.474362149710E+01
 -0.372998469679E+01 -0.147894477803E+01  0.513399387678E+01
 -0.231070800053E+01 -0.152391015216E+01  0.531950031859E+01
 -0.857449723265E+00 -0.151595769762E+01  0.531964548321E+01
  0.646294631341E+00 -0.145308187900E+01  0.513087911960E+01
  0.188627995082E+01 -0.179252345239E+01  0.450085853810E+01
  0.323584332016E+01 -0.214981519821E+01  0.254354084607E+01
 -0.787208916631E+01 -0.947084969194E-01  0.305391372771E+01
 -0.652041862450E+01 -0.916738807262E-01  0.411699627691E+01
 -0.514572798152E+01 -0.862152742094E-01  0.475761043064E+01
 -0.375159316389E+01 -0.811951256012E-01  0.514841465317E+01
 -0.233560088807E+01 -0.750296880737E-01  0.533249473066E+01
 -0.883197289846E+00 -0.650988937499E-01  0.532885028676E+01
  0.624281789335E+00 -0.486450186949E-01  0.514090844968E+01
  0.193708208894E+01 -0.584849381629E+00  0.446832664582E+01
  0.333333000000E+01 -0.112691000000E+01  0.250000000000E+01
 -0.787663499111E+01  0.734520714167E+00  0.304646961455E+01
 -0.652579109925E+01  0.102588119127E+01  0.410812139057E+01
 -0.515121482345E+01  0.120672976869E+01  0.474856794549E+01
 -0.375853423098E+01  0.131708835421E+01  0.513854755235E+01
 -0.234633595861E+01  0.137425625700E+01  0.531996654789E+01
 -0.900691044913E+00  0.138636082399E+01  0.531014033037E+01
  0.599162510017E+00  0.135450224725E+01  0.510623254226E+01
  0.181739507750E+01  0.840630326057E+00  0.452191662237E+01
  0.316288392403E+01  0.270939155509E+00  0.282067165644E+01
 -0.788080237459E+01  0.155319151911E+01  0.296494384219E+01
 -0.652828946952E+01  0.212880773783E+01  0.399831186752E+01
 -0.514980320482E+01  0.248309316358E+01  0.462416821041E+01
 -0.375571213173E+01  0.269831038918E+01  0.500515268204E+01
 -0.234812423352E+01  0.280765845793E+01  0.518165123810E+01
 -0.913545098985E+00  0.282289355992E+01  0.516886806131E+01
  0.571452578523E+00  0.274321979876E+01  0.495504605155E+01
  0.168743446168E+01  0.225083363126E+01  0.443301280060E+01
  0.294509497569E+01  0.174376600102E+01  0.297369920988E+01
 -0.788433087986E+01  0.235207280939E+01  0.281031312757E+01
 -0.652832071090E+01  0.320275448186E+01  0.379146026624E+01
 -0.514075800319E+01  0.372612995278E+01  0.438788323051E+01
 -0.374199246347E+01  0.404571386013E+01  0.475239181923E+01
 -0.233644588918E+01  0.420872895349E+01  0.492551053398E+01
 -0.915348743771E+00  0.422987961935E+01  0.491693784981E+01
  0.544102030371E+00  0.410557746433E+01  0.470364068386E+01
  0.154706883449E+01  0.363371571082E+01  0.421933735347E+01
  0.268870553746E+01  0.320560775949E+01  0.292638997718E+01
 -0.789128993067E+01  0.312317923285E+01  0.259157948438E+01
 -0.652039244386E+01  0.423314746119E+01  0.349322328910E+01
 -0.511597090562E+01  0.492113056659E+01  0.404575417489E+01
 -0.371052134443E+01  0.534255629671E+01  0.438738168376E+01
 -0.230338994484E+01  0.555889609217E+01  0.455765577743E+01
 -0.888891048043E+00  0.558634692066E+01  0.456937289206E+01
  0.541372600542E+00  0.542787087793E+01  0.436984401799E+01
  0.140039185113E+01  0.496887598073E+01  0.390243690424E+01
  0.238092286722E+01  0.463046886759E+01  0.269576556118E+01
 -0.789887600771E+01  0.385524295691E+01  0.231278121511E+01
 -0.648788767683E+01  0.521420396227E+01  0.311360030551E+01
 -0.507459983026E+01  0.605577360130E+01  0.360850202247E+01
 -0.365901454626E+01  0.657441641300E+01  0.391373831221E+01
 -0.224236966894E+01  0.684253421424E+01  0.407160989249E+01
 -0.825660061066E+00  0.687844512966E+01  0.409394738561E+01
  0.592000278454E+00  0.668444337432E+01  0.395521887479E+01
  0.130907581277E+01  0.625577622498E+01  0.345417480331E+01
  0.204947000000E+01  0.598972000000E+01  0.228122000000E+01
 -0.785569563851E+01 -0.368092377373E+01  0.298999282105E+01
 -0.641518164991E+01 -0.490474828368E+01  0.401543508411E+01
 -0.497256073805E+01 -0.565690367881E+01  0.464608177580E+01
 -0.353176637431E+01 -0.611764052991E+01  0.503557647035E+01
 -0.208730876081E+01 -0.634976805601E+01  0.523657855591E+01
 -0.641603098072E+00 -0.636723603914E+01  0.526399499948E+01
  0.815047816094E+00 -0.617844348108E+01  0.511228274861E+01
  0.177439433981E+01 -0.585817484448E+01  0.449354392272E+01
  0.267357000000E+01 -0.571343000000E+01  0.254410000000E+01
 -0.785546726413E+01 -0.304018665672E+01  0.338139894843E+01
 -0.644268770004E+01 -0.404676790798E+01  0.454260011198E+01
 -0.499951311470E+01 -0.466473030523E+01  0.525578160516E+01
 -0.356159235508E+01 -0.504077975044E+01  0.569641765783E+01
 -0.212133702665E+01 -0.522957991427E+01  0.591888297738E+01
 -0.673649303486E+00 -0.523552942776E+01  0.594219176051E+01
  0.790036600927E+00 -0.508677449330E+01  0.574577318659E+01
  0.178356910221E+01 -0.491534684296E+01  0.507611655580E+01
  0.282907395600E+01 -0.488530039009E+01  0.294405392535E+01
 -0.785842291775E+01 -0.235031940713E+01  0.369454587438E+01
 -0.645788590386E+01 -0.312177823922E+01  0.496273857667E+01
 -0.502322003065E+01 -0.359269433639E+01  0.574128913064E+01
 -0.358744329041E+01 -0.387862710108E+01  0.622014260442E+01
 -0.214725463259E+01 -0.402071268084E+01  0.645663175263E+01
 -0.698413727931E+00 -0.401866723789E+01  0.647152862248E+01
  0.774736433784E+00 -0.390426216921E+01  0.624955089666E+01
  0.183556834949E+01 -0.389675327393E+01  0.553605849087E+01
  0.296782439387E+01 -0.399184009301E+01  0.323424663665E+01
 -0.786155430768E+01 -0.162111420386E+01  0.391719704619E+01
 -0.646956598182E+01 -0.214283418292E+01  0.526387716622E+01
 -0.504279442132E+01 -0.245936942285E+01  0.608743511675E+01
 -0.361051220984E+01 -0.265053663620E+01  0.659423470624E+01
 -0.217125108536E+01 -0.274427589689E+01  0.683925327829E+01
 -0.716076603342E+00 -0.273621046032E+01  0.684835853863E+01
  0.774558797110E+00 -0.265484374274E+01  0.661441721992E+01
  0.189703776181E+01 -0.282327240563E+01  0.585364987254E+01
  0.310055464919E+01 -0.305170875076E+01  0.339173808050E+01
 -0.786476468522E+01 -0.864403440665E+00  0.404440928322E+01
 -0.647924745687E+01 -0.112693797859E+01  0.543689756422E+01
 -0.505894075094E+01 -0.128368455293E+01  0.628656599017E+01
 -0.363106078941E+01 -0.137784443859E+01  0.680809630386E+01
 -0.219207082758E+01 -0.142193632484E+01  0.705883799352E+01
 -0.732619666665E+00 -0.141261454936E+01  0.706214536931E+01
  0.779996562382E+00 -0.136471927314E+01  0.681782781003E+01
  0.196944537751E+01 -0.171446566504E+01  0.602166882068E+01
  0.322820541102E+01 -0.209229627324E+01  0.340674989898E+01
 -0.786893857415E+01 -0.943742351265E-01  0.407243082796E+01
 -0.648796047031E+01 -0.912812055388E-01  0.547673673344E+01
 -0.507271549368E+01 -0.866873435868E-01  0.633237429735E+01
 -0.364892937491E+01 -0.814306627025E-01  0.685741534654E+01
 -0.221379211619E+01 -0.767211829818E-01  0.710808967102E+01
 -0.757134254370E+00 -0.664884810346E-01  0.710788828077E+01
  0.752106844873E+00 -0.561893390809E-01  0.686281742374E+01
  0.201525358838E+01 -0.586229690562E+00  0.599453145271E+01
  0.333333000000E+01 -0.112691000000E+01  0.333333000000E+01
 -0.787359685877E+01  0.675726523751E+00  0.404533493064E+01
 -0.649371511327E+01  0.944203491794E+00  0.544101961985E+01
 -0.507906711490E+01  0.111095140617E+01  0.629261363630E+01
 -0.365687738987E+01  0.121495800873E+01  0.681504765543E+01
 -0.222608373314E+01  0.126983661124E+01  0.706297380357E+01
 -0.778894470887E+00  0.128093346421E+01  0.705964754821E+01
  0.711947880007E+00  0.125587840481E+01  0.680420753321E+01
  0.186399760546E+01  0.766427748136E+00  0.608069694744E+01
  0.314085390216E+01  0.201691165994E+00  0.377362950503E+01
 -0.787872309951E+01  0.143224437060E+01  0.391907778309E+01
 -0.649830749262E+01  0.196069654524E+01  0.527154185793E+01
 -0.508216998711E+01  0.228720701527E+01  0.610000169664E+01
 -0.366157421098E+01  0.248895790841E+01  0.660738069941E+01
 -0.223419826651E+01  0.259352624708E+01  0.684863444170E+01
 -0.799324039258E+00  0.260777921493E+01  0.684389861964E+01
  0.672334115808E+00  0.255163393460E+01  0.658194992082E+01
  0.171006728530E+01  0.210041078840E+01  0.595596919943E+01
  0.290786858247E+01  0.160534058624E+01  0.397977678017E+01
 -0.788324679588E+01  0.216139697736E+01  0.369698956846E+01
 -0.650012072972E+01  0.294034348342E+01  0.497405515617E+01
 -0.508228733339E+01  0.342225810125E+01  0.575832088721E+01
 -0.366174054897E+01  0.371794759716E+01  0.623970688643E+01
 -0.223794616078E+01  0.387236703974E+01  0.647013295223E+01
 -0.809346301816E+00  0.389085921804E+01  0.647098854323E+01
  0.640517864841E+00  0.380414973712E+01  0.621181107234E+01
  0.157391007289E+01  0.339129349962E+01  0.562915108935E+01
  0.265742944814E+01  0.300990557820E+01  0.390189179964E+01
 -0.788765160461E+01  0.285139783561E+01  0.338419901163E+01
 -0.649979438975E+01  0.386676103109E+01  0.455566809461E+01
 -0.507868005339E+01  0.449614920051E+01  0.527714712104E+01
 -0.366133535900E+01  0.488194416368E+01  0.572131334482E+01
 -0.223876293983E+01  0.508391558837E+01  0.594083662914E+01
 -0.812273665744E+00  0.510817703153E+01  0.595597748595E+01
  0.632381922387E+00  0.498787979607E+01  0.571226945382E+01
  0.145602986439E+01  0.461228594016E+01  0.515171440060E+01
  0.239877852612E+01  0.435305330493E+01  0.355117154195E+01
 -0.789491562186E+01  0.349181442502E+01  0.299372089725E+01
 -0.648191006678E+01  0.472470786742E+01  0.403160372589E+01
 -0.506447800336E+01  0.548831939948E+01  0.467100455563E+01
 -0.364377621942E+01  0.595836000116E+01  0.506543487239E+01
 -0.221924553018E+01  0.620114441699E+01  0.526884762438E+01
 -0.792271961940E+00  0.623484186651E+01  0.529427714065E+01
  0.644227673528E+00  0.606159042781E+01  0.511137436862E+01
  0.140966753289E+01  0.572181544782E+01  0.448209558732E+01
  0.212207000000E+01  0.558730000000E+01  0.295352000000E+01
 -0.785435742574E+01 -0.322751111608E+01  0.359664092690E+01
 -0.641264939674E+01 -0.429819749539E+01  0.483028678931E+01
 -0.496648343992E+01 -0.495390845607E+01  0.558758354012E+01
 -0.352055572943E+01 -0.535485198606E+01  0.605478252919E+01
 -0.207091906452E+01 -0.555570159714E+01  0.629370035051E+01
 -0.614286976270E+00 -0.556977568931E+01  0.631738284216E+01
  0.857711433148E+00 -0.540220591273E+01  0.612470771930E+01
  0.185927536986E+01 -0.521731548722E+01  0.538681935249E+01
  0.273585000000E+01 -0.528053000000E+01  0.306056000000E+01
 -0.785593420445E+01 -0.269914249297E+01  0.411709881424E+01
 -0.641052870341E+01 -0.358780304300E+01  0.552547713466E+01
 -0.496083893486E+01 -0.413158978954E+01  0.639171158464E+01
 -0.351125325168E+01 -0.446318084195E+01  0.692493044235E+01
 -0.205550038141E+01 -0.462728242828E+01  0.719293227056E+01
 -0.592514225278E+00 -0.463715457191E+01  0.721354784405E+01
  0.891655815005E+00 -0.449555490560E+01  0.697999412129E+01
  0.195169469654E+01 -0.443992686411E+01  0.617074604207E+01
  0.283639000000E+01 -0.458160000000E+01  0.363581000000E+01
 -0.785750842887E+01 -0.210657025827E+01  0.453489856121E+01
 -0.640947026386E+01 -0.279134179360E+01  0.608591772127E+01
 -0.495788727787E+01 -0.321043689586E+01  0.703805831143E+01
 -0.350357166152E+01 -0.346450539379E+01  0.762574086493E+01
 -0.204563365981E+01 -0.358813975129E+01  0.791414607060E+01
 -0.573832601278E+00 -0.359366259533E+01  0.793341158294E+01
  0.912291448354E+00 -0.347946077778E+01  0.766535522259E+01
  0.204206884183E+01 -0.356609392504E+01  0.678586225555E+01
  0.295176000000E+01 -0.377956000000E+01  0.404840000000E+01
 -0.785876393338E+01 -0.146352531074E+01  0.484054568157E+01
 -0.641086344152E+01 -0.192931004914E+01  0.649627412893E+01
 -0.495687602757E+01 -0.221235732805E+01  0.751318828849E+01
 -0.350151438980E+01 -0.238391257927E+01  0.813828467664E+01
 -0.203898440492E+01 -0.246405221859E+01  0.844349437529E+01
 -0.567287675911E+00 -0.246479056380E+01  0.845888983286E+01
  0.928626655661E+00 -0.238105413105E+01  0.816572697357E+01
  0.212138060045E+01 -0.261436588079E+01  0.722177764840E+01
  0.307680000000E+01 -0.291030000000E+01  0.427989000000E+01
 -0.786105488273E+01 -0.787454444190E+00  0.502683156868E+01
 -0.641392168425E+01 -0.102133071149E+01  0.674799061538E+01
 -0.496036242848E+01 -0.116349169161E+01  0.780360096662E+01
 -0.350313620731E+01 -0.124613302360E+01  0.845345036824E+01
 -0.204148913195E+01 -0.128413336341E+01  0.876539656825E+01
 -0.565474639479E+00 -0.127664530067E+01  0.878275618178E+01
  0.918875090609E+00 -0.122676141263E+01  0.846331921186E+01
  0.219557342443E+01 -0.161215034840E+01  0.746288154224E+01
  0.320592000000E+01 -0.201270000000E+01  0.431991000000E+01
 -0.786459061612E+01 -0.937719523573E-01  0.509002641347E+01
 -0.641954026991E+01 -0.917786420793E-01  0.683386595788E+01
 -0.496735010129E+01 -0.868027812452E-01  0.790396280608E+01
 -0.351122300131E+01 -0.821445001243E-01  0.856148399214E+01
 -0.204981698526E+01 -0.727553678789E-01  0.887714543086E+01
 -0.576256629015E+00 -0.633164728591E-01  0.888999717478E+01
  0.911239763356E+00 -0.398824828208E-01  0.856993393252E+01
  0.222433603846E+01 -0.583728560454E+00  0.747204088951E+01
  0.333333000000E+01 -0.112691000000E+01  0.416667000000E+01
 -0.786918506710E+01  0.599004525034E+00  0.502840707566E+01
 -0.642761502935E+01  0.839047830332E+00  0.675222386212E+01
 -0.497810603934E+01  0.988178301614E+00  0.781105089246E+01
 -0.352533949336E+01  0.108407645720E+01  0.846114768961E+01
 -0.206520272289E+01  0.113507236204E+01  0.877354121320E+01
 -0.594644965909E+00  0.115379747042E+01  0.878475214176E+01
  0.887557849095E+00  0.113736896508E+01  0.845934436168E+01
  0.210320139671E+01  0.661351823578E+00  0.756954120684E+01
  0.311477000000E+01  0.846185000000E-01  0.477384000000E+01
 -0.787471220160E+01  0.127545469085E+01  0.484297123923E+01
 -0.643719700895E+01  0.174590904703E+01  0.650550861826E+01
 -0.499343108976E+01  0.203837166506E+01  0.752608987273E+01
 -0.354312984706E+01  0.221999720539E+01  0.815566857144E+01
 -0.209006365883E+01  0.231580856746E+01  0.845542322322E+01
 -0.619588908493E+00  0.233704795205E+01  0.846853010966E+01
  0.849632368551E+00  0.228760577054E+01  0.814066544423E+01
  0.196965240802E+01  0.188005498384E+01  0.738953697870E+01
  0.287533000000E+01  0.141185000000E+01  0.502046000000E+01
 -0.788032615193E+01  0.191789103060E+01  0.453847644155E+01
 -0.644889443236E+01  0.260824466818E+01  0.609812269820E+01
 -0.501027107576E+01  0.303597350525E+01  0.705787996513E+01
 -0.356814560778E+01  0.330082427849E+01  0.764853620593E+01
 -0.211852745271E+01  0.343738442131E+01  0.793380399966E+01
 -0.659108547683E+00  0.346266557755E+01  0.794524436500E+01
  0.809069498225E+00  0.337814050024E+01  0.764013388175E+01
  0.181394816593E+01  0.304431720255E+01  0.694320192355E+01
  0.263311000000E+01  0.275453000000E+01  0.488788000000E+01
 -0.788490163008E+01  0.251052151124E+01  0.412055842305E+01
 -0.646064051432E+01  0.340420880903E+01  0.554104467039E+01
 -0.503057957614E+01  0.395749985821E+01  0.641476341343E+01
 -0.359453746865E+01  0.429860247091E+01  0.695330077455E+01
 -0.215549552039E+01  0.447311917328E+01  0.721746639700E+01
 -0.703816357616E+00  0.450169843167E+01  0.723250595697E+01
  0.752155191949E+00  0.438128553378E+01  0.696038347109E+01
  0.166248769980E+01  0.411034726657E+01  0.627194771307E+01
  0.240640000000E+01  0.401125000000E+01  0.438612000000E+01
 -0.788895511484E+01  0.303906582161E+01  0.360004427904E+01
 -0.647500840078E+01  0.411930898430E+01  0.484379636339E+01
 -0.505223742544E+01  0.478446580180E+01  0.561203949816E+01
 -0.362670376689E+01  0.519460437120E+01  0.608473061221E+01
 -0.219714791274E+01  0.540561953149E+01  0.632516463198E+01
 -0.760109515952E+00  0.543560920214E+01  0.634733039518E+01
  0.685203329635E+00  0.528726644215E+01  0.611820529204E+01
  0.150881175887E+01  0.504776288212E+01  0.541532126612E+01
  0.221231000000E+01  0.508710000000E+01  0.355309000000E+01
  0.500000000000E+01 -0.169037000000E+01  0.489859000001E-15
  0.527591000000E+01 -0.788220000000E+00  0.391887000000E-15
  0.575887000000E+01 -0.658810000000E+00  0.391887000000E-15
  0.624183000000E+01 -0.529401000000E+00  0.391887000000E-15
  0.672480000000E+01 -0.399991000000E+00  0.391887000000E-15
  0.720776000000E+01 -0.270582000000E+00  0.391887000000E-15
  0.769072000000E+01 -0.141172000000E+00  0.391887000000E-15
  0.817369000000E+01 -0.117629000000E-01  0.391887000000E-15
  0.865665000000E+01  0.117647000000E+00  0.391887000000E-15
  0.913961000000E+01  0.247056000000E+00  0.391887000000E-15
  0.962257000000E+01  0.376466000000E+00  0.391887000000E-15
  0.467032238123E+01 -0.159466619878E+00  0.391887000000E-15
  0.507035327402E+01  0.471253616752E+00  0.313510000000E-15
  0.555477518872E+01  0.580100629448E+00  0.313510000000E-15
  0.602650953076E+01  0.710421453281E+00  0.313510000000E-15
  0.649477845388E+01  0.839157313839E+00  0.313510000000E-15
  0.696159867816E+01  0.966465228360E+00  0.313510000000E-15
  0.742809511467E+01  0.109275812510E+01  0.313510000000E-15
  0.789463931200E+01  0.121855360766E+01  0.313510000000E-15
  0.836135270099E+01  0.134443084453E+01  0.313510000000E-15
  0.882829379691E+01  0.147065614317E+01  0.313510000000E-15
  0.929129000000E+01  0.161285000000E+01  0.313510000000E-15
  0.442602723811E+01  0.137918243887E+01  0.293915000000E-15
  0.487270234653E+01  0.171120618298E+01  0.235132000000E-15
  0.534447552975E+01  0.184375536118E+01  0.235132000000E-15
  0.579662432201E+01  0.197615215823E+01  0.235132000000E-15
  0.624432974465E+01  0.210373651293E+01  0.235132000000E-15
  0.669233437687E+01  0.222746120109E+01  0.235132000000E-15
  0.714151944769E+01  0.234975909600E+01  0.235132000000E-15
  0.759209199852E+01  0.247152420221E+01  0.235132000000E-15
  0.804433889332E+01  0.259317874548E+01  0.235132000000E-15
  0.849900428996E+01  0.271708098285E+01  0.235132000000E-15
  0.896000000000E+01  0.284924000000E+01  0.235132000000E-15
  0.406662610203E+01  0.289587573851E+01  0.195943000000E-15
  0.457194796458E+01  0.292703404444E+01  0.156755000000E-15
  0.502359440745E+01  0.310240758247E+01  0.156755000000E-15
  0.546680529718E+01  0.324098362589E+01  0.156755000000E-15
  0.591129028810E+01  0.336621585823E+01  0.156755000000E-15
  0.635751240789E+01  0.348831176402E+01  0.156755000000E-15
  0.680583264135E+01  0.360920354789E+01  0.156755000000E-15
  0.725598999879E+01  0.372987289480E+01  0.156755000000E-15
  0.770799646161E+01  0.385078016142E+01  0.156755000000E-15
  0.816346005661E+01  0.397046121101E+01  0.156755000000E-15
  0.862871000000E+01  0.408562000000E+01  0.156755000000E-15
  0.350062093363E+01  0.445619308197E+01  0.979717000000E-16
  0.412734209297E+01  0.414121437753E+01  0.783774000000E-16
  0.456434677161E+01  0.433318362376E+01  0.783774000000E-16
  0.502409983749E+01  0.446287856616E+01  0.783774000000E-16
  0.548772376069E+01  0.459008393133E+01  0.783774000000E-16
  0.595360085955E+01  0.471525267096E+01  0.783774000000E-16
  0.642058789924E+01  0.484018597498E+01  0.783774000000E-16
  0.688817691047E+01  0.496510436795E+01  0.783774000000E-16
  0.735624103286E+01  0.508978099101E+01  0.783774000000E-16
  0.782466620611E+01  0.521407104940E+01  0.783774000000E-16
  0.829742000000E+01  0.532201000000E+01  0.783774000001E-16
  0.292945000000E+01  0.603704000000E+01  0.361351477425E-27
  0.361947000000E+01  0.539371000000E+01  0.148192206284E-27
  0.410243000000E+01  0.552311000000E+01  0.548904756705E-28
  0.458539000000E+01  0.565252000000E+01  0.616226485051E-28
  0.506835000000E+01  0.578193000000E+01  0.599535122220E-28
  0.555132000000E+01  0.591134000000E+01  0.587412770884E-28
  0.603428000000E+01  0.604075000000E+01  0.577847658459E-28
  0.651724000000E+01  0.617016000000E+01  0.570138787376E-28
  0.700021000000E+01  0.629957000000E+01  0.562160001239E-28
  0.748317000000E+01  0.642898000000E+01  0.513445105179E-28
  0.796613000000E+01  0.655839000000E+01  0.187919688608E-28
  0.498725000000E+01 -0.164280000000E+01  0.625738000000E+00
  0.526571000000E+01 -0.750165000000E+00  0.500590000000E+00
  0.574867000000E+01 -0.620756000000E+00  0.500590000000E+00
  0.623164000000E+01 -0.491346000000E+00  0.500590000000E+00
  0.671460000000E+01 -0.361937000000E+00  0.500590000000E+00
  0.719756000000E+01 -0.232527000000E+00  0.500590000000E+00
  0.768053000000E+01 -0.103118000000E+00  0.500590000000E+00
  0.816349000000E+01  0.262920000000E-01  0.500590000000E+00
  0.864645000000E+01  0.155702000000E+00  0.500590000000E+00
  0.912941000000E+01  0.285111000000E+00  0.500590000000E+00
  0.961238000000E+01  0.414521000000E+00  0.500590000000E+00
  0.466059575169E+01 -0.153755413455E+00  0.767943325714E+00
  0.506125892187E+01  0.473834173003E+00  0.608218884799E+00
  0.554447605869E+01  0.583565880641E+00  0.620558452496E+00
  0.601673105469E+01  0.714174981612E+00  0.623872037744E+00
  0.648621110522E+01  0.843105995820E+00  0.624815181739E+00
  0.695444736040E+01  0.970711663715E+00  0.624931747529E+00
  0.742237311726E+01  0.109733577877E+01  0.624787272419E+00
  0.789027109851E+01  0.122344619301E+01  0.624560438226E+00
  0.835827034579E+01  0.134958592352E+01  0.624148166618E+00
  0.882630729656E+01  0.147587541618E+01  0.623074137990E+00
  0.929009000000E+01  0.161731000000E+01  0.618286000000E+00
  0.440803109171E+01  0.137767002625E+01  0.827022120226E+00
  0.485903550513E+01  0.170761245539E+01  0.668104517602E+00
  0.533047139292E+01  0.183990646051E+01  0.685717361011E+00
  0.578376962363E+01  0.197214421495E+01  0.693148639051E+00
  0.623354595547E+01  0.209994596817E+01  0.695431993618E+00
  0.668394897706E+01  0.222415074438E+01  0.695352851737E+00
  0.713554946013E+01  0.234701633735E+01  0.694544805997E+00
  0.758839538232E+01  0.246932569475E+01  0.693420612248E+00
  0.804261551509E+01  0.259144590158E+01  0.691533017947E+00
  0.849874437406E+01  0.271558366577E+01  0.687712759393E+00
  0.896044000000E+01  0.284757000000E+01  0.680162000000E+00
  0.404519583186E+01  0.290033759339E+01  0.823681042903E+00
  0.455653693051E+01  0.292782870582E+01  0.669739821609E+00
  0.500842607685E+01  0.310129789594E+01  0.686361108743E+00
  0.545305066882E+01  0.323921765290E+01  0.694565783180E+00
  0.589972122988E+01  0.336462517760E+01  0.696575400527E+00
  0.634844533092E+01  0.348719935446E+01  0.696113001503E+00
  0.679923413645E+01  0.360868668748E+01  0.695003817641E+00
  0.725167120984E+01  0.372995429390E+01  0.693692385960E+00
  0.770564523257E+01  0.385141820842E+01  0.691704906229E+00
  0.816248541820E+01  0.397161999327E+01  0.687824529909E+00
  0.862826000000E+01  0.408729000000E+01  0.680162000000E+00
  0.348777760519E+01  0.445429933867E+01  0.763065149997E+00
  0.411713498899E+01  0.413733973823E+01  0.611673009660E+00
  0.455526441718E+01  0.432574850142E+01  0.625164164987E+00
  0.501666671563E+01  0.445505260750E+01  0.626417065764E+00
  0.548202564900E+01  0.458255593320E+01  0.625880611236E+00
  0.594952722183E+01  0.470811277867E+01  0.625094081421E+00
  0.641801080245E+01  0.483344927732E+01  0.624510599822E+00
  0.688694689016E+01  0.495875060284E+01  0.624114884070E+00
  0.735620836566E+01  0.508381366958E+01  0.623686785993E+00
  0.782556336157E+01  0.520857284732E+01  0.622730411032E+00
  0.829861000000E+01  0.531755000000E+01  0.618286000000E+00
  0.294219000000E+01  0.598947000000E+01  0.625738000000E+00
  0.362966000000E+01  0.535565000000E+01  0.500590000000E+00
  0.411263000000E+01  0.548506000000E+01  0.500590000000E+00
  0.459559000000E+01  0.561447000000E+01  0.500590000000E+00
  0.507855000000E+01  0.574388000000E+01  0.500590000000E+00
  0.556151000000E+01  0.587329000000E+01  0.500590000000E+00
  0.604448000000E+01  0.600270000000E+01  0.500590000000E+00
  0.652744000000E+01  0.613211000000E+01  0.500590000000E+00
  0.701040000000E+01  0.626152000000E+01  0.500590000000E+00
  0.749337000000E+01  0.639093000000E+01  0.500590000000E+00
  0.797633000000E+01  0.652034000000E+01  0.500590000000E+00
  0.494933000000E+01 -0.150127000000E+01  0.123607000000E+01
  0.523537000000E+01 -0.636938000000E+00  0.988854000000E+00
  0.571833000000E+01 -0.507528000000E+00  0.988854000000E+00
  0.620130000000E+01 -0.378118000000E+00  0.988854000000E+00
  0.668426000000E+01 -0.248709000000E+00  0.988854000000E+00
  0.716722000000E+01 -0.119299000000E+00  0.988854000000E+00
  0.765019000000E+01  0.101101000000E-01  0.988854000000E+00
  0.813315000000E+01  0.139520000000E+00  0.988854000000E+00
  0.861611000000E+01  0.268929000000E+00  0.988854000000E+00
  0.909907000000E+01  0.398339000000E+00  0.988854000000E+00
  0.958204000000E+01  0.527748000000E+00  0.988854000000E+00
  0.462422419907E+01 -0.927942607844E-01  0.152530424859E+01
  0.502773222114E+01  0.517982195155E+00  0.120841909882E+01
  0.550784013325E+01  0.630585349226E+00  0.122876644989E+01
  0.598176661946E+01  0.761882932759E+00  0.123358447040E+01
  0.645453471706E+01  0.891433283335E+00  0.123481843531E+01
  0.692640176530E+01  0.101990055412E+01  0.123492677463E+01
  0.739790066173E+01  0.114733015341E+01  0.123470005874E+01
  0.786924145087E+01  0.127418722152E+01  0.123440109729E+01
  0.834037391155E+01  0.140104867126E+01  0.123385129878E+01
  0.881115520450E+01  0.152752834787E+01  0.123231879911E+01
  0.927681000000E+01  0.166687000000E+01  0.122425000000E+01
  0.435282326384E+01  0.139578056344E+01  0.164997164853E+01
  0.481575156728E+01  0.171490428876E+01  0.132695436818E+01
  0.528567780671E+01  0.184697175536E+01  0.135858006929E+01
  0.574241651768E+01  0.197884497050E+01  0.137035888725E+01
  0.619822513071E+01  0.210741495352E+01  0.137339930230E+01
  0.665549573630E+01  0.223309563066E+01  0.137292029468E+01
  0.711390299031E+01  0.235752909213E+01  0.137154518844E+01
  0.757309673645E+01  0.248134414867E+01  0.136985086338E+01
  0.803283888321E+01  0.260477804628E+01  0.136703958078E+01
  0.849316137717E+01  0.272961402479E+01  0.136100749474E+01
  0.895686000000E+01  0.286093000000E+01  0.134800000000E+01
  0.399165013265E+01  0.289135950895E+01  0.164304431643E+01
  0.451748831105E+01  0.291254031570E+01  0.132945588611E+01
  0.496983605081E+01  0.307982077267E+01  0.136005660272E+01
  0.541873791783E+01  0.321586573193E+01  0.137310760089E+01
  0.587190760729E+01  0.334179901334E+01  0.137546495875E+01
  0.632784693885E+01  0.346576725234E+01  0.137425206308E+01
  0.678561041338E+01  0.358893154241E+01  0.137234697285E+01
  0.724443661037E+01  0.371191187682E+01  0.137033692920E+01
  0.770388088559E+01  0.383493185385E+01  0.136736040475E+01
  0.816469453510E+01  0.395662319302E+01  0.136122701861E+01
  0.863184000000E+01  0.407393000000E+01  0.134800000000E+01
  0.346778767715E+01  0.440208296609E+01  0.151829797255E+01
  0.410085250442E+01  0.408997880525E+01  0.121362816164E+01
  0.454255059148E+01  0.426825456773E+01  0.123622485305E+01
  0.500837426266E+01  0.439707358537E+01  0.123757931394E+01
  0.547830530531E+01  0.452537196326E+01  0.123638487233E+01
  0.595004847026E+01  0.465186647972E+01  0.123505188344E+01
  0.642220917127E+01  0.477820279610E+01  0.123417043011E+01
  0.689444818156E+01  0.490449665317E+01  0.123362748312E+01
  0.736663985422E+01  0.503042669903E+01  0.123306708298E+01
  0.783832500287E+01  0.515632692478E+01  0.123172879654E+01
  0.831189000000E+01  0.526799000000E+01  0.122425000000E+01
  0.298012000000E+01  0.584793000000E+01  0.123607000000E+01
  0.366000000000E+01  0.524242000000E+01  0.988854000000E+00
  0.414296000000E+01  0.537183000000E+01  0.988854000000E+00
  0.462593000000E+01  0.550124000000E+01  0.988854000000E+00
  0.510889000000E+01  0.563065000000E+01  0.988854000000E+00
  0.559185000000E+01  0.576006000000E+01  0.988854000000E+00
  0.607482000000E+01  0.588947000000E+01  0.988854000000E+00
  0.655778000000E+01  0.601888000000E+01  0.988854000000E+00
  0.704074000000E+01  0.614829000000E+01  0.988854000000E+00
  0.752371000000E+01  0.627770000000E+01  0.988854000000E+00
  0.800667000000E+01  0.640711000000E+01  0.988854000000E+00
  0.488716000000E+01 -0.126925000000E+01  0.181596000000E+01
  0.518564000000E+01 -0.451325000000E+00  0.145277000000E+01
  0.566860000000E+01 -0.321916000000E+00  0.145277000000E+01
  0.615156000000E+01 -0.192506000000E+00  0.145277000000E+01
  0.663453000000E+01 -0.630967000000E-01  0.145277000000E+01
  0.711749000000E+01  0.663128000000E-01  0.145277000000E+01
  0.760045000000E+01  0.195722000000E+00  0.145277000000E+01
  0.808341000000E+01  0.325132000000E+00  0.145277000000E+01
  0.856638000000E+01  0.454541000000E+00  0.145277000000E+01
  0.904934000000E+01  0.583951000000E+00  0.145277000000E+01
  0.953230000000E+01  0.713360000000E+00  0.145277000000E+01
  0.456485171566E+01  0.215785495338E-01  0.226163434577E+01
  0.497261459599E+01  0.602707778693E+00  0.179104929612E+01
  0.544890705174E+01  0.720339425168E+00  0.181198342721E+01
  0.592629048879E+01  0.852512095885E+00  0.181555081410E+01
  0.640397020884E+01  0.983247074023E+00  0.181644871349E+01
  0.688075055385E+01  0.111255162143E+01  0.181652999312E+01
  0.735701709024E+01  0.124092827630E+01  0.181633133016E+01
  0.783296164779E+01  0.136878564005E+01  0.181608267424E+01
  0.830869133123E+01  0.149642142902E+01  0.181577864801E+01
  0.878326238335E+01  0.162355737624E+01  0.181474840263E+01
  0.925190000000E+01  0.175986000000E+01  0.180586000000E+01
  0.426965047760E+01  0.143106154319E+01  0.246377120878E+01
  0.474670683883E+01  0.173297682464E+01  0.196851544112E+01
  0.521388266346E+01  0.186484687685E+01  0.200556372382E+01
  0.567726094789E+01  0.199637676472E+01  0.201563779449E+01
  0.614327741058E+01  0.212671660888E+01  0.201746870483E+01
  0.661108526538E+01  0.225441084888E+01  0.201660292861E+01
  0.707947853426E+01  0.238103151178E+01  0.201521498582E+01
  0.754791177105E+01  0.250700281957E+01  0.201375493886E+01
  0.801597108365E+01  0.263230781490E+01  0.201156711473E+01
  0.848243674677E+01  0.275836886103E+01  0.200614743660E+01
  0.894940000000E+01  0.288877000000E+01  0.199149000000E+01
  0.391339688305E+01  0.286793835861E+01  0.245471188550E+01
  0.445735620008E+01  0.288148145391E+01  0.197067217747E+01
  0.491033804527E+01  0.303858798942E+01  0.200798909799E+01
  0.536741895703E+01  0.317229864357E+01  0.201907215641E+01
  0.583204708879E+01  0.329947266833E+01  0.201974947971E+01
  0.629920582586E+01  0.342572919206E+01  0.201803301857E+01
  0.676725319049E+01  0.355145332955E+01  0.201608835383E+01
  0.723540673032E+01  0.367696468076E+01  0.201430833756E+01
  0.770308141434E+01  0.380246960563E+01  0.201196144279E+01
  0.816983023979E+01  0.392621754597E+01  0.200644351553E+01
  0.863930000000E+01  0.404608000000E+01  0.199149000000E+01
  0.345096148302E+01  0.429625081207E+01  0.225429566043E+01
  0.408359028141E+01  0.400064225115E+01  0.179530066805E+01
  0.453078653661E+01  0.416399381926E+01  0.181986780977E+01
  0.500336778565E+01  0.429254372668E+01  0.181934522511E+01
  0.548023158098E+01  0.442153477273E+01  0.181768091966E+01
  0.595743449787E+01  0.454941564104E+01  0.181644410430E+01
  0.643434309414E+01  0.467708896966E+01  0.181566778474E+01
  0.691089892282E+01  0.480465698865E+01  0.181522990570E+01
  0.738721329766E+01  0.493211441622E+01  0.181493042550E+01
  0.786229087602E+01  0.505927131041E+01  0.181409269175E+01
  0.833681000000E+01  0.517500000000E+01  0.180586000000E+01
  0.304229000000E+01  0.561592000000E+01  0.181596000000E+01
  0.370974000000E+01  0.505681000000E+01  0.145277000000E+01
  0.419270000000E+01  0.518622000000E+01  0.145277000000E+01
  0.467566000000E+01  0.531563000000E+01  0.145277000000E+01
  0.515863000000E+01  0.544504000000E+01  0.145277000000E+01
  0.564159000000E+01  0.557445000000E+01  0.145277000000E+01
  0.612455000000E+01  0.570386000000E+01  0.145277000000E+01
  0.660751000000E+01  0.583327000000E+01  0.145277000000E+01
  0.709048000000E+01  0.596268000000E+01  0.145277000000E+01
  0.757344000000E+01  0.609209000000E+01  0.145277000000E+01
  0.805640000000E+01  0.622150000000E+01  0.145277000000E+01
  0.480228000000E+01 -0.952469000000E+00  0.235114000000E+01
  0.511773000000E+01 -0.197899000000E+00  0.188091000000E+01
  0.560069000000E+01 -0.684892000000E-01  0.188091000000E+01
  0.608366000000E+01  0.609204000000E-01  0.188091000000E+01
  0.656662000000E+01  0.190330000000E+00  0.188091000000E+01
  0.704958000000E+01  0.319739000000E+00  0.188091000000E+01
  0.753255000000E+01  0.449149000000E+00  0.188091000000E+01
  0.801551000000E+01  0.578558000000E+00  0.188091000000E+01
  0.849847000000E+01  0.707968000000E+00  0.188091000000E+01
  0.898143000000E+01  0.837378000000E+00  0.188091000000E+01
  0.946440000000E+01  0.966787000000E+00  0.188091000000E+01
  0.448557160209E+01  0.179804848985E+00  0.296638123409E+01
  0.489756022061E+01  0.729577572350E+00  0.234488920337E+01
  0.537407696841E+01  0.852834822088E+00  0.235655244883E+01
  0.585743398217E+01  0.986639021901E+00  0.235778908373E+01
  0.634024231279E+01  0.111672003452E+01  0.235829049060E+01
  0.682183311836E+01  0.124633009652E+01  0.235832805253E+01
  0.730276124510E+01  0.137537726834E+01  0.235822887477E+01
  0.778330552757E+01  0.150417651794E+01  0.235815304547E+01
  0.826363079571E+01  0.163315616071E+01  0.235791725754E+01
  0.874420354292E+01  0.176065932466E+01  0.235823600364E+01
  0.921608000000E+01  0.189354000000E+01  0.235170000000E+01
  0.416708132437E+01  0.148411780830E+01  0.326327209584E+01
  0.465614428747E+01  0.176296938257E+01  0.258543082023E+01
  0.512321681407E+01  0.189541230228E+01  0.261127922131E+01
  0.559973828769E+01  0.202824577013E+01  0.261397242214E+01
  0.607885106614E+01  0.215935550237E+01  0.261477253733E+01
  0.655823413927E+01  0.228866084343E+01  0.261416031447E+01
  0.703698463065E+01  0.241733678077E+01  0.261351242391E+01
  0.751508984517E+01  0.254561612266E+01  0.261293442629E+01
  0.799251534205E+01  0.267331729570E+01  0.261193859746E+01
  0.846796575310E+01  0.280081012658E+01  0.261052848341E+01
  0.893831000000E+01  0.293018000000E+01  0.259920000000E+01
  0.381703301917E+01  0.283384929819E+01  0.325805654556E+01
  0.437872743192E+01  0.283484116565E+01  0.258692169645E+01
  0.483606400355E+01  0.297904291474E+01  0.261383724962E+01
  0.531019997689E+01  0.311139366313E+01  0.261612460949E+01
  0.578972035471E+01  0.324093384789E+01  0.261605543070E+01
  0.626920828204E+01  0.337008027655E+01  0.261498193317E+01
  0.674799740837E+01  0.349858047859E+01  0.261403998738E+01
  0.722605813462E+01  0.362671723148E+01  0.261330163276E+01
  0.770322957528E+01  0.375482062413E+01  0.261222328790E+01
  0.817856862631E+01  0.388194735667E+01  0.261079305810E+01
  0.865040000000E+01  0.400468000000E+01  0.259920000000E+01
  0.343909893263E+01  0.414462372097E+01  0.295948110899E+01
  0.406792914401E+01  0.386935921130E+01  0.234707239503E+01
  0.452434493608E+01  0.401603709457E+01  0.236215502322E+01
  0.500887568143E+01  0.414422594593E+01  0.235937830401E+01
  0.549193568273E+01  0.427523077861E+01  0.235872587400E+01
  0.597415654612E+01  0.440463595352E+01  0.235802748343E+01
  0.645546622251E+01  0.453374460080E+01  0.235768441088E+01
  0.693627212182E+01  0.466261745452E+01  0.235753481177E+01
  0.741695721350E+01  0.479111175327E+01  0.235732401596E+01
  0.789712419214E+01  0.492095979383E+01  0.235772150222E+01
  0.837263000000E+01  0.504132000000E+01  0.235170000000E+01
  0.312717000000E+01  0.529913000000E+01  0.235114000000E+01
  0.377764000000E+01  0.480338000000E+01  0.188091000000E+01
  0.426060000000E+01  0.493279000000E+01  0.188091000000E+01
  0.474357000000E+01  0.506220000000E+01  0.188091000000E+01
  0.522653000000E+01  0.519161000000E+01  0.188091000000E+01
  0.570949000000E+01  0.532102000000E+01  0.188091000000E+01
  0.619246000000E+01  0.545043000000E+01  0.188091000000E+01
  0.667542000000E+01  0.557984000000E+01  0.188091000000E+01
  0.715838000000E+01  0.570925000000E+01  0.188091000000E+01
  0.764135000000E+01  0.583866000000E+01  0.188091000000E+01
  0.812431000000E+01  0.596807000000E+01  0.188091000000E+01
  0.469677000000E+01 -0.558718000000E+00  0.282843000000E+01
  0.503333000000E+01  0.117102000000E+00  0.226274000000E+01
  0.551629000000E+01  0.246512000000E+00  0.226274000000E+01
  0.599925000000E+01  0.375921000000E+00  0.226274000000E+01
  0.648222000000E+01  0.505331000000E+00  0.226274000000E+01
  0.696518000000E+01  0.634740000000E+00  0.226274000000E+01
  0.744814000000E+01  0.764150000000E+00  0.226274000000E+01
  0.793110000000E+01  0.893559000000E+00  0.226274000000E+01
  0.841407000000E+01  0.102297000000E+01  0.226274000000E+01
  0.889703000000E+01  0.115238000000E+01  0.226274000000E+01
  0.937999000000E+01  0.128179000000E+01  0.226274000000E+01
  0.443473000000E+01  0.419249000000E+00  0.356403000000E+01
  0.482369000000E+01  0.899475000000E+00  0.285122000000E+01
  0.530665000000E+01  0.102888000000E+01  0.285122000000E+01
  0.578962000000E+01  0.115829000000E+01  0.285122000000E+01
  0.627258000000E+01  0.128770000000E+01  0.285122000000E+01
  0.675554000000E+01  0.141711000000E+01  0.285122000000E+01
  0.723851000000E+01  0.154652000000E+01  0.285122000000E+01
  0.772147000000E+01  0.167593000000E+01  0.285122000000E+01
  0.820443000000E+01  0.180534000000E+01  0.285122000000E+01
  0.868739000000E+01  0.193475000000E+01  0.285122000000E+01
  0.917036000000E+01  0.206416000000E+01  0.285122000000E+01
  0.412668000000E+01  0.156892000000E+01  0.395075000000E+01
  0.457725000000E+01  0.181921000000E+01  0.316060000000E+01
  0.506021000000E+01  0.194862000000E+01  0.316060000000E+01
  0.554317000000E+01  0.207803000000E+01  0.316060000000E+01
  0.602614000000E+01  0.220744000000E+01  0.316060000000E+01
  0.650910000000E+01  0.233685000000E+01  0.316060000000E+01
  0.699206000000E+01  0.246626000000E+01  0.316060000000E+01
  0.747503000000E+01  0.259567000000E+01  0.316060000000E+01
  0.795799000000E+01  0.272508000000E+01  0.316060000000E+01
  0.844095000000E+01  0.285449000000E+01  0.316060000000E+01
  0.892392000000E+01  0.298390000000E+01  0.316060000000E+01
  0.380277000000E+01  0.277775000000E+01  0.395075000000E+01
  0.431812000000E+01  0.278628000000E+01  0.316060000000E+01
  0.480109000000E+01  0.291569000000E+01  0.316060000000E+01
  0.528405000000E+01  0.304509000000E+01  0.316060000000E+01
  0.576701000000E+01  0.317450000000E+01  0.316060000000E+01
  0.624998000000E+01  0.330391000000E+01  0.316060000000E+01
  0.673294000000E+01  0.343332000000E+01  0.316060000000E+01
  0.721590000000E+01  0.356273000000E+01  0.316060000000E+01
  0.769886000000E+01  0.369214000000E+01  0.316060000000E+01
  0.818183000000E+01  0.382155000000E+01  0.316060000000E+01
  0.866479000000E+01  0.395096000000E+01  0.316060000000E+01
  0.349472000000E+01  0.392742000000E+01  0.356403000000E+01
  0.407168000000E+01  0.370601000000E+01  0.285122000000E+01
  0.455465000000E+01  0.383542000000E+01  0.285122000000E+01
  0.503761000000E+01  0.396483000000E+01  0.285122000000E+01
  0.552057000000E+01  0.409424000000E+01  0.285122000000E+01
  0.600353000000E+01  0.422365000000E+01  0.285122000000E+01
  0.648650000000E+01  0.435306000000E+01  0.285122000000E+01
  0.696946000000E+01  0.448247000000E+01  0.285122000000E+01
  0.745242000000E+01  0.461188000000E+01  0.285122000000E+01
  0.793539000000E+01  0.474129000000E+01  0.285122000000E+01
  0.841835000000E+01  0.487070000000E+01  0.285122000000E+01
  0.323267000000E+01  0.490538000000E+01  0.282843000000E+01
  0.386205000000E+01  0.448838000000E+01  0.226274000000E+01
  0.434501000000E+01  0.461779000000E+01  0.226274000000E+01
  0.482797000000E+01  0.474720000000E+01  0.226274000000E+01
  0.531093000000E+01  0.487661000000E+01  0.226274000000E+01
  0.579390000000E+01  0.500602000000E+01  0.226274000000E+01
  0.627686000000E+01  0.513543000000E+01  0.226274000000E+01
  0.675982000000E+01  0.526484000000E+01  0.226274000000E+01
  0.724279000000E+01  0.539425000000E+01  0.226274000000E+01
  0.772575000000E+01  0.552366000000E+01  0.226274000000E+01
  0.820871000000E+01  0.565307000000E+01  0.226274000000E+01
  0.560370000000E+01 -0.185213000000E+01  0.275546000000E-15
  0.620741000000E+01 -0.201389000000E+01  0.275546000000E-15
  0.681111000000E+01 -0.217566000000E+01  0.275546000000E-15
  0.741481000000E+01 -0.233742000000E+01  0.275546000000E-15
  0.801852000000E+01 -0.249918000000E+01  0.275546000000E-15
  0.862222000000E+01 -0.266094000000E+01  0.275546000000E-15
  0.922593000000E+01 -0.282270000000E+01  0.275546000000E-15
  0.982963000000E+01 -0.298447000000E+01  0.275546000000E-15
  0.492969690778E+01 -0.258443741124E+01  0.220436000000E-15
  0.552276228829E+01 -0.275100659478E+01  0.220436000000E-15
  0.609665654856E+01 -0.290589669306E+01  0.220436000000E-15
  0.667147558965E+01 -0.306104262441E+01  0.220436000000E-15
  0.725125327379E+01 -0.321680767763E+01  0.220436000000E-15
  0.783498573577E+01 -0.337344278445E+01  0.220436000000E-15
  0.842122129779E+01 -0.353078270849E+01  0.220436000000E-15
  0.900928858374E+01 -0.368790539105E+01  0.220436000000E-15
  0.959669000000E+01 -0.385380000000E+01  0.220436000000E-15
  0.475898161659E+01 -0.345980532931E+01  0.165327000000E-15
  0.534729021631E+01 -0.363931478095E+01  0.165327000000E-15
  0.591289776665E+01 -0.379646343128E+01  0.165327000000E-15
  0.647785954911E+01 -0.394841710235E+01  0.165327000000E-15
  0.704733447869E+01 -0.410048255619E+01  0.165327000000E-15
  0.762115016717E+01 -0.425367312311E+01  0.165327000000E-15
  0.819814326074E+01 -0.440772259813E+01  0.165327000000E-15
  0.877783841506E+01 -0.456295070177E+01  0.165327000000E-15
  0.936375000000E+01 -0.472313000000E+01  0.165327000000E-15
  0.451702176315E+01 -0.432214833644E+01  0.110218000000E-15
  0.509801149542E+01 -0.451541541750E+01  0.110218000000E-15
  0.566476040901E+01 -0.467409608937E+01  0.110218000000E-15
  0.623346902230E+01 -0.482615211144E+01  0.110218000000E-15
  0.680630756970E+01 -0.497823741674E+01  0.110218000000E-15
  0.738265479155E+01 -0.513133903748E+01  0.110218000000E-15
  0.796132951826E+01 -0.528552233110E+01  0.110218000000E-15
  0.854234833441E+01 -0.544004220034E+01  0.110218000000E-15
  0.913082000000E+01 -0.559247000000E+01  0.110218000000E-15
  0.420281150193E+01 -0.518252278803E+01  0.551091000000E-16
  0.477872733836E+01 -0.536967641197E+01  0.551091000000E-16
  0.536170138627E+01 -0.552710376210E+01  0.551091000000E-16
  0.594746680364E+01 -0.568368793740E+01  0.551091000000E-16
  0.653556623787E+01 -0.583999250262E+01  0.551091000000E-16
  0.712485607245E+01 -0.599694549727E+01  0.551091000000E-16
  0.771481786394E+01 -0.615419200975E+01  0.551091000000E-16
  0.830501752451E+01 -0.631227800331E+01  0.551091000000E-16
  0.889788000000E+01 -0.646180000000E+01  0.551091000001E-16
  0.383531000000E+01 -0.603704000000E+01  0.487523821283E-27
  0.443902000000E+01 -0.619880000000E+01  0.709950077816E-28
  0.504272000000E+01 -0.636056000000E+01  0.868201043340E-28
  0.564643000000E+01 -0.652232000000E+01  0.829869414764E-28
  0.625013000000E+01 -0.668408000000E+01  0.817649010533E-28
  0.685383000000E+01 -0.684585000000E+01  0.798586530867E-28
  0.745754000000E+01 -0.700761000000E+01  0.784424241359E-28
  0.806124000000E+01 -0.716937000000E+01  0.731160061630E-28
  0.866494000000E+01 -0.733113000000E+01  0.269976344362E-28
  0.499283000000E+01 -0.171713000000E+01  0.351978000000E+00
  0.559653000000E+01 -0.187889000000E+01  0.351978000000E+00
  0.620024000000E+01 -0.204065000000E+01  0.351978000000E+00
  0.680394000000E+01 -0.220241000000E+01  0.351978000000E+00
  0.740764000000E+01 -0.236418000000E+01  0.351978000000E+00
  0.801135000000E+01 -0.252594000000E+01  0.351978000000E+00
  0.861505000000E+01 -0.268770000000E+01  0.351978000000E+00
  0.921876000000E+01 -0.284946000000E+01  0.351978000000E+00
  0.982246000000E+01 -0.301122000000E+01  0.351978000000E+00
  0.491176091029E+01 -0.258597408523E+01  0.421109762725E+00
  0.550366588955E+01 -0.275025092612E+01  0.442695373424E+00
  0.608220009817E+01 -0.290690607843E+01  0.444941570308E+00
  0.666162152120E+01 -0.306290971077E+01  0.442717902792E+00
  0.724467670004E+01 -0.321934960486E+01  0.440525094559E+00
  0.783064502893E+01 -0.337642073441E+01  0.439162478182E+00
  0.841849609161E+01 -0.353407610656E+01  0.438391417768E+00
  0.900773008821E+01 -0.369141899901E+01  0.437714767733E+00
  0.959585000000E+01 -0.385693000000E+01  0.434732000000E+00
  0.473941267690E+01 -0.345735715533E+01  0.457897326324E+00
  0.532677870578E+01 -0.363347663740E+01  0.485776749533E+00
  0.589674363652E+01 -0.379115140607E+01  0.490634374875E+00
  0.646660325801E+01 -0.394439645064E+01  0.489523194934E+00
  0.704014386414E+01 -0.409756218522E+01  0.487187768428E+00
  0.761701586213E+01 -0.425155952357E+01  0.485429679425E+00
  0.819623709384E+01 -0.440619254192E+01  0.484132524796E+00
  0.877746857174E+01 -0.456180515392E+01  0.482252287930E+00
  0.936407000000E+01 -0.472196000000E+01  0.478239000000E+00
  0.449864776887E+01 -0.432296687421E+01  0.458159105524E+00
  0.507923440310E+01 -0.451177667735E+01  0.484565819477E+00
  0.565005965607E+01 -0.467045554296E+01  0.489849200410E+00
  0.622303331409E+01 -0.482373068928E+01  0.488463820507E+00
  0.679939086634E+01 -0.497696847733E+01  0.486399493496E+00
  0.737839690334E+01 -0.513096734445E+01  0.484890143037E+00
  0.795909144304E+01 -0.528582245799E+01  0.483788376405E+00
  0.854150120739E+01 -0.544081323510E+01  0.482060940804E+00
  0.913050000000E+01 -0.559364000000E+01  0.478239000000E+00
  0.419156429929E+01 -0.517980467213E+01  0.424287351892E+00
  0.476839918833E+01 -0.536267217094E+01  0.440026702368E+00
  0.535432302131E+01 -0.552038021651E+01  0.441027488735E+00
  0.594257393901E+01 -0.567779539880E+01  0.439802699087E+00
  0.653253734172E+01 -0.583483823574E+01  0.438697265073E+00
  0.712324375553E+01 -0.599235378692E+01  0.438068063283E+00
  0.771436268567E+01 -0.615003906723E+01  0.437728356816E+00
  0.830549775018E+01 -0.630845910467E+01  0.437348602351E+00
  0.889872000000E+01 -0.645867000000E+01  0.434732000000E+00
  0.384248000000E+01 -0.601028000000E+01  0.351978000000E+00
  0.444619000000E+01 -0.617204000000E+01  0.351978000000E+00
  0.504989000000E+01 -0.633380000000E+01  0.351978000000E+00
  0.565359000000E+01 -0.649556000000E+01  0.351978000000E+00
  0.625730000000E+01 -0.665733000000E+01  0.351978000000E+00
  0.686100000000E+01 -0.681909000000E+01  0.351978000000E+00
  0.746471000000E+01 -0.698085000000E+01  0.351978000000E+00
  0.806841000000E+01 -0.714261000000E+01  0.351978000000E+00
  0.867211000000E+01 -0.730437000000E+01  0.351978000000E+00
  0.497150000000E+01 -0.179674000000E+01  0.695288000000E+00
  0.557520000000E+01 -0.195850000000E+01  0.695288000000E+00
  0.617891000000E+01 -0.212026000000E+01  0.695288000000E+00
  0.678261000000E+01 -0.228203000000E+01  0.695288000000E+00
  0.738631000000E+01 -0.244379000000E+01  0.695288000000E+00
  0.799002000000E+01 -0.260555000000E+01  0.695288000000E+00
  0.859372000000E+01 -0.276731000000E+01  0.695288000000E+00
  0.919742000000E+01 -0.292907000000E+01  0.695288000000E+00
  0.980113000000E+01 -0.309084000000E+01  0.695288000000E+00
  0.486313041878E+01 -0.261677374671E+01  0.843550803421E+00
  0.545224242036E+01 -0.277622426450E+01  0.872822470800E+00
  0.604152516462E+01 -0.293674663504E+01  0.875972448466E+00
  0.663151725817E+01 -0.309493978020E+01  0.872760664096E+00
  0.722197086844E+01 -0.325293008416E+01  0.869668497379E+00
  0.781306735350E+01 -0.341095460459E+01  0.867759749947E+00
  0.840466359028E+01 -0.356937704941E+01  0.866703047389E+00
  0.899672968562E+01 -0.372733542600E+01  0.865787225854E+00
  0.958652000000E+01 -0.389178000000E+01  0.860798000000E+00
  0.468772356817E+01 -0.346368263181E+01  0.918819074977E+00
  0.527249356585E+01 -0.363110817433E+01  0.959919824573E+00
  0.585277445873E+01 -0.379005844212E+01  0.967066228348E+00
  0.643468583555E+01 -0.394665106643E+01  0.965146297264E+00
  0.701830181038E+01 -0.410257163705E+01  0.961699920821E+00
  0.760282402329E+01 -0.425859883822E+01  0.959223229508E+00
  0.818779314326E+01 -0.441472795080E+01  0.957447497276E+00
  0.877309915164E+01 -0.457135432878E+01  0.954632000386E+00
  0.936155000000E+01 -0.473135000000E+01  0.947812000000E+00
  0.445664036883E+01 -0.431306532700E+01  0.917783750309E+00
  0.503605042970E+01 -0.449037802537E+01  0.958299162668E+00
  0.561641606347E+01 -0.464895392038E+01  0.965943960946E+00
  0.619987776553E+01 -0.480518780442E+01  0.963625622868E+00
  0.678493371234E+01 -0.496124563085E+01  0.960545993231E+00
  0.737065248852E+01 -0.511749256249E+01  0.958415552173E+00
  0.795650146517E+01 -0.527402090492E+01  0.956917273948E+00
  0.854264337838E+01 -0.543023887578E+01  0.954329324250E+00
  0.913302000000E+01 -0.558424000000E+01  0.947812000000E+00
  0.417260058417E+01 -0.514591793424E+01  0.845811055417E+00
  0.475201721509E+01 -0.531887445363E+01  0.869109188030E+00
  0.534458168421E+01 -0.547740045080E+01  0.870359477012E+00
  0.593861942811E+01 -0.563652500680E+01  0.868548310058E+00
  0.653280843294E+01 -0.579521014406E+01  0.866965277224E+00
  0.712679395310E+01 -0.595401681316E+01  0.866097449237E+00
  0.772065018924E+01 -0.611269554011E+01  0.865662874138E+00
  0.831407269532E+01 -0.627190906723E+01  0.865194414094E+00
  0.890806000000E+01 -0.642382000000E+01  0.860798000000E+00
  0.386382000000E+01 -0.593067000000E+01  0.695288000000E+00
  0.446752000000E+01 -0.609243000000E+01  0.695288000000E+00
  0.507122000000E+01 -0.625419000000E+01  0.695288000000E+00
  0.567493000000E+01 -0.641595000000E+01  0.695288000000E+00
  0.627863000000E+01 -0.657771000000E+01  0.695288000000E+00
  0.688233000000E+01 -0.673948000000E+01  0.695288000000E+00
  0.748604000000E+01 -0.690124000000E+01  0.695288000000E+00
  0.808974000000E+01 -0.706300000000E+01  0.695288000000E+00
  0.869345000000E+01 -0.722476000000E+01  0.695288000000E+00
  0.493653000000E+01 -0.192725000000E+01  0.102148000000E+01
  0.554023000000E+01 -0.208901000000E+01  0.102148000000E+01
  0.614394000000E+01 -0.225077000000E+01  0.102148000000E+01
  0.674764000000E+01 -0.241254000000E+01  0.102148000000E+01
  0.735134000000E+01 -0.257430000000E+01  0.102148000000E+01
  0.795505000000E+01 -0.273606000000E+01  0.102148000000E+01
  0.855875000000E+01 -0.289782000000E+01  0.102148000000E+01
  0.916245000000E+01 -0.305958000000E+01  0.102148000000E+01
  0.976616000000E+01 -0.322134000000E+01  0.102148000000E+01
  0.480165439648E+01 -0.267584368115E+01  0.125994101835E+01
  0.538914153971E+01 -0.283255868105E+01  0.128065361306E+01
  0.598981753505E+01 -0.299630814208E+01  0.128299037104E+01
  0.658999518075E+01 -0.315690206115E+01  0.128048700233E+01
  0.718788515197E+01 -0.331643327595E+01  0.127805360581E+01
  0.778452259807E+01 -0.347569661095E+01  0.127652173252E+01
  0.838086155353E+01 -0.363508873465E+01  0.127572871764E+01
  0.897672081554E+01 -0.379408231143E+01  0.127517750000E+01
  0.956900000000E+01 -0.395716000000E+01  0.126974000000E+01
  0.462252536631E+01 -0.347798299508E+01  0.137766528020E+01
  0.520506796056E+01 -0.363625107577E+01  0.141269657689E+01
  0.579787314044E+01 -0.379705473786E+01  0.141806844697E+01
  0.639366087053E+01 -0.395759656632E+01  0.141609656446E+01
  0.698859742000E+01 -0.411647700190E+01  0.141327524428E+01
  0.758204073704E+01 -0.427490919331E+01  0.141136218384E+01
  0.817438451057E+01 -0.443294695141E+01  0.141012916210E+01
  0.876512598341E+01 -0.459105189038E+01  0.140783457877E+01
  0.935631000000E+01 -0.475093000000E+01  0.140026000000E+01
  0.440602382844E+01 -0.429185375034E+01  0.137407058717E+01
  0.498505018267E+01 -0.445537353986E+01  0.141175927130E+01
  0.557713540684E+01 -0.461459273895E+01  0.141718792980E+01
  0.617306833151E+01 -0.477440269652E+01  0.141487230371E+01
  0.676816565083E+01 -0.493366638329E+01  0.141229907412E+01
  0.736192415460E+01 -0.509246980330E+01  0.141065103663E+01
  0.795454114668E+01 -0.525117051499E+01  0.140963754837E+01
  0.854576893231E+01 -0.540897240770E+01  0.140754093563E+01
  0.913827000000E+01 -0.556467000000E+01  0.140026000000E+01
  0.415590659585E+01 -0.508021972868E+01  0.125713924073E+01
  0.473952928521E+01 -0.524280465776E+01  0.127806975281E+01
  0.533941435368E+01 -0.540238710760E+01  0.127842980823E+01
  0.593953915094E+01 -0.556330939249E+01  0.127694385099E+01
  0.653826849135E+01 -0.572377576974E+01  0.127567050283E+01
  0.713609939643E+01 -0.588394054245E+01  0.127497640256E+01
  0.773361707274E+01 -0.604396867707E+01  0.127470895250E+01
  0.833031639931E+01 -0.620408741824E+01  0.127456076728E+01
  0.892558000000E+01 -0.635843000000E+01  0.126974000000E+01
  0.389879000000E+01 -0.580016000000E+01  0.102148000000E+01
  0.450249000000E+01 -0.596192000000E+01  0.102148000000E+01
  0.510619000000E+01 -0.612368000000E+01  0.102148000000E+01
  0.570990000000E+01 -0.628544000000E+01  0.102148000000E+01
  0.631360000000E+01 -0.644720000000E+01  0.102148000000E+01
  0.691730000000E+01 -0.660897000000E+01  0.102148000000E+01
  0.752101000000E+01 -0.677073000000E+01  0.102148000000E+01
  0.812471000000E+01 -0.693249000000E+01  0.102148000000E+01
  0.872841000000E+01 -0.709425000000E+01  0.102148000000E+01
  0.488878000000E+01 -0.210544000000E+01  0.132252000000E+01
  0.549249000000E+01 -0.226720000000E+01  0.132252000000E+01
  0.609619000000E+01 -0.242896000000E+01  0.132252000000E+01
  0.669989000000E+01 -0.259073000000E+01  0.132252000000E+01
  0.730360000000E+01 -0.275249000000E+01  0.132252000000E+01
  0.790730000000E+01 -0.291425000000E+01  0.132252000000E+01
  0.851100000000E+01 -0.307601000000E+01  0.132252000000E+01
  0.911471000000E+01 -0.323777000000E+01  0.132252000000E+01
  0.971841000000E+01 -0.339954000000E+01  0.132252000000E+01
  0.474051731068E+01 -0.276327193826E+01  0.165460101915E+01
  0.533288671104E+01 -0.292118503507E+01  0.165921935204E+01
  0.593896381961E+01 -0.308555439793E+01  0.166059809520E+01
  0.654368439640E+01 -0.324697623746E+01  0.165945833403E+01
  0.714595028008E+01 -0.340771226388E+01  0.165842064662E+01
  0.774684035353E+01 -0.356823183690E+01  0.165773204551E+01
  0.834732935737E+01 -0.372904261568E+01  0.165729663320E+01
  0.894854306164E+01 -0.388933340194E+01  0.165745268252E+01
  0.954381000000E+01 -0.405116000000E+01  0.165354000000E+01
  0.455860192636E+01 -0.350186374556E+01  0.182090701648E+01
  0.514550674565E+01 -0.365229486888E+01  0.183547020687E+01
  0.574921649280E+01 -0.381652178551E+01  0.183700262676E+01
  0.635422566098E+01 -0.397861507574E+01  0.183613367951E+01
  0.695662161289E+01 -0.413955987548E+01  0.183498328460E+01
  0.755690715377E+01 -0.429999628966E+01  0.183426616017E+01
  0.815620220586E+01 -0.446013039300E+01  0.183372962767E+01
  0.875426600679E+01 -0.462011704960E+01  0.183327323623E+01
  0.934851000000E+01 -0.478004000000E+01  0.182756000000E+01
  0.435845274372E+01 -0.425967985187E+01  0.181638326783E+01
  0.494359673356E+01 -0.441051535090E+01  0.183562972640E+01
  0.554674088636E+01 -0.457284331167E+01  0.183656150937E+01
  0.615136527918E+01 -0.473509582512E+01  0.183557150175E+01
  0.675344985996E+01 -0.489654840264E+01  0.183449617066E+01
  0.735368745332E+01 -0.505725477665E+01  0.183389153224E+01
  0.795297202681E+01 -0.521780117813E+01  0.183345285902E+01
  0.855115437492E+01 -0.537789011512E+01  0.183309771838E+01
  0.914607000000E+01 -0.553555000000E+01  0.182756000000E+01
  0.414784569152E+01 -0.498375606830E+01  0.164765567373E+01
  0.473969027680E+01 -0.513833833106E+01  0.165893790382E+01
  0.534463532602E+01 -0.529994441286E+01  0.165829091589E+01
  0.594805747067E+01 -0.546207619195E+01  0.165770155015E+01
  0.655010480217E+01 -0.562362227039E+01  0.165710477348E+01
  0.715130518330E+01 -0.578481200369E+01  0.165682350961E+01
  0.775240274589E+01 -0.594565809836E+01  0.165665939715E+01
  0.835380475743E+01 -0.610734599115E+01  0.165702792756E+01
  0.895076000000E+01 -0.626444000000E+01  0.165354000000E+01
  0.394653000000E+01 -0.562197000000E+01  0.132252000000E+01
  0.455024000000E+01 -0.578373000000E+01  0.132252000000E+01
  0.515394000000E+01 -0.594549000000E+01  0.132252000000E+01
  0.575764000000E+01 -0.610725000000E+01  0.132252000000E+01
  0.636135000000E+01 -0.626901000000E+01  0.132252000000E+01
  0.696505000000E+01 -0.643078000000E+01  0.132252000000E+01
  0.756875000000E+01 -0.659254000000E+01  0.132252000000E+01
  0.817246000000E+01 -0.675430000000E+01  0.132252000000E+01
  0.877616000000E+01 -0.691606000000E+01  0.132252000000E+01
  0.482944000000E+01 -0.232692000000E+01  0.159099000000E+01
  0.543314000000E+01 -0.248869000000E+01  0.159099000000E+01
  0.603684000000E+01 -0.265045000000E+01  0.159099000000E+01
  0.664055000000E+01 -0.281221000000E+01  0.159099000000E+01
  0.724425000000E+01 -0.297397000000E+01  0.159099000000E+01
  0.784795000000E+01 -0.313573000000E+01  0.159099000000E+01
  0.845166000000E+01 -0.329750000000E+01  0.159099000000E+01
  0.905536000000E+01 -0.345926000000E+01  0.159099000000E+01
  0.965906000000E+01 -0.362102000000E+01  0.159099000000E+01
  0.468204000000E+01 -0.287703000000E+01  0.200476000000E+01
  0.528574000000E+01 -0.303879000000E+01  0.200476000000E+01
  0.588944000000E+01 -0.320055000000E+01  0.200476000000E+01
  0.649315000000E+01 -0.336232000000E+01  0.200476000000E+01
  0.709685000000E+01 -0.352408000000E+01  0.200476000000E+01
  0.770055000000E+01 -0.368584000000E+01  0.200476000000E+01
  0.830426000000E+01 -0.384760000000E+01  0.200476000000E+01
  0.890796000000E+01 -0.400936000000E+01  0.200476000000E+01
  0.951166000000E+01 -0.417113000000E+01  0.200476000000E+01
  0.450876000000E+01 -0.352372000000E+01  0.222230000000E+01
  0.511246000000E+01 -0.368548000000E+01  0.222230000000E+01
  0.571616000000E+01 -0.384724000000E+01  0.222230000000E+01
  0.631987000000E+01 -0.400900000000E+01  0.222230000000E+01
  0.692357000000E+01 -0.417077000000E+01  0.222230000000E+01
  0.752727000000E+01 -0.433253000000E+01  0.222230000000E+01
  0.813098000000E+01 -0.449429000000E+01  0.222230000000E+01
  0.873468000000E+01 -0.465605000000E+01  0.222230000000E+01
  0.933838000000E+01 -0.481781000000E+01  0.222230000000E+01
  0.432656000000E+01 -0.420369000000E+01  0.222230000000E+01
  0.493026000000E+01 -0.436545000000E+01  0.222230000000E+01
  0.553397000000E+01 -0.452721000000E+01  0.222230000000E+01
  0.613767000000E+01 -0.468897000000E+01  0.222230000000E+01
  0.674137000000E+01 -0.485074000000E+01  0.222230000000E+01
  0.734508000000E+01 -0.501250000000E+01  0.222230000000E+01
  0.794878000000E+01 -0.517426000000E+01  0.222230000000E+01
  0.855248000000E+01 -0.533602000000E+01  0.222230000000E+01
  0.915619000000E+01 -0.549778000000E+01  0.222230000000E+01
  0.415328000000E+01 -0.485038000000E+01  0.200476000000E+01
  0.475698000000E+01 -0.501214000000E+01  0.200476000000E+01
  0.536069000000E+01 -0.517390000000E+01  0.200476000000E+01
  0.596439000000E+01 -0.533566000000E+01  0.200476000000E+01
  0.656809000000E+01 -0.549742000000E+01  0.200476000000E+01
  0.717180000000E+01 -0.565919000000E+01  0.200476000000E+01
  0.777550000000E+01 -0.582095000000E+01  0.200476000000E+01
  0.837920000000E+01 -0.598271000000E+01  0.200476000000E+01
  0.898291000000E+01 -0.614447000000E+01  0.200476000000E+01
  0.400588000000E+01 -0.540048000000E+01  0.159099000000E+01
  0.460958000000E+01 -0.556224000000E+01  0.159099000000E+01
  0.521329000000E+01 -0.572401000000E+01  0.159099000000E+01
  0.581699000000E+01 -0.588577000000E+01  0.159099000000E+01
  0.642069000000E+01 -0.604753000000E+01  0.159099000000E+01
  0.702440000000E+01 -0.620929000000E+01  0.159099000000E+01
  0.762810000000E+01 -0.637105000000E+01  0.159099000000E+01
  0.823180000000E+01 -0.653282000000E+01  0.159099000000E+01
  0.883551000000E+01 -0.669458000000E+01  0.159099000000E+01
 -0.894323666358E+01 -0.438032372904E+01  0.000000000000E+00
 -0.785691724625E+01 -0.666976584485E+01  0.000000000000E+00
 -0.642312399145E+01 -0.818783893943E+01  0.000000000000E+00
 -0.499279157658E+01 -0.913004537924E+01  0.000000000000E+00
 -0.356377639796E+01 -0.971370469416E+01  0.000000000000E+00
 -0.213389656312E+01 -0.100127777581E+02  0.000000000000E+00
 -0.707484540959E+00 -0.100607943431E+02  0.000000000000E+00
  0.726311081876E+00 -0.983046479885E+01  0.000000000000E+00
  0.165242189183E+01 -0.935703659721E+01  0.000000000000E+00
  0.264934000000E+01 -0.852255000000E+01  0.000000000000E+00
 -0.894287192008E+01 -0.432716859797E+01  0.768932062017E+00
 -0.785613494113E+01 -0.658797089180E+01  0.118088544802E+01
 -0.642219729315E+01 -0.808779716635E+01  0.145329508493E+01
 -0.499141479875E+01 -0.901813232661E+01  0.162449918158E+01
 -0.356171369464E+01 -0.959420991560E+01  0.173096664380E+01
 -0.213116811542E+01 -0.988937977893E+01  0.178795513376E+01
 -0.703550485405E+00 -0.993657093376E+01  0.180257896178E+01
  0.731687195433E+00 -0.970917823246E+01  0.177595828905E+01
  0.166286089628E+01 -0.925100455330E+01  0.162616942632E+01
  0.265940000000E+01 -0.845929000000E+01  0.109255008268E+01
 -0.894229500165E+01 -0.416971337158E+01  0.151792014313E+01
 -0.785472819441E+01 -0.634604096275E+01  0.233079827499E+01
 -0.641973916086E+01 -0.779054759176E+01  0.287128798247E+01
 -0.498732456360E+01 -0.868533570541E+01  0.320775648678E+01
 -0.355566591789E+01 -0.923878976135E+01  0.341767946480E+01
 -0.212292625755E+01 -0.952233985240E+01  0.352958486957E+01
 -0.691527954241E+00 -0.956660416145E+01  0.355708666651E+01
  0.749271585906E+00 -0.934804290299E+01  0.350364281456E+01
  0.169929546868E+01 -0.893809660888E+01  0.320175743988E+01
  0.268944000000E+01 -0.827083000000E+01  0.214321771574E+01
 -0.894196729473E+01 -0.391196763777E+01  0.223058647144E+01
 -0.785301844994E+01 -0.595027834401E+01  0.342408753060E+01
 -0.641588181580E+01 -0.730337774854E+01  0.421766956524E+01
 -0.498088998614E+01 -0.814018794855E+01  0.471043971039E+01
 -0.354609989220E+01 -0.865676787426E+01  0.501720574949E+01
 -0.210935362069E+01 -0.892092185587E+01  0.517968571846E+01
 -0.670869986029E+00 -0.895999294660E+01  0.521803708462E+01
  0.780037609390E+00 -0.875669285129E+01  0.513146291862E+01
  0.175851769700E+01 -0.842697072035E+01  0.467358859676E+01
  0.273896000000E+01 -0.796106000000E+01  0.312339700888E+01
 -0.894124081928E+01 -0.355986613022E+01  0.288857142135E+01
 -0.785126092131E+01 -0.541012328834E+01  0.443332881412E+01
 -0.641128541393E+01 -0.663851411594E+01  0.545888695636E+01
 -0.497257274382E+01 -0.739653316598E+01  0.609519026684E+01
 -0.353409173536E+01 -0.786305502873E+01  0.648993476151E+01
 -0.209168020407E+01 -0.810111519295E+01  0.669599319652E+01
 -0.645490654294E+00 -0.813321450713E+01  0.674126678234E+01
  0.813331835270E+00 -0.795008069909E+01  0.661386473250E+01
  0.182946206591E+01 -0.773099472098E+01  0.600298348007E+01
  0.280715000000E+01 -0.753640000000E+01  0.400688607321E+01
 -0.894064133070E+01 -0.312307139925E+01  0.347492497025E+01
 -0.785011723450E+01 -0.474070151663E+01  0.533216543302E+01
 -0.640618035026E+01 -0.581218421431E+01  0.656495650720E+01
 -0.496397168589E+01 -0.647337044412E+01  0.732841122352E+01
 -0.352040654831E+01 -0.687821749087E+01  0.779977551789E+01
 -0.207333895817E+01 -0.708419651091E+01  0.804335137869E+01
 -0.619958053488E+00 -0.710909516969E+01  0.808772338833E+01
  0.842102978525E+00 -0.694811249390E+01  0.791779970647E+01
  0.190501348496E+01 -0.687352478104E+01  0.716089268320E+01
  0.289295000000E+01 -0.700555000000E+01  0.477621045295E+01
 -0.894210427649E+01 -0.261297580384E+01  0.397638944460E+01
 -0.784840405932E+01 -0.395619043126E+01  0.609983803652E+01
 -0.640214784662E+01 -0.484579956673E+01  0.750897965625E+01
 -0.495551527108E+01 -0.539347870343E+01  0.838045155698E+01
 -0.350827422640E+01 -0.572779900164E+01  0.891697685272E+01
 -0.205552250113E+01 -0.589620848824E+01  0.919087059488E+01
 -0.596408777207E+00 -0.591302718677E+01  0.922563492080E+01
  0.871718195960E+00 -0.577916641747E+01  0.901654110643E+01
  0.198531778939E+01 -0.583693947052E+01  0.815894569696E+01
  0.303424000000E+01 -0.614055000000E+01  0.562204780923E+01
 -0.894411151926E+01 -0.203912221493E+01  0.438141221684E+01
 -0.784859677803E+01 -0.307683255917E+01  0.671843795963E+01
 -0.639915742836E+01 -0.376233296450E+01  0.826846456112E+01
 -0.495011937849E+01 -0.418450461581E+01  0.922677856430E+01
 -0.349796567520E+01 -0.443985858296E+01  0.981554387118E+01
 -0.204288089876E+01 -0.456752335787E+01  0.101121877466E+02
 -0.575735301353E+00 -0.457593981600E+01  0.101330637803E+02
  0.893889237975E+00 -0.447073408316E+01  0.989346880160E+01
  0.206549322224E+01 -0.468025788599E+01  0.894339047914E+01
  0.320142000000E+01 -0.513372000000E+01  0.623000591951E+01
 -0.894599412257E+01 -0.141855308637E+01  0.467688669550E+01
 -0.785006678850E+01 -0.212311926598E+01  0.717216892620E+01
 -0.639937219610E+01 -0.258990662134E+01  0.882551812527E+01
 -0.494743060796E+01 -0.287465726625E+01  0.984757938132E+01
 -0.349387596177E+01 -0.304722016501E+01  0.104746796388E+02
 -0.203437966892E+01 -0.312992177964E+01  0.107861799451E+02
 -0.566397075032E+00 -0.313248858090E+01  0.108005463568E+02
  0.907751241071E+00 -0.305615929316E+01  0.105323762017E+02
  0.213522728372E+01 -0.343232641871E+01  0.951084218889E+01
  0.339046000000E+01 -0.402099000000E+01  0.659563917683E+01
 -0.894811739931E+01 -0.763909653981E+00  0.485738004182E+01
 -0.785343157385E+01 -0.112135888270E+01  0.744914077909E+01
 -0.640239495922E+01 -0.135496495432E+01  0.916704508526E+01
 -0.495035644835E+01 -0.149816875158E+01  0.102287414839E+02
 -0.349475228259E+01 -0.158124607327E+01  0.108782552358E+02
 -0.203590179213E+01 -0.162088738411E+01  0.111999039586E+02
 -0.563478824745E+00 -0.161418344728E+01  0.112087624384E+02
  0.896050164880E+00 -0.157089450067E+01  0.109336539845E+02
  0.219030000792E+01 -0.212189976475E+01  0.984314944842E+01
  0.359729000000E+01 -0.284101000000E+01  0.672101737395E+01
 -0.895120255228E+01 -0.947678923898E-01  0.491824076098E+01
 -0.785860463354E+01 -0.924869938874E-01  0.754381862589E+01
 -0.640934081896E+01 -0.905593415376E-01  0.928471275235E+01
 -0.495826186349E+01 -0.854573287746E-01  0.103606209555E+02
 -0.350346388492E+01 -0.809247949100E-01  0.110181505060E+02
 -0.204470659248E+01 -0.718970311290E-01  0.113428223924E+02
 -0.574890116132E+00 -0.627977998221E-01  0.113499957553E+02
  0.890141252425E+00 -0.441700259867E-01  0.110705515562E+02
  0.221819005083E+01 -0.778265773194E+00  0.994134167544E+01
  0.381812000000E+01 -0.163350000000E+01  0.657399997094E+01
 -0.895506477913E+01  0.576243821039E+00  0.485831725903E+01
 -0.786572542882E+01  0.934463375861E+00  0.745361146201E+01
 -0.642010965213E+01  0.117572462544E+01  0.917575584142E+01
 -0.497146889868E+01  0.132582021293E+01  0.102398328943E+02
 -0.351970680493E+01  0.142196217853E+01  0.108908907197E+02
 -0.206222553496E+01  0.147398442951E+01  0.112125869743E+02
 -0.595424116878E+00  0.149330747486E+01  0.112185455160E+02
  0.866637949784E+00  0.147324924961E+01  0.109404627251E+02
  0.211108307989E+01  0.854351786333E+00  0.100198314870E+02
  0.346924000000E+01  0.119503000000E+00  0.746507497916E+01
 -0.895921071898E+01  0.122898743880E+01  0.467899233750E+01
 -0.787479044181E+01  0.193790394751E+01  0.718048670736E+01
 -0.643365092054E+01  0.240994467674E+01  0.884231626223E+01
 -0.499059479708E+01  0.270477075097E+01  0.986948300556E+01
 -0.354156633690E+01  0.288688109522E+01  0.104984730318E+02
 -0.209064955883E+01  0.298597768294E+01  0.108126334911E+02
 -0.625864991012E+00  0.300743446063E+01  0.108166849321E+02
  0.830408582316E+00  0.296128767786E+01  0.105515122052E+02
  0.197553090665E+01  0.245399634337E+01  0.976761190322E+01
  0.311159000000E+01  0.194949000000E+01  0.771341930336E+01
 -0.896354262198E+01  0.185037798495E+01  0.438378173820E+01
 -0.788428516504E+01  0.289014239967E+01  0.673073208194E+01
 -0.645049355918E+01  0.358446042558E+01  0.829242659947E+01
 -0.501258258370E+01  0.401513387038E+01  0.925734017270E+01
 -0.357180980198E+01  0.428181622207E+01  0.985049089825E+01
 -0.212501350100E+01  0.442310715948E+01  0.101487102664E+02
 -0.670309889521E+00  0.445034283542E+01  0.101646036267E+02
  0.785251788703E+00  0.437545124862E+01  0.991699221874E+01
  0.181880142952E+01  0.398475086540E+01  0.921844775594E+01
  0.276762000000E+01  0.373421000000E+01  0.745651107549E+01
 -0.896684889658E+01  0.242255361145E+01  0.398004496826E+01
 -0.789505917859E+01  0.376923814182E+01  0.611557560570E+01
 -0.646804875001E+01  0.466853746511E+01  0.753867825557E+01
 -0.503867167300E+01  0.522614721226E+01  0.841866954335E+01
 -0.360412133560E+01  0.557060161457E+01  0.896055003065E+01
 -0.216521948305E+01  0.575220520581E+01  0.924315218447E+01
 -0.714512159366E+00  0.578496699420E+01  0.927059509086E+01
  0.736301646473E+00  0.568091670525E+01  0.905772395067E+01
  0.166896044839E+01  0.540168142699E+01  0.839069151341E+01
  0.245735000000E+01  0.536055000000E+01  0.673345973521E+01
 -0.897051371296E+01  0.293192233255E+01  0.347728177136E+01
 -0.790412753935E+01  0.455141908648E+01  0.534967479711E+01
 -0.648410872349E+01  0.563337647369E+01  0.659914442242E+01
 -0.506120533243E+01  0.630414946427E+01  0.736995969621E+01
 -0.363448011625E+01  0.671921791589E+01  0.784717918736E+01
 -0.220291386948E+01  0.693652264734E+01  0.809557537822E+01
 -0.763174610976E+00  0.697454462973E+01  0.813588939727E+01
  0.684209316166E+00  0.684090035324E+01  0.795121189592E+01
  0.151378021578E+01  0.664937003100E+01  0.725974943134E+01
  0.219858000000E+01  0.672672000000E+01  0.552846763027E+01
 -0.897473636920E+01  0.336712298686E+01  0.289111345275E+01
 -0.790870386251E+01  0.522212197932E+01  0.444653475513E+01
 -0.649404648578E+01  0.646349342187E+01  0.548422779641E+01
 -0.507539935936E+01  0.723043570471E+01  0.612696018615E+01
 -0.365381769355E+01  0.770657523162E+01  0.652624916500E+01
 -0.222711111854E+01  0.795446902807E+01  0.673359218254E+01
 -0.794367214012E+00  0.799990190298E+01  0.677332557379E+01
  0.649892410152E+00  0.783587213715E+01  0.663230103852E+01
  0.141382336936E+01  0.754367476301E+01  0.608680718589E+01
  0.208004000000E+01  0.735507000000E+01  0.462482436813E+01
 -0.897900789844E+01  0.371951062374E+01  0.223237429778E+01
 -0.791452284068E+01  0.576399871615E+01  0.343401092949E+01
 -0.650316789681E+01  0.713091145076E+01  0.423793173055E+01
 -0.508850073664E+01  0.797707633905E+01  0.473566658120E+01
 -0.367156078717E+01  0.850340372344E+01  0.504605076267E+01
 -0.225145615336E+01  0.877906141758E+01  0.520981854335E+01
 -0.826938727821E+00  0.883134451378E+01  0.524263478684E+01
  0.609372174596E+00  0.864577302806E+01  0.515417441837E+01
  0.131709069805E+01  0.828856608507E+01  0.474188292061E+01
  0.198540000000E+01  0.785780000000E+01  0.359220401488E+01
 -0.898162538402E+01  0.397708988973E+01  0.151916726446E+01
 -0.791925878333E+01  0.616047188717E+01  0.233808631180E+01
 -0.651019320567E+01  0.761991529066E+01  0.288547227613E+01
 -0.509853902439E+01  0.852414398934E+01  0.322527714333E+01
 -0.368528845077E+01  0.908747426773E+01  0.343752817845E+01
 -0.227089151818E+01  0.938435547280E+01  0.355067136422E+01
 -0.855969639566E+00  0.944168379207E+01  0.357533234415E+01
  0.569709048838E+00  0.924272502847E+01  0.352306725453E+01
  0.124207724451E+01  0.883541593948E+01  0.324739529350E+01
  0.191647000000E+01  0.822453000000E+01  0.245572434066E+01
 -0.898362732717E+01  0.413434506604E+01  0.769605047938E+00
 -0.792210299875E+01  0.640244064453E+01  0.118471633520E+01
 -0.651471831477E+01  0.791834727789E+01  0.146087620871E+01
 -0.510488106374E+01  0.885821866278E+01  0.163332721065E+01
 -0.369396467102E+01  0.944440997288E+01  0.174126523103E+01
 -0.228251624719E+01  0.975404961872E+01  0.179869093992E+01
 -0.872465966790E+00  0.981513663550E+01  0.181198142937E+01
  0.547245045419E+00  0.960980079232E+01  0.178716559565E+01
  0.120110281772E+01  0.917287949646E+01  0.164846534637E+01
  0.187456000000E+01  0.844766000000E+01  0.124734101211E+01
 -0.898455146658E+01  0.418750188740E+01  0.000000000000E+00
 -0.792299179579E+01  0.648385599745E+01  0.000000000000E+00
 -0.651632492220E+01  0.801864263241E+01  0.000000000000E+00
 -0.510696791508E+01  0.897051457178E+01  0.000000000000E+00
 -0.369703720356E+01  0.956455622475E+01  0.000000000000E+00
 -0.228614052806E+01  0.987822103196E+01  0.000000000000E+00
 -0.878176313206E+00  0.994072515102E+01  0.000000000000E+00
  0.541811434130E+00  0.973422291170E+01  0.000000000000E+00
  0.118983621831E+01  0.928766120935E+01  0.000000000000E+00
  0.186051000000E+01  0.852255000000E+01  0.000000000000E+00
 -0.921666010061E+01 -0.223534327512E+01  0.000000000000E+00
 -0.924618314984E+01 -0.180734032277E+01  0.000000000000E+00
 -0.926929292418E+01 -0.137989740722E+01  0.000000000000E+00
 -0.928598431571E+01 -0.951850474128E+00  0.000000000000E+00
 -0.929681825828E+01 -0.523869301283E+00  0.000000000000E+00
 -0.930178854480E+01 -0.958339717427E-01  0.000000000000E+00
 -0.930070714257E+01  0.332170133011E+00  0.000000000000E+00
 -0.929340899725E+01  0.760013108057E+00  0.000000000000E+00
 -0.927971921728E+01  0.118799623006E+01  0.000000000000E+00
 -0.925926669031E+01  0.161534333141E+01  0.000000000000E+00
 -0.923265131710E+01  0.204333202045E+01  0.000000000000E+00
 -0.921653471489E+01 -0.220904153213E+01  0.381559331688E+00
 -0.924463895730E+01 -0.179598837518E+01  0.423217279622E+00
 -0.926675167771E+01 -0.137671976025E+01  0.455383386127E+00
 -0.928321184969E+01 -0.952555667964E+00  0.477268866283E+00
 -0.929393793643E+01 -0.524845498115E+00  0.487680755591E+00
 -0.929893698000E+01 -0.957577873897E-01  0.486423944422E+00
 -0.929779574916E+01  0.333237484044E+00  0.487240718153E+00
 -0.929061313888E+01  0.760839391243E+00  0.476310022408E+00
 -0.927713022324E+01  0.118490147546E+01  0.454006750679E+00
 -0.925768587484E+01  0.160412839094E+01  0.421836614718E+00
 -0.923240275886E+01  0.201715393502E+01  0.380660366995E+00
 -0.921650224778E+01 -0.213080492153E+01  0.755971901280E+00
 -0.924078562904E+01 -0.174293810709E+01  0.842970721134E+00
 -0.926046473619E+01 -0.134242107138E+01  0.910315794491E+00
 -0.927538009111E+01 -0.931962577798E+00  0.956361218434E+00
 -0.928540260362E+01 -0.515453841394E+00  0.979830425131E+00
 -0.929020038664E+01 -0.955940055957E-01  0.978587108576E+00
 -0.928912892905E+01  0.324233186375E+00  0.979312239590E+00
 -0.928253765008E+01  0.740608132746E+00  0.955254153556E+00
 -0.927055018670E+01  0.115102124017E+01  0.908729153986E+00
 -0.925348672056E+01  0.155148086459E+01  0.841342252213E+00
 -0.923190917704E+01  0.193924959053E+01  0.754682512224E+00
 -0.921662945593E+01 -0.200232750821E+01  0.111225932357E+01
 -0.923483209151E+01 -0.164935921013E+01  0.124773662709E+01
 -0.925013335699E+01 -0.127735153628E+01  0.135425439460E+01
 -0.926257590849E+01 -0.891586531788E+00  0.142917079925E+01
 -0.927101587679E+01 -0.496076110751E+00  0.146845862624E+01
 -0.927549865301E+01 -0.953689996977E-01  0.147185851611E+01
 -0.927456474752E+01  0.305347434354E+00  0.146785022407E+01
 -0.926944210370E+01  0.700849019752E+00  0.142795386058E+01
 -0.925977720808E+01  0.108663105545E+01  0.135243152863E+01
 -0.924690318501E+01  0.145863827346E+01  0.124575123480E+01
 -0.923119262605E+01  0.181133046518E+01  0.111076269892E+01
 -0.921664026928E+01 -0.182640514939E+01  0.144094549882E+01
 -0.922692697590E+01 -0.151757734895E+01  0.163077098222E+01
 -0.923681312465E+01 -0.118467197751E+01  0.178249453732E+01
 -0.924489831277E+01 -0.832711002931E+00  0.189041254264E+01
 -0.925088771240E+01 -0.467330333413E+00  0.195179406337E+01
 -0.925427552917E+01 -0.951510519053E-01  0.196496766985E+01
 -0.925421830950E+01  0.276942769099E+00  0.195119233138E+01
 -0.925135668360E+01  0.642419109324E+00  0.188918309629E+01
 -0.924601122341E+01  0.994510314968E+00  0.178065435176E+01
 -0.923831657818E+01  0.132755394621E+01  0.162852694060E+01
 -0.923008619099E+01  0.163621114148E+01  0.143897606284E+01
 -0.921687489705E+01 -0.160762492187E+01  0.173440062550E+01
 -0.921844444038E+01 -0.135260797354E+01  0.198613226726E+01
 -0.922046779850E+01 -0.106673006972E+01  0.218888695340E+01
 -0.922254945185E+01 -0.756814548406E+00  0.233711381549E+01
 -0.922450183407E+01 -0.429886886348E+00  0.242782894724E+01
 -0.922617741523E+01 -0.952609741791E-01  0.245809876640E+01
 -0.922751745528E+01  0.240124152341E+00  0.242726735531E+01
 -0.922835184645E+01  0.566482229843E+00  0.233638785883E+01
 -0.922888576728E+01  0.876737026279E+00  0.218743694379E+01
 -0.922900816884E+01  0.116274479125E+01  0.198422519736E+01
 -0.922905952664E+01  0.141781347410E+01  0.173227762121E+01
CELLS       1130     10170
8      0      9     10      1     99    108    109    100
8     99    108    109    100    198    207    208    199
8    198    207    208    199    297    306    307    298
8    297    306    307    298    396    405    406    397
8    396    405    406    397    495    504    505    496
8      9     18     19     10    108    117    118    109
8    108    117    118    109    207    216    217    208
8    207    216    217    208    306    315    316    307
8    306    315    316    307    405    414    415    406
8    405    414    415    406    504    513    514    505
8     18     27     28     19    117    126    127    118
8    117    126    127    118    216    225    226    217
8    216    225    226    217    315    324    325    316
8    315    324    325    316    414    423    424    415
8    414    423    424    415    513    522    523    514
8     27     36     37     28    126    135    136    127
8    126    135    136    127    225    234    235    226
8    225    234    235    226    324    333    334    325
8    324    333    334    325    423    432    433    424
8    423    432    433    424    522    531    532    523
8     36     45     46     37    135    144    145    136
8    135    144    145    136    234    243    244    235
8    234    243    244    235    333    342    343    334
8    333    342    343    334    432    441    442    433
8    432    441    442    433    531    540    541    532
8     45     54     55     46    144    153    154    145
8    144    153    154    145    243    252    253    244
8    243    252    253    244    342    351    352    343
8    342    351    352    343    441    450    451    442
8    441    450    451    442    540    549    550    541
8     54     63     64     55    153    162    163    154
8    153    162    163    154    252    261    262    253
8    252    261    262    253    351    360    361    352
8    351    360    361    352    450    459    460    451
8    450    459    460    451    549    558    559    550
8     63     72     73     64    162    171    172    163
8    162    171    172    163    261    270    271    262
8    261    270    271    262    360    369    370    361
8    360    369    370    361    459    468    469    460
8    459    468    469    460    558    567    568    559
8     72     81     82     73    171    180    181    172
8    171    180    181    172    270    279    280    271
8    270    279    280    271    369    378    379    370
8    369    378    379    370    468    477    478    469
8    468    477    478    469    567    576    577    568
8     81     90     91     82    180    189    190    181
8    180    189    190    181    279    288    289    280
8    279    288    289    280    378    387    388    379
8    378    387    388    379    477    486    487    478
8    477    486    487    478    576    585    586    577
8      1     10     11      2    100    109    110    101
8    100    109    110    101    199    208    209    200
8    199    208    209    200    298    307    308    299
8    298    307    308    299    397    406    407    398
8    397    406    407    398    496    505    506    497
8     10     19     20     11    109    118    119    110
8    109    118    119    110    208    217    218    209
8    208    217    218    209    307    316    317    308
8    307    316    317    308    406    415    416    407
8    406    415    416    407    505    514    515    506
8     19     28     29     20    118    127    128    119
8    118    127    128    119    217    226    227    218
8    217    226    227    218    316    325    326    317
8    316    325    326    317    415    424    425    416
8    415    424    425    416    514    523    524    515
8     28     37     38     29    127    136    137    128
8    127    136    137    128    226    235    236    227
8    226    235    236    227    325    334    335    326
8    325    334    335    326    424    433    434    425
8    424    433    434    425    523    532    533    524
8     37     46     47     38    136    145    146    137
8    136    145    146    137    235    244    245    236
8    235    244    245    236    334    343    344    335
8    334    343    344    335    433    442    443    434
8    433    442    443    434    532    541    542    533
8     46     55     56     47    145    154    155    146
8    145    154    155    146    244    253    254    245
8    244    253    254    245    343    352    353    344
8    343    352    353    344    442    451    452    443
8    442    451    452    443    541    550    551    542
8     55     64     65     56    154    163    164    155
8    154    163    164    155    253    262    263    254
8    253    262    263    254    352    361    362    353
8    352    361    362    353    451    460    461    452
8    451    460    461    452    550    559    560    551
8     64     73     74     65    163    172    173    164
8    163    172    173    164    262    271    272    263
8    262    271    272    263    361    370    371    362
8    361    370    371    362    460    469    470    461
8    460    469    470    461    559    568    569    560
8     73     82     83     74    172    181    182    173
8    172    181    182    173    271    280    281    272
8    271    280    281    272    370    379    380    371
8    370    379    380    371    469    478    479    470
8    469    478    479    470    568    577    578    569
8     82     91     92     83    181    190    191    182
8    181    190    191    182    280    289    290    281
8    280    289    290    281    379    388    389    380
8    379    388    389    380    478    487    488    479
8    478    487    488    479    577    586    587    578
8      2     11     12      3    101    110    111    102
8    101    110    111    102    200    209    210    201
8    200    209    210    201    299    308    309    300
8    299    308    309    300    398    407    408    399
8    398    407    408    399    497    506    507    498
8     11     20     21     12    110    119    120    111
8    110    119    120    111    209    218    219    210
8    209    218    219    210    308    317    318    309
8    308    317    318    309    407    416    417    408
8    407    416    417    408    506    515    516    507
8     20     29     30     21    119    128    129    120
8    119    128    129    120    218    227    228    219
8    218    227    228    219    317    326    327    318
8    317    326    327    318    416    425    426    417
8    416    425    426    417    515    524    525    516
8     29     38     39     30    128    137    138    129
8    128    137    138    129    227    236    237    228
8    227    236    237    228    326    335    336    327
8    326    335    336    327    425    434    435    426
8    425    434    435    426    524    533    534    525
8     38     47     48     39    137    146    147    138
8    137    146    147    138    236    245    246    237
8    236    245    246    237    335    344    345    336
8    335    344    345    336    434    443    444    435
8    434    443    444    435    533    542    543    534
8     47     56     57     48    146    155    156    147
8    146    155    156    147    245    254    255    246
8    245    254    255    246    344    353    354    345
8    344    353    354    345    443    452    453    444
8    443    452    453    444    542    551    552    543
8     56     65     66     57    155    164    165    156
8    155    164    165    156    254    263    264    255
8    254    263    264    255    353    362    363    354
8    353    362    363    354    452    461    462    453
8    452    461    462    453    551    560    561    552
8     65     74     75     66    164    173    174    165
8    164    173    174    165    263    272    273    264
8    263    272    273    264    362    371    372    363
8    362    371    372    363    461    470    471    462
8    461    470    471    462    560    569    570    561
8     74     83     84     75    173    182    183    174
8    173    182    183    174    272    281    282    273
8    272    281    282    273    371    380    381    372
8    371    380    381    372    470    479    480    471
8    470    479    480    471    569    578    579    570
8     83     92     93     84    182    191    192    183
8    182    191    192    183    281    290    291    282
8    281    290    291    282    380    389    390    381
8    380    389    390    381    479    488    489    480
8    479    488    489    480    578    587    588    579
8      3     12     13      4    102    111    112    103
8    102    111    112    103    201    210    211    202
8    201    210    211    202    300    309    310    301
8    300    309    310    301    399    408    409    400
8    399    408    409    400    498    507    508    499
8     12     21     22     13    111    120    121    112
8    111    120    121    112    210    219    220    211
8    210    219    220    211    309    318    319    310
8    309    318    319    310    408    417    418    409
8    408    417    418    409    507    516    517    508
8     21     30     31     22    120    129    130    121
8    120    129    130    121    219    228    229    220
8    219    228    229    220    318    327    328    319
8    318    327    328    319    417    426    427    418
8    417    426    427    418    516    525    526    517
8     30     39     40     31    129    138    139    130
8    129    138    139    130    228    237    238    229
8    228    237    238    229    327    336    337    328
8    327    336    337    328    426    435    436    427
8    426    435    436    427    525    534    535    526
8     39     48     49     40    138    147    148    139
8    138    147    148    139    237    246    247    238
8    237    246    247    238    336    345    346    337
8    336    345    346    337    435    444    445    436
8    435    444    445    436    534    543    544    535
8     48     57     58     49    147    156    157    148
8    147    156    157    148    246    255    256    247
8    246    255    256    247    345    354    355    346
8    345    354    355    346    444    453    454    445
8    444    453    454    445    543    552    553    544
8     57     66     67     58    156    165    166    157
8    156    165    166    157    255    264    265    256
8    255    264    265    256    354    363    364    355
8    354    363    364    355    453    462    463    454
8    453    462    463    454    552    561    562    553
8     66     75     76     67    165    174    175    166
8    165    174    175    166    264    273    274    265
8    264    273    274    265    363    372    373    364
8    363    372    373    364    462    471    472    463
8    462    471    472    463    561    570    571    562
8     75     84     85     76    174    183    184    175
8    174    183    184    175    273    282    283    274
8    273    282    283    274    372    381    382    373
8    372    381    382    373    471    480    481    472
8    471    480    481    472    570    579    580    571
8     84     93     94     85    183    192    193    184
8    183    192    193    184    282    291    292    283
8    282    291    292    283    381    390    391    382
8    381    390    391    382    480    489    490    481
8    480    489    490    481    579    588    589    580
8      4     13     14      5    103    112    113    104
8    103    112    113    104    202    211    212    203
8    202    211    212    203    301    310    311    302
8    301    310    311    302    400    409    410    401
8    400    409    410    401    499    508    509    500
8     13     22     23     14    112    121    122    113
8    112    121    122    113    211    220    221    212
8    211    220    221    212    310    319    320    311
8    310    319    320    311    409    418    419    410
8    409    418    419    410    508    517    518    509
8     22     31     32     23    121    130    131    122
8    121    130    131    122    220    229    230    221
8    220    229    230    221    319    328    329    320
8    319    328    329    320    418    427    428    419
8    418    427    428    419    517    526    527    518
8     31     40     41     32    130    139    140    131
8    130    139    140    131    229    238    239    230
8    229    238    239    230    328    337    338    329
8    328    337    338    329    427    436    437    428
8    427    436    437    428    526    535    536    527
8     40     49     50     41    139    148    149    140
8    139    148    149    140    238    247    248    239
8    238    247    248    239    337    346    347    338
8    337    346    347    338    436    445    446    437
8    436    445    446    437    535    544    545    536
8     49     58     59     50    148    157    158    149
8    148    157    158    149    247    256    257    248
8    247    256    257    248    346    355    356    347
8    346    355    356    347    445    454    455    446
8    445    454    455    446    544    553    554    545
8     58     67     68     59    157    166    167    158
8    157    166    167    158    256    265    266    257
8    256    265    266    257    355    364    365    356
8    355    364    365    356    454    463    464    455
8    454    463    464    455    553    562    563    554
8     67     76     77     68    166    175    176    167
8    166    175    176    167    265    274    275    266
8    265    274    275    266    364    373    374    365
8    364    373    374    365    463    472    473    464
8    463    472    473    464    562    571    572    563
8     76     85     86     77    175    184    185    176
8    175    184    185    176    274    283    284    275
8    274    283    284    275    373    382    383    374
8    373    382    383    374    472    481    482    473
8    472    481    482    473    571    580    581    572
8     85     94     95     86    184    193    194    185
8    184    193    194    185    283    292    293    284
8    283    292    293    284    382    391    392    383
8    382    391    392    383    481    490    491    482
8    481    490    491    482    580    589    590    581
8      5     14     15      6    104    113    114    105
8    104    113    114    105    203    212    213    204
8    203    212    213    204    302    311    312    303
8    302    311    312    303    401    410    411    402
8    401    410    411    402    500    509    510    501
8     14     23     24     15    113    122    123    114
8    113    122    123    114    212    221    222    213
8    212    221    222    213    311    320    321    312
8    311    320    321    312    410    419    420    411
8    410    419    420    411    509    518    519    510
8     23     32     33     24    122    131    132    123
8    122    131    132    123    221    230    231    222
8    221    230    231    222    320    329    330    321
8    320    329    330    321    419    428    429    420
8    419    428    429    420    518    527    528    519
8     32     41     42     33    131    140    141    132
8    131    140    141    132    230    239    240    231
8    230    239    240    231    329    338    339    330
8    329    338    339    330    428    437    438    429
8    428    437    438    429    527    536    537    528
8     41     50     51     42    140    149    150    141
8    140    149    150    141    239    248    249    240
8    239    248    249    240    338    347    348    339
8    338    347    348    339    437    446    447    438
8    437    446    447    438    536    545    546    537
8     50     59     60     51    149    158    159    150
8    149    158    159    150    248    257    258    249
8    248    257    258    249    347    356    357    348
8    347    356    357    348    446    455    456    447
8    446    455    456    447    545    554    555    546
8     59     68     69     60    158    167    168    159
8    158    167    168    159    257    266    267    258
8    257    266    267    258    356    365    366    357
8    356    365    366    357    455    464    465    456
8    455    464    465    456    554    563    564    555
8     68     77     78     69    167    176    177    168
8    167    176    177    168    266    275    276    267
8    266    275    276    267    365    374    375    366
8    365    374    375    366    464    473    474    465
8    464    473    474    465    563    572    573    564
8     77     86     87     78    176    185    186    177
8    176    185    186    177    275    284    285    276
8    275    284    285    276    374    383    384    375
8    374    383    384    375    473    482    483    474
8    473    482    483    474    572    581    582    573
8     86     95     96     87    185    194    195    186
8    185    194    195    186    284    293    294    285
8    284    293    294    285    383    392    393    384
8    383    392    393    384    482    491    492    483
8    482    491    492    483    581    590    591    582
8      6     15     16      7    105    114    115    106
8    105    114    115    106    204    213    214    205
8    204    213    214    205    303    312    313    304
8    303    312    313    304    402    411    412    403
8    402    411    412    403    501    510    511    502
8     15     24     25     16    114    123    124    115
8    114    123    124    115    213    222    223    214
8    213    222    223    214    312    321    322    313
8    312    321    322    313    411    420    421    412
8    411    420    421    412    510    519    520    511
8     24     33     34     25    123    132    133    124
8    123    132    133    124    222    231    232    223
8    222    231    232    223    321    330    331    322
8    321    330    331    322    420    429    430    421
8    420    429    430    421    519    528    529    520
8     33     42     43     34    132    141    142    133
8    132    141    142    133    231    240    241    232
8    231    240    241    232    330    339    340    331
8    330    339    340    331    429    438    439    430
8    429    438    439    430    528    537    538    529
8     42     51     52     43    141    150    151    142
8    141    150    151    142    240    249    250    241
8    240    249    250    241    339    348    349    340
8    339    348    349    340    438    447    448    439
8    438    447    448    439    537    546    547    538
8     51     60     61     52    150    159    160    151
8    150    159    160    151    249    258    259    250
8    249    258    259    250    348    357    358    349
8    348    357    358    349    447    456    457    448
8    447    456    457    448    546    555    556    547
8     60     69     70     61    159    168    169    160
8    159    168    169    160    258    267    268    259
8    258    267    268    259    357    366    367    358
8    357    366    367    358    456    465    466    457
8    456    465    466    457    555    564    565    556
8     69     78     79     70    168    177    178    169
8    168    177    178    169    267    276    277    268
8    267    276    277    268    366    375    376    367
8    366    375    376    367    465    474    475    466
8    465    474    475    466    564    573    574    565
8     78     87     88     79    177    186    187    178
8    177    186    187    178    276    285    286    277
8    276    285    286    277    375    384    385    376
8    375    384    385    376    474    483    484    475
8    474    483    484    475    573    582    583    574
8     87     96     97     88    186    195    196    187
8    186    195    196    187    285    294    295    286
8    285    294    295    286    384    393    394    385
8    384    393    394    385    483    492    493    484
8    483    492    493    484    582    591    592    583
8      7     16     17      8    106    115    116    107
8    106    115    116    107    205    214    215    206
8    205    214    215    206    304    313    314    305
8    304    313    314    305    403    412    413    404
8    403    412    413    404    502    511    512    503
8     16     25     26     17    115    124    125    116
8    115    124    125    116    214    223    224    215
8    214    223    224    215    313    322    323    314
8    313    322    323    314    412    421    422    413
8    412    421    422    413    511    520    521    512
8     25     34     35     26    124    133    134    125
8    124    133    134    125    223    232    233    224
8    223    232    233    224    322    331    332    323
8    322    331    332    323    421    430    431    422
8    421    430    431    422    520    529    530    521
8     34     43     44     35    133    142    143    134
8    133    142    143    134    232    241    242    233
8    232    241    242    233    331    340    341    332
8    331    340    341    332    430    439    440    431
8    430    439    440    431    529    538    539    530
8     43     52     53     44    142    151    152    143
8    142    151    152    143    241    250    251    242
8    241    250    251    242    340    349    350    341
8    340    349    350    341    439    448    449    440
8    439    448    449    440    538    547    548    539
8     52     61     62     53    151    160    161    152
8    151    160    161    152    250    259    260    251
8    250    259    260    251    349    358    359    350
8    349    358    359    350    448    457    458    449
8    448    457    458    449    547    556    557    548
8     61     70     71     62    160    169    170    161
8    160    169    170    161    259    268    269    260
8    259    268    269    260    358    367    368    359
8    358    367    368    359    457    466    467    458
8    457    466    467    458    556    565    566    557
8     70     79     80     71    169    178    179    170
8    169    178    179    170    268    277    278    269
8    268    277    278    269    367    376    377    368
8    367    376    377    368    466    475    476    467
8    466    475    476    467    565    574    575    566
8     79     88     89     80    178    187    188    179
8    178    187    188    179    277    286    287    278
8    277    286    287    278    376    385    386    377
8    376    385    386    377    475    484    485    476
8    475    484    485    476    574    583    584    575
8     88     97     98     89    187    196    197    188
8    187    196    197    188    286    295    296    287
8    286    295    296    287    385    394    395    386
8    385    394    395    386    484    493    494    485
8    484    493    494    485    583    592    593    584
8     53     62    605    594    152    161    671    660
8    152    161    671    660    251    260    737    726
8    251    260    737    726    350    359    803    792
8    350    359    803    792    449    458    869    858
8    449    458    869    858    548    557    935    924
8     62     71    616    605    161    170    682    671
8    161    170    682    671    260    269    748    737
8    260    269    748    737    359    368    814    803
8    359    368    814    803    458    467    880    869
8    458    467    880    869    557    566    946    935
8     71     80    627    616    170    179    693    682
8    170    179    693    682    269    278    759    748
8    269    278    759    748    368    377    825    814
8    368    377    825    814    467    476    891    880
8    467    476    891    880    566    575    957    946
8     80     89    638    627    179    188    704    693
8    179    188    704    693    278    287    770    759
8    278    287    770    759    377    386    836    825
8    377    386    836    825    476    485    902    891
8    476    485    902    891    575    584    968    957
8     89     98    649    638    188    197    715    704
8    188    197    715    704    287    296    781    770
8    287    296    781    770    386    395    847    836
8    386    395    847    836    485    494    913    902
8    485    494    913    902    584    593    979    968
8      8     17   1025   1034    107    116   1079   1088
8    107    116   1079   1088    206    215   1133   1142
8    206    215   1133   1142    305    314   1187   1196
8    305    314   1187   1196    404    413   1241   1250
8    404    413   1241   1250    503    512   1295   1304
8     17     26   1016   1025    116    125   1070   1079
8    116    125   1070   1079    215    224   1124   1133
8    215    224   1124   1133    314    323   1178   1187
8    314    323   1178   1187    413    422   1232   1241
8    413    422   1232   1241    512    521   1286   1295
8     26     35   1007   1016    125    134   1061   1070
8    125    134   1061   1070    224    233   1115   1124
8    224    233   1115   1124    323    332   1169   1178
8    323    332   1169   1178    422    431   1223   1232
8    422    431   1223   1232    521    530   1277   1286
8     35     44    998   1007    134    143   1052   1061
8    134    143   1052   1061    233    242   1106   1115
8    233    242   1106   1115    332    341   1160   1169
8    332    341   1160   1169    431    440   1214   1223
8    431    440   1214   1223    530    539   1268   1277
8     44     53    594    998    143    152   1043   1052
8    143    152   1043   1052    242    251   1097   1106
8    242    251   1097   1106    341    350   1151   1160
8    341    350   1151   1160    440    449   1205   1214
8    440    449   1205   1214    539    548   1259   1268
8    594    605    606    595    660    671    672    661
8    660    671    672    661    726    737    738    727
8    726    737    738    727    792    803    804    793
8    792    803    804    793    858    869    870    859
8    858    869    870    859    924    935    936    925
8    605    616    617    606    671    682    683    672
8    671    682    683    672    737    748    749    738
8    737    748    749    738    803    814    815    804
8    803    814    815    804    869    880    881    870
8    869    880    881    870    935    946    947    936
8    616    627    628    617    682    693    694    683
8    682    693    694    683    748    759    760    749
8    748    759    760    749    814    825    826    815
8    814    825    826    815    880    891    892    881
8    880    891    892    881    946    957    958    947
8    627    638    639    628    693    704    705    694
8    693    704    705    694    759    770    771    760
8    759    770    771    760    825    836    837    826
8    825    836    837    826    891    902    903    892
8    891    902    903    892    957    968    969    958
8    638    649    650    639    704    715    716    705
8    704    715    716    705    770    781    782    771
8    770    781    782    771    836    847    848    837
8    836    847    848    837    902    913    914    903
8    902    913    914    903    968    979    980    969
8    595    606    607    596    661    672    673    662
8    661    672    673    662    727    738    739    728
8    727    738    739    728    793    804    805    794
8    793    804    805    794    859    870    871    860
8    859    870    871    860    925    936    937    926
8    606    617    618    607    672    683    684    673
8    672    683    684    673    738    749    750    739
8    738    749    750    739    804    815    816    805
8    804    815    816    805    870    881    882    871
8    870    881    882    871    936    947    948    937
8    617    628    629    618    683    694    695    684
8    683    694    695    684    749    760    761    750
8    749    760    761    750    815    826    827    816
8    815    826    827    816    881    892    893    882
8    881    892    893    882    947    958    959    948
8    628    639    640    629    694    705    706    695
8    694    705    706    695    760    771    772    761
8    760    771    772    761    826    837    838    827
8    826    837    838    827    892    903    904    893
8    892    903    904    893    958    969    970    959
8    639    650    651    640    705    716    717    706
8    705    716    717    706    771    782    783    772
8    771    782    783    772    837    848    849    838
8    837    848    849    838    903    914    915    904
8    903    914    915    904    969    980    981    970
8    596    607    608    597    662    673    674    663
8    662    673    674    663    728    739    740    729
8    728    739    740    729    794    805    806    795
8    794    805    806    795    860    871    872    861
8    860    871    872    861    926    937    938    927
8    607    618    619    608    673    684    685    674
8    673    684    685    674    739    750    751    740
8    739    750    751    740    805    816    817    806
8    805    816    817    806    871    882    883    872
8    871    882    883    872    937    948    949    938
8    618    629    630    619    684    695    696    685
8    684    695    696    685    750    761    762    751
8    750    761    762    751    816    827    828    817
8    816    827    828    817    882    893    894    883
8    882    893    894    883    948    959    960    949
8    629    640    641    630    695    706    707    696
8    695    706    707    696    761    772    773    762
8    761    772    773    762    827    838    839    828
8    827    838    839    828    893    904    905    894
8    893    904    905    894    959    970    971    960
8    640    651    652    641    706    717    718    707
8    706    717    718    707    772    783    784    773
8    772    783    784    773    838    849    850    839
8    838    849    850    839    904    915    916    905
8    904    915    916    905    970    981    982    971
8    597    608    609    598    663    674    675    664
8    663    674    675    664    729    740    741    730
8    729    740    741    730    795    806    807    796
8    795    806    807    796    861    872    873    862
8    861    872    873    862    927    938    939    928
8    608    619    620    609    674    685    686    675
8    674    685    686    675    740    751    752    741
8    740    751    752    741    806    817    818    807
8    806    817    818    807    872    883    884    873
8    872    883    884    873    938    949    950    939
8    619    630    631    620    685    696    697    686
8    685    696    697    686    751    762    763    752
8    751    762    763    752    817    828    829    818
8    817    828    829    818    883    894    895    884
8    883    894    895    884    949    960    961    950
8    630    641    642    631    696    707    708    697
8    696    707    708    697    762    773    774    763
8    762    773    774    763    828    839    840    829
8    828    839    840    829    894    905    906    895
8    894    905    906    895    960    971    972    961
8    641    652    653    642    707    718    719    708
8    707    718    719    708    773    784    785    774
8    773    784    785    774    839    850    851    840
8    839    850    851    840    905    916    917    906
8    905    916    917    906    971    982    983    972
8    598    609    610    599    664    675    676    665
8    664    675    676    665    730    741    742    731
8    730    741    742    731    796    807    808    797
8    796    807    808    797    862    873    874    863
8    862    873    874    863    928    939    940    929
8    609    620    621    610    675    686    687    676
8    675    686    687    676    741    752    753    742
8    741    752    753    742    807    818    819    808
8    807    818    819    808    873    884    885    874
8    873    884    885    874    939    950    951    940
8    620    631    632    621    686    697    698    687
8    686    697    698    687    752    763    764    753
8    752    763    764    753    818    829    830    819
8    818    829    830    819    884    895    896    885
8    884    895    896    885    950    961    962    951
8    631    642    643    632    697    708    709    698
8    697    708    709    698    763    774    775    764
8    763    774    775    764    829    840    841    830
8    829    840    841    830    895    906    907    896
8    895    906    907    896    961    972    973    962
8    642    653    654    643    708    719    720    709
8    708    719    720    709    774    785    786    775
8    774    785    786    775    840    851    852    841
8    840    851    852    841    906    917    918    907
8    906    917    918    907    972    983    984    973
8    599    610    611    600    665    676    677    666
8    665    676    677    666    731    742    743    732
8    731    742    743    732    797    808    809    798
8    797    808    809    798    863    874    875    864
8    863    874    875    864    929    940    941    930
8    610    621    622    611    676    687    688    677
8    676    687    688    677    742    753    754    743
8    742    753    754    743    808    819    820    809
8    808    819    820    809    874    885    886    875
8    874    885    886    875    940    951    952    941
8    621    632    633    622    687    698    699    688
8    687    698    699    688    753    764    765    754
8    753    764    765    754    819    830    831    820
8    819    830    831    820    885    896    897    886
8    885    896    897    886    951    962    963    952
8    632    643    644    633    698    709    710    699
8    698    709    710    699    764    775    776    765
8    764    775    776    765    830    841    842    831
8    830    841    842    831    896    907    908    897
8    896    907    908    897    962    973    974    963
8    643    654    655    644    709    720    721    710
8    709    720    721    710    775    786    787    776
8    775    786    787    776    841    852    853    842
8    841    852    853    842    907    918    919    908
8    907    918    919    908    973    984    985    974
8    600    611    612    601    666    677    678    667
8    666    677    678    667    732    743    744    733
8    732    743    744    733    798    809    810    799
8    798    809    810    799    864    875    876    865
8    864    875    876    865    930    941    942    931
8    611    622    623    612    677    688    689    678
8    677    688    689    678    743    754    755    744
8    743    754    755    744    809    820    821    810
8    809    820    821    810    875    886    887    876
8    875    886    887    876    941    952    953    942
8    622    633    634    623    688    699    700    689
8    688    699    700    689    754    765    766    755
8    754    765    766    755    820    831    832    821
8    820    831    832    821    886    897    898    887
8    886    897    898    887    952    963    964    953
8    633    644    645    634    699    710    711    700
8    699    710    711    700    765    776    777    766
8    765    776    777    766    831    842    843    832
8    831    842    843    832    897    908    909    898
8    897    908    909    898    963    974    975    964
8    644    655    656    645    710    721    722    711
8    710    721    722    711    776    787    788    777
8    776    787    788    777    842    853    854    843
8    842    853    854    843    908    919    920    909
8    908    919    920    909    974    985    986    975
8    601    612    613    602    667    678    679    668
8    667    678    679    668    733    744    745    734
8    733    744    745    734    799    810    811    800
8    799    810    811    800    865    876    877    866
8    865    876    877    866    931    942    943    932
8    612    623    624    613    678    689    690    679
8    678    689    690    679    744    755    756    745
8    744    755    756    745    810    821    822    811
8    810    821    822    811    876    887    888    877
8    876    887    888    877    942    953    954    943
8    623    634    635    624    689    700    701    690
8    689    700    701    690    755    766    767    756
8    755    766    767    756    821    832    833    822
8    821    832    833    822    887    898    899    888
8    887    898    899    888    953    964    965    954
8    634    645    646    635    700    711    712    701
8    700    711    712    701    766    777    778    767
8    766    777    778    767    832    843    844    833
8    832    843    844    833    898    909    910    899
8    898    909    910    899    964    975    976    965
8    645    656    657    646    711    722    723    712
8    711    722    723    712    777    788    789    778
8    777    788    789    778    843    854    855    844
8    843    854    855    844    909    920    921    910
8    909    920    921    910    975    986    987    976
8    602    613    614    603    668    679    680    669
8    668    679    680    669    734    745    746    735
8    734    745    746    735    800    811    812    801
8    800    811    812    801    866    877    878    867
8    866    877    878    867    932    943    944    933
8    613    624    625    614    679    690    691    680
8    679    690    691    680    745    756    757    746
8    745    756    757    746    811    822    823    812
8    811    822    823    812    877    888    889    878
8    877    888    889    878    943    954    955    944
8    624    635    636    625    690    701    702    691
8    690    701    702    691    756    767    768    757
8    756    767    768    757    822    833    834    823
8    822    833    834    823    888    899    900    889
8    888    899    900    889    954    965    966    955
8    635    646    647    636    701    712    713    702
8    701    712    713    702    767    778    779    768
8    767    778    779    768    833    844    845    834
8    833    844    845    834    899    910    911    900
8    899    910    911    900    965    976    977    966
8    646    657    658    647    712    723    724    713
8    712    723    724    713    778    789    790    779
8    778    789    790    779    844    855    856    845
8    844    855    856    845    910    921    922    911
8    910    921    922    911    976    987    988    977
8    603    614    615    604    669    680    681    670
8    669    680    681    670    735    746    747    736
8    735    746    747    736    801    812    813    802
8    801    812    813    802    867    878    879    868
8    867    878    879    868    933    944    945    934
8    614    625    626    615    680    691    692    681
8    680    691    692    681    746    757    758    747
8    746    757    758    747    812    823    824    813
8    812    823    824    813    878    889    890    879
8    878    889    890    879    944    955    956    945
8    625    636    637    626    691    702    703    692
8    691    702    703    692    757    768    769    758
8    757    768    769    758    823    834    835    824
8    823    834    835    824    889    900    901    890
8    889    900    901    890    955    966    967    956
8    636    647    648    637    702    713    714    703
8    702    713    714    703    768    779    780    769
8    768    779    780    769    834    845    846    835
8    834    845    846    835    900    911    912    901
8    900    911    912    901    966    977    978    967
8    647    658    659    648    713    724    725    714
8    713    724    725    714    779    790    791    780
8    779    790    791    780    845    856    857    846
8    845    856    857    846    911    922    923    912
8    911    922    923    912    977    988    989    978
8    998    594    990    999   1052   1043   1044   1053
8   1052   1043   1044   1053   1106   1097   1098   1107
8   1106   1097   1098   1107   1160   1151   1152   1161
8   1160   1151   1152   1161   1214   1205   1206   1215
8   1214   1205   1206   1215   1268   1259   1260   1269
8   1007    998    999   1008   1061   1052   1053   1062
8   1061   1052   1053   1062   1115   1106   1107   1116
8   1115   1106   1107   1116   1169   1160   1161   1170
8   1169   1160   1161   1170   1223   1214   1215   1224
8   1223   1214   1215   1224   1277   1268   1269   1278
8   1016   1007   1008   1017   1070   1061   1062   1071
8   1070   1061   1062   1071   1124   1115   1116   1125
8   1124   1115   1116   1125   1178   1169   1170   1179
8   1178   1169   1170   1179   1232   1223   1224   1233
8   1232   1223   1224   1233   1286   1277   1278   1287
8   1025   1016   1017   1026   1079   1070   1071   1080
8   1079   1070   1071   1080   1133   1124   1125   1134
8   1133   1124   1125   1134   1187   1178   1179   1188
8   1187   1178   1179   1188   1241   1232   1233   1242
8   1241   1232   1233   1242   1295   1286   1287   1296
8   1034   1025   1026   1035   1088   1079   1080   1089
8   1088   1079   1080   1089   1142   1133   1134   1143
8   1142   1133   1134   1143   1196   1187   1188   1197
8   1196   1187   1188   1197   1250   1241   1242   1251
8   1250   1241   1242   1251   1304   1295   1296   1305
8    999    990    991   1000   1053   1044   1045   1054
8   1053   1044   1045   1054   1107   1098   1099   1108
8   1107   1098   1099   1108   1161   1152   1153   1162
8   1161   1152   1153   1162   1215   1206   1207   1216
8   1215   1206   1207   1216   1269   1260   1261   1270
8   1008    999   1000   1009   1062   1053   1054   1063
8   1062   1053   1054   1063   1116   1107   1108   1117
8   1116   1107   1108   1117   1170   1161   1162   1171
8   1170   1161   1162   1171   1224   1215   1216   1225
8   1224   1215   1216   1225   1278   1269   1270   1279
8   1017   1008   1009   1018   1071   1062   1063   1072
8   1071   1062   1063   1072   1125   1116   1117   1126
8   1125   1116   1117   1126   1179   1170   1171   1180
8   1179   1170   1171   1180   1233   1224   1225   1234
8   1233   1224   1225   1234   1287   1278   1279   1288
8   1026   1017   1018   1027   1080   1071   1072   1081
8   1080   1071   1072   1081   1134   1125   1126   1135
8   1134   1125   1126   1135   1188   1179   1180   1189
8   1188   1179   1180   1189   1242   1233   1234   1243
8   1242   1233   1234   1243   1296   1287   1288   1297
8   1035   1026   1027   1036   1089   1080   1081   1090
8   1089   1080   1081   1090   1143   1134   1135   1144
8   1143   1134   1135   1144   1197   1188   1189   1198
8   1197   1188   1189   1198   1251   1242   1243   1252
8   1251   1242   1243   1252   1305   1296   1297   1306
8   1000    991    992   1001   1054   1045   1046   1055
8   1054   1045   1046   1055   1108   1099   1100   1109
8   1108   1099   1100   1109   1162   1153   1154   1163
8   1162   1153   1154   1163   1216   1207   1208   1217
8   1216   1207   1208   1217   1270   1261   1262   1271
8   1009   1000   1001   1010   1063   1054   1055   1064
8   1063   1054   1055   1064   1117   1108   1109   1118
8   1117   1108   1109   1118   1171   1162   1163   1172
8   1171   1162   1163   1172   1225   1216   1217   1226
8   1225   1216   1217   1226   1279   1270   1271   1280
8   1018   1009   1010   1019   1072   1063   1064   1073
8   1072   1063   1064   1073   1126   1117   1118   1127
8   1126   1117   1118   1127   1180   1171   1172   1181
8   1180   1171   1172   1181   1234   1225   1226   1235
8   1234   1225   1226   1235   1288   1279   1280   1289
8   1027   1018   1019   1028   1081   1072   1073   1082
8   1081   1072   1073   1082   1135   1126   1127   1136
8   1135   1126   1127   1136   1189   1180   1181   1190
8   1189   1180   1181   1190   1243   1234   1235   1244
8   1243   1234   1235   1244   1297   1288   1289   1298
8   1036   1027   1028   1037   1090   1081   1082   1091
8   1090   1081   1082   1091   1144   1135   1136   1145
8   1144   1135   1136   1145   1198   1189   1190   1199
8   1198   1189   1190   1199   1252   1243   1244   1253
8   1252   1243   1244   1253   1306   1297   1298   1307
8   1001    992    993   1002   1055   1046   1047   1056
8   1055   1046   1047   1056   1109   1100   1101   1110
8   1109   1100   1101   1110   1163   1154   1155   1164
8   1163   1154   1155   1164   1217   1208   1209   1218
8   1217   1208   1209   1218   1271   1262   1263   1272
8   1010   1001   1002   1011   1064   1055   1056   1065
8   1064   1055   1056   1065   1118   1109   1110   1119
8   1118   1109   1110   1119   1172   1163   1164   1173
8   1172   1163   1164   1173   1226   1217   1218   1227
8   1226   1217   1218   1227   1280   1271   1272   1281
8   1019   1010   1011   1020   1073   1064   1065   1074
8   1073   1064   1065   1074   1127   1118   1119   1128
8   1127   1118   1119   1128   1181   1172   1173   1182
8   1181   1172   1173   1182   1235   1226   1227   1236
8   1235   1226   1227   1236   1289   1280   1281   1290
8   1028   1019   1020   1029   1082   1073   1074   1083
8   1082   1073   1074   1083   1136   1127   1128   1137
8   1136   1127   1128   1137   1190   1181   1182   1191
8   1190   1181   1182   1191   1244   1235   1236   1245
8   1244   1235   1236   1245   1298   1289   1290   1299
8   1037   1028   1029   1038   1091   1082   1083   1092
8   1091   1082   1083   1092   1145   1136   1137   1146
8   1145   1136   1137   1146   1199   1190   1191   1200
8   1199   1190   1191   1200   1253   1244   1245   1254
8   1253   1244   1245   1254   1307   1298   1299   1308
8   1002    993    994   1003   1056   1047   1048   1057
8   1056   1047   1048   1057   1110   1101   1102   1111
8   1110   1101   1102   1111   1164   1155   1156   1165
8   1164   1155   1156   1165   1218   1209   1210   1219
8   1218   1209   1210   1219   1272   1263   1264   1273
8   1011   1002   1003   1012   1065   1056   1057   1066
8   1065   1056   1057   1066   1119   1110   1111   1120
8   1119   1110   1111   1120   1173   1164   1165   1174
8   1173   1164   1165   1174   1227   1218   1219   1228
8   1227   1218   1219   1228   1281   1272   1273   1282
8   1020   1011   1012   1021   1074   1065   1066   1075
8   1074   1065   1066   1075   1128   1119   1120   1129
8   1128   1119   1120   1129   1182   1173   1174   1183
8   1182   1173   1174   1183   1236   1227   1228   1237
8   1236   1227   1228   1237   1290   1281   1282   1291
8   1029   1020   1021   1030   1083   1074   1075   1084
8   1083   1074   1075   1084   1137   1128   1129   1138
8   1137   1128   1129   1138   1191   1182   1183   1192
8   1191   1182   1183   1192   1245   1236   1237   1246
8   1245   1236   1237   1246   1299   1290   1291   1300
8   1038   1029   1030   1039   1092   1083   1084   1093
8   1092   1083   1084   1093   1146   1137   1138   1147
8   1146   1137   1138   1147   1200   1191   1192   1201
8   1200   1191   1192   1201   1254   1245   1246   1255
8   1254   1245   1246   1255   1308   1299   1300   1309
8   1003    994    995   1004   1057   1048   1049   1058
8   1057   1048   1049   1058   1111   1102   1103   1112
8   1111   1102   1103   1112   1165   1156   1157   1166
8   1165   1156   1157   1166   1219   1210   1211   1220
8   1219   1210   1211   1220   1273   1264   1265   1274
8   1012   1003   1004   1013   1066   1057   1058   1067
8   1066   1057   1058   1067   1120   1111   1112   1121
8   1120   1111   1112   1121   1174   1165   1166   1175
8   1174   1165   1166   1175   1228   1219   1220   1229
8   1228   1219   1220   1229   1282   1273   1274   1283
8   1021   1012   1013   1022   1075   1066   1067   1076
8   1075   1066   1067   1076   1129   1120   1121   1130
8   1129   1120   1121   1130   1183   1174   1175   1184
8   1183   1174   1175   1184   1237   1228   1229   1238
8   1237   1228   1229   1238   1291   1282   1283   1292
8   1030   1021   1022   1031   1084   1075   1076   1085
8   1084   1075   1076   1085   1138   1129   1130   1139
8   1138   1129   1130   1139   1192   1183   1184   1193
8   1192   1183   1184   1193   1246   1237   1238   1247
8   1246   1237   1238   1247   1300   1291   1292   1301
8   1039   1030   1031   1040   1093   1084   1085   1094
8   1093   1084   1085   1094   1147   1138   1139   1148
8   1147   1138   1139   1148   1201   1192   1193   1202
8   1201   1192   1193   1202   1255   1246   1247   1256
8   1255   1246   1247   1256   1309   1300   1301   1310
8   1004    995    996   1005   1058   1049   1050   1059
8   1058   1049   1050   1059   1112   1103   1104   1113
8   1112   1103   1104   1113   1166   1157   1158   1167
8   1166   1157   1158   1167   1220   1211   1212   1221
8   1220   1211   1212   1221   1274   1265   1266   1275
8   1013   1004   1005   1014   1067   1058   1059   1068
8   1067   1058   1059   1068   1121   1112   1113   1122
8   1121   1112   1113   1122   1175   1166   1167   1176
8   1175   1166   1167   1176   1229   1220   1221   1230
8   1229   1220   1221   1230   1283   1274   1275   1284
8   1022   1013   1014   1023   1076   1067   1068   1077
8   1076   1067   1068   1077   1130   1121   1122   1131
8   1130   1121   1122   1131   1184   1175   1176   1185
8   1184   1175   1176   1185   1238   1229   1230   1239
8   1238   1229   1230   1239   1292   1283   1284   1293
8   1031   1022   1023   1032   1085   1076   1077   1086
8   1085   1076   1077   1086   1139   1130   1131   1140
8   1139   1130   1131   1140   1193   1184   1185   1194
8   1193   1184   1185   1194   1247   1238   1239   1248
8   1247   1238   1239   1248   1301   1292   1293   1302
8   1040   1031   1032   1041   1094   1085   1086   1095
8   1094   1085   1086   1095   1148   1139   1140   1149
8   1148   1139   1140   1149   1202   1193   1194   1203
8   1202   1193   1194   1203   1256   1247   1248   1257
8   1256   1247   1248   1257   1310   1301   1302   1311
8   1005    996    997   1006   1059   1050   1051   1060
8   1059   1050   1051   1060   1113   1104   1105   1114
8   1113   1104   1105   1114   1167   1158   1159   1168
8   1167   1158   1159   1168   1221   1212   1213   1222
8   1221   1212   1213   1222   1275   1266   1267   1276
8   1014   1005   1006   1015   1068   1059   1060   1069
8   1068   1059   1060   1069   1122   1113   1114   1123
8   1122   1113   1114   1123   1176   1167   1168   1177
8   1176   1167   1168   1177   1230   1221   1222   1231
8   1230   1221   1222   1231   1284   1275   1276   1285
8   1023   1014   1015   1024   1077   1068   1069   1078
8   1077   1068   1069   1078   1131   1122   1123   1132
8   1131   1122   1123   1132   1185   1176   1177   1186
8   1185   1176   1177   1186   1239   1230   1231   1240
8   1239   1230   1231   1240   1293   1284   1285   1294
8   1032   1023   1024   1033   1086   1077   1078   1087
8   1086   1077   1078   1087   1140   1131   1132   1141
8   1140   1131   1132   1141   1194   1185   1186   1195
8   1194   1185   1186   1195   1248   1239   1240   1249
8   1248   1239   1240   1249   1302   1293   1294   1303
8   1041   1032   1033   1042   1095   1086   1087   1096
8   1095   1086   1087   1096   1149   1140   1141   1150
8   1149   1140   1141   1150   1203   1194   1195   1204
8   1203   1194   1195   1204   1257   1248   1249   1258
8   1257   1248   1249   1258   1311   1302   1303   1312
8      0   1314   1324     99      1   1315   1325    100
8     99   1324   1334    198    100   1325   1335    199
8    198   1334   1344    297    199   1335   1345    298
8    297   1344   1354    396    298   1345   1355    397
8    396   1354   1364    495    397   1355   1365    496
8    495   1364   1374    504    496   1365   1375    505
8    504   1374   1384    513    505   1375   1385    514
8    513   1384   1394    522    514   1385   1395    523
8    522   1394   1404    531    523   1395   1405    532
8    531   1404   1414    540    532   1405   1415    541
8    540   1414   1424    549    541   1415   1425    550
8    549   1424   1434    558    550   1425   1435    559
8    558   1434   1444    567    559   1435   1445    568
8    567   1444   1454    576    568   1445   1455    577
8    576   1454   1464    585    577   1455   1465    586
8     90    189   1504   1514     91    190   1505   1515
8    189    288   1494   1504    190    289   1495   1505
8    288    387   1484   1494    289    388   1485   1495
8    387    486   1474   1484    388    487   1475   1485
8    486    585   1464   1474    487    586   1465   1475
8      1   1315   1325    100      2   1316   1326    101
8    100   1325   1335    199    101   1326   1336    200
8    199   1335   1345    298    200   1336   1346    299
8    298   1345   1355    397    299   1346   1356    398
8    397   1355   1365    496    398   1356   1366    497
8    496   1365   1375    505    497   1366   1376    506
8    505   1375   1385    514    506   1376   1386    515
8    514   1385   1395    523    515   1386   1396    524
8    523   1395   1405    532    524   1396   1406    533
8    532   1405   1415    541    533   1406   1416    542
8    541   1415   1425    550    542   1416   1426    551
8    550   1425   1435    559    551   1426   1436    560
8    559   1435   1445    568    560   1436   1446    569
8    568   1445   1455    577    569   1446   1456    578
8    577   1455   1465    586    578   1456   1466    587
8     91    190   1505   1515     92    191   1506   1516
8    190    289   1495   1505    191    290   1496   1506
8    289    388   1485   1495    290    389   1486   1496
8    388    487   1475   1485    389    488   1476   1486
8    487    586   1465   1475    488    587   1466   1476
8      2   1316   1326    101      3   1317   1327    102
8    101   1326   1336    200    102   1327   1337    201
8    200   1336   1346    299    201   1337   1347    300
8    299   1346   1356    398    300   1347   1357    399
8    398   1356   1366    497    399   1357   1367    498
8    497   1366   1376    506    498   1367   1377    507
8    506   1376   1386    515    507   1377   1387    516
8    515   1386   1396    524    516   1387   1397    525
8    524   1396   1406    533    525   1397   1407    534
8    533   1406   1416    542    534   1407   1417    543
8    542   1416   1426    551    543   1417   1427    552
8    551   1426   1436    560    552   1427   1437    561
8    560   1436   1446    569    561   1437   1447    570
8    569   1446   1456    578    570   1447   1457    579
8    578   1456   1466    587    579   1457   1467    588
8     92    191   1506   1516     93    192   1507   1517
8    191    290   1496   1506    192    291   1497   1507
8    290    389   1486   1496    291    390   1487   1497
8    389    488   1476   1486    390    489   1477   1487
8    488    587   1466   1476    489    588   1467   1477
8      3   1317   1327    102      4   1318   1328    103
8    102   1327   1337    201    103   1328   1338    202
8    201   1337   1347    300    202   1338   1348    301
8    300   1347   1357    399    301   1348   1358    400
8    399   1357   1367    498    400   1358   1368    499
8    498   1367   1377    507    499   1368   1378    508
8    507   1377   1387    516    508   1378   1388    517
8    516   1387   1397    525    517   1388   1398    526
8    525   1397   1407    534    526   1398   1408    535
8    534   1407   1417    543    535   1408   1418    544
8    543   1417   1427    552    544   1418   1428    553
8    552   1427   1437    561    553   1428   1438    562
8    561   1437   1447    570    562   1438   1448    571
8    570   1447   1457    579    571   1448   1458    580
8    579   1457   1467    588    580   1458   1468    589
8     93    192   1507   1517     94    193   1508   1518
8    192    291   1497   1507    193    292   1498   1508
8    291    390   1487   1497    292    391   1488   1498
8    390    489   1477   1487    391    490   1478   1488
8    489    588   1467   1477    490    589   1468   1478
8      4   1318   1328    103      5   1319   1329    104
8    103   1328   1338    202    104   1329   1339    203
8    202   1338   1348    301    203   1339   1349    302
8    301   1348   1358    400    302   1349   1359    401
8    400   1358   1368    499    401   1359   1369    500
8    499   1368   1378    508    500   1369   1379    509
8    508   1378   1388    517    509   1379   1389    518
8    517   1388   1398    526    518   1389   1399    527
8    526   1398   1408    535    527   1399   1409    536
8    535   1408   1418    544    536   1409   1419    545
8    544   1418   1428    553    545   1419   1429    554
8    553   1428   1438    562    554   1429   1439    563
8    562   1438   1448    571    563   1439   1449    572
8    571   1448   1458    580    572   1449   1459    581
8    580   1458   1468    589    581   1459   1469    590
8     94    193   1508   1518     95    194   1509   1519
8    193    292   1498   1508    194    293   1499   1509
8    292    391   1488   1498    293    392   1489   1499
8    391    490   1478   1488    392    491   1479   1489
8    490    589   1468   1478    491    590   1469   1479
8      5   1319   1329    104      6   1320   1330    105
8    104   1329   1339    203    105   1330   1340    204
8    203   1339   1349    302    204   1340   1350    303
8    302   1349   1359    401    303   1350   1360    402
8    401   1359   1369    500    402   1360   1370    501
8    500   1369   1379    509    501   1370   1380    510
8    509   1379   1389    518    510   1380   1390    519
8    518   1389   1399    527    519   1390   1400    528
8    527   1399   1409    536    528   1400   1410    537
8    536   1409   1419    545    537   1410   1420    546
8    545   1419   1429    554    546   1420   1430    555
8    554   1429   1439    563    555   1430   1440    564
8    563   1439   1449    572    564   1440   1450    573
8    572   1449   1459    581    573   1450   1460    582
8    581   1459   1469    590    582   1460   1470    591
8     95    194   1509   1519     96    195   1510   1520
8    194    293   1499   1509    195    294   1500   1510
8    293    392   1489   1499    294    393   1490   1500
8    392    491   1479   1489    393    492   1480   1490
8    491    590   1469   1479    492    591   1470   1480
8      6   1320   1330    105      7   1321   1331    106
8    105   1330   1340    204    106   1331   1341    205
8    204   1340   1350    303    205   1341   1351    304
8    303   1350   1360    402    304   1351   1361    403
8    402   1360   1370    501    403   1361   1371    502
8    501   1370   1380    510    502   1371   1381    511
8    510   1380   1390    519    511   1381   1391    520
8    519   1390   1400    528    520   1391   1401    529
8    528   1400   1410    537    529   1401   1411    538
8    537   1410   1420    546    538   1411   1421    547
8    546   1420   1430    555    547   1421   1431    556
8    555   1430   1440    564    556   1431   1441    565
8    564   1440   1450    573    565   1441   1451    574
8    573   1450   1460    582    574   1451   1461    583
8    582   1460   1470    591    583   1461   1471    592
8     96    195   1510   1520     97    196   1511   1521
8    195    294   1500   1510    196    295   1501   1511
8    294    393   1490   1500    295    394   1491   1501
8    393    492   1480   1490    394    493   1481   1491
8    492    591   1470   1480    493    592   1471   1481
8      7   1321   1331    106      8   1322   1332    107
8    106   1331   1341    205    107   1332   1342    206
8    205   1341   1351    304    206   1342   1352    305
8    304   1351   1361    403    305   1352   1362    404
8    403   1361   1371    502    404   1362   1372    503
8    502   1371   1381    511    503   1372   1382    512
8    511   1381   1391    520    512   1382   1392    521
8    520   1391   1401    529    521   1392   1402    530
8    529   1401   1411    538    530   1402   1412    539
8    538   1411   1421    547    539   1412   1422    548
8    547   1421   1431    556    548   1422   1432    557
8    556   1431   1441    565    557   1432   1442    566
8    565   1441   1451    574    566   1442   1452    575
8    574   1451   1461    583    575   1452   1462    584
8    583   1461   1471    592    584   1462   1472    593
8     97    196   1511   1521     98    197   1512   1522
8    196    295   1501   1511    197    296   1502   1512
8    295    394   1491   1501    296    395   1492   1502
8    394    493   1481   1491    395    494   1482   1492
8    493    592   1471   1481    494    593   1472   1482
8   1523   1524      9      0   1534   1535    108     99
8   1534   1535    108     99   1545   1546    207    198
8   1545   1546    207    198   1556   1557    306    297
8   1556   1557    306    297   1567   1568    405    396
8   1567   1568    405    396   1578   1579    504    495
8   1524   1525     18      9   1535   1536    117    108
8   1535   1536    117    108   1546   1547    216    207
8   1546   1547    216    207   1557   1558    315    306
8   1557   1558    315    306   1568   1569    414    405
8   1568   1569    414    405   1579   1580    513    504
8   1525   1526     27     18   1536   1537    126    117
8   1536   1537    126    117   1547   1548    225    216
8   1547   1548    225    216   1558   1559    324    315
8   1558   1559    324    315   1569   1570    423    414
8   1569   1570    423    414   1580   1581    522    513
8   1526   1527     36     27   1537   1538    135    126
8   1537   1538    135    126   1548   1549    234    225
8   1548   1549    234    225   1559   1560    333    324
8   1559   1560    333    324   1570   1571    432    423
8   1570   1571    432    423   1581   1582    531    522
8   1527   1528     45     36   1538   1539    144    135
8   1538   1539    144    135   1549   1550    243    234
8   1549   1550    243    234   1560   1561    342    333
8   1560   1561    342    333   1571   1572    441    432
8   1571   1572    441    432   1582   1583    540    531
8   1528   1529     54     45   1539   1540    153    144
8   1539   1540    153    144   1550   1551    252    243
8   1550   1551    252    243   1561   1562    351    342
8   1561   1562    351    342   1572   1573    450    441
8   1572   1573    450    441   1583   1584    549    540
8   1529   1530     63     54   1540   1541    162    153
8   1540   1541    162    153   1551   1552    261    252
8   1551   1552    261    252   1562   1563    360    351
8   1562   1563    360    351   1573   1574    459    450
8   1573   1574    459    450   1584   1585    558    549
8   1530   1531     72     63   1541   1542    171    162
8   1541   1542    171    162   1552   1553    270    261
8   1552   1553    270    261   1563   1564    369    360
8   1563   1564    369    360   1574   1575    468    459
8   1574   1575    468    459   1585   1586    567    558
8   1531   1532     81     72   1542   1543    180    171
8   1542   1543    180    171   1553   1554    279    270
8   1553   1554    279    270   1564   1565    378    369
8   1564   1565    378    369   1575   1576    477    468
8   1575   1576    477    468   1586   1587    576    567
8   1532   1533     90     81   1543   1544    189    180
8   1543   1544    189    180   1554   1555    288    279
8   1554   1555    288    279   1565   1566    387    378
8   1565   1566    387    378   1576   1577    486    477
8   1576   1577    486    477   1587   1588    585    576
8   1523   1313   1323   1534      0   1314   1324     99
8   1534   1323   1333   1545     99   1324   1334    198
8   1545   1333   1343   1556    198   1334   1344    297
8   1556   1343   1353   1567    297   1344   1354    396
8   1567   1353   1363   1578    396   1354   1364    495
8   1578   1363   1373   1579    495   1364   1374    504
8   1579   1373   1383   1580    504   1374   1384    513
8   1580   1383   1393   1581    513   1384   1394    522
8   1581   1393   1403   1582    522   1394   1404    531
8   1582   1403   1413   1583    531   1404   1414    540
8   1583   1413   1423   1584    540   1414   1424    549
8   1584   1423   1433   1585    549   1424   1434    558
8   1585   1433   1443   1586    558   1434   1444    567
8   1586   1443   1453   1587    567   1444   1454    576
8   1587   1453   1463   1588    576   1454   1464    585
8   1533   1544   1503   1513     90    189   1504   1514
8   1544   1555   1493   1503    189    288   1494   1504
8   1555   1566   1483   1493    288    387   1484   1494
8   1566   1577   1473   1483    387    486   1474   1484
8   1577   1588   1463   1473    486    585   1464   1474
CELL_TYPES  1130
12
12
12
12
12
12
12
12
12
12
12
12
12
12
12
12
12
12
12
12
12
12
12
12
12
12
12
12
12
12
12
12
12
12
12
12
12
12
12
12
12
12
12
12
12
12
12
12
12
12
12
12
12
12
12
12
12
12
12
12
12
12
12
12
12
12
12
12
12
12
12
12
12
12
12
12
12
12
12
12
12
12
12
12
12
12
12
12
12
12
12
12
12
12
12
12
12
12
12
12
12
12
12
12
12
12
12
12
12
12
12
12
12
12
12
12
12
12
12
12
12
12
12
12
12
12
12
12
12
12
12
12
12
12
12
12
12
12
12
12
12
12
12
12
12
12
12
12
12
12
12
12
12
12
12
12
12
12
12
12
12
12
12
12
12
12
12
12
12
12
12
12
12
12
12
12
12
12
12
12
12
12
12
12
12
12
12
12
12
12
12
12
12
12
12
12
12
12
12
12
12
12
12
12
12
12
12
12
12
12
12
12
12
12
12
12
12
12
12
12
12
12
12
12
12
12
12
12
12
12
12
12
12
12
12
12
12
12
12
12
12
12
12
12
12
12
12
12
12
12
12
12
12
12
12
12
12
12
12
12
12
12
12
12
12
12
12
12
12
12
12
12
12
12
12
12
12
12
12
12
12
12
12
12
12
12
12
12
12
12
12
12
12
12
12
12
12
12
12
12
12
12
12
12
12
12
12
12
12
12
12
12
12
12
12
12
12
12
12
12
12
12
12
12
12
12
12
12
12
12
12
12
12
12
12
12
12
12
12
12
12
12
12
12
12
12
12
12
12
12
12
12
12
12
12
12
12
12
12
12
12
12
12
12
12
12
12
12
12
12
12
12
12
12
12
12
12
12
12
12
12
12
12
12
12
12
12
12
12
12
12
12
12
12
12
12
12
12
12
12
12
12
12
12
12
12
12
12
12
12
12
12
12
12
12
12
12
12
12
12
12
12
12
12
12
12
12
12
12
12
12
12
12
12
12
12
12
12
12
12
12
12
12
12
12
12
12
12
12
12
12
12
12
12
12
12
12
12
12
12
12
12
12
12
12
12
12
12
12
12
12
12
12
12
12
12
12
12
12
12
12
12
12
12
12
12
12
12
12
12
12
12
12
12
12
12
12
12
12
12
12
12
12
12
12
12
12
12
12
12
12
12
12
12
12
12
12
12
12
12
12
12
12
12
12
12
12
12
12
12
12
12
12
12
12
12
12
12
12
12
12
12
12
12
12
12
12
12
12
12
12
12
12
12
12
12
12
12
12
12
12
12
12
12
12
12
12
12
12
12
12
12
12
12
12
12
12
12
12
12
12
12
12
12
12
12
12
12
12
12
12
12
12
12
12
12
12
12
12
12
12
12
12
12
12
12
12
12
12
12
12
12
12
12
12
12
12
12
12
12
12
12
12
12
12
12
12
12
12
12
12
12
12
12
12
12
12
12
12
12
12
12
12
12
12
12
12
12
12
12
12
12
12
12
12
12
12
12
12
12
12
12
12
12
12
12
12
12
12
12
12
12
12
12
12
12
12
12
12
12
12
12
12
12
12
12
12
12
12
12
12
12
12
12
12
12
12
12
12
12
12
12
12
12
12
12
12
12
12
12
12
12
12
12
12
12
12
12
12
12
12
12
12
12
12
12
12
12
12
12
12
12
12
12
12
12
12
12
12
12
12
12
12
12
12
12
12
12
12
12
12
12
12
12
12
12
12
12
12
12
12
12
12
12
12
12
12
12
12
12
12
12
12
12
12
12
12
12
12
12
12
12
12
12
12
12
12
12
12
12
12
12
12
12
12
12
12
12
12
12
12
12
12
12
12
12
12
12
12
12
12
12
12
12
12
12
12
12
12
12
12
12
12
12
12
12
12
12
12
12
12
12
12
12
12
12
12
12
12
12
12
12
12
12
12
12
12
12
12
12
12
12
12
12
12
12
12
12
12
12
12
12
12
12
12
12
12
12
12
12
12
12
12
12
12
12
12
12
12
12
12
12
12
12
12
12
12
12
12
12
12
12
12
12
12
12
12
12
12
12
12
12
12
12
12
12
12
12
12
12
12
12
12
12
12
12
12
12
12
12
12
12
12
12
12
12
12
12
12
12
12
12
12
12
12
12
12
12
12
12
12
12
12
12
12
12
12
12
12
12
12
12
12
12
12
12
12
12
12
12
12
12
12
12
12
12
12
12
12
12
12
12
12
12
12
12
12
12
12
12
12
12
12
12
12
12
12
12
12
12
12
12
12
12
12
12
12
12
12
12
12
12
12
12
12
12
12
12
12
12
12
12
12
12
12
12
12
12
12
12
12
12
12
12
12
12
12
12
12
12
12
12
12
12
12
12
12
12
12
12
12
12
12
12
12
12
12
12
12
12
12
12
12
12
12
12
12
12
12
12
12
12
12
12
12
12
12
12
12
12
12
12
12
12
12
12
12
12
12
12
12
12
12
12
12
12
12
12
12
12
12
12
12
12
12
12
12
12
12
12
12
12
12
12
12
12
12
12
12
12
12
12
12
12
12
12
12
12
12
12
12
12
12
12
12
12
12
12
12
12
POINT_DATA      1589
VECTORS Velocities float 
     0.00000000     0.00000000     0.00000000
     0.00000000     0.00000000     0.00000000
     0.00000000     0.00000000     0.00000000
     0.00000000     0.00000000     0.00000000
     0.00000000     0.00000000     0.00000000
     0.00000000     0.00000000     0.00000000
     0.00000000     0.00000000     0.00000000
     0.00000000     0.00000000     0.00000000
     0.00000000     0.00000000     0.00000000
     0.00000000     0.00000000     0.00000000
   -22.90109992    29.27977072     0.00000000
   -38.91070435    16.34066441     0.00000000
   -40.68620446    10.61198724     0.00000000
   -42.83771060     2.13689092     0.00000000
   -38.45016611    -2.84545842     0.00000000
   -31.05787328   -11.83402581     0.00000000
     5.63794954   -43.30487754     0.00000000
    60.94522574    25.48786029     0.00000000
     0.00000000     0.00000000     0.00000000
   -21.76721726    39.99601636     0.00000000
   -33.03822597    20.14223768     0.00000000
   -35.14831738     6.07271952     0.00000000
   -31.49503818    -8.17891490     0.00000000
   -17.23810347   -10.07056890     0.00000000
    -2.67297997   -23.98828260     0.00000000
    -4.91075496   -49.70509822     0.00000000
     0.47829429    22.33046031     0.00000000
     0.00000000     0.00000000     0.00000000
    -9.01989325    32.81757406     0.00000000
    -0.70444878    14.74608332     0.00000000
    11.53461970    -5.78923907     0.00000000
     6.51041390   -12.78757922     0.00000000
     2.54987296   -21.77607646     0.00000000
   -28.15352672   -22.15605040     0.00000000
   -43.27133678   -13.65405781     0.00000000
    -7.80531157    11.40620723     0.00000000
     0.00000000     0.00000000     0.00000000
     3.86820182     4.03927433     0.00000000
    29.30001293    -7.91958805     0.00000000
    46.21923278    -9.70482125     0.00000000
    42.06236094    -7.27787819     0.00000000
    16.54750105    -3.44596398     0.00000000
   -38.19370061    -1.51155798     0.00000000
   -45.56649480     4.05729923     0.00000000
   -59.98927533    14.54766538     0.00000000
     0.00000000     0.00000000     0.00000000
     3.90687873   -28.99990353     0.00000000
    22.88745563   -25.68892378     0.00000000
    38.94204590    -7.65121695     0.00000000
    32.04307875     9.57868266     0.00000000
     4.66647205    24.29007574     0.00000000
   -32.30397582    14.45516737     0.00000000
   -31.41345972     0.55952763     0.00000000
     0.00000000     0.00000000     0.00000000
     0.00000000     0.00000000     0.00000000
    -9.88911685   -46.61486391     0.00000000
    -2.45861695   -29.97965800     0.00000000
     2.00899383    -4.26923251     0.00000000
    -5.10326113    22.41249439     0.00000000
   -17.41806305    30.59279603     0.00000000
   -27.56529223    20.11011332     0.00000000
   -22.93090275    -1.62822011     0.00000000
   -27.29206259    -4.02553464     0.00000000
     0.00000000     0.00000000     0.00000000
   -17.09791194   -48.77557166     0.00000000
   -21.85406025   -29.40786930     0.00000000
   -22.63401881    -3.98586943     0.00000000
   -26.82263651    14.03407479     0.00000000
   -18.11690611    19.54844714     0.00000000
   -20.32276060    21.46315636     0.00000000
   -20.32855362     7.84586874     0.00000000
    -6.44982733   -28.51542426     0.00000000
     0.00000000     0.00000000     0.00000000
   -23.12054096   -44.10015248     0.00000000
   -33.40264520   -22.97159363     0.00000000
   -35.02132916   -13.69995906     0.00000000
   -29.84448958    -0.46298858     0.00000000
   -20.17528411     3.63665893     0.00000000
    -5.11550763    20.95935907     0.00000000
    -2.87485097    28.24656529     0.00000000
    -6.45655738   -26.10542072     0.00000000
     0.00000000     0.00000000     0.00000000
   -21.48351818   -29.68595688     0.00000000
   -33.48890369   -15.74802819     0.00000000
   -35.28109879   -15.11016433     0.00000000
   -37.66378165    -6.56797139     0.00000000
   -31.01263476     1.22201815     0.00000000
   -16.99578331    11.73287700     0.00000000
     9.67327424    32.15825039     0.00000000
    42.28775414   -28.66594722     0.00000000
     0.00000000     0.00000000     0.00000000
     0.00000000     0.00000000     0.00000000
     0.00000000     0.00000000     0.00000000
     0.00000000     0.00000000     0.00000000
     0.00000000     0.00000000     0.00000000
     0.00000000     0.00000000     0.00000000
     0.00000000     0.00000000     0.00000000
     0.00000000     0.00000000     0.00000000
     0.00000000     0.00000000     0.00000000
     0.00000000     0.00000000     0.00000000
     0.00000000     0.00000000     0.00000000
     0.00000000     0.00000000     0.00000000
     0.00000000     0.00000000     0.00000000
     0.00000000     0.00000000     0.00000000
     0.00000000     0.00000000     0.00000000
     0.00000000     0.00000000     0.00000000
     0.00000000     0.00000000     0.00000000
     0.00000000     0.00000000     0.00000000
     0.00000000     0.00000000     0.00000000
    -9.83483075    17.58916233    11.65625018
   -28.98987380    17.74998238     4.54686851
   -35.18661082     9.19362140     6.42727632
   -33.72846953     3.69220243    -0.95683242
   -32.98738598    -1.40956967    -4.04650634
   -27.94737103    -4.99490944    -8.42760302
     1.17124034   -41.37120632   -12.78655438
    54.23234555    24.36908054    -2.43670155
     0.00000000     0.00000000     0.00000000
    -6.97583888    30.48586505    13.30153988
   -26.48458742    25.42159162    -1.68899602
   -34.22648782     7.97682797     4.53324789
   -24.44415671    -4.14705603    -0.01611811
   -12.32895580    -6.04244530     0.87330733
    17.23787204   -13.45242705    -0.18239227
    17.93116373   -54.31510137   -12.73659194
     5.15116172    13.87901063   -17.67264696
     0.00000000     0.00000000     0.00000000
     8.11386789    22.68073225    14.87060390
     6.70112887    19.80727497    -2.95947440
     8.93326811    -3.09863083     0.67756313
    13.75272145   -10.36258427     0.80378024
    14.62299269   -15.63871592     7.66266438
    15.25203130   -22.42155056     8.08161364
   -10.76432209   -30.36447394   -13.58675159
    -4.87829762    -2.22758256   -13.65112325
     0.00000000     0.00000000     0.00000000
    16.93937372     3.56995152    16.62641722
    38.70048542    -4.88283364     3.32183167
    44.57732801    -9.38496046     1.83793271
    45.37224655    -9.75121837    -1.82150934
    28.36663497    -0.25996470     6.97755803
    16.27295734    -4.84889919     7.06732082
    -8.71611264    -7.75341776   -12.31750714
   -54.50593579     9.08251997     3.72467414
     0.00000000     0.00000000     0.00000000
    20.67721582   -20.67161833    10.81000109
    32.06337889   -27.28264818    -3.48430184
    32.96967329   -10.31324362    -5.78529365
    24.68751575     4.68849646    -7.69658049
    18.15349829    18.96078644     8.49019418
     9.22292599    19.76647412     5.35126878
    -9.77391255     3.07926914   -12.24022972
     0.00000000     0.00000000     0.00000000
     0.00000000     0.00000000     0.00000000
     8.68752128   -38.85555994    10.61508491
     4.12172613   -34.08650740    -5.65442876
    -6.09364469    -5.76208811    -3.41268866
    -3.78159871    17.66834856    -1.14391712
    -1.43092504    27.35846725     8.55032159
     0.67385373    33.48550020    -1.10605552
    -7.03185028    13.44575125    -7.78878004
   -21.97483453    -6.73260144     7.48391041
     0.00000000     0.00000000     0.00000000
     1.05238169   -41.94174731    11.50200122
   -15.30151671   -32.28442147    -1.66108108
   -21.81314683    -3.34906751    10.38106129
   -17.52658309    11.75877896     8.67246558
   -10.00602455    23.87866489     9.15062644
    -0.92931856    34.76251233    -3.87354189
    -8.85020717    29.83783415   -12.28216276
     4.20881468   -22.46777145     1.22615304
     0.00000000     0.00000000     0.00000000
    -6.40454512   -34.29156075    12.36847011
   -27.98897414   -26.06763941    -2.23766585
   -33.31606092   -11.54628810     7.76370977
   -25.90517630     2.06927943     1.60262092
   -16.76645921     9.27338803    -1.80886295
     2.14986056    29.35054440   -12.66163739
     1.85587638    41.59949719   -20.33100550
    -2.21336230   -22.91875815    -2.33267703
     0.00000000     0.00000000     0.00000000
    -8.92706069   -17.74690284     8.71738929
   -27.21111623   -17.27144589    -0.79981026
   -34.88797618   -12.64728087     1.62347559
   -37.53858905    -4.58375589    -5.12013790
   -34.39409179     4.78158358    -7.69451622
   -18.96533879    14.44883421    -8.41779604
     1.56136757    37.25817742   -10.33062718
    33.51827815   -31.15666235     2.56858656
     0.00000000     0.00000000     0.00000000
     0.00000000     0.00000000     0.00000000
     0.00000000     0.00000000     0.00000000
     0.00000000     0.00000000     0.00000000
     0.00000000     0.00000000     0.00000000
     0.00000000     0.00000000     0.00000000
     0.00000000     0.00000000     0.00000000
     0.00000000     0.00000000     0.00000000
     0.00000000     0.00000000     0.00000000
     0.00000000     0.00000000     0.00000000
     0.00000000     0.00000000     0.00000000
     0.00000000     0.00000000     0.00000000
     0.00000000     0.00000000     0.00000000
     0.00000000     0.00000000     0.00000000
     0.00000000     0.00000000     0.00000000
     0.00000000     0.00000000     0.00000000
     0.00000000     0.00000000     0.00000000
     0.00000000     0.00000000     0.00000000
     0.00000000     0.00000000     0.00000000
    -7.73485098    16.69811125    11.79620818
   -18.14230832    16.09851311    12.12869483
   -21.88451116     9.80503069     5.72476276
   -21.53624741     2.70234660    -1.44927524
   -21.24621142    -1.85447708    -8.67647457
   -26.04524064    -5.11627031   -14.86934763
    -2.23856357   -39.13508488   -22.78408476
    53.53865778    22.51097921    -9.51227201
     0.00000000     0.00000000     0.00000000
    -6.16717945    23.59385073    12.18000259
   -15.38691468    25.19099954     8.42881763
   -22.39264326    14.30512669     0.07311686
   -18.11668604    -0.07996591    -0.24531417
    -4.83063883    -2.55801720    -4.60073407
    14.99499251    -3.19305999    -4.39035438
    25.65125970   -47.25962338   -15.22693587
    15.52043687     5.46762000   -20.87402774
     0.00000000     0.00000000     0.00000000
     2.56524072    16.66444752    14.74696515
    10.28188251    16.82861806    12.30963317
    16.35405581     3.72735830     2.73936545
    18.07737862    -5.56178240     4.80326729
    23.26011496    -5.84898912     3.20958792
    24.53179434    -8.92923299     5.16982490
    12.88189970   -28.70144640   -12.43309180
     1.91612385   -12.18079993   -14.08174825
     0.00000000     0.00000000     0.00000000
     8.68683971    -0.58902115    12.25912325
    30.71180249    -9.31031330    14.56181695
    44.00605080   -11.01312746     7.10068953
    41.81660327    -9.54253408     2.19156062
    39.11263560     0.14505691     1.15914705
    16.58523140     1.51609126     2.50638626
    13.82363314   -11.44595763   -16.20031126
   -38.38245986    -2.79621954     1.13295350
     0.00000000     0.00000000     0.00000000
     9.25204128   -20.85075640     5.80449772
    23.26540144   -27.88870548     5.28304553
    25.82216727   -17.72215160    -6.22557537
    18.51056240    -5.61465137    -8.22834133
    17.90605147     7.10948767    -7.93084842
    16.59901085    19.19839700     2.69769722
     1.27806093     7.85969744   -14.11316627
     0.00000000     0.00000000     0.00000000
     0.00000000     0.00000000     0.00000000
     0.07672598   -35.15772231     5.74138404
     3.46019430   -33.51152955     5.34041358
    -3.61603294   -18.02245543    -5.47732278
    -6.89155821    -2.15878146    -6.02023674
    -0.52616501    10.46043659    -4.71428649
     5.31534892    28.89169854    -6.89369073
    10.39493221    25.31418871   -13.59499161
   -12.44756873    -4.02835474    12.67617154
     0.00000000     0.00000000     0.00000000
    -6.14410391   -38.11838555     7.03230881
   -11.62686620   -32.02531131     8.94323087
   -15.54434392   -13.50403827     5.83280768
   -14.69705542    -0.64692986     9.41753392
    -6.17759883    12.46324993     3.54877061
    -0.21600203    35.29954034   -11.55841106
    -0.90702585    40.19486227   -18.57233102
     6.19209599   -17.49698485     1.26123811
     0.00000000     0.00000000     0.00000000
   -10.98697581   -32.58268529     7.61364363
   -23.01702668   -24.67958644     9.55636673
   -29.35248595   -13.54773154     4.03373487
   -23.03291736     1.08664610     4.29025188
   -18.56655485    11.56591078    -5.88772889
    -4.26842697    32.58233076   -19.37921102
     2.46197657    50.19917865   -22.19512274
    -1.47000952   -22.32510952     3.89376658
     0.00000000     0.00000000     0.00000000
   -10.52735236   -19.77507528     7.53361694
   -23.29795937   -15.67358150     7.03341611
   -32.06110293   -12.46924260     1.59433384
   -36.28040335    -2.40860899    -0.81595796
   -37.81188686     8.46224490    -7.79233253
   -26.33728654    19.22205782   -13.88919623
     0.18499034    40.94720814   -18.90783096
    31.88393401   -33.06450812     3.10751060
     0.00000000     0.00000000     0.00000000
     0.00000000     0.00000000     0.00000000
     0.00000000     0.00000000     0.00000000
     0.00000000     0.00000000     0.00000000
     0.00000000     0.00000000     0.00000000
     0.00000000     0.00000000     0.00000000
     0.00000000     0.00000000     0.00000000
     0.00000000     0.00000000     0.00000000
     0.00000000     0.00000000     0.00000000
     0.00000000     0.00000000     0.00000000
     0.00000000     0.00000000     0.00000000
     0.00000000     0.00000000     0.00000000
     0.00000000     0.00000000     0.00000000
     0.00000000     0.00000000     0.00000000
     0.00000000     0.00000000     0.00000000
     0.00000000     0.00000000     0.00000000
     0.00000000     0.00000000     0.00000000
     0.00000000     0.00000000     0.00000000
     0.00000000     0.00000000     0.00000000
    -2.23117847     9.89927996    10.17827550
    -6.71336214    12.77796528     9.42505070
    -8.71178071     7.47523059     4.25098414
   -10.15476624     1.70967467    -4.18373326
   -13.53664395    -4.49686331    -7.23815042
   -25.11756461    -8.55968274   -10.84091300
   -16.72066801   -39.19962049   -18.59712152
    47.14888682    24.30317246   -14.75619924
     0.00000000     0.00000000     0.00000000
     0.73357861    14.02768049    15.19137036
     0.94195333    14.51912653     9.59036008
    -1.40306508    10.30155463     2.85447449
    -0.15387571    -0.27000694    -2.16702269
    -1.02026023    -1.83711114    -7.61623729
     5.24913717    -5.40542096    -7.41490620
     8.83733799   -40.53123495   -16.98710670
    21.30330313     4.18586748   -17.91326454
     0.00000000     0.00000000     0.00000000
     7.09573423     7.82609928    18.42613516
    14.87098478     7.10231926    17.38775998
    23.63609399     2.04821271    13.23745837
    25.05090989    -0.44768029     8.22207772
    23.19747037    -0.71960158     0.49626656
    24.59103470     0.01478884     1.71133169
     7.40880182   -22.87104777   -10.81850043
    19.45059262   -14.64559434    -7.69395107
     0.00000000     0.00000000     0.00000000
     8.93115482    -3.29232051    16.44072683
    25.30440676    -9.84350149    16.35184339
    34.79602505    -8.98930078    13.18945917
    41.71034140    -5.15788574     8.62823850
    33.09543704     5.86919129    -0.79646386
    28.74004129    11.12415022     1.39131538
     3.48615720    -3.67542189    -8.26984975
   -26.33414129    -5.39349053    -2.69626023
     0.00000000     0.00000000     0.00000000
     9.54519567   -18.47154999    10.79123169
    17.06112693   -25.60296736     5.73925762
    24.05156932   -20.07990330     1.37763031
    25.93419744   -10.92494488    -5.99546503
    25.89651307     7.66462669   -11.66593538
    24.23608248    21.84959790    -3.44571087
     2.94983148     4.31773700    -1.72825009
     0.00000000     0.00000000     0.00000000
     0.00000000     0.00000000     0.00000000
     4.05877279   -29.14489294    10.73304504
     4.55806509   -31.46802324     4.28608212
     3.28900012   -25.27253583    -0.29659608
     6.03235924   -12.30965214   -10.92253576
    11.52810150     3.92763765   -16.69026404
     9.04691126    32.74195114   -12.38710830
    -1.69934040    24.23199361   -14.34422100
    -4.14242976    -6.93997290    17.53920527
     0.00000000     0.00000000     0.00000000
    -1.30528558   -31.17546310    11.33686050
    -8.68009968   -31.07884953     6.46672934
   -12.43253863   -21.30048097     4.16284591
   -12.73466520   -11.71944725    -4.19907511
    -5.34194286     7.80185448   -11.94713786
    -3.38865762    40.27515147   -16.43052450
    -9.87387479    44.83838824   -17.78842426
    10.80342267   -20.43798872     8.82993816
     0.00000000     0.00000000     0.00000000
    -4.95174769   -26.94999058    11.95839347
   -17.28293821   -25.04240554     8.58389797
   -22.81528489   -18.39919005     7.42598082
   -24.09895790    -6.49593470    -1.17674497
   -18.26544637     8.97534720    -7.42630684
   -14.36259712    40.47668025   -19.10758126
    -6.82764559    50.24171112   -26.77074253
     1.67258712   -24.98989891    13.42657930
     0.00000000     0.00000000     0.00000000
    -7.26946499   -16.63996570     7.77003425
   -16.87908264   -15.26007336     8.93725870
   -21.95628420   -13.24802120     6.52783089
   -28.28770640    -5.47559410     3.71387065
   -30.04393978     4.16602398     0.77619854
   -28.58423493    23.56260460    -6.83740951
   -14.89121895    44.67558629   -21.03203485
    28.36630221   -36.46691128     6.29746560
     0.00000000     0.00000000     0.00000000
     0.00000000     0.00000000     0.00000000
     0.00000000     0.00000000     0.00000000
     0.00000000     0.00000000     0.00000000
     0.00000000     0.00000000     0.00000000
     0.00000000     0.00000000     0.00000000
     0.00000000     0.00000000     0.00000000
     0.00000000     0.00000000     0.00000000
     0.00000000     0.00000000     0.00000000
     0.00000000     0.00000000     0.00000000
     0.00000000     0.00000000     0.00000000
     0.00000000     0.00000000     0.00000000
     0.00000000     0.00000000     0.00000000
     0.00000000     0.00000000     0.00000000
     0.00000000     0.00000000     0.00000000
     0.00000000     0.00000000     0.00000000
     0.00000000     0.00000000     0.00000000
     0.00000000     0.00000000     0.00000000
     0.00000000     0.00000000     0.00000000
     0.48587977     4.01428035     5.56454110
     0.01867869     2.90133624     2.83366220
    -0.21685971    -0.03810704     0.25593443
    -3.49646576    -1.35447827    -3.85221573
    -4.70138270    -4.97161969    -3.90988485
   -14.56863771    -0.70138919     0.18828403
   -19.31149585   -28.03765551    -4.44935049
    26.61818745    16.99508690   -15.39429079
     0.00000000     0.00000000     0.00000000
     2.67595053     5.61364074     8.87033193
     9.86307698    -0.11167680     7.86033031
    10.33864638     0.07936029     2.92792032
     8.62886157    -2.66197337    -0.66554347
     2.84842822    -3.39524548    -4.52258577
    -8.76688725     3.84521979    -0.00654708
    -8.32536088   -34.40440161    -4.82417582
    14.08126329     1.90669536   -15.96184649
     0.00000000     0.00000000     0.00000000
     7.47791678     2.95131359    13.33739611
    16.99399004     0.32402807    14.89861428
    22.54714619     0.69795675    11.19309859
    21.56542484     4.02203478     7.44355355
    15.49889991     3.78764127     1.41533384
    12.13238570     9.15921541    -0.76481206
    -4.26558914   -20.30935605     0.35372904
    14.82178827    -4.85636053    -9.08490867
     0.00000000     0.00000000     0.00000000
     8.51031410    -2.02784728    12.28443369
    22.74860979    -1.82125758    15.09551682
    27.96398877     2.56508604    12.42648810
    29.70811313     9.47423795     6.62055204
    26.50844576    14.81548269     3.82940821
     2.29511777    20.46784045    -4.54834226
    15.64255909   -14.23482676     6.62533338
   -31.47796266     4.93115637    -6.61196338
     0.00000000     0.00000000     0.00000000
     6.34201386    -7.69359103     8.70006719
    17.36586933    -7.92674736    11.14620309
    26.21488567    -1.44504879     5.01818444
    27.98781995     9.03141351     0.18383967
    22.96389124    21.50455577    -6.18796807
    21.23218468    33.23966494    -5.20931873
     2.07741891     2.33896241     7.69020637
     0.00000000     0.00000000     0.00000000
     0.00000000     0.00000000     0.00000000
     6.17083236   -14.00049364     8.90629240
    14.97466542   -13.74512329     9.86793910
    16.73722971   -11.17143907     1.73307916
    19.90369436     0.88833105    -4.89291913
    14.47405476    20.94245223   -15.20000910
    10.23369470    30.04852513    -8.88540026
    -3.77294898    54.28576221   -10.41651770
    -7.12119565   -31.18176151    16.80384244
     0.00000000     0.00000000     0.00000000
     1.19037550   -18.62015740     8.97639214
     3.59263779   -17.73805279     9.79106099
     3.51812127   -17.33125880     3.74061566
    -1.32275127   -10.02225656    -3.35608197
    -4.98984991    11.77679060   -15.70729976
    -4.57033520    27.03871882    -8.90169732
    -7.63755646    69.58329635   -20.78156286
     1.14750979   -36.15675973    18.83673786
     0.00000000     0.00000000     0.00000000
    -1.64159964   -16.67003464     7.81086348
    -3.36690852   -15.59012748     9.67871281
    -7.29311448   -18.12333533     6.59376757
   -12.64667112   -12.32824806     4.35101556
   -21.89934605    -0.49519031    -5.85419443
   -12.29454222    15.56795426    -1.63480581
    -8.80245591    61.54975232   -32.73987770
    -0.08263962   -20.05205863    16.78853401
     0.00000000     0.00000000     0.00000000
    -4.16110170   -11.52687646     4.86803970
    -6.05850598    -9.47161549     7.26185051
    -8.25004286   -11.32499914     6.17406737
   -13.36535810    -8.17905069     7.17980673
   -18.31510248    -3.47407207     3.67902820
   -15.24020780     1.40363190     9.11763505
   -11.66876425    40.33338842   -23.30930177
    12.65624761   -23.23365273     3.54467546
     0.00000000     0.00000000     0.00000000
     0.00000000     0.00000000     0.00000000
     0.00000000     0.00000000     0.00000000
     0.00000000     0.00000000     0.00000000
     0.00000000     0.00000000     0.00000000
     0.00000000     0.00000000     0.00000000
     0.00000000     0.00000000     0.00000000
     0.00000000     0.00000000     0.00000000
     0.00000000     0.00000000     0.00000000
     0.00000000     0.00000000     0.00000000
     0.00000000     0.00000000     0.00000000
     0.00000000     0.00000000     0.00000000
     0.00000000     0.00000000     0.00000000
     0.00000000     0.00000000     0.00000000
     0.00000000     0.00000000     0.00000000
     0.00000000     0.00000000     0.00000000
     0.00000000     0.00000000     0.00000000
     0.00000000     0.00000000     0.00000000
     0.00000000     0.00000000     0.00000000
     0.00000000     0.00000000     0.00000000
     0.00000000     0.00000000     0.00000000
     0.00000000     0.00000000     0.00000000
     0.00000000     0.00000000     0.00000000
     0.00000000     0.00000000     0.00000000
     0.00000000     0.00000000     0.00000000
     0.00000000     0.00000000     0.00000000
     0.00000000     0.00000000     0.00000000
     0.00000000     0.00000000     0.00000000
     0.00000000     0.00000000     0.00000000
     0.00000000     0.00000000     0.00000000
     0.00000000     0.00000000     0.00000000
     0.00000000     0.00000000     0.00000000
     0.00000000     0.00000000     0.00000000
     0.00000000     0.00000000     0.00000000
     0.00000000     0.00000000     0.00000000
     0.00000000     0.00000000     0.00000000
     0.00000000     0.00000000     0.00000000
     0.00000000     0.00000000     0.00000000
     0.00000000     0.00000000     0.00000000
     0.00000000     0.00000000     0.00000000
     0.00000000     0.00000000     0.00000000
     0.00000000     0.00000000     0.00000000
     0.00000000     0.00000000     0.00000000
     0.00000000     0.00000000     0.00000000
     0.00000000     0.00000000     0.00000000
     0.00000000     0.00000000     0.00000000
     0.00000000     0.00000000     0.00000000
     0.00000000     0.00000000     0.00000000
     0.00000000     0.00000000     0.00000000
     0.00000000     0.00000000     0.00000000
     0.00000000     0.00000000     0.00000000
     0.00000000     0.00000000     0.00000000
     0.00000000     0.00000000     0.00000000
     0.00000000     0.00000000     0.00000000
     0.00000000     0.00000000     0.00000000
     0.00000000     0.00000000     0.00000000
     0.00000000     0.00000000     0.00000000
     0.00000000     0.00000000     0.00000000
     0.00000000     0.00000000     0.00000000
     0.00000000     0.00000000     0.00000000
     0.00000000     0.00000000     0.00000000
     0.00000000     0.00000000     0.00000000
     0.00000000     0.00000000     0.00000000
     0.00000000     0.00000000     0.00000000
     0.00000000     0.00000000     0.00000000
     0.00000000     0.00000000     0.00000000
     0.00000000     0.00000000     0.00000000
     0.00000000     0.00000000     0.00000000
     0.00000000     0.00000000     0.00000000
     0.00000000     0.00000000     0.00000000
     0.00000000     0.00000000     0.00000000
     0.00000000     0.00000000     0.00000000
     0.00000000     0.00000000     0.00000000
     0.00000000     0.00000000     0.00000000
     0.00000000     0.00000000     0.00000000
     0.00000000     0.00000000     0.00000000
     0.00000000     0.00000000     0.00000000
     0.00000000     0.00000000     0.00000000
     0.00000000     0.00000000     0.00000000
     0.00000000     0.00000000     0.00000000
     0.00000000     0.00000000     0.00000000
     0.00000000     0.00000000     0.00000000
     0.00000000     0.00000000     0.00000000
     0.00000000     0.00000000     0.00000000
     0.00000000     0.00000000     0.00000000
     0.00000000     0.00000000     0.00000000
     0.00000000     0.00000000     0.00000000
     0.00000000     0.00000000     0.00000000
     0.00000000     0.00000000     0.00000000
     0.00000000     0.00000000     0.00000000
     0.00000000     0.00000000     0.00000000
     0.00000000     0.00000000     0.00000000
     0.00000000     0.00000000     0.00000000
     0.00000000     0.00000000     0.00000000
     0.00000000     0.00000000     0.00000000
     0.00000000     0.00000000     0.00000000
     0.00000000     0.00000000     0.00000000
     0.00000000     0.00000000     0.00000000
     0.00000000     0.00000000     0.00000000
     0.00000000     0.00000000     0.00000000
     0.00000000     0.00000000     0.00000000
     0.00000000     0.00000000     0.00000000
     0.00000000     0.00000000     0.00000000
     0.00000000     0.00000000     0.00000000
     0.00000000     0.00000000     0.00000000
     0.00000000     0.00000000     0.00000000
     0.00000000     0.00000000     0.00000000
     0.00000000     0.00000000     0.00000000
     0.00000000     0.00000000     0.00000000
     0.00000000     0.00000000     0.00000000
     0.00000000     0.00000000     0.00000000
     0.00000000     0.00000000     0.00000000
     0.00000000     0.00000000     0.00000000
     0.00000000     0.00000000     0.00000000
     0.00000000     0.00000000     0.00000000
     0.00000000     0.00000000     0.00000000
     0.00000000     0.00000000     0.00000000
     0.00000000     0.00000000     0.00000000
     0.00000000     0.00000000     0.00000000
    -4.97878815     5.23916542     0.00000000
   -12.87136501    13.24862218     0.00000000
   -16.32895212    -4.52616840     0.00000000
   -17.66237963    -2.46647655     0.00000000
   -17.22730888    -7.16222258     0.00000000
   -15.26466816    -7.14979818     0.00000000
   -11.92549443    -9.55156793     0.00000000
    -7.15398480    -8.88842239     0.00000000
    -3.18565641    -7.17576788     0.00000000
    -0.26414680    -3.35958107     0.00000000
     0.00000000     0.00000000     0.00000000
   -20.88404619    14.94611386     0.00000000
   -21.21158056    14.50168970     0.00000000
   -14.09269384     4.38806316     0.00000000
   -12.04518273     2.88101146     0.00000000
    -9.90745431    -3.02125478     0.00000000
    -6.89138420    -7.04069233     0.00000000
    -4.25839283   -13.26535291     0.00000000
    -1.63568469   -16.59901198     0.00000000
     0.25687702   -16.95699634     0.00000000
     1.53628901   -11.63783482     0.00000000
     0.00000000     0.00000000     0.00000000
    -1.75001092    -0.70280522     0.00000000
     5.90014352     9.40917118     0.00000000
     3.72143005    20.03497227     0.00000000
     4.87231245    14.52972554     0.00000000
     5.13782195    10.33090566     0.00000000
     8.98396780     1.95597391     0.00000000
    11.13000166    -4.29837845     0.00000000
    12.51267096   -10.91867065     0.00000000
    10.44975434   -14.41522744     0.00000000
     5.61211461   -12.06963581     0.00000000
     0.00000000     0.00000000     0.00000000
    17.17212661   -19.26471135     0.00000000
     0.52749157    -0.30280207     0.00000000
    -1.09299460    11.15743544     0.00000000
     6.84716818    10.45622057     0.00000000
    13.67410322    11.07894855     0.00000000
    18.57922197     7.02102462     0.00000000
    19.32483203     4.06374985     0.00000000
    17.10362801    -0.04451485     0.00000000
    11.30776468    -3.04519161     0.00000000
     4.27311504    -3.32186935     0.00000000
     0.00000000     0.00000000     0.00000000
     0.00000000     0.00000000     0.00000000
     0.00000000     0.00000000     0.00000000
     0.00000000     0.00000000     0.00000000
     0.00000000     0.00000000     0.00000000
     0.00000000     0.00000000     0.00000000
     0.00000000     0.00000000     0.00000000
     0.00000000     0.00000000     0.00000000
     0.00000000     0.00000000     0.00000000
     0.00000000     0.00000000     0.00000000
     0.00000000     0.00000000     0.00000000
     0.00000000     0.00000000     0.00000000
     0.00000000     0.00000000     0.00000000
     0.00000000     0.00000000     0.00000000
     0.00000000     0.00000000     0.00000000
     0.00000000     0.00000000     0.00000000
     0.00000000     0.00000000     0.00000000
     0.00000000     0.00000000     0.00000000
     0.00000000     0.00000000     0.00000000
     0.00000000     0.00000000     0.00000000
     0.00000000     0.00000000     0.00000000
     0.00000000     0.00000000     0.00000000
     0.00000000     0.00000000     0.00000000
    -2.79942052     1.53592478   -18.62796287
   -10.90302519    13.99780516    -0.84508369
   -14.70519940    -3.16828902     0.86740833
   -16.77495058    -2.19398857     0.05519662
   -16.52761012    -6.45965210     0.92006811
   -15.40689530    -6.64877793     0.11394374
   -11.54150192    -8.84904589     0.64520219
    -7.54404885    -8.37915063     0.47423297
    -2.99469902    -6.73194986     0.41050423
    -0.60382099    -3.28990486    -0.10831161
     0.00000000     0.00000000     0.00000000
   -16.48202266    10.33163489     5.52603967
   -17.86743719    15.94589981    -0.49893890
   -12.72736530     4.95211649    -5.40680917
   -12.82013287     2.83124191    -5.01859088
    -9.50655643    -2.59237983    -4.91148974
    -8.09947928    -7.20902477    -3.55286291
    -4.49489823   -12.88039010    -2.36906491
    -2.25046647   -16.26594245    -0.39959318
     0.22147493   -16.27313838     0.87851630
     1.51161993   -11.15633624     1.17946578
     0.00000000     0.00000000     0.00000000
     4.91429577    -5.20860193     3.20193605
     9.26399876     9.47160357     3.82473175
     5.77919528    20.04312731    -0.79116512
     5.29851608    14.63826174    -3.58427041
     6.95191124    10.48026644    -5.50182842
     9.38764913     1.68930864    -5.30019327
    11.82344855    -4.57625791    -4.08136957
    12.18473888   -11.02213319    -1.27281002
    10.29488224   -14.06475457     1.49667959
     5.38630349   -11.41603907     2.54078282
     0.00000000     0.00000000     0.00000000
    11.50173684   -16.40886149     5.91084034
     2.33958750    -1.67959157     2.79711457
    -0.74829343    10.42889519     0.29468514
     7.84905002    10.58019067    -0.87571827
    13.89934845    10.59424755     0.36462116
    18.64738398     6.40513585     0.07453622
    19.20536219     3.44192417     0.98356250
    16.55251073    -0.66636350     1.76610400
    10.87007007    -3.36429842     3.12790655
     3.88572366    -3.40679635     3.17625424
     0.00000000     0.00000000     0.00000000
     0.00000000     0.00000000     0.00000000
     0.00000000     0.00000000     0.00000000
     0.00000000     0.00000000     0.00000000
     0.00000000     0.00000000     0.00000000
     0.00000000     0.00000000     0.00000000
     0.00000000     0.00000000     0.00000000
     0.00000000     0.00000000     0.00000000
     0.00000000     0.00000000     0.00000000
     0.00000000     0.00000000     0.00000000
     0.00000000     0.00000000     0.00000000
     0.00000000     0.00000000     0.00000000
     0.00000000     0.00000000     0.00000000
     0.00000000     0.00000000     0.00000000
     0.00000000     0.00000000     0.00000000
     0.00000000     0.00000000     0.00000000
     0.00000000     0.00000000     0.00000000
     0.00000000     0.00000000     0.00000000
     0.00000000     0.00000000     0.00000000
     0.00000000     0.00000000     0.00000000
     0.00000000     0.00000000     0.00000000
     0.00000000     0.00000000     0.00000000
     0.00000000     0.00000000     0.00000000
     4.09369768    -6.59002715   -32.08036085
    -6.74037017    12.88175962    -4.57462726
   -10.51598836    -0.83231974     2.85724321
   -14.13071352    -0.79490981     1.02682789
   -15.43129666    -4.44830120     1.81682297
   -14.13915057    -4.74899115     0.04399810
   -11.60495452    -6.84220809     1.22076445
    -7.24500539    -6.56520812     0.70981220
    -3.47673782    -5.51240579     0.85768656
    -0.44920935    -2.78319632    -0.32474104
     0.00000000     0.00000000     0.00000000
    -4.53476304    -0.25028977     5.75923692
   -12.07674564    16.59805234     2.58387448
    -8.45929184     6.09975530    -7.62540499
    -9.70672024     4.07174017    -6.78881695
   -10.87983551    -2.01017101    -7.31968840
    -9.16466099    -6.15991602    -5.89235253
    -6.75406621   -11.85018901    -3.74698719
    -3.76764024   -14.23573323    -0.92932031
    -1.07397397   -13.96805320     1.23411205
     0.83797214    -9.24207701     1.81964589
     0.00000000     0.00000000     0.00000000
     8.96181346    -8.62349534     4.48218997
    11.43355443     7.98701591     9.64456473
     9.31710993    19.76914367    -0.89485244
     8.96300467    15.17941112    -5.44449527
     7.94767646     9.30172254    -8.60155948
     9.94993979     0.10468436    -8.36900697
    10.04430331    -6.24907990    -5.80418513
     9.79893494   -11.88136074    -1.38420841
     7.63861344   -13.50711712     2.85881254
     4.04976493    -9.92437626     4.19831049
     0.00000000     0.00000000     0.00000000
     5.48084473   -10.76160574     7.70385449
     1.37631893    -4.86887933     1.61401304
     0.83240664    10.52148398     0.57387818
     8.18968774     9.75542737    -0.80252036
    14.37311619     8.74535236     0.63976086
    18.31267868     4.50944882     0.15384053
    17.78241096     1.28672427     1.82521145
    14.49044565    -2.38009123     3.25038714
     8.58692814    -4.61860593     5.57297465
     3.01566065    -3.68530313     5.08438791
     0.00000000     0.00000000     0.00000000
     0.00000000     0.00000000     0.00000000
     0.00000000     0.00000000     0.00000000
     0.00000000     0.00000000     0.00000000
     0.00000000     0.00000000     0.00000000
     0.00000000     0.00000000     0.00000000
     0.00000000     0.00000000     0.00000000
     0.00000000     0.00000000     0.00000000
     0.00000000     0.00000000     0.00000000
     0.00000000     0.00000000     0.00000000
     0.00000000     0.00000000     0.00000000
     0.00000000     0.00000000     0.00000000
     0.00000000     0.00000000     0.00000000
     0.00000000     0.00000000     0.00000000
     0.00000000     0.00000000     0.00000000
     0.00000000     0.00000000     0.00000000
     0.00000000     0.00000000     0.00000000
     0.00000000     0.00000000     0.00000000
     0.00000000     0.00000000     0.00000000
     0.00000000     0.00000000     0.00000000
     0.00000000     0.00000000     0.00000000
     0.00000000     0.00000000     0.00000000
     0.00000000     0.00000000     0.00000000
     8.13171659   -11.25881815   -39.94288866
     0.23686239     8.32755062    -9.58887150
    -6.93943560     0.54364120     6.74282528
   -10.62569280     1.06000564     1.18092106
   -11.18865528    -1.44603894     2.31772482
   -11.77547732    -2.07154955     0.13717747
    -9.96611908    -3.78318782     1.38185135
    -6.99339338    -3.69812182     0.54130140
    -3.02646098    -3.03423670     1.02419975
    -0.68052506    -1.79054481    -0.46411578
     0.00000000     0.00000000     0.00000000
    -1.47265653   -12.20393266     2.94834129
    -2.66462655    13.54264629    -0.48850436
     1.19946514     5.38825324    -2.37153128
    -7.17751600     4.99951248    -3.48525500
    -8.67439495     0.08352683    -6.67568063
   -10.30152152    -4.30094084    -4.53503022
    -8.36827181    -8.77762155    -3.73090002
    -6.12258745   -10.47407445    -0.79571813
    -2.73580790    -9.66807300     0.58971789
    -0.02620440    -6.06352249     1.50498767
     0.00000000     0.00000000     0.00000000
     4.47396615   -16.84408893     4.12257965
    12.94310124     5.16605102     7.69343812
    13.43994610    19.21491051     0.70867299
     8.72245433    12.66203420    -3.62928711
     7.90704405     6.95344071    -8.07436007
     6.38149268    -1.93155192    -6.62569054
     4.84917094    -7.27282978    -4.60861587
     3.37229437   -11.42301878    -0.25033749
     2.78886395   -11.31160157     2.71568080
     1.87873761    -7.17969443     3.68667414
     0.00000000     0.00000000     0.00000000
    -3.27961226    -0.37719852    11.73204563
    -0.42484851    -6.11549789    -5.13776543
    -2.92990498     9.75688140     2.68946351
     7.36407769     6.59435778    -1.97045525
    13.16986332     5.57077068     1.18982517
    15.19425731     1.60830799     0.10322207
    12.91808464    -1.06822992     2.67156941
     8.82883780    -4.34644947     3.65718364
     4.51578907    -5.62787699     6.08959095
     1.34706117    -3.79200981     4.61118752
     0.00000000     0.00000000     0.00000000
     0.00000000     0.00000000     0.00000000
     0.00000000     0.00000000     0.00000000
     0.00000000     0.00000000     0.00000000
     0.00000000     0.00000000     0.00000000
     0.00000000     0.00000000     0.00000000
     0.00000000     0.00000000     0.00000000
     0.00000000     0.00000000     0.00000000
     0.00000000     0.00000000     0.00000000
     0.00000000     0.00000000     0.00000000
     0.00000000     0.00000000     0.00000000
     0.00000000     0.00000000     0.00000000
     0.00000000     0.00000000     0.00000000
     0.00000000     0.00000000     0.00000000
     0.00000000     0.00000000     0.00000000
     0.00000000     0.00000000     0.00000000
     0.00000000     0.00000000     0.00000000
     0.00000000     0.00000000     0.00000000
     0.00000000     0.00000000     0.00000000
     0.00000000     0.00000000     0.00000000
     0.00000000     0.00000000     0.00000000
     0.00000000     0.00000000     0.00000000
     0.00000000     0.00000000     0.00000000
    17.41163058     0.16226944   -39.60675913
     0.57027853    -1.17847260    -7.07682068
    -7.10898566     0.78377158     5.27622606
    -3.48715705     1.01393997     0.02360816
    -5.78026148     0.45415249     2.24550268
    -6.29974266    -0.55514534    -0.02453167
    -6.59434122    -1.32213103     1.14824089
    -4.44081862    -1.42533545    -0.08005453
    -2.19802625    -1.07413315     0.49521722
    -0.06049254    -0.43450994    -0.26785660
     0.00000000     0.00000000     0.00000000
     7.14063414   -19.86899022    -7.46959917
     2.15108235     6.81222292    -4.80836742
     0.65069848     0.82015218     3.40461183
    -0.61640623     5.78432129    -1.62396718
    -4.51148759     1.06573448    -1.48942541
    -6.98154911    -0.90047546    -1.94362962
    -7.01798630    -4.40251765    -1.38432845
    -5.76208585    -4.68622498    -0.56957622
    -3.12454508    -4.66548003    -0.11041859
    -0.96670514    -2.25030406     0.44829686
     0.00000000     0.00000000     0.00000000
     6.51770623   -22.17099219    -1.24523367
     9.15813920    -0.57841339    -0.68820784
     6.96942920    12.92469027     2.68075617
     6.38299371     7.52197229    -2.34206788
     4.31109908     4.20354448    -2.82838495
     1.93200401    -2.05168011    -2.57934873
    -0.79896137    -4.67480684    -1.35747074
    -1.58252572    -7.33840281     0.28466665
    -1.15662356    -6.26197942     1.10418378
     0.00104613    -4.01224576     1.40664129
     0.00000000     0.00000000     0.00000000
     4.17883850    -2.61365691     9.30123348
    -5.82592287    -3.34424428    -3.61247082
    -7.59162041     4.43977204    -0.04522977
     5.20167530     3.96934822    -2.15716591
     7.81835003     2.20630417     0.87597381
     7.98749420     0.43259059     0.26575941
     5.08064284    -1.81256961     2.28030501
     2.49928198    -3.31912702     2.34656567
     0.58700615    -4.07986162     3.55053941
     0.51469656    -2.61541882     2.35269631
     0.00000000     0.00000000     0.00000000
     0.00000000     0.00000000     0.00000000
     0.00000000     0.00000000     0.00000000
     0.00000000     0.00000000     0.00000000
     0.00000000     0.00000000     0.00000000
     0.00000000     0.00000000     0.00000000
     0.00000000     0.00000000     0.00000000
     0.00000000     0.00000000     0.00000000
     0.00000000     0.00000000     0.00000000
     0.00000000     0.00000000     0.00000000
     0.00000000     0.00000000     0.00000000
     0.00000000     0.00000000     0.00000000
     0.00000000     0.00000000     0.00000000
     0.00000000     0.00000000     0.00000000
     0.00000000     0.00000000     0.00000000
     0.00000000     0.00000000     0.00000000
     0.00000000     0.00000000     0.00000000
     0.00000000     0.00000000     0.00000000
     0.00000000     0.00000000     0.00000000
     0.00000000     0.00000000     0.00000000
     0.00000000     0.00000000     0.00000000
     0.00000000     0.00000000     0.00000000
     0.00000000     0.00000000     0.00000000
     0.00000000     0.00000000     0.00000000
     0.00000000     0.00000000     0.00000000
     0.00000000     0.00000000     0.00000000
     0.00000000     0.00000000     0.00000000
     0.00000000     0.00000000     0.00000000
     0.00000000     0.00000000     0.00000000
     0.00000000     0.00000000     0.00000000
     0.00000000     0.00000000     0.00000000
     0.00000000     0.00000000     0.00000000
     0.00000000     0.00000000     0.00000000
     0.00000000     0.00000000     0.00000000
     0.00000000     0.00000000     0.00000000
     0.00000000     0.00000000     0.00000000
     0.00000000     0.00000000     0.00000000
     0.00000000     0.00000000     0.00000000
     0.00000000     0.00000000     0.00000000
     0.00000000     0.00000000     0.00000000
     0.00000000     0.00000000     0.00000000
     0.00000000     0.00000000     0.00000000
     0.00000000     0.00000000     0.00000000
     0.00000000     0.00000000     0.00000000
     0.00000000     0.00000000     0.00000000
     0.00000000     0.00000000     0.00000000
     0.00000000     0.00000000     0.00000000
     0.00000000     0.00000000     0.00000000
     0.00000000     0.00000000     0.00000000
     0.00000000     0.00000000     0.00000000
     0.00000000     0.00000000     0.00000000
     0.00000000     0.00000000     0.00000000
     0.00000000     0.00000000     0.00000000
     0.00000000     0.00000000     0.00000000
     0.00000000     0.00000000     0.00000000
     0.00000000     0.00000000     0.00000000
     0.00000000     0.00000000     0.00000000
     0.00000000     0.00000000     0.00000000
     0.00000000     0.00000000     0.00000000
     0.00000000     0.00000000     0.00000000
     0.00000000     0.00000000     0.00000000
     0.00000000     0.00000000     0.00000000
     0.00000000     0.00000000     0.00000000
     0.00000000     0.00000000     0.00000000
     0.00000000     0.00000000     0.00000000
     0.00000000     0.00000000     0.00000000
     0.00000000     0.00000000     0.00000000
     0.00000000     0.00000000     0.00000000
     0.00000000     0.00000000     0.00000000
     0.00000000     0.00000000     0.00000000
     0.00000000     0.00000000     0.00000000
     0.00000000     0.00000000     0.00000000
     0.00000000     0.00000000     0.00000000
     0.00000000     0.00000000     0.00000000
     0.00000000     0.00000000     0.00000000
     0.00000000     0.00000000     0.00000000
     0.00000000     0.00000000     0.00000000
     0.00000000     0.00000000     0.00000000
     0.00000000     0.00000000     0.00000000
     0.00000000     0.00000000     0.00000000
     0.00000000     0.00000000     0.00000000
     0.00000000     0.00000000     0.00000000
     0.00000000     0.00000000     0.00000000
     0.00000000     0.00000000     0.00000000
     0.00000000     0.00000000     0.00000000
     0.00000000     0.00000000     0.00000000
    24.46333501    44.25726607     0.00000000
    59.34289609   -21.94549459     0.00000000
    49.61151854   -30.03277784     0.00000000
    30.19351223   -21.41978664     0.00000000
    14.56666795   -11.28555165     0.00000000
     6.30979951    -4.75966253     0.00000000
     4.07313553    -0.00921251     0.00000000
     6.53727319     0.71294330     0.00000000
     7.41831600    -1.98772800     0.00000000
    23.52389034    87.06701007     0.00000000
     0.28957013     0.40847401     0.00000000
     3.64828231   -30.30248168     0.00000000
     8.80308796   -30.29780770     0.00000000
     9.35934671   -21.09175645     0.00000000
     9.57552635    -9.94834488     0.00000000
    10.66314002    -1.19397218     0.00000000
    12.46505179     4.12312449     0.00000000
    11.12746800    -2.98159200     0.00000000
    23.91747337    64.24698512     0.00000000
   -10.20205111     1.04606276     0.00000000
   -17.09220140   -12.62996321     0.00000000
    -7.21325671   -19.86399295     0.00000000
     3.77342892   -17.01279826     0.00000000
    12.41774944    -9.76576040     0.00000000
    16.60367323    -2.25717890     0.00000000
    15.92264304     3.18792718     0.00000000
    11.12746800    -2.98159200     0.00000000
    17.80099061    26.51929926     0.00000000
   -15.85267384    -2.62485336     0.00000000
    -5.73219006    -3.97250093     0.00000000
    -0.17745438    -7.80524703     0.00000000
     9.10452077    -7.76210223     0.00000000
    13.87072544    -6.09511172     0.00000000
    15.18856889    -2.68383802     0.00000000
    10.56285772    -0.42885792     0.00000000
     7.41831600    -1.98772800     0.00000000
     0.00000000     0.00000000     0.00000000
     0.00000000     0.00000000     0.00000000
     0.00000000     0.00000000     0.00000000
     0.00000000     0.00000000     0.00000000
     0.00000000     0.00000000     0.00000000
     0.00000000     0.00000000     0.00000000
     0.00000000     0.00000000     0.00000000
     0.00000000     0.00000000     0.00000000
     0.00000000     0.00000000     0.00000000
     0.00000000     0.00000000     0.00000000
     0.00000000     0.00000000     0.00000000
     0.00000000     0.00000000     0.00000000
     0.00000000     0.00000000     0.00000000
     0.00000000     0.00000000     0.00000000
     0.00000000     0.00000000     0.00000000
     0.00000000     0.00000000     0.00000000
     0.00000000     0.00000000     0.00000000
     0.00000000     0.00000000     0.00000000
    27.26453394    44.37356526    -7.17602592
    62.25116378   -22.42949714    -5.46593197
    48.98625751   -29.63490778    -0.40949276
    28.16638912   -19.99318466     2.37506455
    13.06392606   -10.42173871     2.00322348
     5.00039854    -4.14110992     1.16946509
     3.88787177    -0.00723165     0.54808498
     5.75138965     0.70792941    -0.04177358
     7.00562400    -1.87714800     0.00000000
    22.91125565    90.28823229    -1.83432869
    -1.23430928    -1.70399488    -0.09661341
     3.14735732   -29.81348347    -1.85214352
     7.73227120   -28.77110943    -0.48907376
     7.77183433   -19.07630792     0.66058937
     7.77241701    -8.33349004    -0.00194299
     9.63145268    -0.53394028     0.19669827
    11.39091218     3.93545735     1.21894112
    10.60129200    -2.84060400     0.00000000
    22.86200968    65.42878041    -0.21825570
   -12.36808584     0.62363106    -1.19481456
   -16.76773622   -12.25291247    -2.46367840
    -7.03995751   -18.50137699    -2.46442509
     3.97372658   -15.38942143    -1.02949888
    11.41687533    -8.20170360    -0.86719804
    15.55515201    -1.45628067     0.04187315
    14.60841627     3.17475879     1.84087237
    10.60129200    -2.84060400     0.00000000
    15.59487253    25.51671522     2.34002072
   -12.54308641    -3.00468714    -0.17259330
    -6.64157246    -2.78348743     0.52413243
     0.81925588    -6.97370875     0.71983876
     8.15456500    -6.56879008     0.03278142
    13.67549304    -5.46115298     0.40353995
    13.48354196    -1.98517986     0.79439957
    10.17636599    -0.33822526     1.42378670
     7.00562400    -1.87714800     0.00000000
     0.00000000     0.00000000     0.00000000
     0.00000000     0.00000000     0.00000000
     0.00000000     0.00000000     0.00000000
     0.00000000     0.00000000     0.00000000
     0.00000000     0.00000000     0.00000000
     0.00000000     0.00000000     0.00000000
     0.00000000     0.00000000     0.00000000
     0.00000000     0.00000000     0.00000000
     0.00000000     0.00000000     0.00000000
     0.00000000     0.00000000     0.00000000
     0.00000000     0.00000000     0.00000000
     0.00000000     0.00000000     0.00000000
     0.00000000     0.00000000     0.00000000
     0.00000000     0.00000000     0.00000000
     0.00000000     0.00000000     0.00000000
     0.00000000     0.00000000     0.00000000
     0.00000000     0.00000000     0.00000000
     0.00000000     0.00000000     0.00000000
    33.33784316    45.49678097   -15.53062293
    64.92896174   -24.74129182    -8.73069013
    44.70536760   -27.19925177     1.43554786
    21.79805814   -16.55283982     4.85029012
     8.42894352    -8.30292026     3.30951628
     3.19423252    -3.14387898     1.68416120
     2.40306770    -0.06188007     0.90501504
     4.99335767     0.37830911    -0.17538391
     5.96131200    -1.59733200     0.00000000
    16.96385565    91.72465420    -7.49341126
    -4.68695207    -7.13448749    -0.79783697
     1.73014236   -28.57295192    -3.77299448
     4.41064967   -23.93879970     0.94129633
     2.88965015   -13.98836533     1.12493952
     4.30873229    -5.24024089     0.00907428
     6.13102080     0.64524150     0.28198428
     9.00735544     2.98143306     1.59173767
     9.08798400    -2.43512400     0.00000000
    15.72809669    65.50909590    -4.68732729
   -14.90479631    -0.18764921    -0.12209287
   -16.39908592   -10.24801633    -4.80177782
    -5.97849985   -15.04578433    -2.86306642
     2.77841944   -10.83994791    -1.63102297
     9.00662216    -4.97712662    -1.11280301
    11.36771429     0.48423664     0.07501051
    11.53282773     2.79508093     2.49844165
     9.08798400    -2.43512400     0.00000000
    20.69638297    21.87657286     3.08078503
   -10.93635872    -0.93863021     1.68207982
    -5.31913414    -1.55608137     0.68067844
     0.13114888    -4.11139679     0.69668940
     7.60422638    -4.90495553     0.20377629
    10.71361390    -3.26797750     0.43758212
    11.16353754    -1.02384720     1.50291793
     7.63854329     0.28551534     1.98625050
     5.96131200    -1.59733200     0.00000000
     0.00000000     0.00000000     0.00000000
     0.00000000     0.00000000     0.00000000
     0.00000000     0.00000000     0.00000000
     0.00000000     0.00000000     0.00000000
     0.00000000     0.00000000     0.00000000
     0.00000000     0.00000000     0.00000000
     0.00000000     0.00000000     0.00000000
     0.00000000     0.00000000     0.00000000
     0.00000000     0.00000000     0.00000000
     0.00000000     0.00000000     0.00000000
     0.00000000     0.00000000     0.00000000
     0.00000000     0.00000000     0.00000000
     0.00000000     0.00000000     0.00000000
     0.00000000     0.00000000     0.00000000
     0.00000000     0.00000000     0.00000000
     0.00000000     0.00000000     0.00000000
     0.00000000     0.00000000     0.00000000
     0.00000000     0.00000000     0.00000000
    41.46878812    41.35985400   -23.16272972
    61.80684417   -27.58419159    -7.77683081
    30.97261025   -20.32257766     6.03791304
    11.24218383   -11.74680418     5.02696405
     4.28885331    -5.61604890     3.48044932
     0.84676717    -2.11465136     1.39619678
     1.70053853    -0.46932974     0.79894410
     3.39908969     0.05840068    -0.24311144
     4.36221600    -1.16884800     0.00000000
    12.67701683    85.61237582   -12.23167044
    -8.67364572   -13.46570526    -5.20717101
     0.62500423   -23.36010989    -1.67670097
    -1.71481572   -15.68705332     2.23329833
    -0.49128583    -8.52556074     1.05432625
     0.56860377    -2.55803084     0.23954106
     2.95394769     0.73538767     0.09561439
     5.75042417     1.51171522     1.05758329
     6.69556800    -1.79407200     0.00000000
    12.29396860    58.03187859    -5.30502492
   -17.89471080     1.47197398    -0.20660231
   -14.17479455    -8.24535728    -3.98370968
    -5.64103778    -9.46775565    -2.40811674
     1.24912155    -6.54972026    -1.06112149
     4.58108923    -1.90138711    -1.02731608
     6.57428865     1.16778066     0.18293838
     7.05296462     1.84301624     1.66919619
     6.69556800    -1.79407200     0.00000000
    20.20794344    18.79069107     5.62832845
    -8.84143352     0.95991224     3.56846309
    -5.10732223     1.38627368     0.02167123
    -0.20181306    -2.64318413     0.59694674
     4.55925831    -2.27937607    -0.27918589
     7.64362951    -1.83017389     0.63788974
     6.44703508     0.28718300     1.35692903
     5.67935808     0.28290891     1.65462493
     4.36221600    -1.16884800     0.00000000
     0.00000000     0.00000000     0.00000000
     0.00000000     0.00000000     0.00000000
     0.00000000     0.00000000     0.00000000
     0.00000000     0.00000000     0.00000000
     0.00000000     0.00000000     0.00000000
     0.00000000     0.00000000     0.00000000
     0.00000000     0.00000000     0.00000000
     0.00000000     0.00000000     0.00000000
     0.00000000     0.00000000     0.00000000
     0.00000000     0.00000000     0.00000000
     0.00000000     0.00000000     0.00000000
     0.00000000     0.00000000     0.00000000
     0.00000000     0.00000000     0.00000000
     0.00000000     0.00000000     0.00000000
     0.00000000     0.00000000     0.00000000
     0.00000000     0.00000000     0.00000000
     0.00000000     0.00000000     0.00000000
     0.00000000     0.00000000     0.00000000
    50.23011729    24.57703887   -22.21265045
    40.34904670   -23.87443904     2.21934829
     9.21426142    -8.32029248     5.03270198
     4.38945332    -6.88145587     3.21849514
     0.70076176    -2.20667691     1.98778760
     0.61147247    -1.56866822     0.76433584
     0.63969209    -0.14217171     0.29193620
     2.12473512    -0.35608871    -0.12044791
     2.32562400    -0.62314800     0.00000000
    15.82563873    61.01925465    -6.79247161
    -7.96276084   -15.08191906    -5.61159452
    -3.82438765   -12.01957797     2.01690827
    -3.95482925    -7.36240978     0.54785133
    -1.38856242    -4.24402920     1.18288585
    -0.50240676    -1.16365875    -0.14987544
     1.20972044     0.06193460     0.16698805
     2.60244519     0.25349384     0.21175314
     3.59368800    -0.96292800     0.00000000
    13.33452091    42.83200563     1.70842826
   -14.32586438     2.60226126    -0.61670073
   -11.23808047    -3.79306932    -1.85562192
    -3.40767179    -4.62355392    -1.35711839
    -0.84181209    -2.58354135    -0.43534921
     2.09530653    -0.90699305    -0.51257384
     2.08243497     0.78983521     0.10686548
     3.58201199     0.58512389     0.48436137
     3.59368800    -0.96292800     0.00000000
    14.96506598    14.38299487     7.85420186
    -8.39799449     2.61343871     2.87501280
    -3.07968894     1.38782078    -0.80227014
    -2.13260964    -1.07251724     0.33849013
     2.75076913    -0.96491022    -0.74141364
     2.69926017    -0.58379353     0.64327038
     3.53518450     0.13527406     0.51108562
     2.27016975     0.36091066     0.86647048
     2.32562400    -0.62314800     0.00000000
     0.00000000     0.00000000     0.00000000
     0.00000000     0.00000000     0.00000000
     0.00000000     0.00000000     0.00000000
     0.00000000     0.00000000     0.00000000
     0.00000000     0.00000000     0.00000000
     0.00000000     0.00000000     0.00000000
     0.00000000     0.00000000     0.00000000
     0.00000000     0.00000000     0.00000000
     0.00000000     0.00000000     0.00000000
     0.00000000     0.00000000     0.00000000
     0.00000000     0.00000000     0.00000000
     0.00000000     0.00000000     0.00000000
     0.00000000     0.00000000     0.00000000
     0.00000000     0.00000000     0.00000000
     0.00000000     0.00000000     0.00000000
     0.00000000     0.00000000     0.00000000
     0.00000000     0.00000000     0.00000000
     0.00000000     0.00000000     0.00000000
     0.00000000     0.00000000     0.00000000
     0.00000000     0.00000000     0.00000000
     0.00000000     0.00000000     0.00000000
     0.00000000     0.00000000     0.00000000
     0.00000000     0.00000000     0.00000000
     0.00000000     0.00000000     0.00000000
     0.00000000     0.00000000     0.00000000
     0.00000000     0.00000000     0.00000000
     0.00000000     0.00000000     0.00000000
     0.00000000     0.00000000     0.00000000
     0.00000000     0.00000000     0.00000000
     0.00000000     0.00000000     0.00000000
     0.00000000     0.00000000     0.00000000
     0.00000000     0.00000000     0.00000000
     0.00000000     0.00000000     0.00000000
     0.00000000     0.00000000     0.00000000
     0.00000000     0.00000000     0.00000000
     0.00000000     0.00000000     0.00000000
     0.00000000     0.00000000     0.00000000
     0.00000000     0.00000000     0.00000000
     0.00000000     0.00000000     0.00000000
     0.00000000     0.00000000     0.00000000
     0.00000000     0.00000000     0.00000000
     0.00000000     0.00000000     0.00000000
     0.00000000     0.00000000     0.00000000
     0.00000000     0.00000000     0.00000000
     0.00000000     0.00000000     0.00000000
     0.00000000     0.00000000     0.00000000
     0.00000000     0.00000000     0.00000000
     0.00000000     0.00000000     0.00000000
     0.00000000     0.00000000     0.00000000
     0.00000000     0.00000000     0.00000000
     0.00000000     0.00000000     0.00000000
     0.00000000     0.00000000     0.00000000
     0.00000000     0.00000000     0.00000000
     0.00000000     0.00000000     0.00000000
     0.00000000     0.00000000     0.00000000
     0.00000000     0.00000000     0.00000000
     0.00000000     0.00000000     0.00000000
     0.00000000     0.00000000     0.00000000
     0.00000000     0.00000000     0.00000000
     0.00000000     0.00000000     0.00000000
     0.00000000     0.00000000     0.00000000
     0.00000000     0.00000000     0.00000000
     0.00000000     0.00000000     0.00000000
     0.00000000     0.00000000     0.00000000
     0.00000000     0.00000000     0.00000000
     0.00000000     0.00000000     0.00000000
     0.00000000     0.00000000     0.00000000
     0.00000000     0.00000000     0.00000000
     0.00000000     0.00000000     0.00000000
     0.00000000     0.00000000     0.00000000
     0.00000000     0.00000000     0.00000000
     0.00000000     0.00000000     0.00000000
     0.00000000     0.00000000     0.00000000
     0.00000000     0.00000000     0.00000000
     0.00000000     0.00000000     0.00000000
     0.00000000     0.00000000     0.00000000
     0.00000000     0.00000000     0.00000000
     0.00000000     0.00000000     0.00000000
     0.00000000     0.00000000     0.00000000
     0.00000000     0.00000000     0.00000000
     0.00000000     0.00000000     0.00000000
     0.00000000     0.00000000     0.00000000
     0.00000000     0.00000000     0.00000000
     0.00000000     0.00000000     0.00000000
     0.00000000     0.00000000     0.00000000
     0.00000000     0.00000000     0.00000000
     0.00000000     0.00000000     0.00000000
     0.00000000     0.00000000     0.00000000
     0.00000000     0.00000000     0.00000000
     0.00000000     0.00000000     0.00000000
     0.00000000     0.00000000     0.00000000
     0.00000000     0.00000000     0.00000000
     0.00000000     0.00000000     0.00000000
     0.00000000     0.00000000     0.00000000
     0.00000000     0.00000000     0.00000000
     0.00000000     0.00000000     0.00000000
     0.00000000     0.00000000     0.00000000
     0.00000000     0.00000000     0.00000000
     0.00000000     0.00000000     0.00000000
     0.00000000     0.00000000     0.00000000
     0.00000000     0.00000000     0.00000000
     0.00000000     0.00000000     0.00000000
     0.00000000     0.00000000     0.00000000
     0.00000000     0.00000000     0.00000000
     0.00000000     0.00000000     0.00000000
     0.00000000     0.00000000     0.00000000
     0.00000000     0.00000000     0.00000000
     0.00000000     0.00000000     0.00000000
     0.00000000     0.00000000     0.00000000
     0.00000000     0.00000000     0.00000000
     0.00000000     0.00000000     0.00000000
     0.00000000     0.00000000     0.00000000
     0.00000000     0.00000000     0.00000000
     0.00000000     0.00000000     0.00000000
     0.00000000     0.00000000     0.00000000
     0.00000000     0.00000000     0.00000000
     0.00000000     0.00000000     0.00000000
     0.00000000     0.00000000     0.00000000
     0.00000000     0.00000000     0.00000000
     0.00000000     0.00000000     0.00000000
     0.00000000     0.00000000     0.00000000
     0.00000000     0.00000000     0.00000000
     0.00000000     0.00000000     0.00000000
     0.00000000     0.00000000     0.00000000
     0.00000000     0.00000000     0.00000000
     0.00000000     0.00000000     0.00000000
     0.00000000     0.00000000     0.00000000
     0.00000000     0.00000000     0.00000000
     0.00000000     0.00000000     0.00000000
     0.00000000     0.00000000     0.00000000
     0.00000000     0.00000000     0.00000000
     0.00000000     0.00000000     0.00000000
     0.00000000     0.00000000     0.00000000
     0.00000000     0.00000000     0.00000000
     0.00000000     0.00000000     0.00000000
     0.00000000     0.00000000     0.00000000
     0.00000000     0.00000000     0.00000000
     0.00000000     0.00000000     0.00000000
     0.00000000     0.00000000     0.00000000
     0.00000000     0.00000000     0.00000000
     0.00000000     0.00000000     0.00000000
     0.00000000     0.00000000     0.00000000
     0.00000000     0.00000000     0.00000000
     0.00000000     0.00000000     0.00000000
     0.00000000     0.00000000     0.00000000
     0.00000000     0.00000000     0.00000000
     0.00000000     0.00000000     0.00000000
     0.00000000     0.00000000     0.00000000
     0.00000000     0.00000000     0.00000000
     0.00000000     0.00000000     0.00000000
     0.00000000     0.00000000     0.00000000
     0.00000000     0.00000000     0.00000000
     0.00000000     0.00000000     0.00000000
     0.00000000     0.00000000     0.00000000
     0.00000000     0.00000000     0.00000000
     0.00000000     0.00000000     0.00000000
     0.00000000     0.00000000     0.00000000
     0.00000000     0.00000000     0.00000000
     0.00000000     0.00000000     0.00000000
     0.00000000     0.00000000     0.00000000
     0.00000000     0.00000000     0.00000000
     0.00000000     0.00000000     0.00000000
     0.00000000     0.00000000     0.00000000
     0.00000000     0.00000000     0.00000000
     0.00000000     0.00000000     0.00000000
     0.00000000     0.00000000     0.00000000
     0.00000000     0.00000000     0.00000000
     0.00000000     0.00000000     0.00000000
     0.00000000     0.00000000     0.00000000
     0.00000000     0.00000000     0.00000000
     0.00000000     0.00000000     0.00000000
     0.00000000     0.00000000     0.00000000
     0.00000000     0.00000000     0.00000000
     0.00000000     0.00000000     0.00000000
     0.00000000     0.00000000     0.00000000
     0.00000000     0.00000000     0.00000000
     0.00000000     0.00000000     0.00000000
     0.00000000     0.00000000     0.00000000
     0.00000000     0.00000000     0.00000000
     0.00000000     0.00000000     0.00000000
     0.00000000     0.00000000     0.00000000
     0.00000000     0.00000000     0.00000000
     0.00000000     0.00000000     0.00000000
     0.00000000     0.00000000     0.00000000
     0.00000000     0.00000000     0.00000000
     0.00000000     0.00000000     0.00000000
     0.00000000     0.00000000     0.00000000
     0.00000000     0.00000000     0.00000000
     0.00000000     0.00000000     0.00000000
     0.00000000     0.00000000     0.00000000
     0.00000000     0.00000000     0.00000000
     0.00000000     0.00000000     0.00000000
     0.00000000     0.00000000     0.00000000
     0.00000000     0.00000000     0.00000000
     0.00000000     0.00000000     0.00000000
     0.00000000     0.00000000     0.00000000
     0.00000000     0.00000000     0.00000000
     0.00000000     0.00000000     0.00000000
     0.00000000     0.00000000     0.00000000
     0.00000000     0.00000000     0.00000000
     0.00000000     0.00000000     0.00000000
     0.00000000     0.00000000     0.00000000
     0.00000000     0.00000000     0.00000000
     0.00000000     0.00000000     0.00000000
     0.00000000     0.00000000     0.00000000
     0.00000000     0.00000000     0.00000000
     0.00000000     0.00000000     0.00000000
     0.00000000     0.00000000     0.00000000
     0.00000000     0.00000000     0.00000000
     0.00000000     0.00000000     0.00000000
     0.00000000     0.00000000     0.00000000
     0.00000000     0.00000000     0.00000000
     0.00000000     0.00000000     0.00000000
     0.00000000     0.00000000     0.00000000
     0.00000000     0.00000000     0.00000000
     0.00000000     0.00000000     0.00000000
     0.00000000     0.00000000     0.00000000
     0.00000000     0.00000000     0.00000000
     0.00000000     0.00000000     0.00000000
     0.00000000     0.00000000     0.00000000
     0.00000000     0.00000000     0.00000000
     0.00000000     0.00000000     0.00000000
     0.00000000     0.00000000     0.00000000
     0.00000000     0.00000000     0.00000000
     0.00000000     0.00000000     0.00000000
     0.00000000     0.00000000     0.00000000
     0.00000000     0.00000000     0.00000000
     0.00000000     0.00000000     0.00000000
     0.00000000     0.00000000     0.00000000
     0.00000000     0.00000000     0.00000000
     0.00000000     0.00000000     0.00000000
     0.00000000     0.00000000     0.00000000
     0.00000000     0.00000000     0.00000000
     0.00000000     0.00000000     0.00000000
     0.00000000     0.00000000     0.00000000
     0.00000000     0.00000000     0.00000000
     0.00000000     0.00000000     0.00000000
     0.00000000     0.00000000     0.00000000
     0.00000000     0.00000000     0.00000000
     0.00000000     0.00000000     0.00000000
     0.00000000     0.00000000     0.00000000
     0.00000000     0.00000000     0.00000000
     0.00000000     0.00000000     0.00000000
     0.00000000     0.00000000     0.00000000
     0.00000000     0.00000000     0.00000000
     0.00000000     0.00000000     0.00000000
     0.00000000     0.00000000     0.00000000
     0.00000000     0.00000000     0.00000000
     0.00000000     0.00000000     0.00000000
     0.00000000     0.00000000     0.00000000
     0.00000000     0.00000000     0.00000000
     0.00000000     0.00000000     0.00000000
     0.00000000     0.00000000     0.00000000
     0.00000000     0.00000000     0.00000000
     0.00000000     0.00000000     0.00000000
     0.00000000     0.00000000     0.00000000
     0.00000000     0.00000000     0.00000000
     0.00000000     0.00000000     0.00000000
     0.00000000     0.00000000     0.00000000
     0.00000000     0.00000000     0.00000000
     0.00000000     0.00000000     0.00000000
     0.00000000     0.00000000     0.00000000
     0.00000000     0.00000000     0.00000000
     0.00000000     0.00000000     0.00000000
     0.00000000     0.00000000     0.00000000
     0.00000000     0.00000000     0.00000000
     0.00000000     0.00000000     0.00000000
     0.00000000     0.00000000     0.00000000
     0.00000000     0.00000000     0.00000000
     0.00000000     0.00000000     0.00000000
     0.00000000     0.00000000     0.00000000
     0.00000000     0.00000000     0.00000000
     0.00000000     0.00000000     0.00000000
     0.00000000     0.00000000     0.00000000
     0.00000000     0.00000000     0.00000000
     0.00000000     0.00000000     0.00000000
     0.00000000     0.00000000     0.00000000
     0.00000000     0.00000000     0.00000000
     0.00000000     0.00000000     0.00000000
     0.00000000     0.00000000     0.00000000
     0.00000000     0.00000000     0.00000000
     0.00000000     0.00000000     0.00000000
     0.00000000     0.00000000     0.00000000
     0.00000000     0.00000000     0.00000000
     0.00000000     0.00000000     0.00000000
     0.00000000     0.00000000     0.00000000
     0.00000000     0.00000000     0.00000000
     0.00000000     0.00000000     0.00000000
     0.00000000     0.00000000     0.00000000
     0.00000000     0.00000000     0.00000000
     0.00000000     0.00000000     0.00000000
     0.00000000     0.00000000     0.00000000
     0.00000000     0.00000000     0.00000000
     0.00000000     0.00000000     0.00000000
     0.00000000     0.00000000     0.00000000
     0.00000000     0.00000000     0.00000000
     0.00000000     0.00000000     0.00000000
     0.00000000     0.00000000     0.00000000
     0.00000000     0.00000000     0.00000000
     0.00000000     0.00000000     0.00000000
     0.00000000     0.00000000     0.00000000
     0.00000000     0.00000000     0.00000000
     0.00000000     0.00000000     0.00000000
     0.00000000     0.00000000     0.00000000
     0.00000000     0.00000000     0.00000000
     0.00000000     0.00000000     0.00000000
     0.00000000     0.00000000     0.00000000
     0.00000000     0.00000000     0.00000000
     0.00000000     0.00000000     0.00000000
     0.00000000     0.00000000     0.00000000
     0.00000000     0.00000000     0.00000000
     0.00000000     0.00000000     0.00000000
     0.00000000     0.00000000     0.00000000
     0.00000000     0.00000000     0.00000000
     0.00000000     0.00000000     0.00000000
     0.00000000     0.00000000     0.00000000
     0.00000000     0.00000000     0.00000000
     0.00000000     0.00000000     0.00000000
     0.00000000     0.00000000     0.00000000
     0.00000000     0.00000000     0.00000000
     0.00000000     0.00000000     0.00000000
     0.00000000     0.00000000     0.00000000
     0.00000000     0.00000000     0.00000000
     0.00000000     0.00000000     0.00000000
     0.00000000     0.00000000     0.00000000
     0.00000000     0.00000000     0.00000000
     0.00000000     0.00000000     0.00000000
     0.00000000     0.00000000     0.00000000
     0.00000000     0.00000000     0.00000000
     0.00000000     0.00000000     0.00000000
     0.00000000     0.00000000     0.00000000
     0.00000000     0.00000000     0.00000000
     0.00000000     0.00000000     0.00000000
     0.00000000     0.00000000     0.00000000
     0.00000000     0.00000000     0.00000000
     0.00000000     0.00000000     0.00000000
     0.00000000     0.00000000     0.00000000
     0.00000000     0.00000000     0.00000000
     0.00000000     0.00000000     0.00000000
SCALARS Temperatures float
LOOKUP_TABLE default
     0.00000000
     0.00000000
     0.00000000
     0.00000000
     0.00000000
     0.00000000
     0.00000000
     0.00000000
     0.00000000
     0.00000000
     0.00000000
     0.00000000
     0.00000000
     0.00000000
     0.00000000
     0.00000000
     0.00000000
     0.00000000
     0.00000000
     0.00000000
     0.00000000
     0.00000000
     0.00000000
     0.00000000
     0.00000000
     0.00000000
     0.00000000
     0.00000000
     0.00000000
     0.00000000
     0.00000000
     0.00000000
     0.00000000
     0.00000000
     0.00000000
     0.00000000
     0.00000000
     0.00000000
     0.00000000
     0.00000000
     0.00000000
     0.00000000
     0.00000000
     0.00000000
     0.00000000
     0.00000000
     0.00000000
     0.00000000
     0.00000000
     0.00000000
     0.00000000
     0.00000000
     0.00000000
     0.00000000
     0.00000000
     0.00000000
     0.00000000
     0.00000000
     0.00000000
     0.00000000
     0.00000000
     0.00000000
     0.00000000
     0.00000000
     0.00000000
     0.00000000
     0.00000000
     0.00000000
     0.00000000
     0.00000000
     0.00000000
     0.00000000
     0.00000000
     0.00000000
     0.00000000
     0.00000000
     0.00000000
     0.00000000
     0.00000000
     0.00000000
     0.00000000
     0.00000000
     0.00000000
     0.00000000
     0.00000000
     0.00000000
     0.00000000
     0.00000000
     0.00000000
     0.00000000
     0.00000000
     0.00000000
     0.00000000
     0.00000000
     0.00000000
     0.00000000
     0.00000000
     0.00000000
     0.00000000
     0.00000000
     0.00000000
     0.00000000
     0.00000000
     0.00000000
     0.00000000
     0.00000000
     0.00000000
     0.00000000
     0.00000000
     0.00000000
     0.00000000
     0.00000000
     0.00000000
     0.00000000
     0.00000000
     0.00000000
     0.00000000
     0.00000000
     0.00000000
     0.00000000
     0.00000000
     0.00000000
     0.00000000
     0.00000000
     0.00000000
     0.00000000
     0.00000000
     0.00000000
     0.00000000
     0.00000000
     0.00000000
     0.00000000
     0.00000000
     0.00000000
     0.00000000
     0.00000000
     0.00000000
     0.00000000
     0.00000000
     0.00000000
     0.00000000
     0.00000000
     0.00000000
     0.00000000
     0.00000000
     0.00000000
     0.00000000
     0.00000000
     0.00000000
     0.00000000
     0.00000000
     0.00000000
     0.00000000
     0.00000000
     0.00000000
     0.00000000
     0.00000000
     0.00000000
     0.00000000
     0.00000000
     0.00000000
     0.00000000
     0.00000000
     0.00000000
     0.00000000
     0.00000000
     0.00000000
     0.00000000
     0.00000000
     0.00000000
     0.00000000
     0.00000000
     0.00000000
     0.00000000
     0.00000000
     0.00000000
     0.00000000
     0.00000000
     0.00000000
     0.00000000
     0.00000000
     0.00000000
     0.00000000
     0.00000000
     0.00000000
     0.00000000
     0.00000000
     0.00000000
     0.00000000
     0.00000000
     0.00000000
     0.00000000
     0.00000000
     0.00000000
     0.00000000
     0.00000000
     0.00000000
     0.00000000
     0.00000000
     0.00000000
     0.00000000
     0.00000000
     0.00000000
     0.00000000
     0.00000000
     0.00000000
     0.00000000
     0.00000000
     0.00000000
     0.00000000
     0.00000000
     0.00000000
     0.00000000
     0.00000000
     0.00000000
     0.00000000
     0.00000000
     0.00000000
     0.00000000
     0.00000000
     0.00000000
     0.00000000
     0.00000000
     0.00000000
     0.00000000
     0.00000000
     0.00000000
     0.00000000
     0.00000000
     0.00000000
     0.00000000
     0.00000000
     0.00000000
     0.00000000
     0.00000000
     0.00000000
     0.00000000
     0.00000000
     0.00000000
     0.00000000
     0.00000000
     0.00000000
     0.00000000
     0.00000000
     0.00000000
     0.00000000
     0.00000000
     0.00000000
     0.00000000
     0.00000000
     0.00000000
     0.00000000
     0.00000000
     0.00000000
     0.00000000
     0.00000000
     0.00000000
     0.00000000
     0.00000000
     0.00000000
     0.00000000
     0.00000000
     0.00000000
     0.00000000
     0.00000000
     0.00000000
     0.00000000
     0.00000000
     0.00000000
     0.00000000
     0.00000000
     0.00000000
     0.00000000
     0.00000000
     0.00000000
     0.00000000
     0.00000000
     0.00000000
     0.00000000
     0.00000000
     0.00000000
     0.00000000
     0.00000000
     0.00000000
     0.00000000
     0.00000000
     0.00000000
     0.00000000
     0.00000000
     0.00000000
     0.00000000
     0.00000000
     0.00000000
     0.00000000
     0.00000000
     0.00000000
     0.00000000
     0.00000000
     0.00000000
     0.00000000
     0.00000000
     0.00000000
     0.00000000
     0.00000000
     0.00000000
     0.00000000
     0.00000000
     0.00000000
     0.00000000
     0.00000000
     0.00000000
     0.00000000
     0.00000000
     0.00000000
     0.00000000
     0.00000000
     0.00000000
     0.00000000
     0.00000000
     0.00000000
     0.00000000
     0.00000000
     0.00000000
     0.00000000
     0.00000000
     0.00000000
     0.00000000
     0.00000000
     0.00000000
     0.00000000
     0.00000000
     0.00000000
     0.00000000
     0.00000000
     0.00000000
     0.00000000
     0.00000000
     0.00000000
     0.00000000
     0.00000000
     0.00000000
     0.00000000
     0.00000000
     0.00000000
     0.00000000
     0.00000000
     0.00000000
     0.00000000
     0.00000000
     0.00000000
     0.00000000
     0.00000000
     0.00000000
     0.00000000
     0.00000000
     0.00000000
     0.00000000
     0.00000000
     0.00000000
     0.00000000
     0.00000000
     0.00000000
     0.00000000
     0.00000000
     0.00000000
     0.00000000
     0.00000000
     0.00000000
     0.00000000
     0.00000000
     0.00000000
     0.00000000
     0.00000000
     0.00000000
     0.00000000
     0.00000000
     0.00000000
     0.00000000
     0.00000000
     0.00000000
     0.00000000
     0.00000000
     0.00000000
     0.00000000
     0.00000000
     0.00000000
     0.00000000
     0.00000000
     0.00000000
     0.00000000
     0.00000000
     0.00000000
     0.00000000
     0.00000000
     0.00000000
     0.00000000
     0.00000000
     0.00000000
     0.00000000
     0.00000000
     0.00000000
     0.00000000
     0.00000000
     0.00000000
     0.00000000
     0.00000000
     0.00000000
     0.00000000
     0.00000000
     0.00000000
     0.00000000
     0.00000000
     0.00000000
     0.00000000
     0.00000000
     0.00000000
     0.00000000
     0.00000000
     0.00000000
     0.00000000
     0.00000000
     0.00000000
     0.00000000
     0.00000000
     0.00000000
     0.00000000
     0.00000000
     0.00000000
     0.00000000
     0.00000000
     0.00000000
     0.00000000
     0.00000000
     0.00000000
     0.00000000
     0.00000000
     0.00000000
     0.00000000
     0.00000000
     0.00000000
     0.00000000
     0.00000000
     0.00000000
     0.00000000
     0.00000000
     0.00000000
     0.00000000
     0.00000000
     0.00000000
     0.00000000
     0.00000000
     0.00000000
     0.00000000
     0.00000000
     0.00000000
     0.00000000
     0.00000000
     0.00000000
     0.00000000
     0.00000000
     0.00000000
     0.00000000
     0.00000000
     0.00000000
     0.00000000
     0.00000000
     0.00000000
     0.00000000
     0.00000000
     0.00000000
     0.00000000
     0.00000000
     0.00000000
     0.00000000
     0.00000000
     0.00000000
     0.00000000
     0.00000000
     0.00000000
     0.00000000
     0.00000000
     0.00000000
     0.00000000
     0.00000000
     0.00000000
     0.00000000
     0.00000000
     0.00000000
     0.00000000
     0.00000000
     0.00000000
     0.00000000
     0.00000000
     0.00000000
     0.00000000
     0.00000000
     0.00000000
     0.00000000
     0.00000000
     0.00000000
     0.00000000
     0.00000000
     0.00000000
     0.00000000
     0.00000000
     0.00000000
     0.00000000
     0.00000000
     0.00000000
     0.00000000
     0.00000000
     0.00000000
     0.00000000
     0.00000000
     0.00000000
     0.00000000
     0.00000000
     0.00000000
     0.00000000
     0.00000000
     0.00000000
     0.00000000
     0.00000000
     0.00000000
     0.00000000
     0.00000000
     0.00000000
     0.00000000
     0.00000000
     0.00000000
     0.00000000
     0.00000000
     0.00000000
     0.00000000
     0.00000000
     0.00000000
     0.00000000
     0.00000000
     0.00000000
     0.00000000
     0.00000000
     0.00000000
     0.00000000
     0.00000000
     0.00000000
     0.00000000
     0.00000000
     0.00000000
     0.00000000
     0.00000000
     0.00000000
     0.00000000
     0.00000000
     0.00000000
     0.00000000
     0.00000000
     0.00000000
     0.00000000
     0.00000000
     0.00000000
     0.00000000
     0.00000000
     0.00000000
     0.00000000
     0.00000000
     0.00000000
     0.00000000
     0.00000000
     0.00000000
     0.00000000
     0.00000000
     0.00000000
     0.00000000
     0.00000000
     0.00000000
     0.00000000
     0.00000000
     0.00000000
     0.00000000
     0.00000000
     0.00000000
     0.00000000
     0.00000000
     0.00000000
     0.00000000
     0.00000000
     0.00000000
     0.00000000
     0.00000000
     0.00000000
     0.00000000
     0.00000000
     0.00000000
     0.00000000
     0.00000000
     0.00000000
     0.00000000
     0.00000000
     0.00000000
     0.00000000
     0.00000000
     0.00000000
     0.00000000
     0.00000000
     0.00000000
     0.00000000
     0.00000000
     0.00000000
     0.00000000
     0.00000000
     0.00000000
     0.00000000
     0.00000000
     0.00000000
     0.00000000
     0.00000000
     0.00000000
     0.00000000
     0.00000000
     0.00000000
     0.00000000
     0.00000000
     0.00000000
     0.00000000
     0.00000000
     0.00000000
     0.00000000
     0.00000000
     0.00000000
     0.00000000
     0.00000000
     0.00000000
     0.00000000
     0.00000000
     0.00000000
     0.00000000
     0.00000000
     0.00000000
     0.00000000
     0.00000000
     0.00000000
     0.00000000
     0.00000000
     0.00000000
     0.00000000
     0.00000000
     0.00000000
     0.00000000
     0.00000000
     0.00000000
     0.00000000
     0.00000000
     0.00000000
     0.00000000
     0.00000000
     0.00000000
     0.00000000
     0.00000000
     0.00000000
     0.00000000
     0.00000000
     0.00000000
     0.00000000
     0.00000000
     0.00000000
     0.00000000
     0.00000000
     0.00000000
     0.00000000
     0.00000000
     0.00000000
     0.00000000
     0.00000000
     0.00000000
     0.00000000
     0.00000000
     0.00000000
     0.00000000
     0.00000000
     0.00000000
     0.00000000
     0.00000000
     0.00000000
     0.00000000
     0.00000000
     0.00000000
     0.00000000
     0.00000000
     0.00000000
     0.00000000
     0.00000000
     0.00000000
     0.00000000
     0.00000000
     0.00000000
     0.00000000
     0.00000000
     0.00000000
     0.00000000
     0.00000000
     0.00000000
     0.00000000
     0.00000000
     0.00000000
     0.00000000
     0.00000000
     0.00000000
     0.00000000
     0.00000000
     0.00000000
     0.00000000
     0.00000000
     0.00000000
     0.00000000
     0.00000000
     0.00000000
     0.00000000
     0.00000000
     0.00000000
     0.00000000
     0.00000000
     0.00000000
     0.00000000
     0.00000000
     0.00000000
     0.00000000
     0.00000000
     0.00000000
     0.00000000
     0.00000000
     0.00000000
     0.00000000
     0.00000000
     0.00000000
     0.00000000
     0.00000000
     0.00000000
     0.00000000
     0.00000000
     0.00000000
     0.00000000
     0.00000000
     0.00000000
     0.00000000
     0.00000000
     0.00000000
     0.00000000
     0.00000000
     0.00000000
     0.00000000
     0.00000000
     0.00000000
     0.00000000
     0.00000000
     0.00000000
     0.00000000
     0.00000000
     0.00000000
     0.00000000
     0.00000000
     0.00000000
     0.00000000
     0.00000000
     0.00000000
     0.00000000
     0.00000000
     0.00000000
     0.00000000
     0.00000000
     0.00000000
     0.00000000
     0.00000000
     0.00000000
     0.00000000
     0.00000000
     0.00000000
     0.00000000
     0.00000000
     0.00000000
     0.00000000
     0.00000000
     0.00000000
     0.00000000
     0.00000000
     0.00000000
     0.00000000
     0.00000000
     0.00000000
     0.00000000
     0.00000000
     0.00000000
     0.00000000
     0.00000000
     0.00000000
     0.00000000
     0.00000000
     0.00000000
     0.00000000
     0.00000000
     0.00000000
     0.00000000
     0.00000000
     0.00000000
     0.00000000
     0.00000000
     0.00000000
     0.00000000
     0.00000000
     0.00000000
     0.00000000
     0.00000000
     0.00000000
     0.00000000
     0.00000000
     0.00000000
     0.00000000
     0.00000000
     0.00000000
     0.00000000
     0.00000000
     0.00000000
     0.00000000
     0.00000000
     0.00000000
     0.00000000
     0.00000000
     0.00000000
     0.00000000
     0.00000000
     0.00000000
     0.00000000
     0.00000000
     0.00000000
     0.00000000
     0.00000000
     0.00000000
     0.00000000
     0.00000000
     0.00000000
     0.00000000
     0.00000000
     0.00000000
     0.00000000
     0.00000000
     0.00000000
     0.00000000
     0.00000000
     0.00000000
     0.00000000
     0.00000000
     0.00000000
     0.00000000
     0.00000000
     0.00000000
     0.00000000
     0.00000000
     0.00000000
     0.00000000
     0.00000000
     0.00000000
     0.00000000
     0.00000000
     0.00000000
     0.00000000
     0.00000000
     0.00000000
     0.00000000
     0.00000000
     0.00000000
     0.00000000
     0.00000000
     0.00000000
     0.00000000
     0.00000000
     0.00000000
     0.00000000
     0.00000000
     0.00000000
     0.00000000
     0.00000000
     0.00000000
     0.00000000
     0.00000000
     0.00000000
     0.00000000
     0.00000000
     0.00000000
     0.00000000
     0.00000000
     0.00000000
     0.00000000
     0.00000000
     0.00000000
     0.00000000
     0.00000000
     0.00000000
     0.00000000
     0.00000000
     0.00000000
     0.00000000
     0.00000000
     0.00000000
     0.00000000
     0.00000000
     0.00000000
     0.00000000
     0.00000000
     0.00000000
     0.00000000
     0.00000000
     0.00000000
     0.00000000
     0.00000000
     0.00000000
     0.00000000
     0.00000000
     0.00000000
     0.00000000
     0.00000000
     0.00000000
     0.00000000
     0.00000000
     0.00000000
     0.00000000
     0.00000000
     0.00000000
     0.00000000
     0.00000000
     0.00000000
     0.00000000
     0.00000000
     0.00000000
     0.00000000
     0.00000000
     0.00000000
     0.00000000
     0.00000000
     0.00000000
     0.00000000
     0.00000000
     0.00000000
     0.00000000
     0.00000000
     0.00000000
     0.00000000
     0.00000000
     0.00000000
     0.00000000
     0.00000000
     0.00000000
     0.00000000
     0.00000000
     0.00000000
     0.00000000
     0.00000000
     0.00000000
     0.00000000
     0.00000000
     0.00000000
     0.00000000
     0.00000000
     0.00000000
     0.00000000
     0.00000000
     0.00000000
     0.00000000
     0.00000000
     0.00000000
     0.00000000
     0.00000000
     0.00000000
     0.00000000
     0.00000000
     0.00000000
     0.00000000
     0.00000000
     0.00000000
     0.00000000
     0.00000000
     0.00000000
     0.00000000
     0.00000000
     0.00000000
     0.00000000
     0.00000000
     0.00000000
     0.00000000
     0.00000000
     0.00000000
     0.00000000
     0.00000000
     0.00000000
     0.00000000
     0.00000000
     0.00000000
     0.00000000
     0.00000000
     0.00000000
     0.00000000
     0.00000000
     0.00000000
     0.00000000
     0.00000000
     0.00000000
     0.00000000
     0.00000000
     0.00000000
     0.00000000
     0.00000000
     0.00000000
     0.00000000
     0.00000000
     0.00000000
     0.00000000
     0.00000000
     0.00000000
     0.00000000
     0.00000000
     0.00000000
     0.00000000
     0.00000000
     0.00000000
     0.00000000
     0.00000000
     0.00000000
     0.00000000
     0.00000000
     0.00000000
     0.00000000
     0.00000000
     0.00000000
     0.00000000
     0.00000000
     0.00000000
     0.00000000
     0.00000000
     0.00000000
     0.00000000
     0.00000000
     0.00000000
     0.00000000
     0.00000000
     0.00000000
     0.00000000
     0.00000000
     0.00000000
     0.00000000
     0.00000000
     0.00000000
     0.00000000
     0.00000000
     0.00000000
     0.00000000
     0.00000000
     0.00000000
     0.00000000
     0.00000000
     0.00000000
     0.00000000
     0.00000000
     0.00000000
     0.00000000
     0.00000000
     0.00000000
     0.00000000
     0.00000000
     0.00000000
     0.00000000
     0.00000000
     0.00000000
     0.00000000
     0.00000000
     0.00000000
     0.00000000
     0.00000000
     0.00000000
     0.00000000
     0.00000000
     0.00000000
     0.00000000
     0.00000000
     0.00000000
     0.00000000
     0.00000000
     0.00000000
     0.00000000
     0.00000000
     0.00000000
     0.00000000
     0.00000000
     0.00000000
     0.00000000
     0.00000000
     0.00000000
     0.00000000
     0.00000000
     0.00000000
     0.00000000
     0.00000000
     0.00000000
     0.00000000
     0.00000000
     0.00000000
     0.00000000
     0.00000000
     0.00000000
     0.00000000
     0.00000000
     0.00000000
     0.00000000
     0.00000000
     0.00000000
     0.00000000
     0.00000000
     0.00000000
     0.00000000
     0.00000000
     0.00000000
     0.00000000
     0.00000000
     0.00000000
     0.00000000
     0.00000000
     0.00000000
     0.00000000
     0.00000000
     0.00000000
     0.00000000
     0.00000000
     0.00000000
     0.00000000
     0.00000000
     0.00000000
     0.00000000
     0.00000000
     0.00000000
     0.00000000
     0.00000000
     0.00000000
     0.00000000
     0.00000000
     0.00000000
     0.00000000
     0.00000000
     0.00000000
     0.00000000
     0.00000000
     0.00000000
     0.00000000
     0.00000000
     0.00000000
     0.00000000
     0.00000000
     0.00000000
     0.00000000
     0.00000000
     0.00000000
     0.00000000
     0.00000000
     0.00000000
     0.00000000
     0.00000000
     0.00000000
     0.00000000
     0.00000000
     0.00000000
     0.00000000
     0.00000000
     0.00000000
     0.00000000
     0.00000000
     0.00000000
     0.00000000
     0.00000000
     0.00000000
     0.00000000
     0.00000000
     0.00000000
     0.00000000
     0.00000000
     0.00000000
     0.00000000
     0.00000000
     0.00000000
     0.00000000
     0.00000000
     0.00000000
     0.00000000
     0.00000000
     0.00000000
     0.00000000
     0.00000000
     0.00000000
     0.00000000
     0.00000000
     0.00000000
     0.00000000
     0.00000000
     0.00000000
     0.00000000
     0.00000000
     0.00000000
     0.00000000
     0.00000000
     0.00000000
     0.00000000
     0.00000000
     0.00000000
     0.00000000
     0.00000000
     0.00000000
     0.00000000
     0.00000000
     0.00000000
     0.00000000
     0.00000000
     0.00000000
     0.00000000
     0.00000000
     0.00000000
     0.00000000
     0.00000000
     0.00000000
     0.00000000
     0.00000000
     0.00000000
     0.00000000
     0.00000000
     0.00000000
     0.00000000
     0.00000000
     0.00000000
     0.00000000
     0.00000000
     0.00000000
     0.00000000
     0.00000000
     0.00000000
     0.00000000
     0.00000000
     0.00000000
     0.00000000
     0.00000000
     0.00000000
     0.00000000
     0.00000000
     0.00000000
     0.00000000
     0.00000000
     0.00000000
     0.00000000
     0.00000000
     0.00000000
     0.00000000
     0.00000000
     0.00000000
     0.00000000
     0.00000000
     0.00000000
     0.00000000
     0.00000000
     0.00000000
     0.00000000
     0.00000000
     0.00000000
     0.00000000
     0.00000000
     0.00000000
     0.00000000
     0.00000000
     0.00000000
     0.00000000
     0.00000000
     0.00000000
     0.00000000
     0.00000000
     0.00000000
     0.00000000
     0.00000000
     0.00000000
     0.00000000
     0.00000000
     0.00000000
     0.00000000
     0.00000000
     0.00000000
     0.00000000
     0.00000000
     0.00000000
     0.00000000
     0.00000000
     0.00000000
     0.00000000
     0.00000000
     0.00000000
     0.00000000
     0.00000000
     0.00000000
     0.00000000
     0.00000000
     0.00000000
     0.00000000
     0.00000000
     0.00000000
     0.00000000
     0.00000000
     0.00000000
     0.00000000
     0.00000000
     0.00000000
     0.00000000
     0.00000000
     0.00000000
     0.00000000
     0.00000000
     0.00000000
     0.00000000
     0.00000000
     0.00000000
     0.00000000
     0.00000000
     0.00000000
     0.00000000
     0.00000000
     0.00000000
     0.00000000
     0.00000000
     0.00000000
     0.00000000
     0.00000000
     0.00000000
     0.00000000
     0.00000000
     0.00000000
     0.00000000
     0.00000000
     0.00000000
     0.00000000
     0.00000000
     0.00000000
     0.00000000
     0.00000000
     0.00000000
     0.00000000
     0.00000000
     0.00000000
     0.00000000
     0.00000000
     0.00000000
     0.00000000
     0.00000000
     0.00000000
     0.00000000
     0.00000000
     0.00000000
     0.00000000
     0.00000000
     0.00000000
     0.00000000
     0.00000000
     0.00000000
     0.00000000
     0.00000000
     0.00000000
     0.00000000
     0.00000000
     0.00000000
     0.00000000
     0.00000000
     0.00000000
     0.00000000
     0.00000000
     0.00000000
     0.00000000
     0.00000000
     0.00000000
     0.00000000
     0.00000000
     0.00000000
     0.00000000
     0.00000000
     0.00000000
     0.00000000
     0.00000000
     0.00000000
     0.00000000
     0.00000000
     0.00000000
     0.00000000
     0.00000000
     0.00000000
     0.00000000
     0.00000000
     0.00000000
     0.00000000
     0.00000000
     0.00000000
     0.00000000
     0.00000000
     0.00000000
     0.00000000
     0.00000000
     0.00000000
     0.00000000
     0.00000000
     0.00000000
     0.00000000
     0.00000000
     0.00000000
     0.00000000
     0.00000000
     0.00000000
     0.00000000
     0.00000000
     0.00000000
     0.00000000
     0.00000000
     0.00000000
     0.00000000
     0.00000000
     0.00000000
     0.00000000
     0.00000000
     0.00000000
     0.00000000
     0.00000000
     0.00000000
     0.00000000
     0.00000000
     0.00000000
     0.00000000
     0.00000000
     0.00000000
     0.00000000
     0.00000000
     0.00000000
     0.00000000
     0.00000000
     0.00000000
     0.00000000
     0.00000000
     0.00000000
     0.00000000
     0.00000000
     0.00000000
     0.00000000
     0.00000000
     0.00000000
     0.00000000
     0.00000000
     0.00000000
     0.00000000
     0.00000000
     0.00000000
     0.00000000
     0.00000000
     0.00000000
     0.00000000
     0.00000000
     0.00000000
     0.00000000
     0.00000000
     0.00000000
     0.00000000
     0.00000000
     0.00000000
     0.00000000
     0.00000000
     0.00000000
     0.00000000
     0.00000000
     0.00000000
     0.00000000
     0.00000000
     0.00000000
     0.00000000
     0.00000000
     0.00000000
     0.00000000
     0.00000000
     0.00000000
     0.00000000
     0.00000000
     0.00000000
     0.00000000
     0.00000000
     0.00000000
     0.00000000
     0.00000000
     0.00000000
     0.00000000
     0.00000000
     0.00000000
     0.00000000
     0.00000000
     0.00000000
     0.00000000
     0.00000000
     0.00000000
     0.00000000
     0.00000000
     0.00000000
     0.00000000
     0.00000000
     0.00000000
     0.00000000
     0.00000000
     0.00000000
     0.00000000
     0.00000000
     0.00000000
     0.00000000
     0.00000000
     0.00000000
     0.00000000
     0.00000000
     0.00000000
     0.00000000
     0.00000000
     0.00000000
     0.00000000
     0.00000000
     0.00000000
     0.00000000
     0.00000000
     0.00000000
     0.00000000
     0.00000000
     0.00000000
     0.00000000
     0.00000000
     0.00000000
     0.00000000
     0.00000000
     0.00000000
     0.00000000
     0.00000000
     0.00000000
     0.00000000
     0.00000000
     0.00000000
     0.00000000
     0.00000000
     0.00000000
     0.00000000
     0.00000000
     0.00000000
     0.00000000
     0.00000000
     0.00000000
     0.00000000
     0.00000000
     0.00000000
     0.00000000
     0.00000000
     0.00000000
     0.00000000
     0.00000000
     0.00000000
     0.00000000
     0.00000000
     0.00000000
     0.00000000
     0.00000000
     0.00000000
     0.00000000
     0.00000000
     0.00000000
     0.00000000
     0.00000000
     0.00000000
     0.00000000
     0.00000000
     0.00000000
     0.00000000
     0.00000000
     0.00000000
     0.00000000
     0.00000000
     0.00000000
     0.00000000
     0.00000000
     0.00000000
     0.00000000
     0.00000000
     0.00000000
     0.00000000
     0.00000000
     0.00000000
VECTORS ShearStress float 
    -0.00253487     0.00415853     0.00041999
    -0.02455270     0.02146260     0.00253481
    -0.02763476     0.01509293     0.00086553
    -0.02593895     0.00816449     0.00069139
    -0.02432466     0.00272316    -0.00012911
    -0.02166103    -0.00170244    -0.00051503
    -0.01797965    -0.00761140    -0.00124363
    -0.00754014    -0.00547929    -0.00322867
     0.07825273     0.03627725    -0.00142769
    -0.00008198     0.01751149     0.00155170
     0.00000000     0.00000000     0.00000000
     0.00000000     0.00000000     0.00000000
     0.00000000     0.00000000     0.00000000
     0.00000000     0.00000000     0.00000000
     0.00000000     0.00000000     0.00000000
     0.00000000     0.00000000     0.00000000
     0.00000000     0.00000000     0.00000000
     0.00000000     0.00000000     0.00000000
    -0.00012453     0.02557693     0.00198019
     0.00000000     0.00000000     0.00000000
     0.00000000     0.00000000     0.00000000
     0.00000000     0.00000000     0.00000000
     0.00000000     0.00000000     0.00000000
     0.00000000     0.00000000     0.00000000
     0.00000000     0.00000000     0.00000000
     0.00000000     0.00000000     0.00000000
     0.00000000     0.00000000     0.00000000
    -0.00009447     0.02053202     0.00225356
     0.00000000     0.00000000     0.00000000
     0.00000000     0.00000000     0.00000000
     0.00000000     0.00000000     0.00000000
     0.00000000     0.00000000     0.00000000
     0.00000000     0.00000000     0.00000000
     0.00000000     0.00000000     0.00000000
     0.00000000     0.00000000     0.00000000
     0.00000000     0.00000000     0.00000000
    -0.00001032     0.00247572     0.00241805
     0.00000000     0.00000000     0.00000000
     0.00000000     0.00000000     0.00000000
     0.00000000     0.00000000     0.00000000
     0.00000000     0.00000000     0.00000000
     0.00000000     0.00000000     0.00000000
     0.00000000     0.00000000     0.00000000
     0.00000000     0.00000000     0.00000000
     0.00000000     0.00000000     0.00000000
     0.00009030    -0.01875060     0.00174834
     0.00000000     0.00000000     0.00000000
     0.00000000     0.00000000     0.00000000
     0.00000000     0.00000000     0.00000000
     0.00000000     0.00000000     0.00000000
     0.00000000     0.00000000     0.00000000
     0.00000000     0.00000000     0.00000000
     0.00000000     0.00000000     0.00000000
    -0.10382245     0.03528865     0.00090417
     0.00014498    -0.03142379     0.00164222
     0.00000000     0.00000000     0.00000000
     0.00000000     0.00000000     0.00000000
     0.00000000     0.00000000     0.00000000
     0.00000000     0.00000000     0.00000000
     0.00000000     0.00000000     0.00000000
     0.00000000     0.00000000     0.00000000
     0.00000000     0.00000000     0.00000000
     0.00000000     0.00000000     0.00000000
     0.00017298    -0.03356250     0.00175092
     0.00000000     0.00000000     0.00000000
     0.00000000     0.00000000     0.00000000
     0.00000000     0.00000000     0.00000000
     0.00000000     0.00000000     0.00000000
     0.00000000     0.00000000     0.00000000
     0.00000000     0.00000000     0.00000000
     0.00000000     0.00000000     0.00000000
     0.00000000     0.00000000     0.00000000
     0.00018724    -0.02924282     0.00178971
     0.00000000     0.00000000     0.00000000
     0.00000000     0.00000000     0.00000000
     0.00000000     0.00000000     0.00000000
     0.00000000     0.00000000     0.00000000
     0.00000000     0.00000000     0.00000000
     0.00000000     0.00000000     0.00000000
     0.00000000     0.00000000     0.00000000
     0.00000000     0.00000000     0.00000000
     0.00015715    -0.01800254     0.00121359
     0.00000000     0.00000000     0.00000000
     0.00000000     0.00000000     0.00000000
     0.00000000     0.00000000     0.00000000
     0.00000000     0.00000000     0.00000000
     0.00000000     0.00000000     0.00000000
     0.00000000     0.00000000     0.00000000
     0.00000000     0.00000000     0.00000000
     0.00000000     0.00000000     0.00000000
    -0.00243211    -0.00416383     0.00032294
    -0.02350737    -0.02124291     0.00191587
    -0.02480043    -0.01396354     0.00008577
    -0.02393127    -0.00784227     0.00020000
    -0.02233304    -0.00277934    -0.00052858
    -0.01800599     0.00126760    -0.00093123
    -0.01208422     0.00628738    -0.00143147
    -0.00434162     0.00428478    -0.00232608
     0.04388546    -0.02336986     0.00063357
    -0.00160778     0.00292425     0.00182020
    -0.01625456     0.01572988     0.01078314
    -0.02359972     0.01368331     0.00491528
    -0.02345004     0.00792543     0.00337747
    -0.02129243     0.00238127    -0.00033194
    -0.01966711    -0.00190533    -0.00246396
    -0.01658659    -0.00768234    -0.00551985
    -0.00882923    -0.00769725    -0.01196731
     0.07621416     0.03676648    -0.00696552
    -0.00004962     0.01249757     0.00654599
     0.00000000     0.00000000     0.00000000
     0.00000000     0.00000000     0.00000000
     0.00000000     0.00000000     0.00000000
     0.00000000     0.00000000     0.00000000
     0.00000000     0.00000000     0.00000000
     0.00000000     0.00000000     0.00000000
     0.00000000     0.00000000     0.00000000
     0.00000000     0.00000000     0.00000000
    -0.00008143     0.02026791     0.00831786
     0.00000000     0.00000000     0.00000000
     0.00000000     0.00000000     0.00000000
     0.00000000     0.00000000     0.00000000
     0.00000000     0.00000000     0.00000000
     0.00000000     0.00000000     0.00000000
     0.00000000     0.00000000     0.00000000
     0.00000000     0.00000000     0.00000000
     0.00000000     0.00000000     0.00000000
    -0.00006033     0.01556642     0.00946879
     0.00000000     0.00000000     0.00000000
     0.00000000     0.00000000     0.00000000
     0.00000000     0.00000000     0.00000000
     0.00000000     0.00000000     0.00000000
     0.00000000     0.00000000     0.00000000
     0.00000000     0.00000000     0.00000000
     0.00000000     0.00000000     0.00000000
     0.00000000     0.00000000     0.00000000
     0.00000035     0.00185911     0.00988829
     0.00000000     0.00000000     0.00000000
     0.00000000     0.00000000     0.00000000
     0.00000000     0.00000000     0.00000000
     0.00000000     0.00000000     0.00000000
     0.00000000     0.00000000     0.00000000
     0.00000000     0.00000000     0.00000000
     0.00000000     0.00000000     0.00000000
     0.00000000     0.00000000     0.00000000
     0.00007804    -0.01510914     0.00699363
     0.00000000     0.00000000     0.00000000
     0.00000000     0.00000000     0.00000000
     0.00000000     0.00000000     0.00000000
     0.00000000     0.00000000     0.00000000
     0.00000000     0.00000000     0.00000000
     0.00000000     0.00000000     0.00000000
     0.00000000     0.00000000     0.00000000
    -0.08873601     0.03116472     0.00385758
     0.00012522    -0.02727943     0.00656100
     0.00000000     0.00000000     0.00000000
     0.00000000     0.00000000     0.00000000
     0.00000000     0.00000000     0.00000000
     0.00000000     0.00000000     0.00000000
     0.00000000     0.00000000     0.00000000
     0.00000000     0.00000000     0.00000000
     0.00000000     0.00000000     0.00000000
     0.00000000     0.00000000     0.00000000
     0.00015435    -0.02964178     0.00705220
     0.00000000     0.00000000     0.00000000
     0.00000000     0.00000000     0.00000000
     0.00000000     0.00000000     0.00000000
     0.00000000     0.00000000     0.00000000
     0.00000000     0.00000000     0.00000000
     0.00000000     0.00000000     0.00000000
     0.00000000     0.00000000     0.00000000
     0.00000000     0.00000000     0.00000000
     0.00016599    -0.02433607     0.00724085
     0.00000000     0.00000000     0.00000000
     0.00000000     0.00000000     0.00000000
     0.00000000     0.00000000     0.00000000
     0.00000000     0.00000000     0.00000000
     0.00000000     0.00000000     0.00000000
     0.00000000     0.00000000     0.00000000
     0.00000000     0.00000000     0.00000000
     0.00000000     0.00000000     0.00000000
     0.00011788    -0.01310904     0.00499829
     0.00000000     0.00000000     0.00000000
     0.00000000     0.00000000     0.00000000
     0.00000000     0.00000000     0.00000000
     0.00000000     0.00000000     0.00000000
     0.00000000     0.00000000     0.00000000
     0.00000000     0.00000000     0.00000000
     0.00000000     0.00000000     0.00000000
     0.00000000     0.00000000     0.00000000
    -0.00159344    -0.00295733     0.00135778
    -0.01613282    -0.01568325     0.00776704
    -0.02291306    -0.01316103     0.00114156
    -0.02434356    -0.00812262     0.00062383
    -0.02352890    -0.00262916    -0.00241879
    -0.02051166     0.00205673    -0.00431773
    -0.01444861     0.00841368    -0.00632315
    -0.00839327     0.00826346    -0.00883838
     0.04054676    -0.02310415     0.00267856
    -0.00130643     0.00279978     0.00227262
    -0.01301401     0.01607384     0.01489411
    -0.01786853     0.01338364     0.01102183
    -0.01767553     0.00718496     0.00473874
    -0.01599458     0.00160748    -0.00098432
    -0.01560899    -0.00282182    -0.00532680
    -0.01672705    -0.00993246    -0.01027573
    -0.01095824    -0.01368183    -0.02342333
     0.08521430     0.04406384    -0.02303779
    -0.00002501     0.01041706     0.00719513
     0.00000000     0.00000000     0.00000000
     0.00000000     0.00000000     0.00000000
     0.00000000     0.00000000     0.00000000
     0.00000000     0.00000000     0.00000000
     0.00000000     0.00000000     0.00000000
     0.00000000     0.00000000     0.00000000
     0.00000000     0.00000000     0.00000000
     0.00000000     0.00000000     0.00000000
    -0.00004098     0.01527973     0.00893831
     0.00000000     0.00000000     0.00000000
     0.00000000     0.00000000     0.00000000
     0.00000000     0.00000000     0.00000000
     0.00000000     0.00000000     0.00000000
     0.00000000     0.00000000     0.00000000
     0.00000000     0.00000000     0.00000000
     0.00000000     0.00000000     0.00000000
     0.00000000     0.00000000     0.00000000
    -0.00003598     0.01083467     0.01039398
     0.00000000     0.00000000     0.00000000
     0.00000000     0.00000000     0.00000000
     0.00000000     0.00000000     0.00000000
     0.00000000     0.00000000     0.00000000
     0.00000000     0.00000000     0.00000000
     0.00000000     0.00000000     0.00000000
     0.00000000     0.00000000     0.00000000
     0.00000000     0.00000000     0.00000000
     0.00001782    -0.00060608     0.00906073
     0.00000000     0.00000000     0.00000000
     0.00000000     0.00000000     0.00000000
     0.00000000     0.00000000     0.00000000
     0.00000000     0.00000000     0.00000000
     0.00000000     0.00000000     0.00000000
     0.00000000     0.00000000     0.00000000
     0.00000000     0.00000000     0.00000000
     0.00000000     0.00000000     0.00000000
     0.00008414    -0.01431543     0.00538124
     0.00000000     0.00000000     0.00000000
     0.00000000     0.00000000     0.00000000
     0.00000000     0.00000000     0.00000000
     0.00000000     0.00000000     0.00000000
     0.00000000     0.00000000     0.00000000
     0.00000000     0.00000000     0.00000000
     0.00000000     0.00000000     0.00000000
    -0.05392002     0.02139044    -0.00064100
     0.00011279    -0.02409516     0.00494326
     0.00000000     0.00000000     0.00000000
     0.00000000     0.00000000     0.00000000
     0.00000000     0.00000000     0.00000000
     0.00000000     0.00000000     0.00000000
     0.00000000     0.00000000     0.00000000
     0.00000000     0.00000000     0.00000000
     0.00000000     0.00000000     0.00000000
     0.00000000     0.00000000     0.00000000
     0.00013078    -0.02626562     0.00562570
     0.00000000     0.00000000     0.00000000
     0.00000000     0.00000000     0.00000000
     0.00000000     0.00000000     0.00000000
     0.00000000     0.00000000     0.00000000
     0.00000000     0.00000000     0.00000000
     0.00000000     0.00000000     0.00000000
     0.00000000     0.00000000     0.00000000
     0.00000000     0.00000000     0.00000000
     0.00016119    -0.02210837     0.00593346
     0.00000000     0.00000000     0.00000000
     0.00000000     0.00000000     0.00000000
     0.00000000     0.00000000     0.00000000
     0.00000000     0.00000000     0.00000000
     0.00000000     0.00000000     0.00000000
     0.00000000     0.00000000     0.00000000
     0.00000000     0.00000000     0.00000000
     0.00000000     0.00000000     0.00000000
     0.00012106    -0.01279057     0.00482179
     0.00000000     0.00000000     0.00000000
     0.00000000     0.00000000     0.00000000
     0.00000000     0.00000000     0.00000000
     0.00000000     0.00000000     0.00000000
     0.00000000     0.00000000     0.00000000
     0.00000000     0.00000000     0.00000000
     0.00000000     0.00000000     0.00000000
     0.00000000     0.00000000     0.00000000
    -0.00171982    -0.00336712     0.00154276
    -0.01710568    -0.01905680     0.01023260
    -0.02238367    -0.01502834     0.00632384
    -0.02536504    -0.00928381     0.00208896
    -0.02591328    -0.00309387    -0.00104785
    -0.02539365     0.00340860    -0.00545207
    -0.02046488     0.01374012    -0.01121407
    -0.01235904     0.01504145    -0.01812910
     0.04320868    -0.02936147     0.00414939
    -0.00065840     0.00215506     0.00238467
    -0.00673656     0.01391388     0.01662534
    -0.01038712     0.01187783     0.01244485
    -0.01024381     0.00571513     0.00479347
    -0.01053618     0.00006370    -0.00269746
    -0.01325317    -0.00417273    -0.00647125
    -0.02084984    -0.01369716    -0.00952328
    -0.02158505    -0.02752067    -0.02609439
     0.09861068     0.05629704    -0.04201159
    -0.00000090     0.00639163     0.00631366
     0.00000000     0.00000000     0.00000000
     0.00000000     0.00000000     0.00000000
     0.00000000     0.00000000     0.00000000
     0.00000000     0.00000000     0.00000000
     0.00000000     0.00000000     0.00000000
     0.00000000     0.00000000     0.00000000
     0.00000000     0.00000000     0.00000000
     0.00000000     0.00000000     0.00000000
    -0.00001671     0.00905387     0.00975511
     0.00000000     0.00000000     0.00000000
     0.00000000     0.00000000     0.00000000
     0.00000000     0.00000000     0.00000000
     0.00000000     0.00000000     0.00000000
     0.00000000     0.00000000     0.00000000
     0.00000000     0.00000000     0.00000000
     0.00000000     0.00000000     0.00000000
     0.00000000     0.00000000     0.00000000
    -0.00000393     0.00534531     0.01184027
     0.00000000     0.00000000     0.00000000
     0.00000000     0.00000000     0.00000000
     0.00000000     0.00000000     0.00000000
     0.00000000     0.00000000     0.00000000
     0.00000000     0.00000000     0.00000000
     0.00000000     0.00000000     0.00000000
     0.00000000     0.00000000     0.00000000
     0.00000000     0.00000000     0.00000000
     0.00004346    -0.00232405     0.01067176
     0.00000000     0.00000000     0.00000000
     0.00000000     0.00000000     0.00000000
     0.00000000     0.00000000     0.00000000
     0.00000000     0.00000000     0.00000000
     0.00000000     0.00000000     0.00000000
     0.00000000     0.00000000     0.00000000
     0.00000000     0.00000000     0.00000000
     0.00000000     0.00000000     0.00000000
     0.00009062    -0.01211550     0.00749287
     0.00000000     0.00000000     0.00000000
     0.00000000     0.00000000     0.00000000
     0.00000000     0.00000000     0.00000000
     0.00000000     0.00000000     0.00000000
     0.00000000     0.00000000     0.00000000
     0.00000000     0.00000000     0.00000000
     0.00000000     0.00000000     0.00000000
    -0.02827030     0.01540164    -0.00794239
     0.00011941    -0.01923890     0.00709754
     0.00000000     0.00000000     0.00000000
     0.00000000     0.00000000     0.00000000
     0.00000000     0.00000000     0.00000000
     0.00000000     0.00000000     0.00000000
     0.00000000     0.00000000     0.00000000
     0.00000000     0.00000000     0.00000000
     0.00000000     0.00000000     0.00000000
     0.00000000     0.00000000     0.00000000
     0.00011121    -0.02096816     0.00744207
     0.00000000     0.00000000     0.00000000
     0.00000000     0.00000000     0.00000000
     0.00000000     0.00000000     0.00000000
     0.00000000     0.00000000     0.00000000
     0.00000000     0.00000000     0.00000000
     0.00000000     0.00000000     0.00000000
     0.00000000     0.00000000     0.00000000
     0.00000000     0.00000000     0.00000000
     0.00012543    -0.01798262     0.00740652
     0.00000000     0.00000000     0.00000000
     0.00000000     0.00000000     0.00000000
     0.00000000     0.00000000     0.00000000
     0.00000000     0.00000000     0.00000000
     0.00000000     0.00000000     0.00000000
     0.00000000     0.00000000     0.00000000
     0.00000000     0.00000000     0.00000000
     0.00000000     0.00000000     0.00000000
     0.00010654    -0.01076778     0.00482463
     0.00000000     0.00000000     0.00000000
     0.00000000     0.00000000     0.00000000
     0.00000000     0.00000000     0.00000000
     0.00000000     0.00000000     0.00000000
     0.00000000     0.00000000     0.00000000
     0.00000000     0.00000000     0.00000000
     0.00000000     0.00000000     0.00000000
     0.00000000     0.00000000     0.00000000
    -0.00164379    -0.00360599     0.00186311
    -0.01634312    -0.02262695     0.01366139
    -0.02103144    -0.01828256     0.01115589
    -0.02365427    -0.01194800     0.00730013
    -0.02629198    -0.00528719     0.00354819
    -0.02747414     0.00247556    -0.00069567
    -0.02783957     0.01931457    -0.00891993
    -0.02302092     0.03077504    -0.02497415
     0.04667388    -0.04151370     0.00982194
    -0.00005735     0.00143043     0.00206279
    -0.00065055     0.01020979     0.01497908
    -0.00185821     0.00608929     0.00772920
    -0.00216488     0.00123121     0.00088535
    -0.00599518    -0.00244237    -0.00489573
    -0.00943184    -0.00513832    -0.00622985
    -0.02153439    -0.01130246    -0.00054068
    -0.03213978    -0.04022491    -0.01651224
     0.09958184     0.06160126    -0.06144182
    -0.00000054     0.00265378     0.00351045
     0.00000000     0.00000000     0.00000000
     0.00000000     0.00000000     0.00000000
     0.00000000     0.00000000     0.00000000
     0.00000000     0.00000000     0.00000000
     0.00000000     0.00000000     0.00000000
     0.00000000     0.00000000     0.00000000
     0.00000000     0.00000000     0.00000000
     0.00000000     0.00000000     0.00000000
    -0.00000519     0.00368630     0.00589945
     0.00000000     0.00000000     0.00000000
     0.00000000     0.00000000     0.00000000
     0.00000000     0.00000000     0.00000000
     0.00000000     0.00000000     0.00000000
     0.00000000     0.00000000     0.00000000
     0.00000000     0.00000000     0.00000000
     0.00000000     0.00000000     0.00000000
     0.00000000     0.00000000     0.00000000
     0.00001704     0.00196374     0.00817978
     0.00000000     0.00000000     0.00000000
     0.00000000     0.00000000     0.00000000
     0.00000000     0.00000000     0.00000000
     0.00000000     0.00000000     0.00000000
     0.00000000     0.00000000     0.00000000
     0.00000000     0.00000000     0.00000000
     0.00000000     0.00000000     0.00000000
     0.00000000     0.00000000     0.00000000
     0.00003921    -0.00143832     0.00769043
     0.00000000     0.00000000     0.00000000
     0.00000000     0.00000000     0.00000000
     0.00000000     0.00000000     0.00000000
     0.00000000     0.00000000     0.00000000
     0.00000000     0.00000000     0.00000000
     0.00000000     0.00000000     0.00000000
     0.00000000     0.00000000     0.00000000
     0.00000000     0.00000000     0.00000000
     0.00005761    -0.00555259     0.00578422
     0.00000000     0.00000000     0.00000000
     0.00000000     0.00000000     0.00000000
     0.00000000     0.00000000     0.00000000
     0.00000000     0.00000000     0.00000000
     0.00000000     0.00000000     0.00000000
     0.00000000     0.00000000     0.00000000
     0.00000000     0.00000000     0.00000000
    -0.03484234     0.01944599    -0.01610423
     0.00008130    -0.00957766     0.00562156
     0.00000000     0.00000000     0.00000000
     0.00000000     0.00000000     0.00000000
     0.00000000     0.00000000     0.00000000
     0.00000000     0.00000000     0.00000000
     0.00000000     0.00000000     0.00000000
     0.00000000     0.00000000     0.00000000
     0.00000000     0.00000000     0.00000000
     0.00000000     0.00000000     0.00000000
     0.00008729    -0.01192117     0.00561131
     0.00000000     0.00000000     0.00000000
     0.00000000     0.00000000     0.00000000
     0.00000000     0.00000000     0.00000000
     0.00000000     0.00000000     0.00000000
     0.00000000     0.00000000     0.00000000
     0.00000000     0.00000000     0.00000000
     0.00000000     0.00000000     0.00000000
     0.00000000     0.00000000     0.00000000
     0.00007316    -0.01069323     0.00493356
     0.00000000     0.00000000     0.00000000
     0.00000000     0.00000000     0.00000000
     0.00000000     0.00000000     0.00000000
     0.00000000     0.00000000     0.00000000
     0.00000000     0.00000000     0.00000000
     0.00000000     0.00000000     0.00000000
     0.00000000     0.00000000     0.00000000
     0.00000000     0.00000000     0.00000000
     0.00006188    -0.00692610     0.00302171
     0.00000000     0.00000000     0.00000000
     0.00000000     0.00000000     0.00000000
     0.00000000     0.00000000     0.00000000
     0.00000000     0.00000000     0.00000000
     0.00000000     0.00000000     0.00000000
     0.00000000     0.00000000     0.00000000
     0.00000000     0.00000000     0.00000000
     0.00000000     0.00000000     0.00000000
    -0.00156394    -0.00380582     0.00184836
    -0.01479615    -0.02648631     0.01525196
    -0.01469497    -0.01982551     0.01482183
    -0.01743747    -0.01520469     0.01267551
    -0.02223351    -0.01024763     0.01064205
    -0.02681010    -0.00228870     0.00721942
    -0.02575537     0.01137200     0.00585290
    -0.02710729     0.04897333    -0.03716605
     0.03863067    -0.04289359     0.00713407
     0.00008988     0.00074024     0.00102238
     0.00058623     0.00474285     0.00632096
    -0.00003323     0.00256732     0.00292708
    -0.00039491     0.00018058     0.00006129
    -0.00246522    -0.00155735    -0.00217532
    -0.00405842    -0.00287207    -0.00261117
    -0.01007287    -0.00510187     0.00088305
    -0.01582969    -0.02416927    -0.00726091
     0.04943149     0.03628149    -0.03765348
     0.00032153     0.00143683     0.00184740
     0.00290122     0.01064339     0.01275232
     0.00198895     0.00533778     0.00613055
     0.00073959     0.00025074     0.00061248
    -0.00342888    -0.00345760    -0.00340872
    -0.00681532    -0.00620829    -0.00423287
    -0.01806374    -0.00914901     0.00255029
    -0.02540248    -0.04970083    -0.01286330
     0.10271643     0.08301529    -0.09652492
     0.00063806     0.00123722     0.00194968
     0.00677199     0.00799200     0.01225613
     0.01121504     0.00147380     0.00863014
     0.00995435    -0.00020838     0.00377361
     0.00728559    -0.00175937    -0.00007802
     0.00238925    -0.00250321    -0.00169925
    -0.00521567    -0.00229117     0.00139034
    -0.01127185    -0.03886181    -0.01086204
     0.04350488     0.01347688    -0.06824913
     0.00107010     0.00054029     0.00222678
     0.01090434     0.00355863     0.01273224
     0.01573980     0.00108814     0.01060363
     0.01612664     0.00127056     0.00637342
     0.01378603     0.00286844     0.00277056
     0.00969890     0.00325588     0.00010243
     0.00538507     0.00415448    -0.00087943
    -0.00344340    -0.02038134    -0.00361611
     0.02260670     0.00252074    -0.04059108
     0.00102799    -0.00032541     0.00188836
     0.01061156    -0.00169343     0.01030998
     0.01634127    -0.00119928     0.00997167
     0.01706254     0.00155554     0.00629832
     0.01594528     0.00505755     0.00280602
     0.01264382     0.00812605     0.00011751
     0.00502698     0.00988518    -0.00077412
     0.00034801    -0.00904295    -0.00027032
     0.00115536     0.00905000     0.00033768
     0.00074240    -0.00121912     0.00139819
     0.00773074    -0.00703354     0.00760033
     0.01243040    -0.00529324     0.00763382
     0.01405852    -0.00097369     0.00487207
     0.01392109     0.00448495     0.00163668
     0.01170931     0.01066953    -0.00135039
     0.00842610     0.01646826    -0.00424730
    -0.00053616     0.00744808     0.00238568
    -0.00398307    -0.00245005     0.00376685
     0.00059819    -0.00226037     0.00149149
     0.00625052    -0.01334712     0.00860626
     0.00965789    -0.01015075     0.00786637
     0.00923269    -0.00582340     0.00430916
     0.00953213     0.00136168     0.00091296
     0.00770968     0.01115721    -0.00294262
     0.00479752     0.01961774    -0.00605093
    -0.00178701     0.04259899    -0.00579069
    -0.01112003    -0.04913655     0.02358470
     0.00021219    -0.00329071     0.00160048
     0.00219038    -0.02039979     0.00976453
     0.00342389    -0.01569283     0.00805507
     0.00169982    -0.01122761     0.00484945
    -0.00075538    -0.00398213     0.00147809
    -0.00226756     0.00877124    -0.00300772
    -0.00292228     0.02147310    -0.00663535
    -0.00668851     0.06088836    -0.01725052
    -0.00612270    -0.05968736     0.02850147
    -0.00025646    -0.00374194     0.00171165
    -0.00248456    -0.02496783     0.01164791
    -0.00293082    -0.01982789     0.00953874
    -0.00675798    -0.01631857     0.00694604
    -0.01093595    -0.00932982     0.00414856
    -0.01539580     0.00275904     0.00033307
    -0.01152311     0.01827618    -0.00438496
    -0.01085993     0.06934495    -0.03299028
    -0.00169697    -0.03954002     0.02581744
    -0.00097215    -0.00402328     0.00160292
    -0.00929740    -0.02924202     0.01255724
    -0.00938852    -0.02242520     0.01136406
    -0.01324632    -0.01871258     0.00982036
    -0.01899187    -0.01310033     0.00814118
    -0.02454409    -0.00365801     0.00631148
    -0.02240532     0.01028641     0.00588951
    -0.01880001     0.06854268    -0.03978656
     0.03520807    -0.06905866     0.00323420
    -0.00077122    -0.00208358     0.00090858
    -0.00560095    -0.01280711     0.00636936
    -0.00541348    -0.00972408     0.00617506
    -0.00695445    -0.00797626     0.00550658
    -0.00955238    -0.00575151     0.00479587
    -0.01236062    -0.00188644     0.00379147
    -0.01218706     0.00467341     0.00396085
    -0.01201199     0.03032358    -0.02026177
     0.01791228    -0.02611938     0.00176151
     0.01412941     0.00307843    -0.01305337
    -0.00754783     0.01907830     0.00009392
    -0.04535791    -0.01208639     0.00082551
    -0.05010498    -0.01338582     0.00048740
    -0.05156442    -0.01381544     0.00001438
    -0.04701684    -0.01264422    -0.00056514
    -0.03893705    -0.01051231    -0.00097205
    -0.02640954    -0.00717374    -0.00119471
    -0.01404821    -0.00385454    -0.00110832
    -0.00411186    -0.00116226    -0.00074237
     0.00028459    -0.00247583    -0.00010050
     0.00000000     0.00000000     0.00000000
     0.00000000     0.00000000     0.00000000
     0.00000000     0.00000000     0.00000000
     0.00000000     0.00000000     0.00000000
     0.00000000     0.00000000     0.00000000
     0.00000000     0.00000000     0.00000000
     0.00000000     0.00000000     0.00000000
     0.00000000     0.00000000     0.00000000
     0.00000000     0.00000000     0.00000000
     0.00000000     0.00000000     0.00000000
     0.00726520    -0.02711422     0.00006368
     0.00000000     0.00000000     0.00000000
     0.00000000     0.00000000     0.00000000
     0.00000000     0.00000000     0.00000000
     0.00000000     0.00000000     0.00000000
     0.00000000     0.00000000     0.00000000
     0.00000000     0.00000000     0.00000000
     0.00000000     0.00000000     0.00000000
     0.00000000     0.00000000     0.00000000
     0.00000000     0.00000000     0.00000000
     0.00000000     0.00000000     0.00000000
     0.02142674    -0.07996544     0.00192224
     0.00000000     0.00000000     0.00000000
     0.00000000     0.00000000     0.00000000
     0.00000000     0.00000000     0.00000000
     0.00000000     0.00000000     0.00000000
     0.00000000     0.00000000     0.00000000
     0.00000000     0.00000000     0.00000000
     0.00000000     0.00000000     0.00000000
     0.00000000     0.00000000     0.00000000
     0.00000000     0.00000000     0.00000000
     0.00000000     0.00000000     0.00000000
     0.02360911    -0.08811008     0.00398932
     0.00000000     0.00000000     0.00000000
     0.00000000     0.00000000     0.00000000
     0.00000000     0.00000000     0.00000000
     0.00000000     0.00000000     0.00000000
     0.00000000     0.00000000     0.00000000
     0.00000000     0.00000000     0.00000000
     0.00000000     0.00000000     0.00000000
     0.00000000     0.00000000     0.00000000
     0.00000000     0.00000000     0.00000000
     0.00000000     0.00000000     0.00000000
     0.00935886    -0.03492776     0.00443815
     0.07593081    -0.05391148     0.00564976
     0.01445611    -0.01205066     0.00274159
     0.00721648     0.00208569    -0.00186640
     0.02673826     0.00735381    -0.00232290
     0.04495931     0.01216103    -0.00140187
     0.05513698     0.01480255    -0.00035172
     0.05505978     0.01468115     0.00088598
     0.04572486     0.01207803     0.00213497
     0.02844759     0.00736676     0.00313917
     0.01019694     0.00251428     0.00267586
     0.00182418    -0.00302555     0.00083339
    -0.00327539     0.00570228    -0.05564710
    -0.00421267     0.02149040    -0.01006710
    -0.04270110    -0.01078699     0.00329708
    -0.04983302    -0.01297923     0.00181016
    -0.05228919    -0.01372443     0.00160908
    -0.04877169    -0.01318358    -0.00048647
    -0.03999677    -0.01090520    -0.00073351
    -0.02780990    -0.00777262    -0.00139379
    -0.01439752    -0.00418412    -0.00146580
    -0.00464423    -0.00156337    -0.00155475
     0.00018475    -0.00240873    -0.00027990
     0.00000000     0.00000000     0.00000000
     0.00000000     0.00000000     0.00000000
     0.00000000     0.00000000     0.00000000
     0.00000000     0.00000000     0.00000000
     0.00000000     0.00000000     0.00000000
     0.00000000     0.00000000     0.00000000
     0.00000000     0.00000000     0.00000000
     0.00000000     0.00000000     0.00000000
     0.00000000     0.00000000     0.00000000
     0.00000000     0.00000000     0.00000000
     0.00690890    -0.02578419     0.00018672
     0.00000000     0.00000000     0.00000000
     0.00000000     0.00000000     0.00000000
     0.00000000     0.00000000     0.00000000
     0.00000000     0.00000000     0.00000000
     0.00000000     0.00000000     0.00000000
     0.00000000     0.00000000     0.00000000
     0.00000000     0.00000000     0.00000000
     0.00000000     0.00000000     0.00000000
     0.00000000     0.00000000     0.00000000
     0.00000000     0.00000000     0.00000000
     0.02039180    -0.07610331     0.00865462
     0.00000000     0.00000000     0.00000000
     0.00000000     0.00000000     0.00000000
     0.00000000     0.00000000     0.00000000
     0.00000000     0.00000000     0.00000000
     0.00000000     0.00000000     0.00000000
     0.00000000     0.00000000     0.00000000
     0.00000000     0.00000000     0.00000000
     0.00000000     0.00000000     0.00000000
     0.00000000     0.00000000     0.00000000
     0.00000000     0.00000000     0.00000000
     0.02243382    -0.08372417     0.01813460
     0.00000000     0.00000000     0.00000000
     0.00000000     0.00000000     0.00000000
     0.00000000     0.00000000     0.00000000
     0.00000000     0.00000000     0.00000000
     0.00000000     0.00000000     0.00000000
     0.00000000     0.00000000     0.00000000
     0.00000000     0.00000000     0.00000000
     0.00000000     0.00000000     0.00000000
     0.00000000     0.00000000     0.00000000
     0.00000000     0.00000000     0.00000000
     0.00920025    -0.03433598     0.02010629
     0.06370763    -0.04851226     0.02334123
     0.01631622    -0.01411774     0.01257526
     0.00856693     0.00293484    -0.00292254
     0.02974621     0.00905896    -0.00552049
     0.04766280     0.01324734    -0.00225387
     0.05769623     0.01547679    -0.00004467
     0.05700842     0.01455115     0.00380622
     0.04647345     0.01097521     0.00775608
     0.02865843     0.00549564     0.01160259
     0.01009410     0.00082194     0.01013316
     0.00180566    -0.00321580     0.00355044
     0.01236122    -0.01633228    -0.11135659
     0.00474526     0.02152486    -0.03271751
    -0.03581286    -0.00598953     0.00999621
    -0.04814230    -0.01047199     0.00674788
    -0.05414496    -0.01274771     0.00496768
    -0.05101872    -0.01361994     0.00010208
    -0.04367649    -0.01178511    -0.00017402
    -0.03002217    -0.00878910    -0.00201554
    -0.01619729    -0.00509421    -0.00205131
    -0.00466267    -0.00234268    -0.00305833
     0.00011421    -0.00213692    -0.00062747
     0.00000000     0.00000000     0.00000000
     0.00000000     0.00000000     0.00000000
     0.00000000     0.00000000     0.00000000
     0.00000000     0.00000000     0.00000000
     0.00000000     0.00000000     0.00000000
     0.00000000     0.00000000     0.00000000
     0.00000000     0.00000000     0.00000000
     0.00000000     0.00000000     0.00000000
     0.00000000     0.00000000     0.00000000
     0.00000000     0.00000000     0.00000000
     0.00573995    -0.02142155    -0.00050892
     0.00000000     0.00000000     0.00000000
     0.00000000     0.00000000     0.00000000
     0.00000000     0.00000000     0.00000000
     0.00000000     0.00000000     0.00000000
     0.00000000     0.00000000     0.00000000
     0.00000000     0.00000000     0.00000000
     0.00000000     0.00000000     0.00000000
     0.00000000     0.00000000     0.00000000
     0.00000000     0.00000000     0.00000000
     0.00000000     0.00000000     0.00000000
     0.01673585    -0.06245898     0.01327557
     0.00000000     0.00000000     0.00000000
     0.00000000     0.00000000     0.00000000
     0.00000000     0.00000000     0.00000000
     0.00000000     0.00000000     0.00000000
     0.00000000     0.00000000     0.00000000
     0.00000000     0.00000000     0.00000000
     0.00000000     0.00000000     0.00000000
     0.00000000     0.00000000     0.00000000
     0.00000000     0.00000000     0.00000000
     0.00000000     0.00000000     0.00000000
     0.01910142    -0.07128762     0.02914499
     0.00000000     0.00000000     0.00000000
     0.00000000     0.00000000     0.00000000
     0.00000000     0.00000000     0.00000000
     0.00000000     0.00000000     0.00000000
     0.00000000     0.00000000     0.00000000
     0.00000000     0.00000000     0.00000000
     0.00000000     0.00000000     0.00000000
     0.00000000     0.00000000     0.00000000
     0.00000000     0.00000000     0.00000000
     0.00000000     0.00000000     0.00000000
     0.00879681    -0.03283000     0.03193084
     0.04397369    -0.04091263     0.03719109
     0.01462808    -0.01584510     0.01274654
     0.01120032     0.00539277    -0.00653719
     0.03427673     0.01252612    -0.00934373
     0.05417086     0.01560106    -0.00304718
     0.06325549     0.01637758     0.00153018
     0.05945627     0.01259450     0.00934498
     0.04589090     0.00641321     0.01663750
     0.02636870    -0.00105125     0.02312844
     0.00924472    -0.00394924     0.01845995
     0.00172954    -0.00374668     0.00587933
     0.03782864    -0.03896677    -0.17469314
     0.02194485     0.01295404    -0.07281640
    -0.03188576     0.00280771     0.02090514
    -0.04509220    -0.00533988     0.01241824
    -0.05140036    -0.00825197     0.01010646
    -0.05253275    -0.01231739     0.00314822
    -0.04705055    -0.01132570     0.00232824
    -0.03359308    -0.00955962    -0.00102312
    -0.01716765    -0.00518846    -0.00106872
    -0.00494204    -0.00324209    -0.00355994
    -0.00011000    -0.00152346    -0.00079839
     0.00000000     0.00000000     0.00000000
     0.00000000     0.00000000     0.00000000
     0.00000000     0.00000000     0.00000000
     0.00000000     0.00000000     0.00000000
     0.00000000     0.00000000     0.00000000
     0.00000000     0.00000000     0.00000000
     0.00000000     0.00000000     0.00000000
     0.00000000     0.00000000     0.00000000
     0.00000000     0.00000000     0.00000000
     0.00000000     0.00000000     0.00000000
     0.00355769    -0.01327732    -0.00140524
     0.00000000     0.00000000     0.00000000
     0.00000000     0.00000000     0.00000000
     0.00000000     0.00000000     0.00000000
     0.00000000     0.00000000     0.00000000
     0.00000000     0.00000000     0.00000000
     0.00000000     0.00000000     0.00000000
     0.00000000     0.00000000     0.00000000
     0.00000000     0.00000000     0.00000000
     0.00000000     0.00000000     0.00000000
     0.00000000     0.00000000     0.00000000
     0.01080362    -0.04031899     0.01098914
     0.00000000     0.00000000     0.00000000
     0.00000000     0.00000000     0.00000000
     0.00000000     0.00000000     0.00000000
     0.00000000     0.00000000     0.00000000
     0.00000000     0.00000000     0.00000000
     0.00000000     0.00000000     0.00000000
     0.00000000     0.00000000     0.00000000
     0.00000000     0.00000000     0.00000000
     0.00000000     0.00000000     0.00000000
     0.00000000     0.00000000     0.00000000
     0.01344601    -0.05018113     0.02561578
     0.00000000     0.00000000     0.00000000
     0.00000000     0.00000000     0.00000000
     0.00000000     0.00000000     0.00000000
     0.00000000     0.00000000     0.00000000
     0.00000000     0.00000000     0.00000000
     0.00000000     0.00000000     0.00000000
     0.00000000     0.00000000     0.00000000
     0.00000000     0.00000000     0.00000000
     0.00000000     0.00000000     0.00000000
     0.00000000     0.00000000     0.00000000
     0.00751361    -0.02804099     0.02900723
     0.00917121    -0.02625156     0.05740665
     0.00441647    -0.00875151    -0.00343110
    -0.00064984     0.00569452    -0.01044696
     0.03584483     0.01685212    -0.01328064
     0.06061358     0.01669888    -0.00088975
     0.06594874     0.01463404     0.00546803
     0.05555478     0.00572387     0.01680056
     0.03679468    -0.00358929     0.02482376
     0.01844940    -0.01205212     0.03153603
     0.00588401    -0.01037877     0.02228895
     0.00131875    -0.00413117     0.00593419
     0.08815314    -0.01960806    -0.24099368
     0.02877369    -0.01183662    -0.10164076
    -0.04191086     0.00626323     0.02298614
    -0.03085248     0.00006975     0.01096195
    -0.04178131    -0.00048316     0.01395912
    -0.04588721    -0.00831930     0.00514122
    -0.04655407    -0.00852602     0.00512002
    -0.03278061    -0.00899515    -0.00029169
    -0.01694832    -0.00461535    -0.00009948
    -0.00272693    -0.00243423    -0.00227089
    -0.00002633    -0.00062708    -0.00050981
     0.00000000     0.00000000     0.00000000
     0.00000000     0.00000000     0.00000000
     0.00000000     0.00000000     0.00000000
     0.00000000     0.00000000     0.00000000
     0.00000000     0.00000000     0.00000000
     0.00000000     0.00000000     0.00000000
     0.00000000     0.00000000     0.00000000
     0.00000000     0.00000000     0.00000000
     0.00000000     0.00000000     0.00000000
     0.00000000     0.00000000     0.00000000
     0.00117586    -0.00438833    -0.00113042
     0.00000000     0.00000000     0.00000000
     0.00000000     0.00000000     0.00000000
     0.00000000     0.00000000     0.00000000
     0.00000000     0.00000000     0.00000000
     0.00000000     0.00000000     0.00000000
     0.00000000     0.00000000     0.00000000
     0.00000000     0.00000000     0.00000000
     0.00000000     0.00000000     0.00000000
     0.00000000     0.00000000     0.00000000
     0.00000000     0.00000000     0.00000000
     0.00417131    -0.01556733     0.00402619
     0.00000000     0.00000000     0.00000000
     0.00000000     0.00000000     0.00000000
     0.00000000     0.00000000     0.00000000
     0.00000000     0.00000000     0.00000000
     0.00000000     0.00000000     0.00000000
     0.00000000     0.00000000     0.00000000
     0.00000000     0.00000000     0.00000000
     0.00000000     0.00000000     0.00000000
     0.00000000     0.00000000     0.00000000
     0.00000000     0.00000000     0.00000000
     0.00686042    -0.02560322     0.01116911
     0.00000000     0.00000000     0.00000000
     0.00000000     0.00000000     0.00000000
     0.00000000     0.00000000     0.00000000
     0.00000000     0.00000000     0.00000000
     0.00000000     0.00000000     0.00000000
     0.00000000     0.00000000     0.00000000
     0.00000000     0.00000000     0.00000000
     0.00000000     0.00000000     0.00000000
     0.00000000     0.00000000     0.00000000
     0.00000000     0.00000000     0.00000000
     0.00463587    -0.01730118     0.01500347
     0.02150123    -0.04945716     0.06286884
    -0.02024509    -0.00290354    -0.00204174
    -0.03305838     0.00597538    -0.01907812
     0.03236241     0.02108478    -0.01618816
     0.05659207     0.01416208     0.00127873
     0.05619104     0.00903182     0.00781533
     0.03851686    -0.00471867     0.01964880
     0.01934917    -0.01368233     0.02474419
     0.00606948    -0.02064723     0.02929859
     0.00289234    -0.01406781     0.01955357
     0.00082461    -0.00344723     0.00397873
     0.06314429    -0.00959312    -0.12949671
     0.01958642    -0.00912605    -0.05208938
    -0.02411548     0.00520420     0.00982401
    -0.01576828     0.00194338     0.00510729
    -0.02214424     0.00184020     0.00650148
    -0.02445092    -0.00329722     0.00268668
    -0.02525833    -0.00400652     0.00233262
    -0.01762301    -0.00493566    -0.00016485
    -0.00908218    -0.00275524    -0.00023190
    -0.00118860    -0.00148995    -0.00097042
    -0.00002828    -0.00025894    -0.00020051
     0.19204046    -0.04991410    -0.31152227
     0.05801216    -0.01611561    -0.12033267
    -0.05499817     0.01511530     0.01625165
    -0.03745621     0.01057790     0.01028672
    -0.05501373     0.00654334     0.01135577
    -0.06237794    -0.00754624     0.00490561
    -0.06406422    -0.01292458     0.00294370
    -0.04536402    -0.01575662    -0.00128665
    -0.02348339    -0.01092186    -0.00172185
    -0.00364474    -0.00566764    -0.00219472
    -0.00004751    -0.00098945    -0.00039485
     0.06787620    -0.14811929    -0.06603895
     0.03485141     0.01466755    -0.04148302
     0.00361361     0.02109578     0.00285031
    -0.00329963     0.03097725     0.00448334
    -0.02566395     0.00904792     0.00228059
    -0.04125560    -0.00939883     0.00039052
    -0.04429072    -0.02768876    -0.00211037
    -0.03638623    -0.03194936    -0.00289005
    -0.02069055    -0.02907933    -0.00313138
    -0.00665861    -0.01499271    -0.00167374
    -0.00019559    -0.00303885     0.00019568
     0.05839273    -0.16449430     0.00594765
     0.05113536    -0.03042582    -0.02199506
     0.03692398     0.06144920    -0.00833189
     0.03799850     0.05049612    -0.00646872
     0.02690861     0.02632712    -0.00314213
     0.01143773    -0.00718867     0.00156941
    -0.00466000    -0.02866237     0.00434547
    -0.01047302    -0.04382148     0.00672256
    -0.00775664    -0.04061230     0.00644844
    -0.00098451    -0.02543018     0.00432632
     0.00070099    -0.00544405     0.00157541
     0.02218362    -0.09728764     0.06213056
    -0.02123143    -0.01632418     0.00556094
    -0.04553059     0.03218680    -0.02212659
     0.04309475     0.04164260    -0.01513916
     0.07284878     0.02185113    -0.00045717
     0.07044333     0.00441633     0.00753850
     0.04577541    -0.01995582     0.01684463
     0.02192536    -0.03546556     0.02131955
     0.00687543    -0.04314718     0.02354183
     0.00475313    -0.02831904     0.01548363
     0.00105975    -0.00498011     0.00325550
     0.00938396    -0.03157602     0.03005133
    -0.01334950    -0.00260781     0.00145600
    -0.02196236     0.00705727    -0.01062264
     0.01667696     0.01378003    -0.00774283
     0.03018746     0.00752524     0.00050284
     0.02982081     0.00316317     0.00398887
     0.01990344    -0.00573852     0.00922109
     0.00969783    -0.01110027     0.01140056
     0.00299113    -0.01481210     0.01303646
     0.00183526    -0.00979430     0.00859349
     0.00035824    -0.00171980     0.00152328
     0.23207864    -0.06184779    -0.00413055
     0.21783502    -0.05871538     0.00424845
     0.13860819    -0.03761773     0.00585243
     0.06974922    -0.01901867     0.00404407
     0.03071936    -0.00839234     0.00197875
     0.01777828    -0.00478218     0.00022783
     0.02378281    -0.00632230    -0.00061807
     0.01484797    -0.00245840    -0.00009021
     0.00000000     0.00000000     0.00000000
     0.00000000     0.00000000     0.00000000
     0.00000000     0.00000000     0.00000000
     0.00000000     0.00000000     0.00000000
     0.00000000     0.00000000     0.00000000
     0.00000000     0.00000000     0.00000000
     0.00000000     0.00000000     0.00000000
     0.00000000     0.00000000     0.00000000
     0.00404786     0.01510665     0.00011795
     0.00000000     0.00000000     0.00000000
     0.00000000     0.00000000     0.00000000
     0.00000000     0.00000000     0.00000000
     0.00000000     0.00000000     0.00000000
     0.00000000     0.00000000     0.00000000
     0.00000000     0.00000000     0.00000000
     0.00000000     0.00000000     0.00000000
     0.00000000     0.00000000     0.00000000
     0.01037194     0.03870895     0.00146866
     0.00000000     0.00000000     0.00000000
     0.00000000     0.00000000     0.00000000
     0.00000000     0.00000000     0.00000000
     0.00000000     0.00000000     0.00000000
     0.00000000     0.00000000     0.00000000
     0.00000000     0.00000000     0.00000000
     0.00000000     0.00000000     0.00000000
     0.00000000     0.00000000     0.00000000
     0.01037443     0.03871835     0.00221079
     0.00000000     0.00000000     0.00000000
     0.00000000     0.00000000     0.00000000
     0.00000000     0.00000000     0.00000000
     0.00000000     0.00000000     0.00000000
     0.00000000     0.00000000     0.00000000
     0.00000000     0.00000000     0.00000000
     0.00000000     0.00000000     0.00000000
     0.00000000     0.00000000     0.00000000
     0.00401828     0.01499625     0.00167195
     0.09153458     0.02885750     0.00756250
    -0.04121999     0.01098895    -0.00068450
    -0.01942291     0.00509621    -0.00132648
     0.00916620    -0.00259313    -0.00168207
     0.04075688    -0.01104173    -0.00148126
     0.05822553    -0.01562905    -0.00033658
     0.05831807    -0.01553810     0.00107941
     0.04208827    -0.01113895     0.00169968
     0.01665059    -0.00294503     0.00039782
     0.04973132    -0.00475476    -0.04663874
     0.25402292    -0.06438508    -0.02047829
     0.22609799    -0.06233059     0.00793529
     0.13643087    -0.03983222     0.01682125
     0.06583227    -0.02004051     0.01262256
     0.02728258    -0.00853786     0.00657067
     0.01697729    -0.00485397     0.00175378
     0.02284374    -0.00588152    -0.00114681
     0.01466456    -0.00250779    -0.00020939
     0.00000000     0.00000000     0.00000000
     0.00000000     0.00000000     0.00000000
     0.00000000     0.00000000     0.00000000
     0.00000000     0.00000000     0.00000000
     0.00000000     0.00000000     0.00000000
     0.00000000     0.00000000     0.00000000
     0.00000000     0.00000000     0.00000000
     0.00000000     0.00000000     0.00000000
     0.00372418     0.01389882     0.00045604
     0.00000000     0.00000000     0.00000000
     0.00000000     0.00000000     0.00000000
     0.00000000     0.00000000     0.00000000
     0.00000000     0.00000000     0.00000000
     0.00000000     0.00000000     0.00000000
     0.00000000     0.00000000     0.00000000
     0.00000000     0.00000000     0.00000000
     0.00000000     0.00000000     0.00000000
     0.00967780     0.03611796     0.00643081
     0.00000000     0.00000000     0.00000000
     0.00000000     0.00000000     0.00000000
     0.00000000     0.00000000     0.00000000
     0.00000000     0.00000000     0.00000000
     0.00000000     0.00000000     0.00000000
     0.00000000     0.00000000     0.00000000
     0.00000000     0.00000000     0.00000000
     0.00000000     0.00000000     0.00000000
     0.00983199     0.03669364     0.00974033
     0.00000000     0.00000000     0.00000000
     0.00000000     0.00000000     0.00000000
     0.00000000     0.00000000     0.00000000
     0.00000000     0.00000000     0.00000000
     0.00000000     0.00000000     0.00000000
     0.00000000     0.00000000     0.00000000
     0.00000000     0.00000000     0.00000000
     0.00000000     0.00000000     0.00000000
     0.00393753     0.01469501     0.00739558
     0.09160742     0.03249254     0.01860423
    -0.03625168     0.00975857     0.00016591
    -0.02171809     0.00558275    -0.00090553
     0.01010084    -0.00309061    -0.00156711
     0.03959472    -0.01106458    -0.00217653
     0.05827243    -0.01553809     0.00054956
     0.05603532    -0.01420229     0.00432466
     0.04190911    -0.01008317     0.00618495
     0.01663484    -0.00282675     0.00159210
     0.08393938     0.00884210    -0.10651960
     0.30609107    -0.07047733    -0.03388887
     0.23662904    -0.07234561     0.02435420
     0.12339588    -0.04520692     0.03437708
     0.05226275    -0.02213194     0.02318555
     0.02027654    -0.00927624     0.01104518
     0.01342182    -0.00469339     0.00320399
     0.02253390    -0.00525269    -0.00219452
     0.01440560    -0.00268141    -0.00044359
     0.00000000     0.00000000     0.00000000
     0.00000000     0.00000000     0.00000000
     0.00000000     0.00000000     0.00000000
     0.00000000     0.00000000     0.00000000
     0.00000000     0.00000000     0.00000000
     0.00000000     0.00000000     0.00000000
     0.00000000     0.00000000     0.00000000
     0.00000000     0.00000000     0.00000000
     0.00285168     0.01064241     0.00012741
     0.00000000     0.00000000     0.00000000
     0.00000000     0.00000000     0.00000000
     0.00000000     0.00000000     0.00000000
     0.00000000     0.00000000     0.00000000
     0.00000000     0.00000000     0.00000000
     0.00000000     0.00000000     0.00000000
     0.00000000     0.00000000     0.00000000
     0.00000000     0.00000000     0.00000000
     0.00752116     0.02806892     0.00846984
     0.00000000     0.00000000     0.00000000
     0.00000000     0.00000000     0.00000000
     0.00000000     0.00000000     0.00000000
     0.00000000     0.00000000     0.00000000
     0.00000000     0.00000000     0.00000000
     0.00000000     0.00000000     0.00000000
     0.00000000     0.00000000     0.00000000
     0.00000000     0.00000000     0.00000000
     0.00809274     0.03020250     0.01327067
     0.00000000     0.00000000     0.00000000
     0.00000000     0.00000000     0.00000000
     0.00000000     0.00000000     0.00000000
     0.00000000     0.00000000     0.00000000
     0.00000000     0.00000000     0.00000000
     0.00000000     0.00000000     0.00000000
     0.00000000     0.00000000     0.00000000
     0.00000000     0.00000000     0.00000000
     0.00361625     0.01349613     0.01041913
     0.12054568     0.04766822     0.03028518
    -0.03384123     0.01191551     0.00784460
    -0.02297191     0.00590397    -0.00060949
     0.00682865    -0.00286180    -0.00277521
     0.03855768    -0.01138656    -0.00292095
     0.05345791    -0.01372028     0.00171730
     0.05214833    -0.01091506     0.00873243
     0.03817514    -0.00662059     0.01038886
     0.01598457    -0.00242331     0.00243143
     0.14973632     0.03303366    -0.17929263
     0.37683401    -0.08810455    -0.02560741
     0.21917538    -0.08647159     0.05066787
     0.09185248    -0.04990144     0.04677691
     0.03480803    -0.02478918     0.02876120
     0.01113385    -0.00984784     0.01278083
     0.01142535    -0.00511633     0.00386480
     0.02119939    -0.00435024    -0.00247181
     0.01362170    -0.00283889    -0.00052381
     0.00000000     0.00000000     0.00000000
     0.00000000     0.00000000     0.00000000
     0.00000000     0.00000000     0.00000000
     0.00000000     0.00000000     0.00000000
     0.00000000     0.00000000     0.00000000
     0.00000000     0.00000000     0.00000000
     0.00000000     0.00000000     0.00000000
     0.00000000     0.00000000     0.00000000
     0.00163256     0.00609283    -0.00042572
     0.00000000     0.00000000     0.00000000
     0.00000000     0.00000000     0.00000000
     0.00000000     0.00000000     0.00000000
     0.00000000     0.00000000     0.00000000
     0.00000000     0.00000000     0.00000000
     0.00000000     0.00000000     0.00000000
     0.00000000     0.00000000     0.00000000
     0.00000000     0.00000000     0.00000000
     0.00439535     0.01640351     0.00572128
     0.00000000     0.00000000     0.00000000
     0.00000000     0.00000000     0.00000000
     0.00000000     0.00000000     0.00000000
     0.00000000     0.00000000     0.00000000
     0.00000000     0.00000000     0.00000000
     0.00000000     0.00000000     0.00000000
     0.00000000     0.00000000     0.00000000
     0.00000000     0.00000000     0.00000000
     0.00518686     0.01935742     0.00938118
     0.00000000     0.00000000     0.00000000
     0.00000000     0.00000000     0.00000000
     0.00000000     0.00000000     0.00000000
     0.00000000     0.00000000     0.00000000
     0.00000000     0.00000000     0.00000000
     0.00000000     0.00000000     0.00000000
     0.00000000     0.00000000     0.00000000
     0.00000000     0.00000000     0.00000000
     0.00267815     0.00999499     0.00859547
     0.15139289     0.07909809     0.05056283
    -0.03601463     0.02111821     0.02099279
    -0.03066459     0.00876804     0.00102521
     0.00147075    -0.00250467    -0.00379517
     0.03101238    -0.01030113    -0.00364663
     0.04702858    -0.01066055     0.00357669
     0.04235664    -0.00546233     0.01095852
     0.03542451    -0.00335445     0.01146838
     0.01518979    -0.00223669     0.00236170
     0.25366732     0.04427686    -0.22420602
     0.40074594    -0.12715634     0.02419624
     0.14152094    -0.08376144     0.05990923
     0.05610025    -0.05073253     0.04679248
     0.01532424    -0.02291244     0.02480158
     0.00791483    -0.01113195     0.01183278
     0.00847314    -0.00421526     0.00259983
     0.02040915    -0.00437929    -0.00145771
     0.01194091    -0.00286389    -0.00029927
     0.00000000     0.00000000     0.00000000
     0.00000000     0.00000000     0.00000000
     0.00000000     0.00000000     0.00000000
     0.00000000     0.00000000     0.00000000
     0.00000000     0.00000000     0.00000000
     0.00000000     0.00000000     0.00000000
     0.00000000     0.00000000     0.00000000
     0.00000000     0.00000000     0.00000000
     0.00048935     0.00182632    -0.00040455
     0.00000000     0.00000000     0.00000000
     0.00000000     0.00000000     0.00000000
     0.00000000     0.00000000     0.00000000
     0.00000000     0.00000000     0.00000000
     0.00000000     0.00000000     0.00000000
     0.00000000     0.00000000     0.00000000
     0.00000000     0.00000000     0.00000000
     0.00000000     0.00000000     0.00000000
     0.00156350     0.00583514     0.00157948
     0.00000000     0.00000000     0.00000000
     0.00000000     0.00000000     0.00000000
     0.00000000     0.00000000     0.00000000
     0.00000000     0.00000000     0.00000000
     0.00000000     0.00000000     0.00000000
     0.00000000     0.00000000     0.00000000
     0.00000000     0.00000000     0.00000000
     0.00000000     0.00000000     0.00000000
     0.00222072     0.00828778     0.00334259
     0.00000000     0.00000000     0.00000000
     0.00000000     0.00000000     0.00000000
     0.00000000     0.00000000     0.00000000
     0.00000000     0.00000000     0.00000000
     0.00000000     0.00000000     0.00000000
     0.00000000     0.00000000     0.00000000
     0.00000000     0.00000000     0.00000000
     0.00000000     0.00000000     0.00000000
     0.00137429     0.00512888     0.00437601
     0.16607343     0.12461782     0.07624293
    -0.05185902     0.03663402     0.02966887
    -0.03590517     0.00960946    -0.00001632
    -0.01262633    -0.00072234    -0.00528264
     0.02405816    -0.01007191    -0.00474209
     0.03167233    -0.00546546     0.00397611
     0.03443753    -0.00264631     0.00869002
     0.02597272     0.00011658     0.00934388
     0.01237470    -0.00187584     0.00165020
     0.15589333     0.06131468    -0.11351257
     0.21736774    -0.08011631     0.01785059
     0.06794073    -0.05194155     0.02810519
     0.02604502    -0.03311845     0.02174752
     0.00604215    -0.01462846     0.01086866
     0.00375861    -0.00752513     0.00542587
     0.00431916    -0.00229693     0.00096711
     0.01109069    -0.00223204    -0.00061231
     0.00847578    -0.00210752    -0.00013114
     0.44656119     0.30348105    -0.32086527
     0.48761473    -0.20385525     0.03700181
     0.14791579    -0.14294073     0.05289886
     0.05288321    -0.09300013     0.04064533
     0.01105357    -0.04178846     0.02000042
     0.00758819    -0.02075929     0.00982918
     0.01136117    -0.00531705     0.00136643
     0.02857923    -0.00480347    -0.00135106
     0.01655512    -0.00387723    -0.00023467
     0.17632736     0.50169153    -0.10395315
    -0.00530026    -0.05697016     0.00989494
    -0.03090009    -0.10617928     0.01870456
    -0.02785563    -0.06998195     0.01261568
    -0.01181923    -0.03927651     0.00695834
    -0.00048667    -0.01304196     0.00227996
     0.01251480    -0.00048864    -0.00020798
     0.02584765     0.00037437    -0.00093802
     0.01645796    -0.00291318     0.00000820
     0.14818891     0.39754003     0.01469811
    -0.09994099     0.04587054     0.00474606
    -0.09436651    -0.03567494    -0.00789815
    -0.03693256    -0.04230211    -0.00739064
    -0.00507874    -0.02604779    -0.00380131
     0.01707492    -0.00951346    -0.00058327
     0.02276033     0.00442806     0.00182807
     0.03249200     0.00400081     0.00214889
     0.01728371    -0.00222674     0.00056482
     0.20954342     0.27530447     0.05451820
    -0.08012796     0.06378607     0.02273141
    -0.05881342     0.00980812    -0.00161321
    -0.02518982    -0.01162191    -0.00822400
     0.02732350    -0.01683734    -0.00446321
     0.03844716    -0.00656521     0.00229436
     0.04511079     0.00157487     0.00711959
     0.03537842     0.00458930     0.00733350
     0.01702185    -0.00232507     0.00132192
     0.08694964     0.08655339     0.03390687
    -0.02902579     0.02377093     0.01343805
    -0.01982496     0.00560199     0.00020284
    -0.00851423    -0.00152958    -0.00310097
     0.01241911    -0.00583454    -0.00210835
     0.01586489    -0.00230619     0.00164704
     0.01836211    -0.00026074     0.00387448
     0.01347291     0.00125353     0.00406301
     0.00861262    -0.00144998     0.00072221
     0.00000000     0.00000000     0.00000000
     0.00000000     0.00000000     0.00000000
     0.00000000     0.00000000     0.00000000
     0.00000000     0.00000000     0.00000000
     0.00000000     0.00000000     0.00000000
     0.00000000     0.00000000     0.00000000
     0.00000000     0.00000000     0.00000000
     0.00000000     0.00000000     0.00000000
     0.00000000     0.00000000     0.00000000
     0.00000000     0.00000000     0.00000000
     0.00000000     0.00000000     0.00000000
     0.00000000     0.00000000     0.00000000
     0.00000000     0.00000000     0.00000000
     0.00000000     0.00000000     0.00000000
     0.00000000     0.00000000     0.00000000
     0.00000000     0.00000000     0.00000000
     0.00000000     0.00000000     0.00000000
     0.00000000     0.00000000     0.00000000
     0.00000000     0.00000000     0.00000000
     0.00000000     0.00000000     0.00000000
     0.00000000     0.00000000     0.00000000
     0.00000000     0.00000000     0.00000000
     0.00000000     0.00000000     0.00000000
     0.00000000     0.00000000     0.00000000
     0.00000000     0.00000000     0.00000000
     0.00000000     0.00000000     0.00000000
     0.00000000     0.00000000     0.00000000
     0.00000000     0.00000000     0.00000000
     0.00000000     0.00000000     0.00000000
     0.00000000     0.00000000     0.00000000
     0.00000000     0.00000000     0.00000000
     0.00000000     0.00000000     0.00000000
     0.00000000     0.00000000     0.00000000
     0.00000000     0.00000000     0.00000000
     0.00000000     0.00000000     0.00000000
     0.00000000     0.00000000     0.00000000
     0.00000000     0.00000000     0.00000000
     0.00000000     0.00000000     0.00000000
     0.00000000     0.00000000     0.00000000
     0.00000000     0.00000000     0.00000000
     0.00000000     0.00000000     0.00000000
     0.00000000     0.00000000     0.00000000
     0.00000000     0.00000000     0.00000000
     0.00000000     0.00000000     0.00000000
     0.00000000     0.00000000     0.00000000
     0.00000000     0.00000000     0.00000000
     0.00000000     0.00000000     0.00000000
     0.00000000     0.00000000     0.00000000
     0.00000000     0.00000000     0.00000000
     0.00000000     0.00000000     0.00000000
     0.00000000     0.00000000     0.00000000
     0.00000000     0.00000000     0.00000000
     0.00000000     0.00000000     0.00000000
     0.00000000     0.00000000     0.00000000
     0.00000000     0.00000000     0.00000000
     0.00000000     0.00000000     0.00000000
     0.00000000     0.00000000     0.00000000
     0.00000000     0.00000000     0.00000000
     0.00000000     0.00000000     0.00000000
     0.00000000     0.00000000     0.00000000
     0.00000000     0.00000000     0.00000000
     0.00000000     0.00000000     0.00000000
     0.00000000     0.00000000     0.00000000
     0.00000000     0.00000000     0.00000000
     0.00000000     0.00000000     0.00000000
     0.00000000     0.00000000     0.00000000
     0.00000000     0.00000000     0.00000000
     0.00000000     0.00000000     0.00000000
     0.00000000     0.00000000     0.00000000
     0.00000000     0.00000000     0.00000000
     0.00000000     0.00000000     0.00000000
     0.00000000     0.00000000     0.00000000
     0.00000000     0.00000000     0.00000000
     0.00000000     0.00000000     0.00000000
     0.00000000     0.00000000     0.00000000
     0.00000000     0.00000000     0.00000000
     0.00000000     0.00000000     0.00000000
     0.00000000     0.00000000     0.00000000
     0.00000000     0.00000000     0.00000000
     0.00000000     0.00000000     0.00000000
     0.00000000     0.00000000     0.00000000
     0.00000000     0.00000000     0.00000000
     0.00000000     0.00000000     0.00000000
     0.00000000     0.00000000     0.00000000
     0.00000000     0.00000000     0.00000000
     0.00000000     0.00000000     0.00000000
     0.00000000     0.00000000     0.00000000
     0.00000000     0.00000000     0.00000000
     0.00000000     0.00000000     0.00000000
     0.00000000     0.00000000     0.00000000
     0.00000000     0.00000000     0.00000000
     0.00000000     0.00000000     0.00000000
     0.00000000     0.00000000     0.00000000
     0.00000000     0.00000000     0.00000000
     0.00000000     0.00000000     0.00000000
     0.00000000     0.00000000     0.00000000
     0.00000000     0.00000000     0.00000000
     0.00000000     0.00000000     0.00000000
     0.00000000     0.00000000     0.00000000
     0.00000000     0.00000000     0.00000000
     0.00000000     0.00000000     0.00000000
     0.00000000     0.00000000     0.00000000
     0.00000000     0.00000000     0.00000000
     0.00000000     0.00000000     0.00000000
     0.00000000     0.00000000     0.00000000
     0.00000000     0.00000000     0.00000000
     0.00000000     0.00000000     0.00000000
     0.00000000     0.00000000     0.00000000
     0.00000000     0.00000000     0.00000000
     0.00000000     0.00000000     0.00000000
     0.00000000     0.00000000     0.00000000
     0.00000000     0.00000000     0.00000000
     0.00000000     0.00000000     0.00000000
     0.00000000     0.00000000     0.00000000
     0.00000000     0.00000000     0.00000000
     0.00000000     0.00000000     0.00000000
     0.00000000     0.00000000     0.00000000
     0.00000000     0.00000000     0.00000000
     0.00000000     0.00000000     0.00000000
     0.00000000     0.00000000     0.00000000
     0.00000000     0.00000000     0.00000000
     0.00000000     0.00000000     0.00000000
     0.00000000     0.00000000     0.00000000
     0.00000000     0.00000000     0.00000000
     0.00000000     0.00000000     0.00000000
     0.00000000     0.00000000     0.00000000
     0.00000000     0.00000000     0.00000000
     0.00000000     0.00000000     0.00000000
     0.00000000     0.00000000     0.00000000
     0.00000000     0.00000000     0.00000000
     0.00000000     0.00000000     0.00000000
     0.00000000     0.00000000     0.00000000
     0.00000000     0.00000000     0.00000000
     0.00000000     0.00000000     0.00000000
     0.00000000     0.00000000     0.00000000
     0.00000000     0.00000000     0.00000000
     0.00000000     0.00000000     0.00000000
     0.00000000     0.00000000     0.00000000
     0.00000000     0.00000000     0.00000000
     0.00000000     0.00000000     0.00000000
     0.00000000     0.00000000     0.00000000
     0.00000000     0.00000000     0.00000000
     0.00000000     0.00000000     0.00000000
     0.00000000     0.00000000     0.00000000
     0.00000000     0.00000000     0.00000000
     0.00000000     0.00000000     0.00000000
     0.00000000     0.00000000     0.00000000
     0.00000000     0.00000000     0.00000000
     0.00000000     0.00000000     0.00000000
     0.00000000     0.00000000     0.00000000
     0.00000000     0.00000000     0.00000000
     0.00000000     0.00000000     0.00000000
     0.00000000     0.00000000     0.00000000
     0.00000000     0.00000000     0.00000000
     0.00000000     0.00000000     0.00000000
     0.00000000     0.00000000     0.00000000
     0.00000000     0.00000000     0.00000000
     0.00000000     0.00000000     0.00000000
     0.00000000     0.00000000     0.00000000
     0.00000000     0.00000000     0.00000000
     0.00000000     0.00000000     0.00000000
     0.00000000     0.00000000     0.00000000
     0.00000000     0.00000000     0.00000000
     0.00000000     0.00000000     0.00000000
     0.00000000     0.00000000     0.00000000
     0.00000000     0.00000000     0.00000000
     0.00000000     0.00000000     0.00000000
     0.00000000     0.00000000     0.00000000
     0.00000000     0.00000000     0.00000000
     0.00000000     0.00000000     0.00000000
     0.00000000     0.00000000     0.00000000
     0.00000000     0.00000000     0.00000000
     0.00000000     0.00000000     0.00000000
     0.00000000     0.00000000     0.00000000
     0.00000000     0.00000000     0.00000000
     0.00000000     0.00000000     0.00000000
     0.00000000     0.00000000     0.00000000
     0.00000000     0.00000000     0.00000000
     0.00000000     0.00000000     0.00000000
     0.00000000     0.00000000     0.00000000
     0.00000000     0.00000000     0.00000000
     0.00000000     0.00000000     0.00000000
     0.00000000     0.00000000     0.00000000
     0.00000000     0.00000000     0.00000000
     0.00000000     0.00000000     0.00000000
     0.00000000     0.00000000     0.00000000
     0.00000000     0.00000000     0.00000000
     0.00000000     0.00000000     0.00000000
     0.00000000     0.00000000     0.00000000
     0.00000000     0.00000000     0.00000000
     0.00000000     0.00000000     0.00000000
     0.00000000     0.00000000     0.00000000
     0.00000000     0.00000000     0.00000000
     0.00000000     0.00000000     0.00000000
     0.00000000     0.00000000     0.00000000
     0.00000000     0.00000000     0.00000000
     0.00000000     0.00000000     0.00000000
     0.00000000     0.00000000     0.00000000
     0.00000000     0.00000000     0.00000000
     0.00000000     0.00000000     0.00000000
     0.00000000     0.00000000     0.00000000
     0.00000000     0.00000000     0.00000000
     0.00000000     0.00000000     0.00000000
     0.00000000     0.00000000     0.00000000
     0.00000000     0.00000000     0.00000000
     0.00000000     0.00000000     0.00000000
     0.00000000     0.00000000     0.00000000
     0.00000000     0.00000000     0.00000000
     0.00000000     0.00000000     0.00000000
     0.00000000     0.00000000     0.00000000
     0.00000000     0.00000000     0.00000000
     0.00000000     0.00000000     0.00000000
     0.00000000     0.00000000     0.00000000
     0.00000000     0.00000000     0.00000000
     0.00000000     0.00000000     0.00000000
     0.00000000     0.00000000     0.00000000
     0.00000000     0.00000000     0.00000000
     0.00000000     0.00000000     0.00000000
     0.00000000     0.00000000     0.00000000
     0.00000000     0.00000000     0.00000000
     0.00000000     0.00000000     0.00000000
     0.00000000     0.00000000     0.00000000
     0.00000000     0.00000000     0.00000000
     0.00000000     0.00000000     0.00000000
     0.00000000     0.00000000     0.00000000
     0.00000000     0.00000000     0.00000000
     0.00000000     0.00000000     0.00000000
     0.00000000     0.00000000     0.00000000
     0.00000000     0.00000000     0.00000000
     0.00000000     0.00000000     0.00000000
     0.00000000     0.00000000     0.00000000
     0.00000000     0.00000000     0.00000000
     0.00000000     0.00000000     0.00000000
     0.00000000     0.00000000     0.00000000
     0.00000000     0.00000000     0.00000000
     0.00000000     0.00000000     0.00000000
     0.00000000     0.00000000     0.00000000
     0.00000000     0.00000000     0.00000000
     0.00000000     0.00000000     0.00000000
     0.00000000     0.00000000     0.00000000
     0.00000000     0.00000000     0.00000000
     0.00000000     0.00000000     0.00000000
     0.00000000     0.00000000     0.00000000
     0.00000000     0.00000000     0.00000000
     0.00000000     0.00000000     0.00000000
     0.00000000     0.00000000     0.00000000
     0.00000000     0.00000000     0.00000000
     0.00000000     0.00000000     0.00000000
     0.00000000     0.00000000     0.00000000
     0.00000000     0.00000000     0.00000000
     0.00000000     0.00000000     0.00000000
     0.00000000     0.00000000     0.00000000
     0.00000000     0.00000000     0.00000000
     0.00000000     0.00000000     0.00000000
     0.00000000     0.00000000     0.00000000
     0.00000000     0.00000000     0.00000000
     0.00000000     0.00000000     0.00000000
     0.00000000     0.00000000     0.00000000
     0.00000000     0.00000000     0.00000000
     0.00000000     0.00000000     0.00000000
     0.00000000     0.00000000     0.00000000
     0.00000000     0.00000000     0.00000000
     0.00000000     0.00000000     0.00000000
     0.00000000     0.00000000     0.00000000
     0.00000000     0.00000000     0.00000000
     0.00000000     0.00000000     0.00000000
     0.00000000     0.00000000     0.00000000
     0.00000000     0.00000000     0.00000000
     0.00000000     0.00000000     0.00000000
     0.00000000     0.00000000     0.00000000
     0.00000000     0.00000000     0.00000000
     0.00000000     0.00000000     0.00000000
     0.00000000     0.00000000     0.00000000
     0.00000000     0.00000000     0.00000000
     0.00000000     0.00000000     0.00000000
     0.00000000     0.00000000     0.00000000
SCALARS Pressures float
LOOKUP_TABLE default
  2324.74733675
  4630.78822410
  4604.93430233
  4601.60572439
  4595.72586781
  4589.33621216
  4582.29111671
  4599.66750145
  6224.48558235
  4670.14418876
  9274.83525249
  9207.91500708
  9201.75065202
  9189.48871878
  9173.89581963
  9168.49537158
  9188.89582205
  9228.80582333
  4681.14026260
  9283.20060477
  9204.14357635
  9197.25362349
  9184.04480514
  9170.26723596
  9165.48609185
  9171.92895317
  9108.32294655
  4677.33867455
  9278.78557515
  9201.18656349
  9191.76933831
  9180.11724716
  9172.80136216
  9166.42636538
  9171.07979035
  9137.60551000
  4676.37326503
  9278.68696117
  9199.40491533
  9186.99914032
  9178.39391059
  9175.11523843
  9177.73651159
  9205.76612091
  9187.29036808
  4676.18822646
  9279.28633642
  9197.22758794
  9183.04317641
  9176.09010077
  9174.83617914
  9184.74002796
  9229.43436015
  9205.37687522
  4676.46168792
  9279.38965940
  9196.59736967
  9181.28212751
  9175.62293567
  9171.38766623
  9169.27021176
  9175.46444988
  9195.23523015
  4676.26089561
  9281.01940787
  9199.68864226
  9184.10132600
  9175.83369674
  9169.93928134
  9154.56307268
  9139.17635947
  9160.65666682
  4677.37705445
  9284.04962057
  9206.86354500
  9192.18221021
  9181.41637790
  9176.84069073
  9165.01764095
  9155.46658295
  9163.58360165
  4665.52027011
  9275.18498462
  9213.06855363
  9201.35345781
  9193.38250721
  9196.19588637
  9196.01180720
  9194.57345796
  9226.23633909
  2329.35264874
  4632.99648654
  4607.14264572
  4602.69512463
  4599.70837355
  4604.72148514
  4610.43507195
  4614.86618161
  6181.17984168
  2325.52676719
  4632.40829074
  4605.57123250
  4600.60049003
  4594.21141285
  4585.74717808
  4581.47547123
  4597.85348985
  6225.40742175
  4663.03759819
  9270.39984535
  9209.76422010
  9199.92231464
  9186.82361834
  9168.71463512
  9163.91808447
  9184.42836305
  9227.90266955
  4668.04040372
  9274.01465200
  9207.29997341
  9196.08644253
  9182.74052058
  9168.03411008
  9162.43893328
  9166.88152862
  9102.00418675
  4667.68733418
  9273.07431424
  9204.80518669
  9191.49005541
  9180.23995331
  9171.10688153
  9164.19634596
  9165.04312092
  9133.14882833
  4668.01397461
  9273.74228793
  9202.25713748
  9186.78156635
  9178.82543305
  9172.90517157
  9174.24079472
  9201.81816500
  9191.28594631
  4667.74647969
  9274.23650569
  9199.36383420
  9182.36519700
  9175.74239188
  9172.80781490
  9181.95581445
  9225.74084860
  9204.96119085
  4666.80356568
  9273.53882015
  9198.86456504
  9180.40272418
  9174.41819952
  9169.68612753
  9166.75627093
  9173.37306249
  9192.89732549
  4665.55918717
  9274.77677715
  9202.70319059
  9183.36360256
  9174.75098304
  9168.54400368
  9154.63724272
  9136.47854605
  9156.68270269
  4665.87134290
  9276.81848028
  9209.50274721
  9190.96670318
  9180.35839969
  9174.65242603
  9164.13032374
  9149.56580016
  9153.42576656
  4660.11506131
  9272.48466155
  9214.24174440
  9199.79707181
  9191.89167625
  9192.71247500
  9191.11186343
  9185.60442722
  9217.07805681
  2329.88960645
  4634.44957286
  4607.38252035
  4602.10031515
  4598.89465714
  4602.86079693
  4606.77755713
  4607.80325973
  6174.80620909
  2324.74207202
  4631.25844696
  4606.14125633
  4599.13034686
  4591.71593544
  4582.02777517
  4579.31337854
  4587.74890569
  6221.97168867
  4653.95903257
  9263.88230154
  9211.99436206
  9197.49496175
  9182.56012501
  9164.93637949
  9162.03108302
  9178.73271075
  9227.65859538
  4654.49702132
  9264.81903088
  9211.41075057
  9194.92211537
  9181.18945013
  9167.43558010
  9164.54889014
  9173.13015121
  9104.07916254
  4655.86636031
  9266.31511569
  9209.39648870
  9191.43644843
  9180.71794122
  9170.00048402
  9164.67890736
  9164.52849090
  9137.28088999
  4658.27938873
  9268.26067662
  9206.29280415
  9187.39662918
  9179.15707338
  9172.16064358
  9171.68692070
  9194.56446111
  9204.76673383
  4658.48741966
  9268.09538645
  9203.36122411
  9183.16272491
  9175.42590779
  9172.20214531
  9178.18967900
  9215.78241456
  9207.18105084
  4657.65097731
  9266.77435714
  9202.75200942
  9180.96488369
  9172.72713360
  9168.19837753
  9165.51863126
  9172.44059604
  9187.39219326
  4656.14288223
  9266.80344200
  9205.67505629
  9183.57509898
  9172.55218619
  9165.80876626
  9155.88018762
  9132.94259667
  9147.32783723
  4656.20307362
  9268.01012081
  9210.61222754
  9190.06182431
  9177.80646089
  9169.69302064
  9161.11388966
  9136.88139939
  9132.92459238
  4654.87922773
  9267.47671622
  9213.83507422
  9197.30201989
  9187.76908216
  9184.38093957
  9178.65367723
  9166.51586390
  9198.78317851
  2327.96238950
  4633.45032948
  4607.05315736
  4600.49545455
  4596.42918894
  4597.81331763
  4597.25182390
  4593.73656332
  6163.45347126
  2320.84971330
  4628.84084314
  4606.35687199
  4598.37170181
  4590.73221345
  4583.99229702
  4580.07784563
  4583.66348487
  6205.89354014
  4650.42971221
  9261.20014542
  9212.44128841
  9196.55386274
  9181.95312738
  9169.76588917
  9166.38259926
  9180.68286675
  9232.63929749
  4652.39722973
  9263.84535140
  9212.17941669
  9194.89476170
  9182.54450051
  9172.21397641
  9170.83441672
  9190.95177984
  9130.99369079
  4653.82410952
  9265.12113008
  9210.07660246
  9192.27294105
  9182.18469489
  9173.18829477
  9172.59694380
  9179.16776508
  9154.95917350
  4656.79891840
  9266.74824163
  9207.59708858
  9189.34647632
  9180.37684822
  9175.06300801
  9177.29419285
  9193.50918758
  9216.92544499
  4656.22352874
  9266.17578912
  9205.99619448
  9186.12222528
  9176.89961541
  9175.24051395
  9178.21902737
  9208.02214921
  9206.70354787
  4655.15420550
  9264.40177411
  9205.08696663
  9183.92211398
  9173.91642863
  9170.27464414
  9166.09894136
  9171.29601198
  9181.43201941
  4653.89050925
  9263.56286883
  9205.82378964
  9185.26820107
  9172.87053493
  9165.46865469
  9156.53974837
  9134.62670684
  9144.80172646
  4654.06861138
  9264.02288628
  9208.25103302
  9189.73177196
  9176.43599245
  9166.20314106
  9157.87173277
  9130.09808195
  9127.92081171
  4651.85089672
  9262.77188194
  9210.79495816
  9194.45228802
  9183.61974545
  9174.64029305
  9164.43239442
  9143.50196016
  9185.69822815
  2326.95007813
  4630.97271883
  4605.66145624
  4598.40269239
  4593.52173479
  4590.55657898
  4585.99358389
  4576.48290181
  6150.81313527
  2320.43725560
  4628.36823841
  4606.53947085
  4597.95539831
  4591.73816225
  4586.91257044
  4583.30879299
  4587.05585073
  6180.82565610
  4648.39201538
  9259.02349794
  9212.37574023
  9196.01087840
  9184.32570013
  9175.39681606
  9170.77933664
  9184.92266051
  9231.07513380
  4650.33314139
  9261.01331689
  9211.26007114
  9195.14209786
  9185.04505187
  9177.55086777
  9176.30914888
  9196.36593425
  9164.80907083
  4652.29349193
  9262.28238197
  9209.09116206
  9193.46430199
  9184.63873231
  9177.80938768
  9182.67997158
  9196.00901192
  9173.78779417
  4653.64627578
  9262.55947527
  9207.12320016
  9191.21078871
  9183.46916184
  9178.01084651
  9184.91045617
  9207.07231736
  9224.07314762
  4652.72293001
  9261.65372581
  9205.70225279
  9188.69361156
  9180.59261990
  9177.79287751
  9179.43411808
  9203.34958345
  9211.42185217
  4652.21521634
  9260.42947699
  9204.74920583
  9186.82421796
  9177.76823409
  9173.99257185
  9166.72304702
  9168.95860320
  9188.33662733
  4651.23661044
  9259.43359587
  9204.90000259
  9186.71538290
  9176.29246157
  9168.98078161
  9155.65221003
  9138.60247612
  9167.19858986
  4650.70613758
  9259.08172254
  9206.05853686
  9188.57678113
  9177.03600837
  9167.03304945
  9153.31814978
  9125.36436307
  9152.46172121
  4649.54576002
  9257.99590270
  9207.81898175
  9190.93495761
  9180.67614685
  9168.55973603
  9153.00819680
  9121.15345711
  9180.96695137
  2326.85278109
  4628.93687419
  4604.15765457
  4596.10984848
  4591.46904235
  4585.03969289
  4576.98423830
  4559.22012049
  6132.20068308
  1548.23535399
  3085.02888472
  3070.95969849
  3065.22188737
  3061.83120706
  3058.49196878
  3056.28588403
  3057.49537657
  4625.60876107
  2323.95583193
  4628.72343495
  4606.12209732
  4597.90498878
  4592.85343881
  4588.80058109
  4586.75742171
  4592.99205248
  6150.12623175
  2324.96266056
  4629.57264676
  4605.26321979
  4597.70982075
  4592.97188348
  4589.87197936
  4590.32773495
  4597.62725359
  6120.06910547
  2325.31774580
  4629.79484092
  4604.19914335
  4597.02242310
  4592.99064893
  4589.91537648
  4593.77877188
  4601.86651200
  6122.35124977
  2325.29940402
  4629.67310291
  4603.26423593
  4595.97894539
  4592.62090924
  4589.76092972
  4593.93064509
  4609.19248635
  6152.36489892
  2325.33445447
  4628.97998566
  4602.31724219
  4594.89050239
  4591.42157078
  4589.36478354
  4589.81896923
  4600.08618027
  6146.16880254
  2326.13926643
  4628.95806958
  4601.84836841
  4594.10532723
  4589.97220738
  4587.92401083
  4584.02157187
  4584.46234971
  6132.02278769
  2326.06024405
  4628.40709582
  4601.89239978
  4593.70934125
  4589.13997817
  4585.74653018
  4577.63694289
  4570.02799964
  6124.49377513
  2325.65778415
  4628.27528707
  4602.34875668
  4594.03123540
  4588.75626607
  4584.29084836
  4574.93880340
  4560.31517184
  6114.44204819
  2325.21916477
  4627.80856775
  4603.15163022
  4594.66434658
  4589.62506092
  4583.68585074
  4574.12351978
  4555.84966260
  6120.12268595
  1550.20241384
  3084.61754033
  3068.98421093
  3063.26647707
  3060.44803484
  3055.72850291
  3048.90994287
  3034.80481744
  4590.93709624
  9116.39639401
  9144.03538156
  9097.08593369
  9088.23246765
  9102.83280373
  9088.23062134
  9103.85235786
  9096.06994534
  9106.34266353
  9098.54275042
  8891.18405402
  9250.36078429
  9180.72612321
  9082.73438644
  9084.22212172
  9085.48741961
  9087.60376787
  9092.41021848
  9095.80331016
  9099.28259999
  9097.26308498
  9082.01306254
  9229.51738310
  9170.05340600
  9060.02558041
  9053.47724390
  9054.03552008
  9062.20369577
  9075.13263869
  9087.50841498
  9093.44109696
  9096.85259157
  9101.41946483
  9207.52848184
  9152.25876915
  9043.93288255
  9022.40693045
  9026.28995347
  9049.03982735
  9073.02843904
  9091.81050253
  9100.36907601
  9104.52403808
  9109.22070026
  9300.67269248
  9224.58218318
  9099.05402291
  9073.45843840
  9063.66019464
  9075.79020596
  9094.65319633
  9108.01205158
  9115.69562874
  9114.40093429
  9098.83953756
  9401.90440142
  9267.33677518
  9161.91060233
  9128.84572792
  9114.66948700
  9090.93123436
  9112.54671288
  9111.88325310
  9125.31276293
  9117.47555603
  8909.23453319
  9243.44347227
  9137.36988807
  9096.57123947
  9085.41453695
  9099.82208586
  9087.92897415
  9102.57026005
  9095.71703219
  9105.16616368
  9097.92850902
  8896.96852831
  9242.53832716
  9175.21532071
  9081.67061496
  9082.33111429
  9084.06293344
  9086.58301997
  9091.79709041
  9095.13409975
  9098.57966828
  9096.65320406
  9080.01463367
  9225.53551888
  9165.92710137
  9056.60451531
  9051.50968957
  9052.93736053
  9061.96044040
  9075.24076688
  9087.26605645
  9093.10537601
  9096.33214411
  9101.48454213
  9201.54457009
  9148.66068077
  9039.12722206
  9020.90650654
  9027.33566499
  9049.88720131
  9073.56498015
  9091.38536561
  9099.62052518
  9103.41484571
  9108.69361579
  9296.47574711
  9221.99311876
  9095.75537527
  9071.04532647
  9062.95974541
  9075.23907471
  9094.09166443
  9106.66328454
  9114.12248169
  9112.66632495
  9096.08376428
  9399.30020976
  9265.45832539
  9159.69534659
  9124.04932737
  9108.81910086
  9089.38756180
  9110.51098156
  9110.53678346
  9123.22149215
  9115.78934760
  8914.68864220
  9212.30280024
  9120.78363043
  9092.35378957
  9080.04882336
  9094.52201843
  9087.49181271
  9099.82420635
  9094.84560275
  9102.51214015
  9096.58939404
  8919.58726371
  9224.55786857
  9159.25948307
  9077.16989374
  9077.29206884
  9080.80147338
  9084.74917960
  9090.53862071
  9094.04290023
  9097.14942219
  9095.49756884
  9076.57330490
  9213.71346337
  9152.10826510
  9049.23826826
  9047.24390781
  9051.27376390
  9062.39290619
  9075.66120481
  9087.00911167
  9092.36496779
  9095.12603690
  9100.15361041
  9191.19356042
  9139.83160108
  9031.97974408
  9020.18598485
  9030.20475209
  9053.01564503
  9074.19469416
  9090.16251743
  9097.39885730
  9100.67059994
  9105.81723845
  9291.58146676
  9218.22832562
  9088.64698015
  9064.46411276
  9061.18882406
  9074.96273088
  9091.93617350
  9103.15080947
  9109.78190160
  9108.70645154
  9089.24356890
  9391.38980252
  9263.27464357
  9149.82501075
  9108.50875711
  9097.43474340
  9086.67343760
  9105.55233324
  9106.75460970
  9117.70931995
  9111.91803336
  8933.60053563
  9182.71422595
  9105.83906740
  9080.66561437
  9078.09406328
  9088.57176471
  9087.64602947
  9096.18715572
  9094.90164495
  9099.67326289
  9095.51071439
  8984.67280347
  9199.95972696
  9134.62099651
  9065.78503251
  9070.86823982
  9077.49272317
  9082.85068500
  9089.25181866
  9093.24783528
  9095.99096598
  9094.48749424
  9078.77800176
  9197.42691654
  9134.13675934
  9040.50007260
  9043.90843576
  9052.61990362
  9064.45014822
  9077.10016739
  9087.13008547
  9092.07854640
  9093.93309774
  9097.66559440
  9194.74641901
  9141.77072334
  9030.41195893
  9024.05340123
  9037.59183002
  9057.79455757
  9075.69615877
  9088.77957261
  9095.35235125
  9097.75956881
  9101.70281136
  9295.76635197
  9218.55148558
  9077.80647807
  9056.45288563
  9061.12480140
  9074.12304455
  9088.85280800
  9098.48090971
  9105.00657167
  9104.52515198
  9089.21253216
  9379.68847102
  9258.43211755
  9124.88473281
  9088.97342396
  9085.89206839
  9083.50192988
  9098.19715166
  9102.06881952
  9111.15686455
  9107.93308774
  8997.46743035
  9165.45843273
  9085.78468573
  9066.04272367
  9073.55991925
  9082.58660001
  9085.86385888
  9092.65084004
  9094.75216532
  9097.57078940
  9094.66105578
  9034.62527593
  9187.73061743
  9104.71139969
  9052.34506703
  9065.24097963
  9073.14047185
  9080.14110881
  9087.27760512
  9092.19306368
  9094.97028846
  9094.15545332
  9081.13083171
  9208.36832178
  9121.41286154
  9033.18325311
  9043.22010954
  9053.42600614
  9066.03138337
  9078.18659639
  9086.90453565
  9091.83970520
  9093.99706750
  9096.21942595
  9235.49230614
  9150.38799965
  9027.38309854
  9031.06251636
  9044.11638847
  9062.26895684
  9077.27173632
  9087.98518601
  9094.08166391
  9096.66572444
  9099.09965506
  9311.71335942
  9204.74184525
  9058.30064666
  9051.14990208
  9058.09005308
  9072.70377609
  9085.46757188
  9095.13992605
  9101.48537210
  9101.80480285
  9087.71046505
  9359.17594796
  9227.89530063
  9089.55419207
  9069.69295049
  9071.10499781
  9078.51404649
  9090.86049372
  9098.48458935
  9106.11703927
  9104.62244096
  9042.02408440
  9160.50985205
  9070.75410295
  9059.40525249
  9068.43275240
  9080.26233947
  9083.79195726
  9091.28761911
  9094.02812719
  9096.82966948
  9094.16520325
  9036.32646974
  9189.94164807
  9088.99525431
  9046.85301305
  9062.88951044
  9070.25999683
  9078.51693475
  9085.94485199
  9091.51136792
  9094.38075274
  9094.28773269
  9079.83606487
  9227.75608253
  9116.96793786
  9030.65944731
  9043.56902793
  9052.32053185
  9066.23109764
  9078.14637256
  9086.54342580
  9091.48259813
  9094.56831668
  9095.86526449
  9268.31823677
  9151.83516240
  9023.58020580
  9034.98411733
  9045.07724458
  9064.24551332
  9077.43902218
  9087.77603298
  9093.38436556
  9096.84785780
  9098.26163298
  9322.77814668
  9189.43331623
  9045.82556987
  9049.69004387
  9054.04885530
  9072.39898139
  9083.57174224
  9094.30513413
  9099.97206942
  9101.04048920
  9082.15501256
  9345.05854082
  9201.89577770
  9071.50884914
  9059.20364046
  9062.32663095
  9075.52721918
  9087.95610034
  9097.15044525
  9104.20876797
  9103.11163402
  9036.17162815
  8597.35270119
  8548.10188675
  8538.32723236
  8604.23230553
  8653.50782657
  8710.21462703
  8723.94072722
  8446.47558591
  8883.80887043
  8568.16188991
  8516.06953406
  8519.72951889
  8569.01834488
  8633.51397550
  8689.74413013
  8715.78403722
  8702.36010359
  8807.10343421
  8490.72471261
  8437.16859770
  8440.73490560
  8512.96960664
  8597.40791154
  8661.92871058
  8702.20196307
  8720.27487659
  8809.47571278
  8496.39567745
  8372.77027106
  8387.33798045
  8501.54152256
  8600.39781213
  8661.44863439
  8701.49986291
  8721.76491451
  9106.35664389
  8763.22006866
  8506.98948526
  8464.40388042
  8545.95759231
  8625.71713066
  8679.09868073
  8706.87701672
  8694.57451522
  9415.84099525
  8976.12712902
  8658.73844242
  8534.46980572
  8580.96696854
  8631.93433571
  8689.88388062
  8707.53088653
  8427.92433333
  8943.17991471
  8560.40252268
  8534.74972022
  8534.71921921
  8599.85640931
  8654.33414328
  8705.56216347
  8724.10988045
  8495.51540519
  8870.31078365
  8539.78174707
  8505.61873871
  8515.72845781
  8564.99236727
  8630.34355670
  8687.08118564
  8714.45289195
  8703.35934711
  8794.77843168
  8468.93120918
  8420.47140598
  8434.42652899
  8512.16224003
  8593.58820021
  8658.73479593
  8698.25025237
  8716.82518697
  8789.77772117
  8470.08357424
  8363.60173988
  8391.20237070
  8505.86042523
  8599.45590496
  8657.16572928
  8695.26104832
  8714.20913434
  9104.68384789
  8755.79493950
  8503.38576269
  8469.16005147
  8549.63243914
  8625.55688846
  8675.51434088
  8701.73465248
  8694.02234761
  9421.92746422
  8990.12417743
  8644.02310038
  8528.03072309
  8581.74018264
  8633.02539730
  8685.56660724
  8704.65180962
  8482.07351145
  8883.21649885
  8493.61615694
  8518.57356966
  8530.43183374
  8586.59603024
  8652.78418297
  8695.62996143
  8723.50318328
  8603.15038759
  8846.65266755
  8479.97841927
  8482.49452907
  8506.97651672
  8556.04390073
  8623.93517527
  8680.48393592
  8711.68841554
  8709.40800765
  8773.36357579
  8418.23748365
  8387.17061985
  8428.16061676
  8515.64130676
  8588.27066386
  8652.10910469
  8690.49640906
  8705.08122957
  8757.09345323
  8417.75322926
  8352.39075387
  8411.14907761
  8518.73763628
  8599.30316043
  8648.68763906
  8682.96086317
  8699.35049033
  9102.47511947
  8732.19232655
  8491.84257391
  8480.66847758
  8558.89802612
  8624.77732682
  8667.44641221
  8690.86186138
  8681.98941022
  9427.40164781
  8999.01248026
  8606.82939130
  8511.83883375
  8586.11162198
  8632.40349293
  8676.39784527
  8696.92116672
  8559.77467120
  8892.00444013
  8451.45079792
  8513.96794224
  8525.32081425
  8568.66705209
  8642.60561401
  8686.70715719
  8721.00306417
  8555.67853085
  8834.16140971
  8424.94947374
  8460.10681868
  8495.35918981
  8548.21906343
  8618.06513992
  8673.26905464
  8708.65151831
  8691.18910964
  8749.75425166
  8370.18076533
  8373.92330849
  8440.45529830
  8526.91486695
  8591.86139065
  8650.60192367
  8686.58196247
  8703.55291831
  8747.85074109
  8391.06551766
  8365.59885132
  8445.37060551
  8537.10516067
  8603.84366721
  8646.83948265
  8676.43933840
  8692.73655629
  9094.22424966
  8690.85940355
  8468.95226881
  8492.61807330
  8566.88746928
  8622.86206645
  8660.71869090
  8681.92273715
  8666.24572492
  9415.93714118
  8941.50115287
  8548.30775684
  8510.00796682
  8585.62327635
  8628.23491395
  8669.13131177
  8687.83074999
  8527.42448545
  8881.66623753
  8420.84620130
  8481.56319451
  8502.86104827
  8553.56011834
  8627.22120803
  8677.11497601
  8715.25499046
  8564.09306408
  8815.44760814
  8391.64307410
  8436.56906843
  8483.33318525
  8543.43419729
  8614.14948107
  8668.39096307
  8705.67112485
  8690.64768410
  8746.66942686
  8348.01902649
  8380.30631974
  8460.39185303
  8537.03193939
  8601.16248116
  8656.48029882
  8687.86380241
  8699.75049354
  8779.54314590
  8397.48693177
  8385.43506135
  8470.99674711
  8549.98866254
  8609.43012922
  8652.53111378
  8678.00986710
  8692.21991793
  9081.74601987
  8631.97807705
  8436.57174788
  8498.28038566
  8566.53778514
  8621.04990950
  8657.11560578
  8678.47738566
  8638.81734493
  9348.51562291
  8802.58039665
  8471.31107020
  8511.54566094
  8573.85384774
  8624.48676878
  8662.46263149
  8680.57538271
  8475.49353694
  8834.88676858
  8402.57077646
  8450.94009018
  8484.83292947
  8547.49767987
  8619.63909398
  8671.16586058
  8711.23118544
  8678.57461715
  8799.06503510
  8381.94243503
  8422.74561429
  8478.17362760
  8541.55167951
  8612.86589494
  8666.79344758
  8704.29429749
  8713.37457359
  8758.10407281
  8345.01378387
  8383.33304793
  8468.07619059
  8540.16188496
  8605.37501985
  8660.43407840
  8689.25795634
  8689.18211224
  8807.49198651
  8404.57781571
  8390.02071908
  8478.48367745
  8553.06294841
  8611.26524708
  8655.87571619
  8680.04055002
  8691.01434978
  9076.98272747
  8598.25218976
  8419.14206585
  8498.74535736
  8563.78939801
  8620.53369349
  8655.75665314
  8678.24073153
  8615.65188047
  9291.94632590
  8716.06222224
  8430.35765100
  8505.16141528
  8566.17098999
  8623.19423664
  8658.20899612
  8677.55886617
  8479.46475582
     0.00000000
     0.00000000
     0.00000000
     0.00000000
     0.00000000
     0.00000000
     0.00000000
     0.00000000
     0.00000000
     0.00000000
     0.00000000
     0.00000000
     0.00000000
     0.00000000
     0.00000000
     0.00000000
     0.00000000
     0.00000000
     0.00000000
     0.00000000
     0.00000000
     0.00000000
     0.00000000
     0.00000000
     0.00000000
     0.00000000
     0.00000000
     0.00000000
     0.00000000
     0.00000000
     0.00000000
     0.00000000
     0.00000000
     0.00000000
     0.00000000
     0.00000000
     0.00000000
     0.00000000
     0.00000000
     0.00000000
     0.00000000
     0.00000000
     0.00000000
     0.00000000
     0.00000000
     0.00000000
     0.00000000
     0.00000000
     0.00000000
     0.00000000
     0.00000000
     0.00000000
     0.00000000
     0.00000000
     0.00000000
     0.00000000
     0.00000000
     0.00000000
     0.00000000
     0.00000000
     0.00000000
     0.00000000
     0.00000000
     0.00000000
     0.00000000
     0.00000000
     0.00000000
     0.00000000
     0.00000000
     0.00000000
     0.00000000
     0.00000000
     0.00000000
     0.00000000
     0.00000000
     0.00000000
     0.00000000
     0.00000000
     0.00000000
     0.00000000
     0.00000000
     0.00000000
     0.00000000
     0.00000000
     0.00000000
     0.00000000
     0.00000000
     0.00000000
     0.00000000
     0.00000000
     0.00000000
     0.00000000
     0.00000000
     0.00000000
     0.00000000
     0.00000000
     0.00000000
     0.00000000
     0.00000000
     0.00000000
     0.00000000
     0.00000000
     0.00000000
     0.00000000
     0.00000000
     0.00000000
     0.00000000
     0.00000000
     0.00000000
     0.00000000
     0.00000000
     0.00000000
     0.00000000
     0.00000000
     0.00000000
     0.00000000
     0.00000000
     0.00000000
     0.00000000
     0.00000000
     0.00000000
     0.00000000
     0.00000000
     0.00000000
     0.00000000
     0.00000000
     0.00000000
     0.00000000
     0.00000000
     0.00000000
     0.00000000
     0.00000000
     0.00000000
     0.00000000
     0.00000000
     0.00000000
     0.00000000
     0.00000000
     0.00000000
     0.00000000
     0.00000000
     0.00000000
     0.00000000
     0.00000000
     0.00000000
     0.00000000
     0.00000000
     0.00000000
     0.00000000
     0.00000000
     0.00000000
     0.00000000
     0.00000000
     0.00000000
     0.00000000
     0.00000000
     0.00000000
     0.00000000
     0.00000000
     0.00000000
     0.00000000
     0.00000000
     0.00000000
     0.00000000
     0.00000000
     0.00000000
     0.00000000
     0.00000000
     0.00000000
     0.00000000
     0.00000000
     0.00000000
     0.00000000
     0.00000000
     0.00000000
     0.00000000
     0.00000000
     0.00000000
     0.00000000
     0.00000000
     0.00000000
     0.00000000
     0.00000000
     0.00000000
     0.00000000
     0.00000000
     0.00000000
     0.00000000
     0.00000000
     0.00000000
     0.00000000
     0.00000000
     0.00000000
     0.00000000
     0.00000000
     0.00000000
     0.00000000
     0.00000000
     0.00000000
     0.00000000
     0.00000000
     0.00000000
     0.00000000
     0.00000000
     0.00000000
     0.00000000
     0.00000000
     0.00000000
     0.00000000
     0.00000000
     0.00000000
     0.00000000
     0.00000000
     0.00000000
     0.00000000
     0.00000000
     0.00000000
     0.00000000
     0.00000000
     0.00000000
     0.00000000
     0.00000000
     0.00000000
     0.00000000
     0.00000000
     0.00000000
     0.00000000
     0.00000000
     0.00000000
     0.00000000
     0.00000000
     0.00000000
     0.00000000
     0.00000000
     0.00000000
     0.00000000
     0.00000000
     0.00000000
     0.00000000
     0.00000000
     0.00000000
     0.00000000
     0.00000000
     0.00000000
     0.00000000
     0.00000000
     0.00000000
     0.00000000
     0.00000000
     0.00000000
     0.00000000
     0.00000000
     0.00000000
     0.00000000
     0.00000000
     0.00000000
     0.00000000
     0.00000000
     0.00000000
     0.00000000
     0.00000000
     0.00000000
     0.00000000
     0.00000000
     0.00000000
     0.00000000
     0.00000000
     0.00000000
     0.00000000
     0.00000000
     0.00000000
     0.00000000
     0.00000000
     0.00000000
     0.00000000
     0.00000000
VECTORS Displacements float 
     4.14364075    -0.38336174     0.00000000
     3.57778565    -0.45080369     0.00000000
     3.01203904    -0.48066281     0.00000000
     2.44202220    -0.47931895     0.00000000
     1.87090357    -0.44656434     0.00000000
     1.29269182    -0.36619558     0.00000000
     0.70933527    -0.24361239     0.00000000
     0.30186058    -0.04785147    -0.00000000
     0.00000000     0.00000000    -0.00000000
     4.14090185    -0.32397058    -0.00902819
     3.51011416    -0.38463468     0.00000000
     2.91539122    -0.40518653     0.00000000
     2.32114417    -0.40132924     0.00000000
     1.72567405    -0.36679154     0.00000000
     1.13739050    -0.29096556     0.00000000
     0.57476060    -0.16575118     0.00000000
     0.26434330     0.01524061     0.00000000
     0.11618530     0.03426002     0.00000000
     4.13654044    -0.26682095    -0.01133765
     3.48136220    -0.31937775     0.00000000
     2.85177702    -0.33048980     0.00000000
     2.23598508    -0.32098047     0.00000000
     1.63521503    -0.28714505     0.00000000
     1.06512305    -0.21860503     0.00000000
     0.56125403    -0.10832782     0.00000000
     0.28949839     0.01893937     0.00000000
     0.17372393     0.01718753     0.00000000
     4.13295279    -0.20939575    -0.01346143
     3.46121366    -0.24707861     0.00000000
     2.81166476    -0.25176954     0.00000000
     2.18228643    -0.24053501     0.00000000
     1.58074287    -0.21192245     0.00000000
     1.02571231    -0.15893100     0.00000000
     0.55124396    -0.08079301     0.00000000
     0.29051906    -0.00206827     0.00000000
     0.18070884    -0.00658670     0.00000000
     4.12903573    -0.15250612    -0.01458114
     3.44806873    -0.17078685     0.00000000
     2.78620906    -0.16967727     0.00000000
     2.14904537    -0.15979819     0.00000000
     1.54646000    -0.14033383     0.00000000
     0.99661772    -0.10805285     0.00000000
     0.52901346    -0.06539345     0.00000000
     0.25393656    -0.02251730     0.00000000
     0.12922491    -0.01685115     0.00000000
     4.12510020    -0.09574628    -0.01554895
     3.43826139    -0.09221796     0.00000000
     2.77054654    -0.08556367     0.00000000
     2.12900657    -0.07878910     0.00000000
     1.52538140    -0.07042409     0.00000000
     0.97770663    -0.06076714     0.00000000
     0.51421030    -0.05327595     0.00000000
     0.20439931    -0.01601037     0.00000000
     0.00000000     0.00000000    -0.00000000
     4.12112996    -0.03903294    -0.01579251
     3.43323680    -0.01304911     0.00000000
     2.76431499    -0.00107763     0.00000000
     2.12271949     0.00197523     0.00000000
     1.52140915    -0.00200807     0.00000000
     0.98300804    -0.01599588     0.00000000
     0.54570341    -0.05231892     0.00000000
     0.30329437    -0.04656945     0.00000000
     0.17115621    -0.03815278     0.00000000
     4.11731658     0.01771451    -0.01573721
     3.43157433     0.06503910     0.00000000
     2.76816877     0.08207805     0.00000000
     2.12906815     0.08209636     0.00000000
     1.52665324     0.06642680     0.00000000
     0.98605739     0.02704476     0.00000000
     0.55053092    -0.05302246     0.00000000
     0.35897485    -0.08803980     0.00000000
     0.27577207    -0.05054234     0.00000000
     4.11234803     0.07528526    -0.01399339
     3.43632855     0.13987486     0.00000000
     2.78674815     0.16230025     0.00000000
     2.15478868     0.16228908     0.00000000
     1.54519608     0.13895523     0.00000000
     0.98074954     0.07970217     0.00000000
     0.50956262    -0.03813288     0.00000000
     0.33439566    -0.11874020     0.00000000
     0.27932138    -0.06697702     0.00000000
     4.10648859     0.13264509    -0.01115900
     3.44880726     0.20755202     0.00000000
     2.83083598     0.23870600     0.00000000
     2.21468941     0.24355810     0.00000000
     1.60016492     0.21910959     0.00000000
     0.99651418     0.15246640     0.00000000
     0.44015202     0.01804112     0.00000000
     0.23921953    -0.11950633     0.00000000
     0.15924924    -0.05110934     0.00000000
     4.09678899     0.19248514     0.00000000
     3.50259972     0.27574395     0.00000000
     2.91047764     0.31596123     0.00000000
     2.31784650     0.32390486     0.00000000
     1.72376978     0.30275861     0.00000000
     1.12314331     0.23685506     0.00000000
     0.50647164     0.11920502     0.00000000
     0.18050046    -0.04407269    -0.00000000
     0.00000000     0.00000000    -0.00000000
     4.14349234    -0.37949110     0.14605065
     3.57821092    -0.44732182     0.19398668
     3.01311302    -0.47538474     0.22127132
     2.44396763    -0.47393370     0.23576317
     1.87376667    -0.44123993     0.23991523
     1.29734372    -0.36160129     0.23399668
     0.71563962    -0.24025001     0.21913859
     0.30968202    -0.04821933     0.16771717
     0.00000000     0.00000000     0.00000000
     4.14075648    -0.32281016     0.16183404
     3.51489150    -0.38286704     0.21789195
     2.92236005    -0.40279696     0.24636506
     2.33100283    -0.39863135     0.26273741
     1.73810688    -0.36451281     0.26605080
     1.15149683    -0.28974797     0.25514156
     0.58768586    -0.16832524     0.21760111
     0.26702622     0.00932083     0.14468631
     0.10676036     0.03253573    -0.03045979
     4.13732671    -0.26616235     0.17260532
     3.48707398    -0.31849372     0.23684749
     2.86103043    -0.32965886     0.26833854
     2.24900834    -0.32013338     0.28315751
     1.65040218    -0.28689004     0.28267711
     1.07923183    -0.21955294     0.26239692
     0.56829287    -0.11213325     0.21815111
     0.28479652     0.01542622     0.14155630
     0.15754225     0.01749699    -0.04457834
     4.13372548    -0.20945652     0.18022480
     3.46769731    -0.24681552     0.24999783
     2.82150741    -0.25177383     0.28266410
     2.19588692    -0.24065591     0.29702849
     1.59604962    -0.21240084     0.29352936
     1.03918494    -0.15999988     0.27009124
     0.55691634    -0.08243554     0.22346900
     0.28323507    -0.00195304     0.14136038
     0.16227870    -0.00422769    -0.04971026
     4.12975069    -0.15222571     0.18386644
     3.45374774    -0.17075606     0.25685823
     2.79579658    -0.16992172     0.28994897
     2.16226843    -0.16023837     0.30406719
     1.56145913    -0.14095293     0.29947395
     1.01070863    -0.10855175     0.27594015
     0.53768118    -0.06486901     0.22893685
     0.25065858    -0.02042354     0.14552133
     0.11362251    -0.01362994    -0.04233969
     4.12527539    -0.09555716     0.18355982
     3.44420082    -0.09225099     0.25681459
     2.77969075    -0.08577981     0.29010433
     2.14155917    -0.07918943     0.30387199
     1.53944818    -0.07096888     0.29849923
     0.99106563    -0.06077750     0.27377907
     0.52377072    -0.05183142     0.22942349
     0.20968050    -0.01646235     0.14421629
     0.00000000     0.00000000     0.00000000
     4.12156583    -0.03906032     0.18342965
     3.43865775    -0.01317675     0.25807774
     2.77355341    -0.00123995     0.29167929
     2.13507383     0.00171587     0.30513005
     1.53432591    -0.00226099     0.29799305
     0.99278990    -0.01535046     0.26869933
     0.54643548    -0.04854582     0.21476707
     0.29534781    -0.04370027     0.12274937
     0.15790151    -0.03370649    -0.03458074
     4.11772133     0.01805005     0.17950887
     3.43778937     0.06448687     0.25240661
     2.77744326     0.08179534     0.28627574
     2.14130101     0.08180261     0.29978972
     1.53878894     0.06652256     0.29232895
     0.99355876     0.02892629     0.26157409
     0.54656862    -0.04603489     0.20192607
     0.34349698    -0.08224293     0.10868687
     0.25599445    -0.04540051    -0.05073733
     4.11293301     0.07479260     0.17211091
     3.44205172     0.13843416     0.24021475
     2.79574805     0.16133628     0.27379018
     2.16689294     0.16134949     0.28838015
     1.55803137     0.13877638     0.28436822
     0.99007027     0.08200104     0.25611795
     0.50828926    -0.02859873     0.19647294
     0.32094717    -0.11071986     0.10782588
     0.26034984    -0.06296472    -0.05070529
     4.10632137     0.13175995     0.16222218
     3.45423012     0.20473156     0.22179796
     2.83812246     0.23636055     0.25313267
     2.22473397     0.24078483     0.27034683
     1.61272522     0.21699443     0.27281307
     1.01016811     0.15199818     0.25721770
     0.45009507     0.02592373     0.19937971
     0.23649508    -0.11107162     0.11623952
     0.14860808    -0.04913872    -0.02887533
     4.09721402     0.18887654     0.14738036
     3.50378542     0.27094162     0.19883963
     2.91219293     0.31052928     0.22783901
     2.32068569     0.31824384     0.24356473
     1.72764746     0.29697370     0.24738286
     1.12900260     0.23200644     0.24052601
     0.51447091     0.11660754     0.21181912
     0.18886903    -0.04218298     0.13915147
     0.00000000     0.00000000     0.00000000
     4.14330905    -0.36864588     0.29050677
     3.57971181    -0.43465995     0.38365744
     3.01628247    -0.46014664     0.43666776
     2.44951440    -0.45792924     0.46495749
     1.88239938    -0.42554669     0.47250551
     1.30986440    -0.34823711     0.46016111
     0.73817788    -0.23066276     0.42568159
     0.33728124    -0.04790745     0.32265602
     0.00000000     0.00000000     0.00000000
     4.14100460    -0.31574471     0.32325321
     3.52476761    -0.37289366     0.43124655
     2.93976705    -0.39217482     0.48792070
     2.35560794    -0.38704745     0.51959795
     1.77052717    -0.35424492     0.52586071
     1.19048445    -0.28222065     0.50401199
     0.62623391    -0.17212468     0.43247222
     0.27943608    -0.00405717     0.29856604
     0.08564212     0.02821058    -0.04912272
     4.13876874    -0.26144359     0.34826542
     3.49995099    -0.31064118     0.47004224
     2.88539874    -0.32202048     0.53173306
     2.28413614    -0.31267849     0.56154342
     1.69324413    -0.28156072     0.56151696
     1.12224900    -0.21828584     0.52427697
     0.59743502    -0.11955574     0.44004223
     0.28351400     0.00529800     0.29951995
     0.12080522     0.01633111    -0.07172020
     4.13562889    -0.20572453     0.36581762
     3.48170876    -0.24155481     0.49725580
     2.84887410    -0.24700369     0.56098229
     2.23485430    -0.23651952     0.59044548
     1.64191103    -0.21031635     0.58507440
     1.08281459    -0.16069450     0.54158155
     0.58443153    -0.08676105     0.45347935
     0.27726757    -0.00453807     0.30288343
     0.11946706    -0.00041984    -0.07954742
     4.13064271    -0.15060342     0.37598304
     3.46838701    -0.16791061     0.51146759
     2.82385803    -0.16780870     0.57652980
     2.20188745    -0.15885416     0.60552651
     1.60803726    -0.14101111     0.59795931
     1.05627026    -0.10955614     0.55316666
     0.57201533    -0.06521282     0.46380891
     0.25484762    -0.01807108     0.31022179
     0.07906338    -0.00745757    -0.06716547
     4.12618784    -0.09516976     0.37548739
     3.45819270    -0.09208439     0.51273952
     2.80729190    -0.08609174     0.57787530
     2.18018750    -0.08011273     0.60638996
     1.58416547    -0.07275906     0.59729235
     1.03412710    -0.06164214     0.54980559
     0.55674011    -0.04978580     0.46333628
     0.22812000    -0.01852270     0.29799522
     0.00000000     0.00000000     0.00000000
     4.12190928    -0.03980457     0.37604903
     3.45308331    -0.01588613     0.51387250
     2.80148739    -0.00390087     0.57993078
     2.17346118    -0.00125151     0.60806033
     1.57621622    -0.00498457     0.59632359
     1.02666658    -0.01509936     0.54191613
     0.55698744    -0.03983232     0.43981547
     0.27910767    -0.03614555     0.26773516
     0.12392903    -0.02132587    -0.06081755
     4.11884022     0.01506392     0.36598776
     3.45140496     0.05897700     0.50208440
     2.80461166     0.07656660     0.56803830
     2.17845360     0.07689448     0.59640964
     1.57824032     0.06338565     0.58443568
     1.02147735     0.03199530     0.52793221
     0.54533103    -0.02855051     0.41568554
     0.30635631    -0.06423477     0.24398417
     0.20222360    -0.02985976    -0.08710760
     4.11384348     0.07076492     0.34883691
     3.45483396     0.12972433     0.47701987
     2.82010838     0.15330798     0.54227648
     2.20110471     0.15369787     0.57218647
     1.59667681     0.13397326     0.56610289
     1.02149456     0.08545571     0.51477990
     0.51458740    -0.00537517     0.40138283
     0.29147793    -0.08694092     0.23841002
     0.21080412    -0.05053277    -0.08650283
     4.10686772     0.12520352     0.32459907
     3.46520735     0.19336953     0.43961049
     2.85669858     0.22521586     0.50111545
     2.25063855     0.22884232     0.53461924
     1.64670721     0.20693080     0.53914994
     1.04968488     0.14758174     0.50965334
     0.48363045     0.04298351     0.40122703
     0.23265992    -0.08730946     0.25077991
     0.12317227    -0.04600063    -0.04830542
     4.09866435     0.17841943     0.29273463
     3.50705505     0.25662965     0.39220645
     2.91734484     0.29452584     0.44980908
     2.32868637     0.30140059     0.48015117
     1.73915721     0.28018482     0.48803065
     1.14569261     0.21800879     0.47217576
     0.54597969     0.10860738     0.41515201
     0.22501276    -0.03677103     0.27012307
     0.00000000     0.00000000     0.00000000
     4.14332269    -0.35121901     0.42751059
     3.58223209    -0.41236681     0.56371283
     3.02121388    -0.43551935     0.64076466
     2.45803431    -0.43194106     0.68115563
     1.89580180    -0.40036320     0.69136059
     1.33170918    -0.32719748     0.66889912
     0.77376737    -0.21546237     0.60976083
     0.37790174    -0.04600520     0.45746955
     0.00000000     0.00000000     0.00000000
     4.14242348    -0.30279941     0.47824544
     3.53851461    -0.35442221     0.63489452
     2.96615233    -0.37309686     0.71973250
     2.39287509    -0.36693402     0.76524790
     1.81906551    -0.33609096     0.77279907
     1.25207006    -0.26982360     0.74004975
     0.69342963    -0.17125434     0.63879861
     0.31289866    -0.01918201     0.46213923
     0.06227566     0.02135166    -0.05321220
     4.14111317    -0.25145361     0.51853483
     3.51691662    -0.29569814     0.69369257
     2.92337711    -0.30713228     0.78513403
     2.33992270    -0.29838595     0.83051858
     1.76210142    -0.27028841     0.83146868
     1.19811924    -0.21429065     0.78132237
     0.66182592    -0.12650142     0.66425032
     0.30726746    -0.00805477     0.47712384
     0.08140492     0.01380252    -0.07711151
     4.13670771    -0.20010008     0.54889384
     3.50166251    -0.23102600     0.73526410
     2.89298778    -0.23693320     0.83056108
     2.29963693    -0.22776344     0.87634864
     1.72010963    -0.20426443     0.87110999
     1.16480033    -0.16103069     0.81223996
     0.65130188    -0.09307941     0.68997932
     0.30102505    -0.01030433     0.48869161
     0.07604313     0.00225176    -0.08572388
     4.13241956    -0.14786138     0.56448995
     3.48947702    -0.16242105     0.75876170
     2.87044623    -0.16280580     0.85587150
     2.27001530    -0.15517478     0.90154388
     1.68929200    -0.13948015     0.89310032
     1.14255028    -0.11188770     0.83045548
     0.64629463    -0.06865188     0.70447912
     0.29246995    -0.01892345     0.49732854
     0.04923332    -0.00290520    -0.07413915
     4.12791083    -0.09470850     0.56644373
     3.47958138    -0.09167388     0.76289628
     2.85427202    -0.08621527     0.86050043
     2.24840684    -0.08119513     0.90577465
     1.66439911    -0.07502969     0.89543473
     1.11680271    -0.06509889     0.82885029
     0.62428179    -0.04864502     0.70384845
     0.27041209    -0.02139238     0.46832665
     0.00000000     0.00000000     0.00000000
     4.12336501    -0.04160729     0.56497961
     3.47420890    -0.02064881     0.76208139
     2.84878518    -0.00923023     0.86081795
     2.24146577    -0.00668165     0.90609755
     1.65366404    -0.01017374     0.89356655
     1.09930896    -0.01770918     0.82095033
     0.59916251    -0.02992775     0.67983254
     0.28111508    -0.02706167     0.44696662
     0.08293392    -0.00671284    -0.07350834
     4.11919763     0.01052152     0.54992384
     3.47171053     0.04866774     0.74190187
     2.85019680     0.06618316     0.84055821
     2.24428787     0.06711039     0.88608268
     1.65187577     0.05588846     0.87382124
     1.08645490     0.03209356     0.79993806
     0.57145258    -0.00855020     0.64721605
     0.28096446    -0.04179637     0.42073280
     0.13105498    -0.00787400    -0.09832079
     4.11566912     0.06178281     0.52002313
     3.47167929     0.11452448     0.70323027
     2.85924200     0.13792995     0.79968323
     2.25800754     0.13937386     0.84605182
     1.66355411     0.12337895     0.84016053
     1.08465126     0.08657962     0.77363785
     0.54410203     0.02022746     0.61829068
     0.26758883    -0.05274429     0.40383735
     0.14225554    -0.02928224    -0.09596002
     4.10871007     0.11306923     0.48057948
     3.47960756     0.17431746     0.64675329
     2.88402909     0.20520057     0.73846417
     2.28947866     0.20849630     0.78685168
     1.69661006     0.18957609     0.79213578
     1.11110895     0.14085692     0.75043289
     0.54137260     0.05855088     0.60432402
     0.24288185    -0.05646402     0.40974690
     0.09275287    -0.03610113    -0.05540444
     4.10112399     0.16132296     0.43063122
     3.51211232     0.23332396     0.57572031
     2.92540017     0.26851360     0.65975202
     2.34098545     0.27404641     0.70353831
     1.75763033     0.25345421     0.71429989
     1.17433994     0.19589513     0.68901739
     0.59200028     0.09536337     0.59790887
     0.26653581    -0.03153378     0.39796480
     0.00000000     0.00000000     0.00000000
     4.14430436    -0.32691377     0.55316282
     3.58481835    -0.38220828     0.72961508
     3.02743926    -0.40218368     0.82830178
     2.46823363    -0.39703053     0.87930647
     1.91269124    -0.36700806     0.88984856
     1.35839690    -0.29960604     0.85560500
     0.81504782    -0.19568348     0.76555275
     0.42364434    -0.04705484     0.57372392
     0.00000000     0.00000000     0.00000000
     4.14453274    -0.28368666     0.62489895
     3.55731230    -0.32989791     0.82573011
     3.00048689    -0.34612031     0.93717161
     2.43840764    -0.33926975     0.99490766
     1.87866297    -0.31262991     1.00193298
     1.32635070    -0.24882943     0.95549176
     0.79003660    -0.16982449     0.82882319
     0.37661910    -0.03772684     0.62624656
     0.03871396     0.01625961    -0.04111607
     4.14157708    -0.23931941     0.68443587
     3.54211410    -0.27530824     0.90390858
     2.97677997    -0.28540434     1.02535913
     2.41255671    -0.27809710     1.08608260
     1.85274537    -0.25519268     1.08731175
     1.30158627    -0.19972724     1.02603862
     0.77473643    -0.13874217     0.88023090
     0.36777835    -0.02969327     0.66978849
     0.04881439     0.01535991    -0.06186336
     4.13844569    -0.19270420     0.72624705
     3.53043402    -0.21676418     0.96120717
     2.95720558    -0.22147942     1.08818512
     2.38948779    -0.21422664     1.15173471
     1.82874891    -0.19632590     1.14735328
     1.28392340    -0.15211046     1.07571854
     0.77455880    -0.10689374     0.92251722
     0.36487776    -0.02549241     0.69631987
     0.04515465     0.00736125    -0.07043192
     4.13523531    -0.14380944     0.75028928
     3.52075254    -0.15528898     0.99511756
     2.94105925    -0.15473455     1.12567599
     2.36893921    -0.14879444     1.18963630
     1.80792917    -0.13656632     1.18290799
     1.26738033    -0.10901455     1.10286537
     0.77999656    -0.07934927     0.94189781
     0.37057538    -0.02484567     0.70700882
     0.03315541    -0.00403627    -0.06831010
     4.13106143    -0.09437424     0.75581083
     3.51203953    -0.09128121     1.00459673
     2.92728451    -0.08668734     1.13622430
     2.35107063    -0.08143066     1.20056535
     1.78620788    -0.07672118     1.19200967
     1.24286575    -0.06648848     1.10788828
     0.75210684    -0.05618934     0.94673742
     0.34858359    -0.02277269     0.66120145
     0.00000000     0.00000000     0.00000000
     4.12640314    -0.04486748     0.75121493
     3.50628489    -0.02744551     0.99923962
     2.92093289    -0.01799859     1.13172364
     2.34312261    -0.01409199     1.19658766
     1.77391627    -0.01553339     1.18704380
     1.22110553    -0.02266654     1.10036755
     0.71194788    -0.02949160     0.92827753
     0.31962761    -0.01251625     0.67103695
     0.04526390     0.01077817    -0.06765049
     4.12127690     0.00383437     0.72812778
     3.50169251     0.03462655     0.96887186
     2.91783001     0.04931702     1.10075170
     2.33842579     0.05264791     1.16488070
     1.76580173     0.04557625     1.15673444
     1.20067596     0.02367921     1.07125862
     0.67233412     0.00368393     0.89004992
     0.28723729    -0.01264921     0.65347920
     0.06670858     0.00404059    -0.08100322
     4.11675320     0.05039698     0.68687957
     3.49987927     0.09387348     0.91522516
     2.91771267     0.11496810     1.04239089
     2.33825945     0.11741760     1.10564689
     1.76205384     0.10684704     1.10081295
     1.19065370     0.07191922     1.02549854
     0.64051786     0.03862974     0.84249107
     0.26885007    -0.01441650     0.61264109
     0.07293945    -0.01413442    -0.07503820
     4.11234840     0.09489784     0.62769901
     3.50020561     0.14989103     0.83879809
     2.92131995     0.17753920     0.95853712
     2.33866464     0.18043416     1.01980334
     1.76123706     0.16696559     1.02388663
     1.18772633     0.12147703     0.96927749
     0.63238192     0.07092980     0.79531945
     0.26205986    -0.01279406     0.58923440
     0.05854853    -0.02496670    -0.04656846
     4.10508438     0.13780443     0.55689090
     3.51808993     0.20216787     0.74578373
     2.93552200     0.23359940     0.85322456
     2.35622378     0.23775000     0.90916487
     1.78075447     0.21838442     0.92211762
     1.20772804     0.16721187     0.88588714
     0.64422767     0.07883043     0.76464437
     0.31744753    -0.02009455     0.52519559
     0.00000000     0.00000000     0.00000000
     4.14564257    -0.29600112     0.66513093
     3.58735060    -0.34534750     0.87743679
     3.03351656    -0.36111846     0.99479354
     2.47944427    -0.35485199     1.05478253
     1.92908094    -0.32657160     1.06457035
     1.38571302    -0.26647569     1.01408284
     0.85771143    -0.17307591     0.89557772
     0.46993537    -0.04717549     0.67125935
     0.00000000     0.00000000     0.00000000
     4.14406580    -0.26231249     0.76308881
     3.58947130    -0.30198304     1.00293713
     3.03916107    -0.31380979     1.13699158
     2.48874675    -0.30691084     1.20432044
     1.94449962    -0.28055243     1.21017227
     1.40748577    -0.22876457     1.14591784
     0.89165582    -0.14882491     0.99723412
     0.51562470    -0.04608686     0.75579604
     0.00000000     0.00000000     0.00000000
     4.14249157    -0.22442026     0.84097856
     3.59052974    -0.25346179     1.10503772
     3.04211272    -0.26168690     1.25079831
     2.49642834    -0.25430539     1.32537086
     1.95436634    -0.23082975     1.32506607
     1.42616740    -0.18873260     1.25086158
     0.91229145    -0.12215078     1.07627522
     0.55345884    -0.04486393     0.81356226
     0.00000000     0.00000000     0.00000000
     4.14123607    -0.18240531     0.89767568
     3.58913656    -0.20185005     1.17970413
     3.04312397    -0.20523733     1.33589829
     2.49848561    -0.19883258     1.41329468
     1.96101560    -0.17884222     1.41033438
     1.43271232    -0.14716056     1.32596983
     0.92862666    -0.09584413     1.13256697
     0.57582060    -0.03916588     0.84879765
     0.00000000     0.00000000     0.00000000
     4.13894512    -0.13891144     0.93209157
     3.58607832    -0.14683571     1.22664062
     3.03963757    -0.14742169     1.38838097
     2.49686379    -0.13997302     1.46944037
     1.95851087    -0.12728336     1.46134657
     1.43452536    -0.10338530     1.37509618
     0.91887509    -0.06991141     1.15926921
     0.59014342    -0.03157035     0.85641154
     0.00000000     0.00000000     0.00000000
     4.13540938    -0.09377195     0.94424641
     3.58045973    -0.09177864     1.24369596
     3.03264990    -0.08680278     1.40877281
     2.48877700    -0.08214450     1.49041399
     1.95018301    -0.07275537     1.48204543
     1.42374337    -0.06331647     1.38999717
     0.91123976    -0.03988248     1.17483393
     0.55766604    -0.02027156     0.80537089
     0.00000000     0.00000000     0.00000000
     4.13081493    -0.04953847     0.93366708
     3.57238497    -0.03544717     1.23087386
     3.02189396    -0.02789170     1.39583089
     2.47466051    -0.02208354     1.47713769
     1.93479728    -0.02177764     1.46949121
     1.40535503    -0.01946253     1.37709214
     0.88755785    -0.01948103     1.15529436
     0.54833140    -0.00234018     0.84466121
     0.00000000     0.00000000     0.00000000
     4.12528780    -0.00566531     0.90010124
     3.56280299     0.01844905     1.18893862
     3.00656891     0.03125167     1.34879987
     2.45687015     0.03491721     1.43067857
     1.90993634     0.03059857     1.42226322
     1.38041109     0.01941795     1.33561011
     0.84963237     0.00239577     1.10750544
     0.52564241    -0.00043502     0.83580698
     0.00000000     0.00000000     0.00000000
     4.11967385     0.03574103     0.84455644
     3.55110557     0.07036467     1.11724270
     2.98972892     0.08722351     1.27061997
     2.43185439     0.09062428     1.34816621
     1.88147255     0.08007442     1.34472400
     1.34089145     0.05773558     1.26269437
     0.80906950     0.02083050     1.05105388
     0.47606817    -0.00112280     0.78414192
     0.00000000     0.00000000     0.00000000
     4.11509837     0.07369151     0.76654842
     3.53935949     0.11838881     1.01850467
     2.96942042     0.13971986     1.16004341
     2.40546253     0.14233247     1.23269077
     1.84450448     0.12638917     1.23470640
     1.29618364     0.09330843     1.16487596
     0.75215519     0.03455553     0.97762347
     0.42239770    -0.00846273     0.71761771
     0.00000000     0.00000000     0.00000000
     4.11104489     0.10755582     0.66853428
     3.52499160     0.16645898     0.89094636
     2.94776257     0.19167580     1.01924950
     2.37329623     0.19460437     1.08473061
     1.80285209     0.17648953     1.09603463
     1.23989048     0.13230920     1.04403040
     0.68520333     0.05813644     0.88907529
     0.35483176    -0.01622712     0.65516127
     0.00000000     0.00000000     0.00000000
     0.00000000     0.00000000     0.00000000
     0.00000000     0.00000000     0.00000000
     0.00000000     0.00000000     0.00000000
     0.00000000     0.00000000     0.00000000
     0.00000000     0.00000000     0.00000000
     0.00000000     0.00000000     0.00000000
     0.00000000     0.00000000     0.00000000
     0.00000000     0.00000000     0.00000000
     0.00000000     0.00000000     0.00000000
     0.00000000     0.00000000     0.00000000
     0.00000000     0.00000000     0.00000000
     0.08443238    -0.01457762     0.00000000
     0.12573327     0.02308862     0.00000000
     0.12719519     0.00252563     0.00000000
     0.11595953     0.00343745     0.00000000
     0.10126845     0.00276331     0.00000000
     0.08512868     0.00066223     0.00000000
     0.06866511    -0.00245187     0.00000000
     0.05223931    -0.00606639     0.00000000
     0.03599270    -0.00959916     0.00000000
     0.01997380    -0.01278386     0.00000000
     0.00000000     0.00000000     0.00000000
     0.25424724    -0.02140756     0.00000000
     0.25937235     0.02665618     0.00000000
     0.24818553     0.02979536     0.00000000
     0.21736432     0.03278216     0.00000000
     0.18210974     0.03095651     0.00000000
     0.14715438     0.02527120     0.00000000
     0.11336945     0.01815910     0.00000000
     0.08098200     0.01051420     0.00000000
     0.05026889     0.00275875     0.00000000
     0.02197429    -0.00274902     0.00000000
     0.00000000     0.00000000     0.00000000
     0.30895610    -0.05019426     0.00000000
     0.28990796     0.00609404     0.00000000
     0.25858441     0.05206758     0.00000000
     0.21883530     0.06123363     0.00000000
     0.18036029     0.05705586     0.00000000
     0.14362241     0.04974176     0.00000000
     0.10897264     0.04122355     0.00000000
     0.07617000     0.03248289     0.00000000
     0.04521646     0.02398016     0.00000000
     0.01771006     0.01425121     0.00000000
     0.00000000     0.00000000     0.00000000
     0.15706093    -0.03536692     0.00000000
     0.17659209    -0.01610562     0.00000000
     0.13062677     0.04645362     0.00000000
     0.10741984     0.04673857     0.00000000
     0.08808376     0.04453393     0.00000000
     0.07099086     0.04029267     0.00000000
     0.05501790     0.03581597     0.00000000
     0.03964691     0.03132437     0.00000000
     0.02475103     0.02659099     0.00000000
     0.01020621     0.02147105     0.00000000
     0.00000000     0.00000000     0.00000000
     0.00000000     0.00000000     0.00000000
     0.00000000     0.00000000     0.00000000
     0.00000000     0.00000000     0.00000000
     0.00000000     0.00000000     0.00000000
     0.00000000     0.00000000     0.00000000
     0.00000000     0.00000000     0.00000000
     0.00000000     0.00000000     0.00000000
     0.00000000     0.00000000     0.00000000
     0.00000000     0.00000000     0.00000000
     0.00000000     0.00000000     0.00000000
     0.00000000     0.00000000     0.00000000
     0.00000000     0.00000000     0.00000000
     0.00000000     0.00000000     0.00000000
     0.00000000     0.00000000     0.00000000
     0.00000000     0.00000000     0.00000000
     0.00000000     0.00000000     0.00000000
     0.00000000     0.00000000     0.00000000
     0.00000000     0.00000000     0.00000000
     0.00000000     0.00000000     0.00000000
     0.00000000     0.00000000     0.00000000
     0.00000000     0.00000000     0.00000000
     0.00000000     0.00000000     0.00000000
     0.07619575    -0.01443641    -0.00491467
     0.11782892     0.02121317    -0.01006712
     0.11808606     0.00153488     0.00227245
     0.10738105     0.00273498     0.00558604
     0.09390111     0.00225600     0.00652918
     0.07916736     0.00045266     0.00664575
     0.06413312    -0.00233422     0.00650127
     0.04907110    -0.00563381     0.00627444
     0.03410035    -0.00890408     0.00586217
     0.01917730    -0.01202458     0.00478814
     0.00000000     0.00000000     0.00000000
     0.23569109    -0.02082997    -0.02318088
     0.24525551     0.02473246    -0.01205748
     0.23373139     0.02761646     0.00555536
     0.20406962     0.03044421     0.01298664
     0.17087596     0.02883597     0.01526999
     0.13831898     0.02363074     0.01519085
     0.10695946     0.01708634     0.01438281
     0.07683538     0.00998569     0.01325861
     0.04809552     0.00269590     0.01137102
     0.02126437    -0.00257633     0.00755076
     0.00000000     0.00000000     0.00000000
     0.28808583    -0.04782241    -0.02652196
     0.27493693     0.00521871    -0.01042218
     0.24386608     0.04928790     0.00619911
     0.20553067     0.05779765     0.01440378
     0.16924123     0.05379518     0.01641340
     0.13499533     0.04695935     0.01595100
     0.10282414     0.03903669     0.01484182
     0.07230121     0.03089429     0.01353039
     0.04330523     0.02294821     0.01154291
     0.01718542     0.01373999     0.00766253
     0.00000000     0.00000000     0.00000000
     0.14272761    -0.03168066    -0.00979285
     0.16518499    -0.01552026    -0.00661299
     0.12035442     0.04347850     0.00687816
     0.09879672     0.04337261     0.00813107
     0.08118565     0.04146593     0.00759461
     0.06572722     0.03761278     0.00680808
     0.05125080     0.03353928     0.00622460
     0.03721689     0.02943060     0.00582888
     0.02351837     0.02508367     0.00540079
     0.00991336     0.02043285     0.00444441
     0.00000000     0.00000000     0.00000000
     0.00000000     0.00000000     0.00000000
     0.00000000     0.00000000     0.00000000
     0.00000000     0.00000000     0.00000000
     0.00000000     0.00000000     0.00000000
     0.00000000     0.00000000     0.00000000
     0.00000000     0.00000000     0.00000000
     0.00000000     0.00000000     0.00000000
     0.00000000     0.00000000     0.00000000
     0.00000000     0.00000000     0.00000000
     0.00000000     0.00000000     0.00000000
     0.00000000     0.00000000     0.00000000
     0.00000000     0.00000000     0.00000000
     0.00000000     0.00000000     0.00000000
     0.00000000     0.00000000     0.00000000
     0.00000000     0.00000000     0.00000000
     0.00000000     0.00000000     0.00000000
     0.00000000     0.00000000     0.00000000
     0.00000000     0.00000000     0.00000000
     0.00000000     0.00000000     0.00000000
     0.00000000     0.00000000     0.00000000
     0.00000000     0.00000000     0.00000000
     0.00000000     0.00000000     0.00000000
     0.05642420    -0.01542556    -0.00500575
     0.09758222     0.01580120    -0.01583090
     0.09473013    -0.00100565     0.00451645
     0.08569662     0.00088293     0.00933447
     0.07550472     0.00102328     0.01056844
     0.06440177     0.00008055     0.01067677
     0.05294066    -0.00189985     0.01045006
     0.04132145    -0.00445278     0.01015110
     0.02948391    -0.00700133     0.00960130
     0.01730520    -0.00993165     0.00806880
     0.00000000     0.00000000     0.00000000
     0.18496326    -0.01942944    -0.03502835
     0.20555157     0.01866429    -0.02104563
     0.19251781     0.02132176     0.01058007
     0.16629652     0.02378497     0.02235889
     0.13913513     0.02294495     0.02539930
     0.11344574     0.01921563     0.02492029
     0.08889299     0.01423909     0.02354519
     0.06512674     0.00864415     0.02185086
     0.04189888     0.00266805     0.01903958
     0.01926138    -0.00190598     0.01300749
     0.00000000     0.00000000     0.00000000
     0.23006013    -0.04010049    -0.04195568
     0.23230831     0.00330032    -0.01854411
     0.20169605     0.04117077     0.01205660
     0.16763792     0.04780573     0.02510760
     0.13784761     0.04432901     0.02746496
     0.11081694     0.03888725     0.02625206
     0.08562041     0.03264154     0.02434697
     0.06148661     0.02621188     0.02233693
     0.03796089     0.01982185     0.01936040
     0.01581454     0.01210319     0.01322702
     0.00000000     0.00000000     0.00000000
     0.10613768    -0.02194703    -0.01201203
     0.13562250    -0.01332119    -0.01062184
     0.09436059     0.03554457     0.01197485
     0.07722426     0.03495359     0.01332931
     0.06418531     0.03384196     0.01213487
     0.05296847     0.03092648     0.01080188
     0.04216917     0.02785280     0.00992043
     0.03143818     0.02473665     0.00937748
     0.02066985     0.02125670     0.00881708
     0.00939500     0.01774692     0.00747880
     0.00000000     0.00000000     0.00000000
     0.00000000     0.00000000     0.00000000
     0.00000000     0.00000000     0.00000000
     0.00000000     0.00000000     0.00000000
     0.00000000     0.00000000     0.00000000
     0.00000000     0.00000000     0.00000000
     0.00000000     0.00000000     0.00000000
     0.00000000     0.00000000     0.00000000
     0.00000000     0.00000000     0.00000000
     0.00000000     0.00000000     0.00000000
     0.00000000     0.00000000     0.00000000
     0.00000000     0.00000000     0.00000000
     0.00000000     0.00000000     0.00000000
     0.00000000     0.00000000     0.00000000
     0.00000000     0.00000000     0.00000000
     0.00000000     0.00000000     0.00000000
     0.00000000     0.00000000     0.00000000
     0.00000000     0.00000000     0.00000000
     0.00000000     0.00000000     0.00000000
     0.00000000     0.00000000     0.00000000
     0.00000000     0.00000000     0.00000000
     0.00000000     0.00000000     0.00000000
     0.00000000     0.00000000     0.00000000
     0.02820172    -0.01729115     0.00431435
     0.06738460     0.00753578    -0.01481070
     0.06071705    -0.00424157     0.00612343
     0.05514049    -0.00147890     0.00969081
     0.04985021    -0.00015293     0.01058871
     0.04367055    -0.00025838     0.01066999
     0.03697709    -0.00129172     0.01047133
     0.02995165    -0.00284436     0.01022267
     0.02272133    -0.00461857     0.00991865
     0.01433238    -0.00689262     0.00888840
     0.00000000     0.00000000     0.00000000
     0.11111048    -0.01894846    -0.02558879
     0.14396684     0.00888682    -0.02297456
     0.12818266     0.01134688     0.01407372
     0.10860095     0.01346676     0.02414779
     0.09164741     0.01440661     0.02597870
     0.07649527     0.01269085     0.02511293
     0.06192853     0.00990151     0.02372499
     0.04740177     0.00646282     0.02226494
     0.03249108     0.00235781     0.02007711
     0.01599675    -0.00099114     0.01465744
     0.00000000     0.00000000     0.00000000
     0.14248688    -0.02871164    -0.03464811
     0.16471620     0.00008145    -0.02081782
     0.13473805     0.02777799     0.01649910
     0.10885896     0.03207864     0.02758216
     0.09052709     0.02984267     0.02825948
     0.07471583     0.02668919     0.02654302
     0.05980319     0.02300333     0.02459835
     0.04499673     0.01910468     0.02281834
     0.02970141     0.01519961     0.02047144
     0.01349024     0.00953755     0.01495352
     0.00000000     0.00000000     0.00000000
     0.05816148    -0.01154919    -0.00302434
     0.09345028    -0.00966775    -0.01055933
     0.05767654     0.02427382     0.01400781
     0.04729779     0.02341373     0.01348523
     0.04120158     0.02299477     0.01182092
     0.03543450     0.02146564     0.01058410
     0.02938309     0.01972897     0.00980778
     0.02297892     0.01788699     0.00936991
     0.01633330     0.01593442     0.00907043
     0.00844088     0.01368131     0.00823269
     0.00000000     0.00000000     0.00000000
     0.00000000     0.00000000     0.00000000
     0.00000000     0.00000000     0.00000000
     0.00000000     0.00000000     0.00000000
     0.00000000     0.00000000     0.00000000
     0.00000000     0.00000000     0.00000000
     0.00000000     0.00000000     0.00000000
     0.00000000     0.00000000     0.00000000
     0.00000000     0.00000000     0.00000000
     0.00000000     0.00000000     0.00000000
     0.00000000     0.00000000     0.00000000
     0.00000000     0.00000000     0.00000000
     0.00000000     0.00000000     0.00000000
     0.00000000     0.00000000     0.00000000
     0.00000000     0.00000000     0.00000000
     0.00000000     0.00000000     0.00000000
     0.00000000     0.00000000     0.00000000
     0.00000000     0.00000000     0.00000000
     0.00000000     0.00000000     0.00000000
     0.00000000     0.00000000     0.00000000
     0.00000000     0.00000000     0.00000000
     0.00000000     0.00000000     0.00000000
     0.00000000     0.00000000     0.00000000
    -0.00630840    -0.02616415     0.02676123
     0.02815022     0.00072657    -0.00681080
     0.02170697    -0.00542618     0.00485245
     0.02209398    -0.00103098     0.00608908
     0.02194231    -0.00035997     0.00659049
     0.02057312    -0.00015990     0.00662805
     0.01854125    -0.00052273     0.00652887
     0.01611553    -0.00113348     0.00645305
     0.01348080    -0.00156384     0.00621726
     0.01109354    -0.00347068     0.00653600
     0.00000000     0.00000000     0.00000000
     0.02241132    -0.01765219     0.01427210
     0.06450429    -0.00252062    -0.01376918
     0.04860681     0.00051230     0.01207922
     0.04216829     0.00393577     0.01477242
     0.03832107     0.00563550     0.01557254
     0.03474414     0.00553084     0.01496031
     0.03052463     0.00479678     0.01431242
     0.02566985     0.00366612     0.01373443
     0.02013534     0.00195730     0.01273860
     0.01261575     0.00004013     0.01132848
     0.00000000     0.00000000     0.00000000
     0.03225302    -0.01105070     0.00905655
     0.07499743    -0.00514883    -0.01227830
     0.04937400     0.00964291     0.01463725
     0.04053998     0.01258366     0.01692461
     0.03710035     0.01271385     0.01685543
     0.03362828     0.01245028     0.01578193
     0.02945741     0.01154048     0.01483999
     0.02454813     0.01026723     0.01410163
     0.01875958     0.00896062     0.01302329
     0.01113863     0.00667736     0.01159306
     0.00000000     0.00000000     0.00000000
     0.00152893     0.00392372     0.01986111
     0.04196914    -0.00727079    -0.00462760
     0.01541494     0.00999709     0.01045502
     0.01698568     0.00877595     0.00767830
     0.01708568     0.01037078     0.00702587
     0.01633655     0.01036595     0.00632748
     0.01468622     0.01006460     0.00598441
     0.01253212     0.00952745     0.00583481
     0.01025721     0.00861175     0.00562402
     0.00745419     0.00904979     0.00602150
     0.00000000     0.00000000     0.00000000
     0.00000000     0.00000000     0.00000000
     0.00000000     0.00000000     0.00000000
     0.00000000     0.00000000     0.00000000
     0.00000000     0.00000000     0.00000000
     0.00000000     0.00000000     0.00000000
     0.00000000     0.00000000     0.00000000
     0.00000000     0.00000000     0.00000000
     0.00000000     0.00000000     0.00000000
     0.00000000     0.00000000     0.00000000
     0.00000000     0.00000000     0.00000000
     0.00000000     0.00000000     0.00000000
     0.00000000     0.00000000     0.00000000
     0.00000000     0.00000000     0.00000000
     0.00000000     0.00000000     0.00000000
     0.00000000     0.00000000     0.00000000
     0.00000000     0.00000000     0.00000000
     0.00000000     0.00000000     0.00000000
     0.00000000     0.00000000     0.00000000
     0.00000000     0.00000000     0.00000000
     0.00000000     0.00000000     0.00000000
     0.00000000     0.00000000     0.00000000
     0.00000000     0.00000000     0.00000000
     0.00000000     0.00000000     0.00000000
     0.00000000     0.00000000     0.00000000
     0.00000000     0.00000000     0.00000000
     0.00000000     0.00000000     0.00000000
     0.00000000     0.00000000     0.00000000
     0.00000000     0.00000000     0.00000000
     0.00000000     0.00000000     0.00000000
     0.00000000     0.00000000     0.00000000
     0.00000000     0.00000000     0.00000000
     0.00000000     0.00000000     0.00000000
     0.00000000     0.00000000     0.00000000
     0.00000000     0.00000000     0.00000000
     0.00000000     0.00000000     0.00000000
     0.00000000     0.00000000     0.00000000
     0.00000000     0.00000000     0.00000000
     0.00000000     0.00000000     0.00000000
     0.00000000     0.00000000     0.00000000
     0.00000000     0.00000000     0.00000000
     0.00000000     0.00000000     0.00000000
     0.00000000     0.00000000     0.00000000
     0.00000000     0.00000000     0.00000000
     0.00000000     0.00000000     0.00000000
     0.00000000     0.00000000     0.00000000
     0.00000000     0.00000000     0.00000000
     0.00000000     0.00000000     0.00000000
     0.00000000     0.00000000     0.00000000
     0.00000000     0.00000000     0.00000000
     0.00000000     0.00000000     0.00000000
     0.00000000     0.00000000     0.00000000
     0.00000000     0.00000000     0.00000000
     0.00000000     0.00000000     0.00000000
     0.00000000     0.00000000     0.00000000
     0.00000000     0.00000000     0.00000000
     0.00000000     0.00000000     0.00000000
     0.00000000     0.00000000     0.00000000
     0.00000000     0.00000000     0.00000000
     0.00000000     0.00000000     0.00000000
     0.00000000     0.00000000     0.00000000
     0.00000000     0.00000000     0.00000000
     0.00000000     0.00000000     0.00000000
     0.00000000     0.00000000     0.00000000
     0.00000000     0.00000000     0.00000000
     0.00000000     0.00000000     0.00000000
     0.00000000     0.00000000     0.00000000
     0.00000000     0.00000000     0.00000000
     0.00000000     0.00000000     0.00000000
     0.00000000     0.00000000     0.00000000
     0.00000000     0.00000000     0.00000000
     0.00000000     0.00000000     0.00000000
     0.00000000     0.00000000     0.00000000
     0.00000000     0.00000000     0.00000000
     0.00000000     0.00000000     0.00000000
     0.00000000     0.00000000     0.00000000
     0.00000000     0.00000000     0.00000000
     0.00000000     0.00000000     0.00000000
     0.00000000     0.00000000     0.00000000
     0.00000000     0.00000000     0.00000000
     0.00000000     0.00000000     0.00000000
     0.00000000     0.00000000     0.00000000
     0.00000000     0.00000000     0.00000000
     0.00000000     0.00000000     0.00000000
     0.00000000     0.00000000     0.00000000
     0.00000000     0.00000000     0.00000000
     0.16263691    -0.02473741     0.00000000
     0.15199229    -0.02953659     0.00000000
     0.12218655    -0.02266669     0.00000000
     0.09330559    -0.01605262     0.00000000
     0.06937327    -0.01005768     0.00000000
     0.04940574    -0.00493278     0.00000000
     0.03194130    -0.00051271     0.00000000
     0.01629858     0.00413461     0.00000000
     0.00000000     0.00000000     0.00000000
     0.22485162    -0.03076533     0.00000000
     0.20946022    -0.04851478     0.00000000
     0.17136777    -0.04390343     0.00000000
     0.13261955    -0.03409710     0.00000000
     0.09839448    -0.02440256     0.00000000
     0.06851017    -0.01582312     0.00000000
     0.04179326    -0.00811260     0.00000000
     0.01778842    -0.00158070     0.00000000
     0.00000000     0.00000000     0.00000000
     0.21583176    -0.02377834     0.00000000
     0.19312150    -0.05528542     0.00000000
     0.15616041    -0.05220609     0.00000000
     0.12116902    -0.04249211     0.00000000
     0.09030757    -0.03281742     0.00000000
     0.06294479    -0.02415904     0.00000000
     0.03791952    -0.01658233     0.00000000
     0.01523833    -0.00934220     0.00000000
     0.00000000     0.00000000     0.00000000
     0.13456150    -0.01482279     0.00000000
     0.10676734    -0.04020641     0.00000000
     0.08604139    -0.03587376     0.00000000
     0.06810680    -0.03069794     0.00000000
     0.05249624    -0.02524250     0.00000000
     0.03808607    -0.02043550     0.00000000
     0.02434786    -0.01592201     0.00000000
     0.01083752    -0.01223800     0.00000000
     0.00000000     0.00000000     0.00000000
     0.00000000     0.00000000     0.00000000
     0.00000000     0.00000000     0.00000000
     0.00000000     0.00000000     0.00000000
     0.00000000     0.00000000     0.00000000
     0.00000000     0.00000000     0.00000000
     0.00000000     0.00000000     0.00000000
     0.00000000     0.00000000     0.00000000
     0.00000000     0.00000000     0.00000000
     0.00000000     0.00000000     0.00000000
     0.00000000     0.00000000     0.00000000
     0.00000000     0.00000000     0.00000000
     0.00000000     0.00000000     0.00000000
     0.00000000     0.00000000     0.00000000
     0.00000000     0.00000000     0.00000000
     0.00000000     0.00000000     0.00000000
     0.00000000     0.00000000     0.00000000
     0.00000000     0.00000000     0.00000000
     0.00000000     0.00000000     0.00000000
     0.14554091    -0.02313409    -0.01362224
     0.13373589    -0.02565093     0.00796337
     0.10857010    -0.02054608     0.01020957
     0.08429152    -0.01478971     0.00798590
     0.06363670    -0.00946960     0.00579309
     0.04590503    -0.00477073     0.00443048
     0.03004609    -0.00066611     0.00365942
     0.01558009     0.00375100     0.00298277
     0.00000000     0.00000000     0.00000000
     0.20497268    -0.02949716    -0.02034167
     0.18863871    -0.04385664     0.00753775
     0.15489364    -0.03976141     0.01239537
     0.12105326    -0.03124645     0.01128419
     0.09089386    -0.02265219     0.00894877
     0.06405586    -0.01488952     0.00719068
     0.03957709    -0.00776254     0.00589352
     0.01709857    -0.00160515     0.00401329
     0.00000000     0.00000000     0.00000000
     0.19777777    -0.02342687    -0.02007989
     0.17465440    -0.05046668     0.00632682
     0.14177966    -0.04738554     0.01161020
     0.11105331    -0.03890069     0.01022482
     0.08370087    -0.03037848     0.00816049
     0.05900690    -0.02261734     0.00665114
     0.03599144    -0.01570246     0.00554938
     0.01470121    -0.00893324     0.00382194
     0.00000000     0.00000000     0.00000000
     0.12247430    -0.01523467    -0.01044465
     0.09560919    -0.03634217     0.00529470
     0.07782302    -0.03229022     0.00629549
     0.06237394    -0.02793540     0.00507070
     0.04862734    -0.02321824     0.00396527
     0.03563376    -0.01897379     0.00333606
     0.02305269    -0.01489907     0.00299636
     0.01047775    -0.01155910     0.00261660
     0.00000000     0.00000000     0.00000000
     0.00000000     0.00000000     0.00000000
     0.00000000     0.00000000     0.00000000
     0.00000000     0.00000000     0.00000000
     0.00000000     0.00000000     0.00000000
     0.00000000     0.00000000     0.00000000
     0.00000000     0.00000000     0.00000000
     0.00000000     0.00000000     0.00000000
     0.00000000     0.00000000     0.00000000
     0.00000000     0.00000000     0.00000000
     0.00000000     0.00000000     0.00000000
     0.00000000     0.00000000     0.00000000
     0.00000000     0.00000000     0.00000000
     0.00000000     0.00000000     0.00000000
     0.00000000     0.00000000     0.00000000
     0.00000000     0.00000000     0.00000000
     0.00000000     0.00000000     0.00000000
     0.00000000     0.00000000     0.00000000
     0.00000000     0.00000000     0.00000000
     0.10624042    -0.01909375    -0.01724720
     0.09165242    -0.01677426     0.01202447
     0.07723516    -0.01553664     0.01517445
     0.06351726    -0.01196978     0.01196266
     0.05027087    -0.00820008     0.00887050
     0.03766735    -0.00446460     0.00696175
     0.02555359    -0.00112705     0.00590505
     0.01391969     0.00268457     0.00498923
     0.00000000     0.00000000     0.00000000
     0.15580357    -0.02642263    -0.02899293
     0.13686357    -0.03208817     0.01210782
     0.11344446    -0.02927844     0.01925423
     0.09165584    -0.02410107     0.01733430
     0.07156181    -0.01826164     0.01388792
     0.05238402    -0.01252884     0.01141123
     0.03365314    -0.00689795     0.00963550
     0.01524915    -0.00176433     0.00682000
     0.00000000     0.00000000     0.00000000
     0.15325037    -0.02291533    -0.03002825
     0.12895043    -0.03846803     0.01048716
     0.10561606    -0.03528392     0.01813196
     0.08537777    -0.02975780     0.01581362
     0.06672371    -0.02405563     0.01273399
     0.04874249    -0.01853256     0.01060355
     0.03089147    -0.01330090     0.00910527
     0.01332338    -0.00775888     0.00651732
     0.00000000     0.00000000     0.00000000
     0.09417058    -0.01619793    -0.01498694
     0.06988722    -0.02739445     0.00831119
     0.05874168    -0.02415045     0.00956148
     0.04907943    -0.02151501     0.00775031
     0.03956843    -0.01844014     0.00616728
     0.02984395    -0.01548681     0.00529945
     0.02000019    -0.01240554     0.00486487
     0.00972270    -0.00984907     0.00439641
     0.00000000     0.00000000     0.00000000
     0.00000000     0.00000000     0.00000000
     0.00000000     0.00000000     0.00000000
     0.00000000     0.00000000     0.00000000
     0.00000000     0.00000000     0.00000000
     0.00000000     0.00000000     0.00000000
     0.00000000     0.00000000     0.00000000
     0.00000000     0.00000000     0.00000000
     0.00000000     0.00000000     0.00000000
     0.00000000     0.00000000     0.00000000
     0.00000000     0.00000000     0.00000000
     0.00000000     0.00000000     0.00000000
     0.00000000     0.00000000     0.00000000
     0.00000000     0.00000000     0.00000000
     0.00000000     0.00000000     0.00000000
     0.00000000     0.00000000     0.00000000
     0.00000000     0.00000000     0.00000000
     0.00000000     0.00000000     0.00000000
     0.00000000     0.00000000     0.00000000
     0.06228440    -0.01277368    -0.00979898
     0.04607154    -0.00772868     0.01091361
     0.04304754    -0.00971814     0.01325037
     0.03951518    -0.00855206     0.01074700
     0.03370515    -0.00631328     0.00831361
     0.02664260    -0.00381661     0.00678173
     0.01927155    -0.00144873     0.00598872
     0.01143082     0.00131769     0.00543750
     0.00000000     0.00000000     0.00000000
     0.09584537    -0.02114300    -0.02259472
     0.07468796    -0.01765108     0.01243658
     0.06379314    -0.01669474     0.01780845
     0.05587087    -0.01547657     0.01583656
     0.04710742    -0.01259700     0.01301524
     0.03684074    -0.00926919     0.01110218
     0.02548451    -0.00553695     0.00986916
     0.01252598    -0.00188189     0.00757458
     0.00000000     0.00000000     0.00000000
     0.09738383    -0.02128375    -0.02618941
     0.07271018    -0.02304354     0.01149927
     0.06109541    -0.02050274     0.01692793
     0.05331833    -0.01854270     0.01461230
     0.04471565    -0.01604638     0.01203907
     0.03476415    -0.01308980     0.01039104
     0.02368115    -0.01003051     0.00937755
     0.01120893    -0.00607241     0.00728094
     0.00000000     0.00000000     0.00000000
     0.05995660    -0.01587973    -0.01260076
     0.03987929    -0.01670466     0.00832975
     0.03605435    -0.01452711     0.00868981
     0.03247915    -0.01368939     0.00720385
     0.02750849    -0.01238577     0.00593050
     0.02162940    -0.01079054     0.00523640
     0.01544707    -0.00905868     0.00496895
     0.00844640    -0.00741742     0.00482077
     0.00000000     0.00000000     0.00000000
     0.00000000     0.00000000     0.00000000
     0.00000000     0.00000000     0.00000000
     0.00000000     0.00000000     0.00000000
     0.00000000     0.00000000     0.00000000
     0.00000000     0.00000000     0.00000000
     0.00000000     0.00000000     0.00000000
     0.00000000     0.00000000     0.00000000
     0.00000000     0.00000000     0.00000000
     0.00000000     0.00000000     0.00000000
     0.00000000     0.00000000     0.00000000
     0.00000000     0.00000000     0.00000000
     0.00000000     0.00000000     0.00000000
     0.00000000     0.00000000     0.00000000
     0.00000000     0.00000000     0.00000000
     0.00000000     0.00000000     0.00000000
     0.00000000     0.00000000     0.00000000
     0.00000000     0.00000000     0.00000000
     0.00000000     0.00000000     0.00000000
     0.02633731    -0.00621194     0.00106102
     0.01500671    -0.00236504     0.00567935
     0.01737382    -0.00497440     0.00705810
     0.01839440    -0.00462624     0.00591833
     0.01695028    -0.00360226     0.00488065
     0.01414035    -0.00236184     0.00419205
     0.01092936    -0.00141262     0.00375663
     0.00843306     0.00005660     0.00391268
     0.00000000     0.00000000     0.00000000
     0.03972193    -0.01591375    -0.00665298
     0.02292675    -0.00458487     0.00791021
     0.02293649    -0.00705179     0.00944263
     0.02423566    -0.00738508     0.00857368
     0.02293161    -0.00655988     0.00742328
     0.01951715    -0.00523629     0.00670616
     0.01510221    -0.00361039     0.00616963
     0.00946601    -0.00183705     0.00571324
     0.00000000     0.00000000     0.00000000
     0.04201274    -0.01821985    -0.01117673
     0.02345673    -0.00729535     0.00806973
     0.02289089    -0.00786331     0.00900151
     0.02381528    -0.00835583     0.00801150
     0.02219986    -0.00803840     0.00693617
     0.01872745    -0.00698478     0.00633153
     0.01431203    -0.00577118     0.00589286
     0.00879437    -0.00410012     0.00553772
     0.00000000     0.00000000     0.00000000
     0.02671569    -0.01340607    -0.00588433
     0.01485028    -0.00622833     0.00539790
     0.01609533    -0.00607441     0.00475092
     0.01581747    -0.00644619     0.00416155
     0.01415480    -0.00623227     0.00356477
     0.01165518    -0.00565200     0.00328351
     0.00904275    -0.00473810     0.00311940
     0.00674476    -0.00466599     0.00348793
     0.00000000     0.00000000     0.00000000
     0.00000000     0.00000000     0.00000000
     0.00000000     0.00000000     0.00000000
     0.00000000     0.00000000     0.00000000
     0.00000000     0.00000000     0.00000000
     0.00000000     0.00000000     0.00000000
     0.00000000     0.00000000     0.00000000
     0.00000000     0.00000000     0.00000000
     0.00000000     0.00000000     0.00000000
     0.00000000     0.00000000     0.00000000
     0.00000000     0.00000000     0.00000000
     0.00000000     0.00000000     0.00000000
     0.00000000     0.00000000     0.00000000
     0.00000000     0.00000000     0.00000000
     0.00000000     0.00000000     0.00000000
     0.00000000     0.00000000     0.00000000
     0.00000000     0.00000000     0.00000000
     0.00000000     0.00000000     0.00000000
     0.00000000     0.00000000     0.00000000
     0.00000000     0.00000000     0.00000000
     0.00000000     0.00000000     0.00000000
     0.00000000     0.00000000     0.00000000
     0.00000000     0.00000000     0.00000000
     0.00000000     0.00000000     0.00000000
     0.00000000     0.00000000     0.00000000
     0.00000000     0.00000000     0.00000000
     0.00000000     0.00000000     0.00000000
     0.00000000     0.00000000     0.00000000
     0.00000000     0.00000000     0.00000000
     0.00000000     0.00000000     0.00000000
     0.00000000     0.00000000     0.00000000
     0.00000000     0.00000000     0.00000000
     0.00000000     0.00000000     0.00000000
     0.00000000     0.00000000     0.00000000
     0.00000000     0.00000000     0.00000000
     0.00000000     0.00000000     0.00000000
     0.00000000     0.00000000     0.00000000
     0.00000000     0.00000000     0.00000000
     0.00000000     0.00000000     0.00000000
     0.00000000     0.00000000     0.00000000
     0.00000000     0.00000000     0.00000000
     0.00000000     0.00000000     0.00000000
     0.00000000     0.00000000     0.00000000
     0.00000000     0.00000000     0.00000000
     0.00000000     0.00000000     0.00000000
     0.00000000     0.00000000     0.00000000
     0.00000000     0.00000000     0.00000000
     0.00000000     0.00000000     0.00000000
     0.00000000     0.00000000     0.00000000
     0.00000000     0.00000000     0.00000000
     0.00000000     0.00000000     0.00000000
     0.00000000     0.00000000     0.00000000
     0.00000000     0.00000000     0.00000000
     0.00000000     0.00000000     0.00000000
     0.00000000     0.00000000     0.00000000
     0.00000000     0.00000000     0.00000000
     0.00000000     0.00000000     0.00000000
     0.00000000     0.00000000     0.00000000
     0.00000000     0.00000000     0.00000000
     0.00000000     0.00000000     0.00000000
     0.00000000     0.00000000     0.00000000
     0.00000000     0.00000000     0.00000000
     0.00000000     0.00000000     0.00000000
     0.00000000     0.00000000     0.00000000
     4.57516334    -0.38032373     0.00000000
     4.14308275    -0.52398584     0.00000000
     3.57687601    -0.59766894     0.00000000
     3.00720842    -0.63485538     0.00000000
     2.43622360    -0.64263469     0.00000000
     1.86610344    -0.61767776     0.00000000
     1.29251546    -0.56079434     0.00000000
     0.72631108    -0.43536480     0.00000000
     0.33093189    -0.34515660     0.00000000
     0.00000000     0.00000000     0.00000000
     4.57552808    -0.37641860     0.14319406
     4.14386506    -0.51785089     0.21947345
     3.57780271    -0.59107717     0.26593508
     3.00858520    -0.62753233     0.29555918
     2.43828631    -0.63481992     0.31193664
     1.86883188    -0.60994978     0.31823513
     1.29644951    -0.55353093     0.31644896
     0.73168720    -0.42974823     0.30623829
     0.33538090    -0.33883455     0.28549943
     0.00000000     0.00000000     0.20760308
     4.57610500    -0.36548337     0.28185014
     4.14527181    -0.50105096     0.43164827
     3.58026084    -0.57186759     0.52579798
     3.01267544    -0.60592571     0.58259649
     2.44433408    -0.61168976     0.61456946
     1.87707374    -0.58706985     0.62633487
     1.30847205    -0.53156416     0.62142667
     0.74927159    -0.41277290     0.60039281
     0.35400547    -0.32241661     0.55354744
     0.00000000     0.00000000     0.39195772
     4.57643271    -0.34793764     0.41462647
     4.14698155    -0.47434834     0.63395753
     3.58411818    -0.54048775     0.77179957
     3.01911001    -0.57091795     0.85369971
     2.45390011    -0.57438787     0.89902575
     1.89064638    -0.54982186     0.91439572
     1.32913001    -0.49543295     0.90512708
     0.78003761    -0.38559285     0.86617292
     0.38400770    -0.29676072     0.78302860
     0.00000000     0.00000000     0.54268701
     4.57715918    -0.32379613     0.53743142
     4.14873908    -0.43808329     0.82092881
     3.58871459    -0.49793412     0.99749696
     3.02742726    -0.52378317     1.10184027
     2.46590826    -0.52440503     1.15809476
     1.90831980    -0.50031519     1.17369320
     1.35450935    -0.44755451     1.15730678
     0.81333184    -0.34928070     1.09156473
     0.41503207    -0.26266472     0.96530348
     0.00000000     0.00000000     0.65104607
     4.57775867    -0.29464140     0.64649497
     4.14988277    -0.39498152     0.98644543
     3.59381965    -0.44512421     1.19789651
     3.03602831    -0.46636044     1.32140122
     2.47959345    -0.46400749     1.38556552
     1.92666104    -0.44085651     1.40001138
     1.38004195    -0.39158517     1.37021339
     0.84210298    -0.30477249     1.27445971
     0.44087348    -0.22673478     1.09852268
     0.00000000     0.00000000     0.71584045
     4.57629572    -0.26183580     0.74031944
     4.15159594    -0.34379043     1.12779804
     3.59785215    -0.38440957     1.36839966
     3.04448473    -0.40012870     1.50770156
     2.49172577    -0.39595900     1.57832685
     1.94447750    -0.37390849     1.59007059
     1.40359122    -0.32906719     1.53997492
     0.87171820    -0.25686642     1.41574111
     0.46081779    -0.18415947     1.19246570
     0.00000000     0.00000000     0.74910781
     4.57428848    -0.22316221     0.81738222
     4.15140322    -0.28670256     1.24250796
     3.60084257    -0.31646296     1.50557456
     3.04988062    -0.32776462     1.65750856
     2.50203432    -0.32167858     1.73316387
     1.95711910    -0.30223336     1.74108775
     1.42426470    -0.26302982     1.66850378
     0.89388924    -0.20544408     1.52236880
     0.47284322    -0.14462789     1.25058048
     0.00000000     0.00000000     0.73111592
     4.57240588    -0.18248309     0.87265670
     4.14993321    -0.22396927     1.32717893
     3.60062780    -0.24441662     1.60683813
     3.05256939    -0.24949727     1.76816938
     2.50612404    -0.24411017     1.84757964
     1.96562033    -0.22667178     1.85090995
     1.43360292    -0.19682858     1.76550636
     0.90775124    -0.15290929     1.59710620
     0.46823728    -0.10920642     1.28695219
     0.00000000     0.00000000     0.68235918
     4.57028260    -0.13817165     0.90663004
     4.14656843    -0.15994688     1.37902078
     3.59760504    -0.16760495     1.67032509
     3.04964355    -0.16922875     1.83814148
     2.50524772    -0.16221607     1.91886524
     1.96409821    -0.15116738     1.92047396
     1.43652118    -0.12805345     1.82572244
     0.89605016    -0.10117450     1.65422398
     0.44448001    -0.07709976     1.29636945
     0.00000000     0.00000000     0.62326737
     4.56719745    -0.09476789     0.91824076
     4.14139537    -0.09248699     1.39803863
     3.59065918    -0.09055934     1.69454275
     3.04173814    -0.08545733     1.86543096
     2.49653612    -0.08092479     1.94708051
     1.95529341    -0.07189703     1.94772239
     1.42510988    -0.06279780     1.84999576
     0.89014125    -0.04417003     1.67545156
     0.39086005    -0.04691677     1.28822168
     0.00000000     0.00000000     0.53426997
     4.56333522    -0.04949418     0.90756726
     4.13427457    -0.02694862     1.38349146
     3.57989035    -0.01163537     1.67903584
     3.02853110    -0.00311979     1.84923289
     2.48029320     0.00293218     1.93150072
     1.93777447     0.00426443     1.93315697
     1.40457588     0.00717747     1.83550552
     0.86663795     0.00352925     1.66103273
     0.42997308    -0.00537821     1.30859149
     0.00000000     0.00000000     0.72320498
     4.55918928    -0.00708256     0.87476234
     4.12520956     0.03875395     1.33549671
     3.56634908     0.06445468     1.62363626
     3.00940520     0.07961075     1.79007301
     2.45843366     0.08377110     1.87137303
     1.90935044     0.08272768     1.87736349
     1.37413501     0.07177446     1.78164493
     0.83040858     0.05803768     1.61624221
     0.43876091     0.02248634     1.29352190
     0.00000000     0.00000000     0.78112930
     4.55485738     0.03441798     0.81975174
     4.11571483     0.10001240     1.25480208
     3.54950644     0.13859043     1.52953660
     2.98741742     0.15839387     1.68807017
     2.42819020     0.16363622     1.76811090
     1.87498650     0.15781716     1.77761027
     1.32969011     0.13743284     1.70004363
     0.78525179     0.11016125     1.54589222
     0.41970143     0.05324087     1.26742776
     0.00000000     0.00000000     0.83020108
     4.55155110     0.07141361     0.74397497
     4.10494082     0.15683814     1.14353561
     3.53195125     0.20714747     1.39809826
     2.96132833     0.23279721     1.54591954
     2.39587866     0.23876161     1.62190003
     1.83478052     0.22990521     1.64235218
     1.28548784     0.20100699     1.58493509
     0.73630165     0.15861671     1.45692395
     0.39629045     0.09173143     1.23008151
     0.00000000     0.00000000     0.87193974
     4.54788629     0.10349233     0.64885177
     4.09587246     0.20569909     1.00395480
     3.51589128     0.26631647     1.23208442
     2.93879467     0.29713946     1.36294970
     2.36551988     0.30500792     1.43296919
     1.79708613     0.29318265     1.45223538
     1.23682539     0.25703463     1.41837940
     0.68420932     0.19756035     1.30787190
     0.35216022     0.12814003     1.12977943
     0.00000000     0.00000000     0.83018763
     4.54366363     0.13105299     0.53997345
     4.09129614     0.25008198     0.83413476
     3.50595351     0.32291342     1.02283780
     2.92460064     0.35768570     1.13361019
     2.34618231     0.36792523     1.19440917
     1.77288888     0.35366903     1.21129218
     1.20563279     0.31424190     1.18936557
     0.64989241     0.23507214     1.11000104
     0.33170337     0.15495476     0.99504719
     0.00000000     0.00000000     0.73684437
     4.53939210     0.15548062     0.41641430
     4.08547716     0.28806872     0.64388093
     3.49683210     0.36802145     0.79206173
     2.91149926     0.40780634     0.87892658
     2.32843921     0.42102372     0.92787076
     1.74854385     0.40796142     0.94452854
     1.17306127     0.36678451     0.92972479
     0.60937217     0.27467303     0.88888442
     0.29885070     0.20263609     0.81138292
     0.00000000     0.00000000     0.59951401
     4.53677462     0.17285989     0.28309726
     4.08074122     0.31548189     0.43893631
     3.48980679     0.40123529     0.53998228
     2.90146098     0.44473399     0.60011714
     2.31471155     0.46037427     0.63441818
     1.72910848     0.44908547     0.64742136
     1.14403036     0.40664379     0.63967234
     0.56970905     0.30745503     0.61981725
     0.27057624     0.23921594     0.57310529
     0.00000000     0.00000000     0.42362434
     4.53477267     0.18359507     0.14386705
     4.07789700     0.33232064     0.22330434
     3.48528169     0.42162728     0.27351621
     2.89511894     0.46761866     0.30438721
     2.30603533     0.48501997     0.32223523
     1.71748375     0.47461962     0.32897094
     1.12753403     0.43209664     0.32585143
     0.54724505     0.33037079     0.31744560
     0.25809682     0.26553950     0.29497535
     0.00000000     0.00000000     0.22010101
     4.53384853     0.18750189     0.00000000
     4.07700820     0.33807600     0.00000000
     3.48367508     0.42847263     0.00000000
     2.89303208     0.47532457     0.00000000
     2.30296280     0.49348622     0.00000000
     1.71385947     0.48312103     0.00000000
     1.12182369     0.44072515     0.00000000
     0.54181143     0.33912291     0.00000000
     0.25640422     0.27578121     0.00000000
     0.00000000     0.00000000     0.00000000
     4.67443990    -0.23534328     0.00000000
     4.68481685    -0.20734032     0.00000000
     4.69220708    -0.17989741     0.00000000
     4.69701568    -0.15185047     0.00000000
     4.69898174    -0.12386930     0.00000000
     4.69821146    -0.09583397     0.00000000
     4.69509286    -0.06782987     0.00000000
     4.68959100    -0.03998689     0.00000000
     4.68178078    -0.01200377     0.00000000
     4.67173331     0.01534333     0.00000000
     4.65844868     0.04333202     0.00000000
     4.67456529    -0.23366153     0.06869033
     4.68406104    -0.20684838     0.07558928
     4.69114832    -0.17959976     0.08096539
     4.69558815    -0.15193567     0.08483587
     4.69756206    -0.12376450     0.08659976
     4.69686302    -0.09575779     0.08642394
     4.69370425    -0.06784352     0.08615972
     4.68818686    -0.03978061     0.08387702
     4.68076978    -0.01221852     0.07958875
     4.67101413     0.01498839     0.07420861
     4.65869724     0.04177394     0.06779137
     4.67459775    -0.22869492     0.13793790
     4.68241437    -0.20356811     0.15387872
     4.68823526    -0.17737107     0.16610179
     4.69201991    -0.15017758     0.17457622
     4.69339740    -0.12302084     0.17921043
     4.69279961    -0.09559401     0.17858711
     4.68967107    -0.06819981     0.17869224
     4.68486235    -0.04117687     0.17346915
     4.67814981    -0.01402876     0.16451515
     4.66971328     0.01211086     0.15225025
     4.65919082     0.03713959     0.13664851
     4.67447054    -0.22031751     0.20427832
     4.68006791    -0.19722921     0.22935663
     4.68416664    -0.17247154     0.24937439
     4.68612409    -0.14737253     0.26412080
     4.68688412    -0.12165811     0.27133863
     4.68600135    -0.09536900     0.27185852
     4.68333525    -0.06907057     0.27073022
     4.67925790    -0.04336498     0.26290386
     4.67452279    -0.01824894     0.24755153
     4.66799681     0.00650827     0.22737123
     4.65990737     0.02932047     0.20278170
     4.67445973    -0.20837515     0.26537550
     4.67717302    -0.18778735     0.30098098
     4.67808688    -0.16629198     0.33036454
     4.67830169    -0.14361900     0.35104254
     4.67781229    -0.11970233     0.36265406
     4.67672447    -0.09515105     0.36496767
     4.67448169    -0.07068523     0.36205233
     4.67184332    -0.04667289     0.34981310
     4.66888878    -0.02386969     0.32852435
     4.66578342    -0.00223605     0.29873694
     4.66101381     0.01818114     0.26340606
     4.67422510    -0.19341492     0.32019063
     4.67265556    -0.17703797     0.36810227
     4.67063220    -0.15874907     0.40687695
     4.66855055    -0.13878055     0.43500382
     4.66659817    -0.11701789     0.45244895
     4.66492258    -0.09526097     0.45809877
     4.66358254    -0.07274485     0.45188736
     4.66274815    -0.05155177     0.43427786
     4.66221423    -0.03124397     0.40542694
     4.66209183    -0.01282521     0.36619520
     4.66204047     0.00360347     0.31806762
