# vtk DataFile Version 3.0
Example VTK
ASCII
DATASET UNSTRUCTURED_GRID
POINTS  1589 float
 -0.715878274797E+01 -0.456290629204E+01  0.157359036610E-26
 -0.580970680793E+01 -0.614944378339E+01  0.457817759448E-26
 -0.446919744063E+01 -0.712612054098E+01  0.533034138841E-26
 -0.313448872374E+01 -0.772582700836E+01  0.576263534126E-26
 -0.180161850802E+01 -0.803074242024E+01  0.595888121846E-26
 -0.476234139546E+00 -0.804342212138E+01  0.587808151569E-26
  0.844473258801E+00 -0.777253763234E+01  0.461240067367E-26
  0.164966658974E+01 -0.713276814508E+01  0.292369021761E-26
  0.255688000000E+01 -0.652469000000E+01  0.158550008955E-26
 -0.718195992253E+01 -0.366061694025E+01  0.625091293361E-02
 -0.588319757401E+01 -0.493672478115E+01  0.000000000000E+00
 -0.458336196231E+01 -0.571850113767E+01  0.000000000000E+00
 -0.328569675806E+01 -0.619719055432E+01  0.000000000000E+00
 -0.199362163570E+01 -0.643372094433E+01  0.000000000000E+00
 -0.700004600969E+00 -0.643204725853E+01  0.000000000000E+00
  0.617210233898E+00 -0.619008741685E+01  0.000000000000E+00
  0.158066883232E+01 -0.576211311482E+01  0.000000000000E+00
  0.274721394664E+01 -0.540878242621E+01  0.000000000000E+00
 -0.719678199875E+01 -0.275717419966E+01  0.738239034542E-02
 -0.593239702086E+01 -0.372097952232E+01  0.000000000000E+00
 -0.466886978843E+01 -0.430712439789E+01  0.000000000000E+00
 -0.339989494457E+01 -0.466254994427E+01  0.000000000000E+00
 -0.212262098409E+01 -0.483262186295E+01  0.000000000000E+00
 -0.820348314603E+00 -0.481956328673E+01  0.000000000000E+00
  0.548584335410E+00 -0.461737547881E+01  0.000000000000E+00
  0.163222246164E+01 -0.444201508682E+01  0.000000000000E+00
  0.290492246630E+01 -0.433721799370E+01  0.000000000000E+00
 -0.720622680254E+01 -0.185310616652E+01  0.763284232292E-02
 -0.596655852650E+01 -0.250008175438E+01  0.000000000000E+00
 -0.472812802211E+01 -0.289141727832E+01  0.000000000000E+00
 -0.347637787944E+01 -0.312654102374E+01  0.000000000000E+00
 -0.220223580884E+01 -0.323592762935E+01  0.000000000000E+00
 -0.883084971492E+00 -0.322055922510E+01  0.000000000000E+00
  0.524755534784E+00 -0.307799845436E+01  0.000000000000E+00
  0.169992058371E+01 -0.315004953277E+01  0.000000000000E+00
  0.306249148014E+01 -0.327037491111E+01  0.000000000000E+00
 -0.721273110052E+01 -0.948169186588E+00  0.740953805000E-02
 -0.598880938684E+01 -0.127507421571E+01  0.000000000000E+00
 -0.476649906190E+01 -0.147223028572E+01  0.000000000000E+00
 -0.352473991982E+01 -0.159045432797E+01  0.000000000000E+00
 -0.225039922990E+01 -0.164481931845E+01  0.000000000000E+00
 -0.918425469010E+00 -0.163585072470E+01  0.000000000000E+00
  0.515599898103E+00 -0.156226202515E+01  0.000000000000E+00
  0.176708270668E+01 -0.187230943177E+01  0.000000000000E+00
  0.320307919211E+01 -0.219868309610E+01  0.000000000000E+00
 -0.721909011449E+01 -0.428541171074E-01  0.732869185259E-02
 -0.600346750085E+01 -0.470170609315E-01  0.000000000000E+00
 -0.479011216425E+01 -0.504188243947E-01  0.000000000000E+00
 -0.355460144276E+01 -0.537954856587E-01  0.000000000000E+00
 -0.228161544870E+01 -0.567757045639E-01  0.000000000000E+00
 -0.943904365129E+00 -0.586640229594E-01  0.000000000000E+00
  0.505167434571E+00 -0.625542103866E-01  0.000000000000E+00
  0.184180434151E+01 -0.597756555416E+00  0.000000000000E+00
  0.333333000000E+01 -0.112691000000E+01  0.530101081483E-26
 -0.722660597486E+01  0.862589303507E+00  0.738780020984E-02
 -0.601271805812E+01  0.118212677709E+01  0.000000000000E+00
 -0.480123808860E+01  0.137296358834E+01  0.000000000000E+00
 -0.356900920685E+01  0.148467418633E+01  0.000000000000E+00
 -0.230069661674E+01  0.153309988577E+01  0.000000000000E+00
 -0.967148438151E+00  0.151943311886E+01  0.000000000000E+00
  0.483070866489E+00  0.143711312861E+01  0.000000000000E+00
  0.172513787988E+01  0.899320464850E+00  0.000000000000E+00
  0.311906006065E+01  0.388955898851E+00  0.000000000000E+00
 -0.723438109231E+01  0.176773787506E+01  0.765812047667E-02
 -0.601362934425E+01  0.241014340093E+01  0.000000000000E+00
 -0.479465669372E+01  0.279641220614E+01  0.000000000000E+00
 -0.355974745385E+01  0.302573499227E+01  0.000000000000E+00
 -0.229583753513E+01  0.312870644621E+01  0.000000000000E+00
 -0.973010817542E+00  0.310630904258E+01  0.000000000000E+00
  0.466244436736E+00  0.294714799551E+01  0.000000000000E+00
  0.160155153067E+01  0.239542793242E+01  0.000000000000E+00
  0.289016546420E+01  0.191205657426E+01  0.000000000000E+00
 -0.724000523278E+01  0.267233058345E+01  0.751025127518E-02
 -0.600196172198E+01  0.363506612701E+01  0.000000000000E+00
 -0.476389045745E+01  0.421811586019E+01  0.000000000000E+00
 -0.351753247814E+01  0.456893562446E+01  0.000000000000E+00
 -0.225669304987E+01  0.473232267979E+01  0.000000000000E+00
 -0.955378352099E+00  0.470833682173E+01  0.000000000000E+00
  0.446343957411E+00  0.448028174846E+01  0.000000000000E+00
  0.145506405985E+01  0.390136229948E+01  0.000000000000E+00
  0.262144829336E+01  0.342439218109E+01  0.000000000000E+00
 -0.724116150383E+01  0.357651920955E+01  0.667224595001E-02
 -0.597432851505E+01  0.485490137056E+01  0.000000000000E+00
 -0.470205037884E+01  0.563627355602E+01  0.000000000000E+00
 -0.342952773390E+01  0.611251423360E+01  0.000000000000E+00
 -0.216016799144E+01  0.634358516499E+01  0.000000000000E+00
 -0.883384594124E+00  0.632999157008E+01  0.000000000000E+00
  0.444980345950E+00  0.605355485324E+01  0.000000000000E+00
  0.129056540969E+01  0.543342282082E+01  0.000000000000E+00
  0.230592069037E+01  0.494788432489E+01  0.000000000000E+00
 -0.723527969981E+01  0.447972291433E+01  0.157265659430E-26
 -0.592126784233E+01  0.607053250443E+01  0.459451095203E-26
 -0.460562370078E+01  0.704998418906E+01  0.535249932391E-26
 -0.329246643823E+01  0.765074489001E+01  0.578177993692E-26
 -0.198128113896E+01  0.795266183749E+01  0.595735852877E-26
 -0.677530324051E+00  0.795667925565E+01  0.581480507026E-26
  0.611514510166E+00  0.765759175370E+01  0.415703536484E-26
  0.121188640535E+01  0.702868551241E+01  0.244016974261E-26
  0.195297000000E+01  0.652469000000E+01  0.142236361409E-26
 -0.715870348800E+01 -0.450731138940E+01  0.830498965272E+00
 -0.580928647619E+01 -0.607426191784E+01  0.111843932495E+01
 -0.446808162632E+01 -0.703869161280E+01  0.129654197598E+01
 -0.313241697283E+01 -0.763079276830E+01  0.140664983742E+01
 -0.179845984965E+01 -0.793160894573E+01  0.146383286762E+01
 -0.471177354092E+00 -0.794416530630E+01  0.147377195156E+01
  0.851467212932E+00 -0.767668013348E+01  0.143960041244E+01
  0.166291381049E+01 -0.705499261821E+01  0.126601039955E+01
  0.256440000000E+01 -0.647239000000E+01  0.677093000000E+00
 -0.718069607590E+01 -0.363585467466E+01  0.924183589614E+00
 -0.587974132172E+01 -0.490249862492E+01  0.124525160473E+01
 -0.457514858892E+01 -0.567891172147E+01  0.144302633120E+01
 -0.327336843785E+01 -0.615437544129E+01  0.156650344754E+01
 -0.197692908700E+01 -0.638935838965E+01  0.163089123875E+01
 -0.679222212233E+00 -0.638816945846E+01  0.164089680771E+01
  0.640149882340E+00 -0.615151555214E+01  0.158180128824E+01
  0.159663236201E+01 -0.573507710774E+01  0.137138357464E+01
  0.274780454585E+01 -0.539552656986E+01  0.754185672145E+00
 -0.719564892574E+01 -0.275059235776E+01  0.997650406566E+00
 -0.592744779414E+01 -0.371094511600E+01  0.134343881290E+01
 -0.465734217454E+01 -0.429571537395E+01  0.155701417638E+01
 -0.338242899583E+01 -0.465053149155E+01  0.168880331335E+01
 -0.210039804625E+01 -0.482069715889E+01  0.175571521811E+01
 -0.795731271424E+00 -0.480906977180E+01  0.175902048799E+01
  0.570435429289E+00 -0.461075091127E+01  0.168945402175E+01
  0.164403116115E+01 -0.443932778356E+01  0.146682194042E+01
  0.290032855736E+01 -0.433918450709E+01  0.816243848646E+00
 -0.720544639354E+01 -0.185442930916E+01  0.104711125732E+01
 -0.596125067954E+01 -0.250101299559E+01  0.141014000317E+01
 -0.471544807558E+01 -0.289267608545E+01  0.163351309101E+01
 -0.345736603196E+01 -0.312830397108E+01  0.177062352144E+01
 -0.217873920487E+01 -0.323830274650E+01  0.183820719079E+01
 -0.858233272312E+00 -0.322422307085E+01  0.183873678500E+01
  0.545385153370E+00 -0.308304740450E+01  0.176592896016E+01
  0.170883671141E+01 -0.315543848939E+01  0.152951494004E+01
  0.305541075046E+01 -0.327390770837E+01  0.845113363525E+00
 -0.721241502765E+01 -0.950568319684E+00  0.107116275454E+01
 -0.598373002087E+01 -0.127779764985E+01  0.144281169478E+01
 -0.475388399933E+01 -0.147552564375E+01  0.167070463182E+01
 -0.350578037972E+01 -0.159430533416E+01  0.180997341329E+01
 -0.222723081231E+01 -0.164921848615E+01  0.187751587886E+01
 -0.894028411129E+00 -0.164080878766E+01  0.187653947329E+01
  0.536074855311E+00 -0.156692971416E+01  0.180199198623E+01
  0.177614582234E+01 -0.187654807966E+01  0.155874615727E+01
  0.319622076899E+01 -0.219829893790E+01  0.843330340712E+00
 -0.721899178822E+01 -0.428323288178E-01  0.106873064157E+01
 -0.599868888117E+01 -0.468915990210E-01  0.143987289755E+01
 -0.477789273073E+01 -0.502847888833E-01  0.166699228894E+01
 -0.353631793820E+01 -0.537837485357E-01  0.180532553321E+01
 -0.225965985552E+01 -0.569089197874E-01  0.187131024361E+01
 -0.921463183397E+00 -0.586340529793E-01  0.186786872783E+01
  0.523279406922E+00 -0.613463370426E-01  0.179137369498E+01
  0.185212653161E+01 -0.598459221506E+00  0.153152575291E+01
  0.333333000000E+01 -0.112691000000E+01  0.833333000000E+00
 -0.722639250357E+01  0.865001160359E+00  0.107139158639E+01
 -0.600766484606E+01  0.118511029792E+01  0.144390079371E+01
 -0.478864521044E+01  0.137654920173E+01  0.167177842999E+01
 -0.355047665180E+01  0.148864418239E+01  0.181022766783E+01
 -0.227915278141E+01  0.153742717051E+01  0.187539833105E+01
 -0.946781364020E+00  0.152474006573E+01  0.186928943248E+01
  0.495580532671E+00  0.144495091824E+01  0.178539025970E+01
  0.172635191329E+01  0.905549079354E+00  0.155248647687E+01
  0.311434954435E+01  0.374104921890E+00  0.939403298520E+00
 -0.723376410677E+01  0.176908139554E+01  0.104755790500E+01
 -0.600832680531E+01  0.241127143383E+01  0.141213951302E+01
 -0.478184902336E+01  0.279799213932E+01  0.163561978317E+01
 -0.354109184839E+01  0.302779889074E+01  0.177134086296E+01
 -0.227450733716E+01  0.313148289736E+01  0.183494695030E+01
 -0.953787415767E+00  0.311108692276E+01  0.182718298060E+01
  0.475924922955E+00  0.295631471654E+01  0.173865616144E+01
  0.159856640229E+01  0.240582467737E+01  0.152640143199E+01
  0.288217194911E+01  0.190217320141E+01  0.997829253908E+00
 -0.723897486460E+01  0.266575181706E+01  0.998373219278E+00
 -0.599688435300E+01  0.362508820020E+01  0.134600892908E+01
 -0.475182184309E+01  0.420692574849E+01  0.155997161996E+01
 -0.349967926362E+01  0.455733906203E+01  0.169060443905E+01
 -0.223557991385E+01  0.472113019263E+01  0.175338099811E+01
 -0.935332276910E+00  0.469982428093E+01  0.174694771507E+01
  0.457391148657E+00  0.447869425451E+01  0.165902054505E+01
  0.145410693600E+01  0.390543336146E+01  0.146121658955E+01
  0.261322080613E+01  0.342134022696E+01  0.989063386467E+00
 -0.723966361691E+01  0.355172356628E+01  0.925103525095E+00
 -0.597035856608E+01  0.482057164341E+01  0.124800442623E+01
 -0.469282252532E+01  0.559661715049E+01  0.144634696607E+01
 -0.341592232762E+01  0.606992884417E+01  0.156945320965E+01
 -0.214251147116E+01  0.629983144469E+01  0.163193374235E+01
 -0.863017657188E+00  0.628777392251E+01  0.163544180520E+01
  0.463253283501E+00  0.602085088630E+01  0.155585743178E+01
  0.129791747458E+01  0.541221112591E+01  0.135896702707E+01
  0.230353090283E+01  0.493437251847E+01  0.913539727059E+00
 -0.723428626360E+01  0.442405671950E+01  0.831656193749E+00
 -0.591961324061E+01  0.599515377834E+01  0.112074158257E+01
 -0.460306167536E+01  0.696231730404E+01  0.129965480149E+01
 -0.328902468851E+01  0.755545853226E+01  0.140980259072E+01
 -0.197666456366E+01  0.785332881087E+01  0.146626633955E+01
 -0.671601675061E+00  0.785803273810E+01  0.147603055572E+01
  0.619929300592E+00  0.756329098123E+01  0.143385070538E+01
  0.122976624240E+01  0.694958696142E+01  0.125562848699E+01
  0.196387000000E+01  0.646426000000E+01  0.786055000000E+00
 -0.715870074538E+01 -0.434182382067E+01  0.163976299596E+01
 -0.580805890512E+01 -0.585048073250E+01  0.220916068668E+01
 -0.446488021014E+01 -0.677860892940E+01  0.256021929616E+01
 -0.312639662735E+01 -0.734815108427E+01  0.277767334782E+01
 -0.178906234698E+01 -0.763685276579E+01  0.289033171563E+01
 -0.457362713750E+00 -0.764915710102E+01  0.290878617359E+01
  0.877308340610E+00 -0.739164957266E+01  0.283793125482E+01
  0.170995915116E+01 -0.682251776598E+01  0.249114968289E+01
  0.258678000000E+01 -0.631679000000E+01  0.133751000000E+01
 -0.717806326736E+01 -0.352307311015E+01  0.183025097193E+01
 -0.586993203125E+01 -0.474835127632E+01  0.246647915484E+01
 -0.455528430357E+01 -0.550051297469E+01  0.285891428374E+01
 -0.324324494402E+01 -0.596031270433E+01  0.310287367524E+01
 -0.193470345453E+01 -0.618799488947E+01  0.322978453964E+01
 -0.624381407971E+00 -0.618789742191E+01  0.324920627646E+01
  0.702888484159E+00 -0.596747808735E+01  0.313290881237E+01
  0.164445062297E+01 -0.559249694973E+01  0.272780952298E+01
  0.275836190710E+01 -0.530238062639E+01  0.150313822802E+01
 -0.719249483007E+01 -0.267779284332E+01  0.197871091524E+01
 -0.591271145010E+01 -0.361007175043E+01  0.266754011758E+01
 -0.462671330402E+01 -0.417926918716E+01  0.309197328055E+01
 -0.333629683271E+01 -0.452474218722E+01  0.335369706189E+01
 -0.204000216582E+01 -0.469162259863E+01  0.348697265568E+01
 -0.726501461882E+00 -0.468388509515E+01  0.349555989220E+01
  0.636364606870E+00 -0.449817358688E+01  0.335950127576E+01
  0.168817160939E+01 -0.435247516770E+01  0.292897706192E+01
  0.290191931882E+01 -0.428238771837E+01  0.163252100705E+01
 -0.720286606540E+01 -0.181152614981E+01  0.208070150562E+01
 -0.594416421373E+01 -0.244073984118E+01  0.280562144973E+01
 -0.467918707998E+01 -0.282337838229E+01  0.325069864483E+01
 -0.340353659125E+01 -0.305403476345E+01  0.352406038548E+01
 -0.211110787428E+01 -0.316330739235E+01  0.365969370599E+01
 -0.784777590544E+00 -0.315290223095E+01  0.366281548582E+01
  0.611840464920E+00 -0.301875645534E+01  0.352134569501E+01
  0.174788264111E+01 -0.310537969473E+01  0.306304568416E+01
  0.304923675026E+01 -0.323823717583E+01  0.169477007415E+01
 -0.721074939317E+01 -0.930875019531E+00  0.213244227665E+01
 -0.596620766349E+01 -0.124953810548E+01  0.287591377717E+01
 -0.471568048913E+01 -0.144311568339E+01  0.333106833125E+01
 -0.344952030480E+01 -0.155998308424E+01  0.360957765416E+01
 -0.215777251033E+01 -0.161522168771E+01  0.374564192120E+01
 -0.820121948027E+00 -0.160895334975E+01  0.374543086175E+01
  0.602651947011E+00 -0.153690865254E+01  0.360058941097E+01
  0.181473209613E+01 -0.185310602561E+01  0.312776087803E+01
  0.318790499773E+01 -0.217832553188E+01  0.169373426734E+01
 -0.721772355158E+01 -0.428397769479E-01  0.213152931358E+01
 -0.598143232354E+01 -0.464026392264E-01  0.287544268213E+01
 -0.473964194813E+01 -0.496797739231E-01  0.332998029056E+01
 -0.348033182163E+01 -0.533829103880E-01  0.360743617998E+01
 -0.219203647759E+01 -0.571754307201E-01  0.374100960777E+01
 -0.852234325485E+00 -0.586125024579E-01  0.373623464130E+01
  0.581410976451E+00 -0.587751196139E-01  0.358720880590E+01
  0.188558408412E+01 -0.600357678348E+00  0.307570843592E+01
  0.333333000000E+01 -0.112691000000E+01  0.166667000000E+01
 -0.722465518534E+01  0.845289709986E+00  0.213284900837E+01
 -0.598954597873E+01  0.115769099153E+01  0.287799009254E+01
 -0.474927962226E+01  0.134535438161E+01  0.333320236621E+01
 -0.349359568712E+01  0.145524748809E+01  0.361057528393E+01
 -0.221209309711E+01  0.150351576129E+01  0.374286359777E+01
 -0.882042611100E+00  0.149391268300E+01  0.373427915411E+01
  0.541330355941E+00  0.142218318727E+01  0.357315494802E+01
  0.174228998367E+01  0.883062621441E+00  0.312202414793E+01
  0.310383698642E+01  0.341408042799E+00  0.188083763229E+01
 -0.723093257653E+01  0.172614864537E+01  0.208155136820E+01
 -0.599005860274E+01  0.235150433802E+01  0.280935594809E+01
 -0.474320046198E+01  0.272966566432E+01  0.325488476946E+01
 -0.348554342112E+01  0.295475773711E+01  0.352617586415E+01
 -0.220939195954E+01  0.305778475840E+01  0.365542313742E+01
 -0.893002089457E+00  0.304334460370E+01  0.364424189503E+01
  0.514044521808E+00  0.290256436020E+01  0.347478874681E+01
  0.160484499323E+01  0.236055275468E+01  0.306672246257E+01
  0.286719164481E+01  0.185172518713E+01  0.199584367641E+01
 -0.723513000719E+01  0.259288721824E+01  0.198000950657E+01
 -0.598030873300E+01  0.352418622258E+01  0.267238167461E+01
 -0.471775027598E+01  0.409101479043E+01  0.309764247667E+01
 -0.344974548611E+01  0.443263348337E+01  0.335778662268E+01
 -0.217463019715E+01  0.459433791900E+01  0.348433164841E+01
 -0.875215120591E+00  0.458029744439E+01  0.347597454362E+01
  0.497628119805E+00  0.437921669989E+01  0.330672159915E+01
  0.146671082490E+01  0.382436511667E+01  0.292757685108E+01
  0.260408509099E+01  0.335280774145E+01  0.197434278825E+01
 -0.723557338813E+01  0.343880617660E+01  0.183199818017E+01
 -0.595802588311E+01  0.466586227940E+01  0.247154432537E+01
 -0.466892281676E+01  0.541805292003E+01  0.286531883260E+01
 -0.338075305923E+01  0.587611654155E+01  0.310866045050E+01
 -0.209511289874E+01  0.610006592770E+01  0.323225226871E+01
 -0.806858999889E+00  0.609279981627E+01  0.324034778755E+01
  0.515987019886E+00  0.584914772442E+01  0.308696657959E+01
  0.132770651981E+01  0.527399352338E+01  0.271399483218E+01
  0.231115818522E+01  0.482820981410E+01  0.181815003922E+01
 -0.723157923406E+01  0.425833749216E+01  0.164174731490E+01
 -0.591462598779E+01  0.577085825855E+01  0.221371263925E+01
 -0.459565553402E+01  0.670149190394E+01  0.256603865838E+01
 -0.327863348487E+01  0.727205307675E+01  0.278388395195E+01
 -0.196410250190E+01  0.755831386823E+01  0.289546139757E+01
 -0.652768845102E+00  0.756442648119E+01  0.291180969653E+01
  0.653208830288E+00  0.728253431437E+01  0.282660798143E+01
  0.128467253570E+01  0.670963540147E+01  0.246876397910E+01
  0.199630000000E+01  0.628446000000E+01  0.155276000000E+01
 -0.715899100252E+01 -0.407054352515E+01  0.240883872433E+01
 -0.580626373372E+01 -0.548356974115E+01  0.324506466719E+01
 -0.445993634871E+01 -0.635234321364E+01  0.376072404887E+01
 -0.311707115141E+01 -0.688500498403E+01  0.407897166557E+01
 -0.177420412598E+01 -0.715428616372E+01  0.424383067773E+01
 -0.433033411608E+00 -0.716632908233E+01  0.426854572322E+01
  0.917827239303E+00 -0.692432769139E+01  0.415456198611E+01
  0.178019458805E+01 -0.643966534024E+01  0.364101564489E+01
  0.262348000000E+01 -0.606170000000E+01  0.196500000000E+01
 -0.717426136835E+01 -0.332575148043E+01  0.270336589765E+01
 -0.585287748927E+01 -0.447965676241E+01  0.364288566520E+01
 -0.452500054676E+01 -0.518869549593E+01  0.422137131696E+01
 -0.319821975412E+01 -0.562152238132E+01  0.458057405827E+01
 -0.187292759441E+01 -0.583580653121E+01  0.476561940839E+01
 -0.541442661419E+00 -0.583966877027E+01  0.479294721600E+01
  0.801890804784E+00 -0.563680143695E+01  0.462261142163E+01
  0.172808535743E+01 -0.533236942090E+01  0.404950181233E+01
  0.278354314874E+01 -0.513248670564E+01  0.223534720954E+01
 -0.718676138216E+01 -0.254127398248E+01  0.293478653136E+01
 -0.588668709158E+01 -0.342259565338E+01  0.395597975831E+01
 -0.457825588691E+01 -0.396203465106E+01  0.458414642725E+01
 -0.326509901418E+01 -0.428985393418E+01  0.497207134023E+01
 -0.194768063131E+01 -0.444903088009E+01  0.516945853649E+01
 -0.616333070137E+00 -0.444837556043E+01  0.518513884531E+01
  0.746923778268E+00 -0.427939644753E+01  0.498944725455E+01
  0.177166827325E+01 -0.418054109777E+01  0.437450958361E+01
  0.291882044430E+01 -0.416805401795E+01  0.244061806177E+01
 -0.719701848455E+01 -0.172615920506E+01  0.309654540018E+01
 -0.591281757337E+01 -0.232227081258E+01  0.417480619300E+01
 -0.461951790935E+01 -0.268615266016E+01  0.483651594257E+01
 -0.331718910605E+01 -0.290663368001E+01  0.524402981359E+01
 -0.200294602462E+01 -0.301196357177E+01  0.544725036730E+01
 -0.662570047926E+00 -0.300875259818E+01  0.545551462588E+01
  0.728584396955E+00 -0.288577822113E+01  0.525233835223E+01
  0.182990399734E+01 -0.299983882344E+01  0.459507118597E+01
  0.305692041311E+01 -0.316632045926E+01  0.254392375339E+01
 -0.720534620398E+01 -0.889918050047E+00  0.318325492525E+01
 -0.593259566082E+01 -0.119179383328E+01  0.429262744097E+01
 -0.465063639390E+01 -0.137622812569E+01  0.497189314187E+01
 -0.335601789513E+01 -0.148834764196E+01  0.538926742619E+01
 -0.204343820386E+01 -0.154243496942E+01  0.559426212309E+01
 -0.693068735519E+00 -0.154080269955E+01  0.559727342341E+01
  0.721655501474E+00 -0.147313748465E+01  0.538796733283E+01
  0.189806715531E+01 -0.180277774602E+01  0.470609701323E+01
  0.319224593829E+01 -0.214245519979E+01  0.254738601351E+01
 -0.721266529701E+01 -0.428602442355E-01  0.319180858314E+01
 -0.594731955438E+01 -0.455572424209E-01  0.430510885468E+01
 -0.467277389162E+01 -0.481625302205E-01  0.498584491718E+01
 -0.338477157247E+01 -0.518136848599E-01  0.540349333073E+01
 -0.207683615533E+01 -0.558442013356E-01  0.560637342079E+01
 -0.728693736858E+00 -0.586005153324E-01  0.560393906004E+01
  0.689402886912E+00 -0.537108238330E-01  0.538890132958E+01
  0.195336109261E+01 -0.600697842569E+00  0.464203128083E+01
  0.333333000000E+01 -0.112691000000E+01  0.250000000000E+01
 -0.721896789827E+01  0.804231785874E+00  0.318395356346E+01
 -0.595466990167E+01  0.110154552811E+01  0.429533509661E+01
 -0.468128402141E+01  0.128117657724E+01  0.497497283026E+01
 -0.339676825402E+01  0.138695591822E+01  0.539156428647E+01
 -0.209672205023E+01  0.143371578527E+01  0.559300647277E+01
 -0.762175474418E+00  0.142753943623E+01  0.558760593628E+01
  0.637076041753E+00  0.136981146465E+01  0.535994391897E+01
  0.179561726831E+01  0.833583716500E+00  0.471575997362E+01
  0.309951102795E+01  0.286961100431E+00  0.282388119790E+01
 -0.722433461348E+01  0.164070088435E+01  0.309788586581E+01
 -0.595613391658E+01  0.223392844855E+01  0.417975587912E+01
 -0.467835320499E+01  0.259462662641E+01  0.484239631647E+01
 -0.339260092014E+01  0.281034056493E+01  0.524844048417E+01
 -0.209859166733E+01  0.291053235005E+01  0.544515461306E+01
 -0.779543957372E+00  0.290379439062E+01  0.543787206706E+01
  0.597281395813E+00  0.278598249799E+01  0.520072173626E+01
  0.164560358216E+01  0.225928235650E+01  0.462612347378E+01
  0.285712994637E+01  0.176024553011E+01  0.299231737483E+01
 -0.722782673892E+01  0.245622048634E+01  0.293676308626E+01
 -0.595073354928E+01  0.333690568289E+01  0.396232184406E+01
 -0.466247173729E+01  0.387476409985E+01  0.459202354872E+01
 -0.336978459114E+01  0.420018900796E+01  0.497872603027E+01
 -0.207542262673E+01  0.435574574940E+01  0.516932635007E+01
 -0.769209570874E+00  0.435210746258E+01  0.516589797136E+01
  0.578895111045E+00  0.417910771432E+01  0.492881108049E+01
  0.151101864348E+01  0.365727181393E+01  0.439729463238E+01
  0.260355874006E+01  0.322078940751E+01  0.294989358898E+01
 -0.722904847993E+01  0.324125765881E+01  0.270582900439E+01
 -0.593625688838E+01  0.439658849002E+01  0.364982096287E+01
 -0.463149035437E+01  0.510603450628E+01  0.423003434863E+01
 -0.332610356360E+01  0.553830546740E+01  0.458887851479E+01
 -0.202332639290E+01  0.575032208562E+01  0.477008249012E+01
 -0.716588168003E+00  0.575063271975E+01  0.478360437906E+01
  0.606745998155E+00  0.553422428737E+01  0.456851333572E+01
  0.139145826067E+01  0.501532120417E+01  0.405076219504E+01
  0.233425791271E+01  0.463574403676E+01  0.270152065401E+01
 -0.722740900820E+01  0.398673797000E+01  0.241180688508E+01
 -0.590673275909E+01  0.540309908479E+01  0.325110601955E+01
 -0.458375394322E+01  0.627414070396E+01  0.376913227839E+01
 -0.326238463667E+01  0.680774848911E+01  0.408774748306E+01
 -0.193987788184E+01  0.707563272400E+01  0.425066788347E+01
 -0.619512962259E+00  0.708300952553E+01  0.427253574368E+01
  0.703830336649E+00  0.682190877052E+01  0.413098009114E+01
  0.136644030045E+01  0.631438901256E+01  0.361263548167E+01
  0.204947000000E+01  0.598972000000E+01  0.228122000000E+01
 -0.715957063967E+01 -0.370015052068E+01  0.311843013462E+01
 -0.580431516460E+01 -0.498255789267E+01  0.420087180521E+01
 -0.445392116772E+01 -0.577054583763E+01  0.486733094775E+01
 -0.310567858189E+01 -0.625316507673E+01  0.527856682238E+01
 -0.175474722481E+01 -0.649641068465E+01  0.548992611402E+01
 -0.402728575714E+00 -0.650786297651E+01  0.551985827255E+01
  0.966427553319E+00 -0.628676613317E+01  0.535302003934E+01
  0.186737912967E+01 -0.592033472756E+01  0.469289486716E+01
  0.267357000000E+01 -0.571343000000E+01  0.254410000000E+01
 -0.716880225986E+01 -0.304901001216E+01  0.352838199783E+01
 -0.583057393230E+01 -0.410366975624E+01  0.475332387675E+01
 -0.448654641006E+01 -0.475172530140E+01  0.550689817024E+01
 -0.314346392922E+01 -0.514717728385E+01  0.597300755237E+01
 -0.179810319747E+01 -0.534518760850E+01  0.621151160454E+01
 -0.446279745614E+00 -0.534652250775E+01  0.624181488514E+01
  0.931701299094E+00 -0.517539453547E+01  0.602130125869E+01
  0.184868547100E+01 -0.496758087826E+01  0.530964767639E+01
  0.281882252948E+01 -0.488432367089E+01  0.294231435847E+01
 -0.717789485976E+01 -0.234540621855E+01  0.385416362400E+01
 -0.585089498503E+01 -0.315441843058E+01  0.519222608737E+01
 -0.451445549729E+01 -0.365032743857E+01  0.601561826849E+01
 -0.317589437617E+01 -0.395253965891E+01  0.652311281991E+01
 -0.183173825548E+01 -0.410264107375E+01  0.678107802000E+01
 -0.478598038386E+00 -0.409859049403E+01  0.680291517636E+01
  0.907586894542E+00 -0.396912329244E+01  0.655216114421E+01
  0.189205169230E+01 -0.393629923928E+01  0.579002793315E+01
  0.294882095240E+01 -0.399069862777E+01  0.323439256949E+01
 -0.718603331162E+01 -0.160118828457E+01  0.408666613000E+01
 -0.586790259380E+01 -0.214953029528E+01  0.550626697729E+01
 -0.453869885547E+01 -0.248552047570E+01  0.637805943523E+01
 -0.320414855565E+01 -0.268955649968E+01  0.691572635225E+01
 -0.186191040165E+01 -0.279135045641E+01  0.718450591014E+01
 -0.501763283256E+00 -0.278439724781E+01  0.719812539769E+01
  0.905601454148E+00 -0.269450503853E+01  0.693659918837E+01
  0.195091606983E+01 -0.284916706147E+01  0.611992230495E+01
  0.308034062097E+01 -0.305167561388E+01  0.339004862221E+01
 -0.719359121362E+01 -0.829045786871E+00  0.421977901704E+01
 -0.588250945384E+01 -0.110693540693E+01  0.568607147319E+01
 -0.455900245642E+01 -0.127668057885E+01  0.658618730415E+01
 -0.322916176608E+01 -0.138083149485E+01  0.713963835470E+01
 -0.188758892397E+01 -0.143290692089E+01  0.741455984796E+01
 -0.523366754241E+00 -0.142954293240E+01  0.741936611563E+01
  0.909541839666E+00 -0.138145619942E+01  0.714701281037E+01
  0.202623843824E+01 -0.172745900400E+01  0.629334235339E+01
  0.320952090063E+01 -0.209452801580E+01  0.340235329573E+01
 -0.720079033656E+01 -0.430280575225E-01  0.424925812606E+01
 -0.589498626801E+01 -0.442120596147E-01  0.572694134192E+01
 -0.457633998091E+01 -0.459644226215E-01  0.663296865827E+01
 -0.325066462938E+01 -0.474724497113E-01  0.719037085403E+01
 -0.191403950188E+01 -0.514124467297E-01  0.746466911701E+01
 -0.553330027968E+00 -0.519939732551E-01  0.746488600167E+01
  0.872680820593E+00 -0.530639159099E-01  0.718863933791E+01
  0.206598546209E+01 -0.596337044057E+00  0.623937428767E+01
  0.333333000000E+01 -0.112691000000E+01  0.333333000000E+01
 -0.720673371033E+01  0.743350493419E+00  0.422062397611E+01
 -0.590250961378E+01  0.101849326825E+01  0.568911641743E+01
 -0.458534447051E+01  0.118632820531E+01  0.658950324133E+01
 -0.326229184932E+01  0.128667700038E+01  0.714349447559E+01
 -0.193203755708E+01  0.133356267034E+01  0.741583032495E+01
 -0.585102954028E+00  0.132918667187E+01  0.741505290990E+01
  0.818495792705E+00  0.128232494843E+01  0.712923731605E+01
  0.189844841379E+01  0.765405093797E+00  0.634175233452E+01
  0.310592812003E+01  0.217469002644E+00  0.377259226635E+01
 -0.721214604851E+01  0.151546412268E+01  0.408853234068E+01
 -0.590760652364E+01  0.206279551727E+01  0.551130412524E+01
 -0.458937041872E+01  0.239685665794E+01  0.638521204573E+01
 -0.326756696999E+01  0.259934742273E+01  0.692183673436E+01
 -0.194080941889E+01  0.269722741212E+01  0.718723753841E+01
 -0.608798000501E+00  0.269267034749E+01  0.718730901433E+01
  0.769261163338E+00  0.260511736980E+01  0.689478847862E+01
  0.172787763388E+01  0.211752266270E+01  0.621414756069E+01
  0.286479880248E+01  0.161446731641E+01  0.398667483447E+01
 -0.721666726902E+01  0.226014876224E+01  0.385662069301E+01
 -0.590944339303E+01  0.306901914909E+01  0.519932131674E+01
 -0.458893309052E+01  0.356492948534E+01  0.602439572787E+01
 -0.326565866302E+01  0.386565984860E+01  0.653228536842E+01
 -0.194113985900E+01  0.401542631611E+01  0.678477776578E+01
 -0.615419850327E+00  0.401152110148E+01  0.679071793934E+01
  0.737247360733E+00  0.388757803760E+01  0.649941009791E+01
  0.159074483397E+01  0.342208682081E+01  0.587035246144E+01
  0.261790713241E+01  0.301429399745E+01  0.391084078174E+01
 -0.721978932631E+01  0.296419424847E+01  0.353143415037E+01
 -0.590716878328E+01  0.402024633252E+01  0.476088970391E+01
 -0.458206167325E+01  0.466922865358E+01  0.551705888242E+01
 -0.325738895512E+01  0.506451755174E+01  0.598309367857E+01
 -0.193044128687E+01  0.526279527812E+01  0.621815611187E+01
 -0.603817021651E+00  0.526193393495E+01  0.623515315017E+01
  0.748556319732E+00  0.509274332219E+01  0.596811854183E+01
  0.149220479030E+01  0.464982673667E+01  0.535212482820E+01
  0.237574209204E+01  0.435327793597E+01  0.355276465728E+01
 -0.722202388557E+01  0.361592308881E+01  0.312162866508E+01
 -0.589634671489E+01  0.490104525380E+01  0.420844987931E+01
 -0.456776725290E+01  0.569101829460E+01  0.487714816559E+01
 -0.323797640611E+01  0.617471399225E+01  0.528919038242E+01
 -0.190761669328E+01  0.641721559404E+01  0.549845004830E+01
 -0.574045408165E+00  0.642587151792E+01  0.552086928861E+01
  0.766043653893E+00  0.619302164770E+01  0.532202542366E+01
  0.147285298279E+01  0.577636458948E+01  0.465817200582E+01
  0.212207000000E+01  0.558730000000E+01  0.295352000000E+01
 -0.716032899061E+01 -0.323964598203E+01  0.375104907199E+01
 -0.580253967543E+01 -0.436004293230E+01  0.505278832543E+01
 -0.444820043422E+01 -0.504786927452E+01  0.585256417545E+01
 -0.309349139023E+01 -0.546905472067E+01  0.634608640961E+01
 -0.173564799688E+01 -0.567980331848E+01  0.659921545516E+01
 -0.369856684489E+00 -0.569013481675E+01  0.662823960667E+01
  0.101566015244E+01 -0.549603544820E+01  0.641177787965E+01
  0.196309084187E+01 -0.527499365774E+01  0.562602912765E+01
  0.273585000000E+01 -0.528053000000E+01  0.306056000000E+01
 -0.716257140091E+01 -0.270030128498E+01  0.429167101859E+01
 -0.580177489312E+01 -0.363142274261E+01  0.577953507267E+01
 -0.444297629250E+01 -0.420246569402E+01  0.669399290650E+01
 -0.308364084531E+01 -0.455201864594E+01  0.725647748030E+01
 -0.171820816444E+01 -0.472538282293E+01  0.754395172554E+01
 -0.343339249706E+00 -0.473372133370E+01  0.757131867664E+01
  0.105461825266E+01 -0.457148102315E+01  0.730591534411E+01
  0.206351028311E+01 -0.449034038256E+01  0.644514482627E+01
  0.283639000000E+01 -0.458160000000E+01  0.363581000000E+01
 -0.716512812624E+01 -0.209577282252E+01  0.472603347870E+01
 -0.580191476546E+01 -0.281422109235E+01  0.636476736756E+01
 -0.444078850289E+01 -0.325530475833E+01  0.736963931785E+01
 -0.307571771386E+01 -0.352444764356E+01  0.798957434551E+01
 -0.170701761637E+01 -0.365669545462E+01  0.830161352533E+01
 -0.321155706270E+00 -0.366328266770E+01  0.832671709065E+01
  0.108010740053E+01 -0.353464796400E+01  0.802230114681E+01
  0.216160061736E+01 -0.360731806289E+01  0.708368175135E+01
  0.295176000000E+01 -0.377956000000E+01  0.404840000000E+01
 -0.716830426559E+01 -0.143993795893E+01  0.504498034121E+01
 -0.580464744206E+01 -0.192980302432E+01  0.679244173463E+01
 -0.444054026655E+01 -0.222870095685E+01  0.786578240830E+01
 -0.307422298786E+01 -0.241249626893E+01  0.852507629040E+01
 -0.169960108644E+01 -0.250020123653E+01  0.885650948287E+01
 -0.313624011507E+00 -0.250437657807E+01  0.887525409768E+01
  0.110160878580E+01 -0.241387260205E+01  0.854349463570E+01
  0.224661937004E+01 -0.264335701386E+01  0.753479651784E+01
  0.307680000000E+01 -0.291030000000E+01  0.427989000000E+01
 -0.717271907509E+01 -0.750825527941E+00  0.523906105067E+01
 -0.580912990722E+01 -0.997520948767E+00  0.705487114978E+01
 -0.444531729788E+01 -0.115020126700E+01  0.816782688054E+01
 -0.307633594609E+01 -0.124101212523E+01  0.885411493550E+01
 -0.170294159433E+01 -0.128644900633E+01  0.919236751838E+01
 -0.311927578650E+00 -0.128420608688E+01  0.921220347042E+01
  0.109132153271E+01 -0.123536833101E+01  0.885090728853E+01
  0.232649257294E+01 -0.162823725241E+01  0.777910164135E+01
  0.320592000000E+01 -0.201270000000E+01  0.431991000000E+01
 -0.717821876583E+01 -0.425690797646E-01  0.530503536011E+01
 -0.581673328638E+01 -0.437901408890E-01  0.714343113951E+01
 -0.445331562847E+01 -0.420013281612E-01  0.827119438362E+01
 -0.308602979889E+01 -0.430326635385E-01  0.896509472434E+01
 -0.171201300746E+01 -0.392541404554E-01  0.930792957889E+01
 -0.324993889929E+00 -0.386346508378E-01  0.932124456114E+01
  0.108353227061E+01 -0.239732118873E-01  0.896081469222E+01
  0.234736694201E+01 -0.586485449808E+00  0.777154141213E+01
  0.333333000000E+01 -0.112691000000E+01  0.416667000000E+01
 -0.718481343828E+01  0.663848589974E+00  0.524056189970E+01
 -0.582693062975E+01  0.912567859576E+00  0.705692668050E+01
 -0.446573906727E+01  0.106346315005E+01  0.817187761706E+01
 -0.310135898139E+01  0.115876950942E+01  0.885718107020E+01
 -0.172955861892E+01  0.120319878727E+01  0.919636612563E+01
 -0.345318566485E+00  0.121248294307E+01  0.920892093788E+01
  0.105351702787E+01  0.117576129113E+01  0.884093160023E+01
  0.222363884519E+01  0.676886081094E+00  0.787718411421E+01
  0.311477000000E+01  0.846185000000E-01  0.477384000000E+01
 -0.719238665779E+01  0.135470553481E+01  0.504665798531E+01
 -0.583924401907E+01  0.184338452429E+01  0.679799394507E+01
 -0.448292131796E+01  0.214485574053E+01  0.787128706203E+01
 -0.312078280251E+01  0.232828607121E+01  0.853399775402E+01
 -0.175707376713E+01  0.241970132827E+01  0.885875637381E+01
 -0.373898776098E+00  0.242788783186E+01  0.887675711332E+01
  0.100910455004E+01  0.235094021102E+01  0.850597353349E+01
  0.208357259099E+01  0.191031742677E+01  0.769304719359E+01
  0.287533000000E+01  0.141185000000E+01  0.502046000000E+01
 -0.720034905360E+01  0.200981173590E+01  0.472948708174E+01
 -0.585385870482E+01  0.272987639129E+01  0.637065034971E+01
 -0.450249426486E+01  0.317112483692E+01  0.737921210592E+01
 -0.314789762440E+01  0.344245676459E+01  0.799891722209E+01
 -0.178808863932E+01  0.357508319730E+01  0.830825803512E+01
 -0.416970004816E+00  0.358624807281E+01  0.832363348935E+01
  0.959789780782E+00  0.346462121547E+01  0.797711643423E+01
  0.191598857363E+01  0.308787569819E+01  0.722451542061E+01
  0.263311000000E+01  0.275453000000E+01  0.488788000000E+01
 -0.720829482116E+01  0.261531935375E+01  0.429478154921E+01
 -0.586875049331E+01  0.354738622726E+01  0.578770363817E+01
 -0.452517405459E+01  0.412030144958E+01  0.670367239324E+01
 -0.317751417282E+01  0.447058532962E+01  0.726816512102E+01
 -0.182784099549E+01  0.464459561319E+01  0.755162268754E+01
 -0.465656202838E+00  0.465517773838E+01  0.756830612724E+01
  0.901484511265E+00  0.449471580063E+01  0.726081671712E+01
  0.175307818952E+01  0.416467244396E+01  0.652252882695E+01
  0.240640000000E+01  0.401125000000E+01  0.438612000000E+01
 -0.721517620017E+01  0.315488593024E+01  0.375473866393E+01
 -0.588377537206E+01  0.427747089376E+01  0.506028702724E+01
 -0.454707087139E+01  0.496689423681E+01  0.586362921081E+01
 -0.320960741485E+01  0.538915992114E+01  0.635704546650E+01
 -0.186783020717E+01  0.559990247531E+01  0.660836585783E+01
 -0.521652892208E+00  0.560936102397E+01  0.662669912050E+01
  0.836644904740E+00  0.541226123060E+01  0.637243715938E+01
  0.159397505826E+01  0.510581191846E+01  0.559494014165E+01
  0.221231000000E+01  0.508710000000E+01  0.355309000000E+01
  0.500000000000E+01 -0.169037000000E+01  0.489859000003E-15
  0.527591000000E+01 -0.788220000000E+00  0.391887000001E-15
  0.575887000000E+01 -0.658810000000E+00  0.391887000001E-15
  0.624183000000E+01 -0.529401000000E+00  0.391887000001E-15
  0.672480000000E+01 -0.399991000000E+00  0.391887000001E-15
  0.720776000000E+01 -0.270582000000E+00  0.391887000001E-15
  0.769072000000E+01 -0.141172000000E+00  0.391887000001E-15
  0.817369000000E+01 -0.117629000000E-01  0.391887000001E-15
  0.865665000000E+01  0.117647000000E+00  0.391887000000E-15
  0.913961000000E+01  0.247056000000E+00  0.391887000000E-15
  0.962257000000E+01  0.376466000000E+00  0.391887000000E-15
  0.462392403563E+01 -0.151702279251E+00  0.391887000000E-15
  0.499953235213E+01  0.456191140841E+00  0.313510000000E-15
  0.548188381961E+01  0.577509796338E+00  0.313510000000E-15
  0.595964736165E+01  0.707773256743E+00  0.313510000000E-15
  0.643626998299E+01  0.837171443119E+00  0.313510000000E-15
  0.691239166863E+01  0.965857818938E+00  0.313510000000E-15
  0.738840535699E+01  0.109404262371E+01  0.313510000000E-15
  0.786444596754E+01  0.122197747003E+01  0.313510000000E-15
  0.834055167921E+01  0.134992387441E+01  0.313510000000E-15
  0.881675098747E+01  0.147801560118E+01  0.313510000000E-15
  0.929129000000E+01  0.161285000000E+01  0.313510000001E-15
  0.428473806836E+01  0.138504986946E+01  0.293915000000E-15
  0.472797062825E+01  0.169230626457E+01  0.235132000000E-15
  0.520466947594E+01  0.182498543113E+01  0.235132000000E-15
  0.567339764111E+01  0.195653523174E+01  0.235132000000E-15
  0.614058752270E+01  0.208558161018E+01  0.235132000000E-15
  0.660822110540E+01  0.221274408874E+01  0.235132000000E-15
  0.707656103613E+01  0.233921110316E+01  0.235132000000E-15
  0.754560685705E+01  0.246540960615E+01  0.235132000000E-15
  0.801543881849E+01  0.259154318397E+01  0.235132000000E-15
  0.848635030382E+01  0.271862142395E+01  0.235132000000E-15
  0.896000000000E+01  0.284924000000E+01  0.235132000001E-15
  0.389820751855E+01  0.291582370827E+01  0.195943000000E-15
  0.441189814096E+01  0.292022012102E+01  0.156755000000E-15
  0.487947925400E+01  0.307154680335E+01  0.156755000000E-15
  0.534390261390E+01  0.320575803432E+01  0.156755000000E-15
  0.580942366306E+01  0.333361831208E+01  0.156755000000E-15
  0.627605805786E+01  0.345994527373E+01  0.156755000000E-15
  0.674384510484E+01  0.358569146389E+01  0.156755000000E-15
  0.721256581497E+01  0.371133431751E+01  0.156755000000E-15
  0.768217260932E+01  0.383708158752E+01  0.156755000000E-15
  0.815332151559E+01  0.396231552093E+01  0.156755000000E-15
  0.862871000000E+01  0.408562000000E+01  0.156755000001E-15
  0.341585741097E+01  0.447339658014E+01  0.979717000000E-16
  0.402951895554E+01  0.414799900917E+01  0.783774000000E-16
  0.449022599000E+01  0.430617114336E+01  0.783774000000E-16
  0.496231242068E+01  0.443582689497E+01  0.783774000000E-16
  0.543666208024E+01  0.456439783431E+01  0.783774000000E-16
  0.591228321002E+01  0.469202854141E+01  0.783774000000E-16
  0.638850100754E+01  0.481954878609E+01  0.783774000000E-16
  0.686502695311E+01  0.494706444389E+01  0.783774000000E-16
  0.734177454623E+01  0.507448134450E+01  0.783774000000E-16
  0.781868490080E+01  0.520173191638E+01  0.783774000000E-16
  0.829742000000E+01  0.532201000000E+01  0.783774000006E-16
  0.292945000000E+01  0.603704000000E+01  0.207368685242E-26
  0.361947000000E+01  0.539371000000E+01  0.115183382943E-26
  0.410243000000E+01  0.552311000000E+01  0.340374789975E-27
  0.458539000000E+01  0.565252000000E+01  0.507438907325E-27
  0.506835000000E+01  0.578193000000E+01  0.523510757747E-27
  0.555132000000E+01  0.591134000000E+01  0.524026787308E-27
  0.603428000000E+01  0.604075000000E+01  0.518236101136E-27
  0.651724000000E+01  0.617016000000E+01  0.511013507454E-27
  0.700021000000E+01  0.629957000000E+01  0.502094312378E-27
  0.748317000000E+01  0.642898000000E+01  0.454545371600E-27
  0.796613000000E+01  0.655839000000E+01  0.161942020527E-27
  0.498725000000E+01 -0.164280000000E+01  0.625738000000E+00
  0.526571000000E+01 -0.750165000000E+00  0.500590000000E+00
  0.574867000000E+01 -0.620756000000E+00  0.500590000000E+00
  0.623164000000E+01 -0.491346000000E+00  0.500590000000E+00
  0.671460000000E+01 -0.361937000000E+00  0.500590000000E+00
  0.719756000000E+01 -0.232527000000E+00  0.500590000000E+00
  0.768053000000E+01 -0.103118000000E+00  0.500590000000E+00
  0.816349000000E+01  0.262920000000E-01  0.500590000000E+00
  0.864645000000E+01  0.155702000000E+00  0.500590000000E+00
  0.912941000000E+01  0.285111000000E+00  0.500590000000E+00
  0.961238000000E+01  0.414521000000E+00  0.500590000000E+00
  0.461750483717E+01 -0.146511453603E+00  0.774979576222E+00
  0.499399531191E+01  0.459467667027E+00  0.617345822656E+00
  0.547603505867E+01  0.581559659187E+00  0.620506897799E+00
  0.595434294085E+01  0.711942230095E+00  0.621140420321E+00
  0.643167166464E+01  0.841419989994E+00  0.621209456911E+00
  0.690851057393E+01  0.970237939655E+00  0.621159794326E+00
  0.738518949310E+01  0.109856146967E+01  0.621070178886E+00
  0.786183726418E+01  0.122663043022E+01  0.620964364311E+00
  0.833852150467E+01  0.135468858470E+01  0.620785239605E+00
  0.881520767240E+01  0.148280727531E+01  0.620326607176E+00
  0.929009000000E+01  0.161731000000E+01  0.618286000000E+00
  0.427547036548E+01  0.138276189354E+01  0.842428223817E+00
  0.472096854434E+01  0.168936979854E+01  0.677128012927E+00
  0.519764443988E+01  0.182213182315E+01  0.684015610139E+00
  0.566722648991E+01  0.195371021305E+01  0.686719400894E+00
  0.613561638331E+01  0.208289527527E+01  0.687290044752E+00
  0.660449605788E+01  0.221030319631E+01  0.687008790041E+00
  0.707400849087E+01  0.233704147896E+01  0.686518243544E+00
  0.754413211237E+01  0.246349140351E+01  0.685952208389E+00
  0.801487894077E+01  0.258983811223E+01  0.685095676765E+00
  0.848646875231E+01  0.271702648364E+01  0.683431519672E+00
  0.896044000000E+01  0.284757000000E+01  0.680162000000E+00
  0.388729891479E+01  0.291894029838E+01  0.838690920051E+00
  0.440388946551E+01  0.292130675812E+01  0.677003496550E+00
  0.487163553710E+01  0.307173576611E+01  0.683985187582E+00
  0.533695083971E+01  0.320570412261E+01  0.687269463956E+00
  0.580365566835E+01  0.333370834184E+01  0.687838966244E+00
  0.627155929321E+01  0.346029435531E+01  0.687413521055E+00
  0.674052888103E+01  0.358634099785E+01  0.686786898486E+00
  0.721031917602E+01  0.371227123386E+01  0.686128285349E+00
  0.768084171607E+01  0.383827896515E+01  0.685217657125E+00
  0.815262381825E+01  0.396375269122E+01  0.683513021697E+00
  0.862826000000E+01  0.408729000000E+01  0.680162000000E+00
  0.340986854463E+01  0.447007917425E+01  0.769932138771E+00
  0.402492828631E+01  0.414372988647E+01  0.617416573629E+00
  0.448638176701E+01  0.430017717066E+01  0.622298249457E+00
  0.495942938635E+01  0.442973523379E+01  0.622290374192E+00
  0.543468499881E+01  0.455850629164E+01  0.621756436290E+00
  0.591109286299E+01  0.468634273870E+01  0.621278501048E+00
  0.638800254864E+01  0.481406692553E+01  0.620961294557E+00
  0.686514309492E+01  0.494176402750E+01  0.620759122013E+00
  0.734242372744E+01  0.506935776413E+01  0.620562134475E+00
  0.781974178552E+01  0.519681736067E+01  0.620155982019E+00
  0.829861000000E+01  0.531755000000E+01  0.618286000000E+00
  0.294219000000E+01  0.598947000000E+01  0.625738000000E+00
  0.362966000000E+01  0.535565000000E+01  0.500590000000E+00
  0.411263000000E+01  0.548506000000E+01  0.500590000000E+00
  0.459559000000E+01  0.561447000000E+01  0.500590000000E+00
  0.507855000000E+01  0.574388000000E+01  0.500590000000E+00
  0.556151000000E+01  0.587329000000E+01  0.500590000000E+00
  0.604448000000E+01  0.600270000000E+01  0.500590000000E+00
  0.652744000000E+01  0.613211000000E+01  0.500590000000E+00
  0.701040000000E+01  0.626152000000E+01  0.500590000000E+00
  0.749337000000E+01  0.639093000000E+01  0.500590000000E+00
  0.797633000000E+01  0.652034000000E+01  0.500590000000E+00
  0.494933000000E+01 -0.150127000000E+01  0.123607000000E+01
  0.523537000000E+01 -0.636938000000E+00  0.988854000000E+00
  0.571833000000E+01 -0.507528000000E+00  0.988854000000E+00
  0.620130000000E+01 -0.378118000000E+00  0.988854000000E+00
  0.668426000000E+01 -0.248709000000E+00  0.988854000000E+00
  0.716722000000E+01 -0.119299000000E+00  0.988854000000E+00
  0.765019000000E+01  0.101101000000E-01  0.988854000000E+00
  0.813315000000E+01  0.139520000000E+00  0.988854000000E+00
  0.861611000000E+01  0.268929000000E+00  0.988854000000E+00
  0.909907000000E+01  0.398339000000E+00  0.988854000000E+00
  0.958204000000E+01  0.527748000000E+00  0.988854000000E+00
  0.458966102974E+01 -0.864746549666E-01  0.153653647573E+01
  0.497000961868E+01  0.505944766880E+00  0.122385147898E+01
  0.545147032461E+01  0.630149000143E+00  0.122797764608E+01
  0.593119710316E+01  0.760749331669E+00  0.122874386369E+01
  0.641027409714E+01  0.890529510805E+00  0.122882268945E+01
  0.688879202773E+01  0.101967725209E+01  0.122878923670E+01
  0.736705563777E+01  0.114833339205E+01  0.122867403533E+01
  0.784520386596E+01  0.127671014202E+01  0.122854855712E+01
  0.832324526165E+01  0.140507081259E+01  0.122831625778E+01
  0.880111772109E+01  0.153326714633E+01  0.122766651978E+01
  0.927681000000E+01  0.166687000000E+01  0.122425000000E+01
  0.424603241754E+01  0.139919081486E+01  0.167520622523E+01
  0.469756235017E+01  0.169919065343E+01  0.134325985010E+01
  0.517388564974E+01  0.183237407450E+01  0.135477131652E+01
  0.564573024817E+01  0.196396850923E+01  0.135889534185E+01
  0.611735830993E+01  0.209357332051E+01  0.135958326607E+01
  0.658959112699E+01  0.222168100069E+01  0.135905956213E+01
  0.706228295946E+01  0.234912614573E+01  0.135828434251E+01
  0.753528963058E+01  0.247624599987E+01  0.135745304000E+01
  0.800852255825E+01  0.260317312106E+01  0.135618989141E+01
  0.848198908535E+01  0.273067412615E+01  0.135357818422E+01
  0.895686000000E+01  0.286093000000E+01  0.134800000000E+01
  0.386444446708E+01  0.290585033740E+01  0.166733689498E+01
  0.438673744537E+01  0.290693275287E+01  0.134294689621E+01
  0.485494221276E+01  0.305442895354E+01  0.135501342541E+01
  0.532270348997E+01  0.318762700632E+01  0.136010253296E+01
  0.579274924830E+01  0.331596782782E+01  0.136063517977E+01
  0.626411922208E+01  0.344326503463E+01  0.135979640120E+01
  0.673633258000E+01  0.357010803611E+01  0.135876650865E+01
  0.720903064344E+01  0.369682425048E+01  0.135777296654E+01
  0.768201391927E+01  0.382353482303E+01  0.135641779085E+01
  0.815557942918E+01  0.394967243186E+01  0.135373661368E+01
  0.863184000000E+01  0.407393000000E+01  0.134800000000E+01
  0.340780840085E+01  0.441384335778E+01  0.152813438528E+01
  0.402354729114E+01  0.409506050052E+01  0.122340039864E+01
  0.448736652894E+01  0.424672017005E+01  0.123094254245E+01
  0.496285197121E+01  0.437628949519E+01  0.123061386782E+01
  0.544039306050E+01  0.450550117735E+01  0.122966294865E+01
  0.591876168898E+01  0.463383147932E+01  0.122891525838E+01
  0.639732315783E+01  0.476202594226E+01  0.122845386319E+01
  0.687591413695E+01  0.489017357429E+01  0.122818438001E+01
  0.735446660905E+01  0.501815152096E+01  0.122793080888E+01
  0.783279221127E+01  0.514610548949E+01  0.122736888542E+01
  0.831189000000E+01  0.526799000000E+01  0.122425000000E+01
  0.298012000000E+01  0.584793000000E+01  0.123607000000E+01
  0.366000000000E+01  0.524242000000E+01  0.988854000000E+00
  0.414296000000E+01  0.537183000000E+01  0.988854000000E+00
  0.462593000000E+01  0.550124000000E+01  0.988854000000E+00
  0.510889000000E+01  0.563065000000E+01  0.988854000000E+00
  0.559185000000E+01  0.576006000000E+01  0.988854000000E+00
  0.607482000000E+01  0.588947000000E+01  0.988854000000E+00
  0.655778000000E+01  0.601888000000E+01  0.988854000000E+00
  0.704074000000E+01  0.614829000000E+01  0.988854000000E+00
  0.752371000000E+01  0.627770000000E+01  0.988854000000E+00
  0.800667000000E+01  0.640711000000E+01  0.988854000000E+00
  0.488716000000E+01 -0.126925000000E+01  0.181596000000E+01
  0.518564000000E+01 -0.451325000000E+00  0.145277000000E+01
  0.566860000000E+01 -0.321916000000E+00  0.145277000000E+01
  0.615156000000E+01 -0.192506000000E+00  0.145277000000E+01
  0.663453000000E+01 -0.630967000000E-01  0.145277000000E+01
  0.711749000000E+01  0.663128000000E-01  0.145277000000E+01
  0.760045000000E+01  0.195722000000E+00  0.145277000000E+01
  0.808341000000E+01  0.325132000000E+00  0.145277000000E+01
  0.856638000000E+01  0.454541000000E+00  0.145277000000E+01
  0.904934000000E+01  0.583951000000E+00  0.145277000000E+01
  0.953230000000E+01  0.713360000000E+00  0.145277000000E+01
  0.454354284649E+01  0.266364420410E-01  0.227191769473E+01
  0.493059492076E+01  0.594339482426E+00  0.180748857013E+01
  0.541177607138E+01  0.722178258326E+00  0.180978031547E+01
  0.589367713272E+01  0.853097659913E+00  0.181015593259E+01
  0.637477403316E+01  0.983178574126E+00  0.181031631487E+01
  0.685528273529E+01  0.111262331399E+01  0.181032301865E+01
  0.733549376501E+01  0.124162922416E+01  0.181025213821E+01
  0.781554966740E+01  0.137040444068E+01  0.181015873005E+01
  0.829549990819E+01  0.149907783065E+01  0.181003646947E+01
  0.877495418159E+01  0.162754281400E+01  0.180960405284E+01
  0.925190000000E+01  0.175986000000E+01  0.180586000000E+01
  0.420308427078E+01  0.143353265108E+01  0.248746774399E+01
  0.466139115369E+01  0.172170475954E+01  0.198755348828E+01
  0.513701903441E+01  0.185575074609E+01  0.199935413473E+01
  0.561271399219E+01  0.198744894425E+01  0.200263494777E+01
  0.608915080744E+01  0.211781258306E+01  0.200299683626E+01
  0.656612331443E+01  0.224675750807E+01  0.200240903554E+01
  0.704320295817E+01  0.237512346320E+01  0.200170004429E+01
  0.752021803083E+01  0.250315404499E+01  0.200100999213E+01
  0.799703062354E+01  0.263087520724E+01  0.200003706782E+01
  0.847313338036E+01  0.275889928572E+01  0.199770736255E+01
  0.894940000000E+01  0.288877000000E+01  0.199149000000E+01
  0.383526821267E+01  0.287767311725E+01  0.247582506852E+01
  0.436332991986E+01  0.287800054462E+01  0.198696352187E+01
  0.483209339931E+01  0.302068399345E+01  0.200036264114E+01
  0.530413064627E+01  0.315280346670E+01  0.200436835022E+01
  0.577944221066E+01  0.328184291427E+01  0.200425238613E+01
  0.625586224230E+01  0.341015716785E+01  0.200324522097E+01
  0.673261492524E+01  0.353812099980E+01  0.200224794495E+01
  0.720937954825E+01  0.366593436696E+01  0.200138356109E+01
  0.768592140180E+01  0.379371568371E+01  0.200031824613E+01
  0.816204279539E+01  0.392073682352E+01  0.199791891669E+01
  0.863930000000E+01  0.404608000000E+01  0.199149000000E+01
  0.341593815308E+01  0.430389705426E+01  0.226063838903E+01
  0.402887748077E+01  0.400434901006E+01  0.180586594198E+01
  0.449631476274E+01  0.414882052021E+01  0.181317400035E+01
  0.497514362554E+01  0.427836984848E+01  0.181204845869E+01
  0.545566456535E+01  0.440796992335E+01  0.181099473247E+01
  0.593637219243E+01  0.453688164100E+01  0.181033168847E+01
  0.641692701337E+01  0.466564040540E+01  0.180994613043E+01
  0.689731276768E+01  0.479431877647E+01  0.180973894936E+01
  0.737757920101E+01  0.492293517081E+01  0.180960505187E+01
  0.785732005662E+01  0.505141196548E+01  0.180926193337E+01
  0.833681000000E+01  0.517500000000E+01  0.180586000000E+01
  0.304229000000E+01  0.561592000000E+01  0.181596000000E+01
  0.370974000000E+01  0.505681000000E+01  0.145277000000E+01
  0.419270000000E+01  0.518622000000E+01  0.145277000000E+01
  0.467566000000E+01  0.531563000000E+01  0.145277000000E+01
  0.515863000000E+01  0.544504000000E+01  0.145277000000E+01
  0.564159000000E+01  0.557445000000E+01  0.145277000000E+01
  0.612455000000E+01  0.570386000000E+01  0.145277000000E+01
  0.660751000000E+01  0.583327000000E+01  0.145277000000E+01
  0.709048000000E+01  0.596268000000E+01  0.145277000000E+01
  0.757344000000E+01  0.609209000000E+01  0.145277000000E+01
  0.805640000000E+01  0.622150000000E+01  0.145277000000E+01
  0.480228000000E+01 -0.952469000000E+00  0.235114000000E+01
  0.511773000000E+01 -0.197899000000E+00  0.188091000000E+01
  0.560069000000E+01 -0.684892000000E-01  0.188091000000E+01
  0.608366000000E+01  0.609204000000E-01  0.188091000000E+01
  0.656662000000E+01  0.190330000000E+00  0.188091000000E+01
  0.704958000000E+01  0.319739000000E+00  0.188091000000E+01
  0.753255000000E+01  0.449149000000E+00  0.188091000000E+01
  0.801551000000E+01  0.578558000000E+00  0.188091000000E+01
  0.849847000000E+01  0.707968000000E+00  0.188091000000E+01
  0.898143000000E+01  0.837378000000E+00  0.188091000000E+01
  0.946440000000E+01  0.966787000000E+00  0.188091000000E+01
  0.447784458495E+01  0.183600474498E+00  0.297140519853E+01
  0.487604754886E+01  0.726017584195E+00  0.235513479123E+01
  0.536100746345E+01  0.856699748958E+00  0.235372458965E+01
  0.584476180649E+01  0.987170800815E+00  0.235442300649E+01
  0.632763381869E+01  0.111699082924E+01  0.235443659712E+01
  0.680997113757E+01  0.124642775887E+01  0.235447970813E+01
  0.729203700371E+01  0.137568148333E+01  0.235443707135E+01
  0.777397239167E+01  0.150482735477E+01  0.235441143292E+01
  0.825582334278E+01  0.163405441061E+01  0.235431329824E+01
  0.873778262188E+01  0.176266827453E+01  0.235445135476E+01
  0.921608000000E+01  0.189354000000E+01  0.235170000000E+01
  0.414597539724E+01  0.148817999002E+01  0.327136715268E+01
  0.461415577925E+01  0.175851127903E+01  0.259840303915E+01
  0.509252672599E+01  0.189366959931E+01  0.260445976576E+01
  0.557396476800E+01  0.202545943041E+01  0.260576650759E+01
  0.605585664207E+01  0.215581127615E+01  0.260587693611E+01
  0.653762831474E+01  0.228529726410E+01  0.260557942327E+01
  0.701901642388E+01  0.241444790454E+01  0.260526840614E+01
  0.750005887993E+01  0.254341367651E+01  0.260500644165E+01
  0.798077405342E+01  0.267212417695E+01  0.260457300537E+01
  0.846063525304E+01  0.280073901876E+01  0.260396294519E+01
  0.893831000000E+01  0.293018000000E+01  0.259920000000E+01
  0.379343725063E+01  0.283938811726E+01  0.326273993444E+01
  0.433301565478E+01  0.283400769085E+01  0.259829114553E+01
  0.480610007740E+01  0.297162754328E+01  0.260597961650E+01
  0.528583369186E+01  0.310342659236E+01  0.260692592763E+01
  0.576774651912E+01  0.323332228025E+01  0.260662942537E+01
  0.624950269428E+01  0.336278282159E+01  0.260608321162E+01
  0.673085423487E+01  0.349188868467E+01  0.260561377521E+01
  0.721183622511E+01  0.362079534624E+01  0.260526065876E+01
  0.769239433741E+01  0.374966822113E+01  0.260477729842E+01
  0.817214654850E+01  0.387811566248E+01  0.260414949223E+01
  0.865040000000E+01  0.400468000000E+01  0.259920000000E+01
  0.343038465644E+01  0.414760125599E+01  0.295756155393E+01
  0.404149842484E+01  0.387108946786E+01  0.235342518913E+01
  0.451472226971E+01  0.400908537860E+01  0.235665090165E+01
  0.499844858355E+01  0.413879865830E+01  0.235515365244E+01
  0.548160508360E+01  0.426909124222E+01  0.235466608487E+01
  0.596437319658E+01  0.439861445329E+01  0.235431760812E+01
  0.644672640454E+01  0.452794147720E+01  0.235415060310E+01
  0.692884748730E+01  0.465714906060E+01  0.235408318268E+01
  0.741090399088E+01  0.478618562168E+01  0.235399521792E+01
  0.789274095355E+01  0.491578829535E+01  0.235416769498E+01
  0.837263000000E+01  0.504132000000E+01  0.235170000000E+01
  0.312717000000E+01  0.529913000000E+01  0.235114000000E+01
  0.377764000000E+01  0.480338000000E+01  0.188091000000E+01
  0.426060000000E+01  0.493279000000E+01  0.188091000000E+01
  0.474357000000E+01  0.506220000000E+01  0.188091000000E+01
  0.522653000000E+01  0.519161000000E+01  0.188091000000E+01
  0.570949000000E+01  0.532102000000E+01  0.188091000000E+01
  0.619246000000E+01  0.545043000000E+01  0.188091000000E+01
  0.667542000000E+01  0.557984000000E+01  0.188091000000E+01
  0.715838000000E+01  0.570925000000E+01  0.188091000000E+01
  0.764135000000E+01  0.583866000000E+01  0.188091000000E+01
  0.812431000000E+01  0.596807000000E+01  0.188091000000E+01
  0.469677000000E+01 -0.558718000000E+00  0.282843000000E+01
  0.503333000000E+01  0.117102000000E+00  0.226274000000E+01
  0.551629000000E+01  0.246512000000E+00  0.226274000000E+01
  0.599925000000E+01  0.375921000000E+00  0.226274000000E+01
  0.648222000000E+01  0.505331000000E+00  0.226274000000E+01
  0.696518000000E+01  0.634740000000E+00  0.226274000000E+01
  0.744814000000E+01  0.764150000000E+00  0.226274000000E+01
  0.793110000000E+01  0.893559000000E+00  0.226274000000E+01
  0.841407000000E+01  0.102297000000E+01  0.226274000000E+01
  0.889703000000E+01  0.115238000000E+01  0.226274000000E+01
  0.937999000000E+01  0.128179000000E+01  0.226274000000E+01
  0.443473000000E+01  0.419249000000E+00  0.356403000000E+01
  0.482369000000E+01  0.899475000000E+00  0.285122000000E+01
  0.530665000000E+01  0.102888000000E+01  0.285122000000E+01
  0.578962000000E+01  0.115829000000E+01  0.285122000000E+01
  0.627258000000E+01  0.128770000000E+01  0.285122000000E+01
  0.675554000000E+01  0.141711000000E+01  0.285122000000E+01
  0.723851000000E+01  0.154652000000E+01  0.285122000000E+01
  0.772147000000E+01  0.167593000000E+01  0.285122000000E+01
  0.820443000000E+01  0.180534000000E+01  0.285122000000E+01
  0.868739000000E+01  0.193475000000E+01  0.285122000000E+01
  0.917036000000E+01  0.206416000000E+01  0.285122000000E+01
  0.412668000000E+01  0.156892000000E+01  0.395075000000E+01
  0.457725000000E+01  0.181921000000E+01  0.316060000000E+01
  0.506021000000E+01  0.194862000000E+01  0.316060000000E+01
  0.554317000000E+01  0.207803000000E+01  0.316060000000E+01
  0.602614000000E+01  0.220744000000E+01  0.316060000000E+01
  0.650910000000E+01  0.233685000000E+01  0.316060000000E+01
  0.699206000000E+01  0.246626000000E+01  0.316060000000E+01
  0.747503000000E+01  0.259567000000E+01  0.316060000000E+01
  0.795799000000E+01  0.272508000000E+01  0.316060000000E+01
  0.844095000000E+01  0.285449000000E+01  0.316060000000E+01
  0.892392000000E+01  0.298390000000E+01  0.316060000000E+01
  0.380277000000E+01  0.277775000000E+01  0.395075000000E+01
  0.431812000000E+01  0.278628000000E+01  0.316060000000E+01
  0.480109000000E+01  0.291569000000E+01  0.316060000000E+01
  0.528405000000E+01  0.304509000000E+01  0.316060000000E+01
  0.576701000000E+01  0.317450000000E+01  0.316060000000E+01
  0.624998000000E+01  0.330391000000E+01  0.316060000000E+01
  0.673294000000E+01  0.343332000000E+01  0.316060000000E+01
  0.721590000000E+01  0.356273000000E+01  0.316060000000E+01
  0.769886000000E+01  0.369214000000E+01  0.316060000000E+01
  0.818183000000E+01  0.382155000000E+01  0.316060000000E+01
  0.866479000000E+01  0.395096000000E+01  0.316060000000E+01
  0.349472000000E+01  0.392742000000E+01  0.356403000000E+01
  0.407168000000E+01  0.370601000000E+01  0.285122000000E+01
  0.455465000000E+01  0.383542000000E+01  0.285122000000E+01
  0.503761000000E+01  0.396483000000E+01  0.285122000000E+01
  0.552057000000E+01  0.409424000000E+01  0.285122000000E+01
  0.600353000000E+01  0.422365000000E+01  0.285122000000E+01
  0.648650000000E+01  0.435306000000E+01  0.285122000000E+01
  0.696946000000E+01  0.448247000000E+01  0.285122000000E+01
  0.745242000000E+01  0.461188000000E+01  0.285122000000E+01
  0.793539000000E+01  0.474129000000E+01  0.285122000000E+01
  0.841835000000E+01  0.487070000000E+01  0.285122000000E+01
  0.323267000000E+01  0.490538000000E+01  0.282843000000E+01
  0.386205000000E+01  0.448838000000E+01  0.226274000000E+01
  0.434501000000E+01  0.461779000000E+01  0.226274000000E+01
  0.482797000000E+01  0.474720000000E+01  0.226274000000E+01
  0.531093000000E+01  0.487661000000E+01  0.226274000000E+01
  0.579390000000E+01  0.500602000000E+01  0.226274000000E+01
  0.627686000000E+01  0.513543000000E+01  0.226274000000E+01
  0.675982000000E+01  0.526484000000E+01  0.226274000000E+01
  0.724279000000E+01  0.539425000000E+01  0.226274000000E+01
  0.772575000000E+01  0.552366000000E+01  0.226274000000E+01
  0.820871000000E+01  0.565307000000E+01  0.226274000000E+01
  0.560370000000E+01 -0.185213000000E+01  0.275546000000E-15
  0.620741000000E+01 -0.201389000000E+01  0.275546000000E-15
  0.681111000000E+01 -0.217566000000E+01  0.275546000000E-15
  0.741481000000E+01 -0.233742000000E+01  0.275546000000E-15
  0.801852000000E+01 -0.249918000000E+01  0.275546000000E-15
  0.862222000000E+01 -0.266094000000E+01  0.275546000000E-15
  0.922593000000E+01 -0.282270000000E+01  0.275546000000E-15
  0.982963000000E+01 -0.298447000000E+01  0.275546000000E-15
  0.483403467914E+01 -0.257354079459E+01  0.220436000000E-15
  0.543042290019E+01 -0.273359046467E+01  0.220436000000E-15
  0.601992638893E+01 -0.289299601979E+01  0.220436000000E-15
  0.661145658244E+01 -0.305165874790E+01  0.220436000000E-15
  0.720579750850E+01 -0.321096437544E+01  0.220436000000E-15
  0.780214635949E+01 -0.337072961186E+01  0.220436000000E-15
  0.839972178691E+01 -0.353084801587E+01  0.220436000000E-15
  0.899815975826E+01 -0.369098020788E+01  0.220436000000E-15
  0.959669000000E+01 -0.385380000000E+01  0.220436000000E-15
  0.461648655897E+01 -0.343806991340E+01  0.165327000000E-15
  0.521269554339E+01 -0.360989767716E+01  0.165327000000E-15
  0.580055808250E+01 -0.376987159685E+01  0.165327000000E-15
  0.638947529211E+01 -0.392744016835E+01  0.165327000000E-15
  0.698091272444E+01 -0.408530309644E+01  0.165327000000E-15
  0.757447255251E+01 -0.424382398209E+01  0.165327000000E-15
  0.816945843451E+01 -0.440281875903E+01  0.165327000000E-15
  0.876552592289E+01 -0.456226931483E+01  0.165327000000E-15
  0.936375000000E+01 -0.472313000000E+01  0.165327000001E-15
  0.437569406938E+01 -0.430268284806E+01  0.110218000000E-15
  0.496787279969E+01 -0.448002203856E+01  0.110218000000E-15
  0.555785556797E+01 -0.464072627376E+01  0.110218000000E-15
  0.614944529531E+01 -0.479869085824E+01  0.110218000000E-15
  0.674323569852E+01 -0.495675868316E+01  0.110218000000E-15
  0.733852791619E+01 -0.511540968320E+01  0.110218000000E-15
  0.793468590298E+01 -0.527457877540E+01  0.110218000000E-15
  0.853160738263E+01 -0.543391289234E+01  0.110218000000E-15
  0.913082000000E+01 -0.559247000000E+01  0.110218000001E-15
  0.410799562221E+01 -0.517385420023E+01  0.551091000000E-16
  0.470130394616E+01 -0.534116394191E+01  0.551091000000E-16
  0.529851402985E+01 -0.550263665603E+01  0.551091000000E-16
  0.589764199169E+01 -0.566263046007E+01  0.551091000000E-16
  0.649746653392E+01 -0.582266999372E+01  0.551091000000E-16
  0.709743696438E+01 -0.598290974478E+01  0.551091000000E-16
  0.769741093027E+01 -0.614327536665E+01  0.551091000000E-16
  0.829731885324E+01 -0.630388996950E+01  0.551091000000E-16
  0.889788000000E+01 -0.646180000000E+01  0.551091000004E-16
  0.383531000000E+01 -0.603704000000E+01  0.149262195779E-26
  0.443902000000E+01 -0.619880000000E+01  0.349671375403E-27
  0.504272000000E+01 -0.636056000000E+01  0.415203844572E-27
  0.564643000000E+01 -0.652232000000E+01  0.399078765203E-27
  0.625013000000E+01 -0.668408000000E+01  0.381029523160E-27
  0.685383000000E+01 -0.684585000000E+01  0.363791921025E-27
  0.745754000000E+01 -0.700761000000E+01  0.351234444054E-27
  0.806124000000E+01 -0.716937000000E+01  0.322545981978E-27
  0.866494000000E+01 -0.733113000000E+01  0.116558930138E-27
  0.499283000000E+01 -0.171713000000E+01  0.351978000000E+00
  0.559653000000E+01 -0.187889000000E+01  0.351978000000E+00
  0.620024000000E+01 -0.204065000000E+01  0.351978000000E+00
  0.680394000000E+01 -0.220241000000E+01  0.351978000000E+00
  0.740764000000E+01 -0.236418000000E+01  0.351978000000E+00
  0.801135000000E+01 -0.252594000000E+01  0.351978000000E+00
  0.861505000000E+01 -0.268770000000E+01  0.351978000000E+00
  0.921876000000E+01 -0.284946000000E+01  0.351978000000E+00
  0.982246000000E+01 -0.301122000000E+01  0.351978000000E+00
  0.482376604278E+01 -0.257503883777E+01  0.433199946501E+00
  0.542003463488E+01 -0.273483998132E+01  0.439594181992E+00
  0.601266925431E+01 -0.289515289119E+01  0.439537300785E+00
  0.660672284774E+01 -0.305425539566E+01  0.438132942820E+00
  0.720265674318E+01 -0.321386648513E+01  0.437049131884E+00
  0.779997243419E+01 -0.337379588559E+01  0.436401066651E+00
  0.839819803517E+01 -0.353403039463E+01  0.436036994933E+00
  0.899706512080E+01 -0.369423157043E+01  0.435746300738E+00
  0.959585000000E+01 -0.385693000000E+01  0.434732000000E+00
  0.460662037808E+01 -0.343578461375E+01  0.473658092256E+00
  0.520246061561E+01 -0.360637304551E+01  0.482310971699E+00
  0.579316864495E+01 -0.376674262421E+01  0.483844885739E+00
  0.638477259738E+01 -0.392500746553E+01  0.482781040185E+00
  0.697819202226E+01 -0.408340420190E+01  0.481592114785E+00
  0.757308343570E+01 -0.424226627934E+01  0.480767696048E+00
  0.816894637678E+01 -0.440149264803E+01  0.480217295688E+00
  0.876559461097E+01 -0.456109635511E+01  0.479554830033E+00
  0.936407000000E+01 -0.472196000000E+01  0.478239000000E+00
  0.436609857311E+01 -0.430369721226E+01  0.471734936947E+00
  0.495831813391E+01 -0.447871771570E+01  0.481957608305E+00
  0.555099133557E+01 -0.463959164905E+01  0.483232485963E+00
  0.614491745843E+01 -0.479825725025E+01  0.482119304618E+00
  0.674038347627E+01 -0.495691579040E+01  0.481074771182E+00
  0.733676791965E+01 -0.511597614267E+01  0.480409842294E+00
  0.793369053090E+01 -0.527542782013E+01  0.479981815812E+00
  0.853110722625E+01 -0.543494294288E+01  0.479419774535E+00
  0.913050000000E+01 -0.559364000000E+01  0.478239000000E+00
  0.410298670843E+01 -0.517112622550E+01  0.433625446828E+00
  0.469724750507E+01 -0.533618271430E+01  0.437145279961E+00
  0.529622239052E+01 -0.549797296723E+01  0.436902933407E+00
  0.589651204816E+01 -0.565841417596E+01  0.436259810814E+00
  0.649705725528E+01 -0.581878991555E+01  0.435889118744E+00
  0.709749329861E+01 -0.597926744847E+01  0.435701385676E+00
  0.769783952114E+01 -0.613979713453E+01  0.435607761867E+00
  0.829804355535E+01 -0.630052505949E+01  0.435507848965E+00
  0.889872000000E+01 -0.645867000000E+01  0.434732000000E+00
  0.384248000000E+01 -0.601028000000E+01  0.351978000000E+00
  0.444619000000E+01 -0.617204000000E+01  0.351978000000E+00
  0.504989000000E+01 -0.633380000000E+01  0.351978000000E+00
  0.565359000000E+01 -0.649556000000E+01  0.351978000000E+00
  0.625730000000E+01 -0.665733000000E+01  0.351978000000E+00
  0.686100000000E+01 -0.681909000000E+01  0.351978000000E+00
  0.746471000000E+01 -0.698085000000E+01  0.351978000000E+00
  0.806841000000E+01 -0.714261000000E+01  0.351978000000E+00
  0.867211000000E+01 -0.730437000000E+01  0.351978000000E+00
  0.497150000000E+01 -0.179674000000E+01  0.695288000000E+00
  0.557520000000E+01 -0.195850000000E+01  0.695288000000E+00
  0.617891000000E+01 -0.212026000000E+01  0.695288000000E+00
  0.678261000000E+01 -0.228203000000E+01  0.695288000000E+00
  0.738631000000E+01 -0.244379000000E+01  0.695288000000E+00
  0.799002000000E+01 -0.260555000000E+01  0.695288000000E+00
  0.859372000000E+01 -0.276731000000E+01  0.695288000000E+00
  0.919742000000E+01 -0.292907000000E+01  0.695288000000E+00
  0.980113000000E+01 -0.309084000000E+01  0.695288000000E+00
  0.479386243066E+01 -0.260602610244E+01  0.862772812341E+00
  0.539031604997E+01 -0.276582692731E+01  0.867490110975E+00
  0.598964247231E+01 -0.292779206819E+01  0.867402283828E+00
  0.658903064382E+01 -0.308801834617E+01  0.865625441984E+00
  0.718822568793E+01 -0.324820333388E+01  0.864242411475E+00
  0.778763516893E+01 -0.340849362908E+01  0.863363267508E+00
  0.838728074642E+01 -0.356899567853E+01  0.862872887954E+00
  0.898716007594E+01 -0.372941370813E+01  0.862473657789E+00
  0.958652000000E+01 -0.389178000000E+01  0.860798000000E+00
  0.458066230063E+01 -0.344313997952E+01  0.944460852025E+00
  0.517582664478E+01 -0.361033435040E+01  0.953656110650E+00
  0.577279726760E+01 -0.377150819501E+01  0.955887924319E+00
  0.637052746672E+01 -0.393145297354E+01  0.954366535096E+00
  0.696841370256E+01 -0.409106281645E+01  0.952801620896E+00
  0.756636986851E+01 -0.425074508717E+01  0.951705092980E+00
  0.816435998224E+01 -0.441053818932E+01  0.950980810385E+00
  0.876244103932E+01 -0.457050542232E+01  0.950009561603E+00
  0.936155000000E+01 -0.473135000000E+01  0.947812000000E+00
  0.434788756930E+01 -0.429475106228E+01  0.940259820032E+00
  0.494029796805E+01 -0.446390281920E+01  0.953340262445E+00
  0.553870169093E+01 -0.462487643441E+01  0.954912424371E+00
  0.613783037705E+01 -0.478513375804E+01  0.953376805442E+00
  0.673693620308E+01 -0.494510470243E+01  0.952015166045E+00
  0.733583095741E+01 -0.510510511233E+01  0.951153581914E+00
  0.793452491197E+01 -0.526518309112E+01  0.950608045024E+00
  0.853317968960E+01 -0.542513833073E+01  0.949790134787E+00
  0.913302000000E+01 -0.558424000000E+01  0.947812000000E+00
  0.409953303044E+01 -0.513736142345E+01  0.861188688929E+00
  0.469670015906E+01 -0.529764801741E+01  0.863965050304E+00
  0.529916491757E+01 -0.546011540498E+01  0.863595632490E+00
  0.590180927806E+01 -0.562125927359E+01  0.862893998882E+00
  0.650365610193E+01 -0.578233014941E+01  0.862510274595E+00
  0.710509445930E+01 -0.594326846873E+01  0.862289844903E+00
  0.770625666049E+01 -0.610414415823E+01  0.862194126433E+00
  0.830714463205E+01 -0.626514196446E+01  0.862085433762E+00
  0.890806000000E+01 -0.642382000000E+01  0.860798000000E+00
  0.386382000000E+01 -0.593067000000E+01  0.695288000000E+00
  0.446752000000E+01 -0.609243000000E+01  0.695288000000E+00
  0.507122000000E+01 -0.625419000000E+01  0.695288000000E+00
  0.567493000000E+01 -0.641595000000E+01  0.695288000000E+00
  0.627863000000E+01 -0.657771000000E+01  0.695288000000E+00
  0.688233000000E+01 -0.673948000000E+01  0.695288000000E+00
  0.748604000000E+01 -0.690124000000E+01  0.695288000000E+00
  0.808974000000E+01 -0.706300000000E+01  0.695288000000E+00
  0.869345000000E+01 -0.722476000000E+01  0.695288000000E+00
  0.493653000000E+01 -0.192725000000E+01  0.102148000000E+01
  0.554023000000E+01 -0.208901000000E+01  0.102148000000E+01
  0.614394000000E+01 -0.225077000000E+01  0.102148000000E+01
  0.674764000000E+01 -0.241254000000E+01  0.102148000000E+01
  0.735134000000E+01 -0.257430000000E+01  0.102148000000E+01
  0.795505000000E+01 -0.273606000000E+01  0.102148000000E+01
  0.855875000000E+01 -0.289782000000E+01  0.102148000000E+01
  0.916245000000E+01 -0.305958000000E+01  0.102148000000E+01
  0.976616000000E+01 -0.322134000000E+01  0.102148000000E+01
  0.475665085304E+01 -0.266707866068E+01  0.127882849680E+01
  0.535504915950E+01 -0.282847725080E+01  0.127458303233E+01
  0.596018048666E+01 -0.299106074018E+01  0.127474786527E+01
  0.656310918127E+01 -0.315201513082E+01  0.127380937844E+01
  0.716503103714E+01 -0.331282522798E+01  0.127282807311E+01
  0.776642224086E+01 -0.347356464028E+01  0.127217340900E+01
  0.836770167171E+01 -0.363442451144E+01  0.127180713542E+01
  0.896884563999E+01 -0.379518960400E+01  0.127154085000E+01
  0.956900000000E+01 -0.395716000000E+01  0.126974000000E+01
  0.455061784785E+01 -0.346139673793E+01  0.140379841872E+01
  0.514674652968E+01 -0.362449679137E+01  0.140479511362E+01
  0.575026997795E+01 -0.378649557226E+01  0.140680739816E+01
  0.635327638514E+01 -0.394785832318E+01  0.140574339123E+01
  0.695518294298E+01 -0.410857054444E+01  0.140466609309E+01
  0.755615330507E+01 -0.426912135247E+01  0.140390832180E+01
  0.815654358293E+01 -0.442958734109E+01  0.140342899120E+01
  0.875634667594E+01 -0.459006633472E+01  0.140265575252E+01
  0.935631000000E+01 -0.475093000000E+01  0.140026000000E+01
  0.433116558030E+01 -0.427683503175E+01  0.139762408512E+01
  0.492529628661E+01 -0.443861873289E+01  0.140505493296E+01
  0.552975937847E+01 -0.459986623210E+01  0.140581530076E+01
  0.613320385202E+01 -0.476175521041E+01  0.140488572419E+01
  0.673554578499E+01 -0.492286656885E+01  0.140395335208E+01
  0.733691495491E+01 -0.508374126542E+01  0.140339728658E+01
  0.793764494620E+01 -0.524452903485E+01  0.140306809395E+01
  0.853780424986E+01 -0.540500169325E+01  0.140243354606E+01
  0.913827000000E+01 -0.556467000000E+01  0.140026000000E+01
  0.410484325708E+01 -0.507281905272E+01  0.127315719372E+01
  0.470652476421E+01 -0.522916997288E+01  0.127179072725E+01
  0.531157603107E+01 -0.539184883414E+01  0.127158999126E+01
  0.591508025301E+01 -0.555363236077E+01  0.127145566776E+01
  0.651794654449E+01 -0.571513356479E+01  0.127126958683E+01
  0.712033157572E+01 -0.587647496568E+01  0.127115891634E+01
  0.772249052426E+01 -0.603774283998E+01  0.127113400634E+01
  0.832430476116E+01 -0.619900649310E+01  0.127113455734E+01
  0.892558000000E+01 -0.635843000000E+01  0.126974000000E+01
  0.389879000000E+01 -0.580016000000E+01  0.102148000000E+01
  0.450249000000E+01 -0.596192000000E+01  0.102148000000E+01
  0.510619000000E+01 -0.612368000000E+01  0.102148000000E+01
  0.570990000000E+01 -0.628544000000E+01  0.102148000000E+01
  0.631360000000E+01 -0.644720000000E+01  0.102148000000E+01
  0.691730000000E+01 -0.660897000000E+01  0.102148000000E+01
  0.752101000000E+01 -0.677073000000E+01  0.102148000000E+01
  0.812471000000E+01 -0.693249000000E+01  0.102148000000E+01
  0.872841000000E+01 -0.709425000000E+01  0.102148000000E+01
  0.488878000000E+01 -0.210544000000E+01  0.132252000000E+01
  0.549249000000E+01 -0.226720000000E+01  0.132252000000E+01
  0.609619000000E+01 -0.242896000000E+01  0.132252000000E+01
  0.669989000000E+01 -0.259073000000E+01  0.132252000000E+01
  0.730360000000E+01 -0.275249000000E+01  0.132252000000E+01
  0.790730000000E+01 -0.291425000000E+01  0.132252000000E+01
  0.851100000000E+01 -0.307601000000E+01  0.132252000000E+01
  0.911471000000E+01 -0.323777000000E+01  0.132252000000E+01
  0.971841000000E+01 -0.339954000000E+01  0.132252000000E+01
  0.471936034291E+01 -0.276068034401E+01  0.166656198720E+01
  0.532582200368E+01 -0.292201917361E+01  0.165448450630E+01
  0.592845937079E+01 -0.308259259878E+01  0.165607820816E+01
  0.653159765310E+01 -0.324441623634E+01  0.165561315870E+01
  0.713460021778E+01 -0.340560695288E+01  0.165528899072E+01
  0.773727726754E+01 -0.356689566259E+01  0.165500528833E+01
  0.833988495517E+01 -0.372826600888E+01  0.165482078069E+01
  0.894273688111E+01 -0.388949792237E+01  0.165482157216E+01
  0.954381000000E+01 -0.405116000000E+01  0.165354000000E+01
  0.452525293793E+01 -0.349460772616E+01  0.183683760454E+01
  0.512934150976E+01 -0.365002738715E+01  0.182866266363E+01
  0.573294584178E+01 -0.381272642852E+01  0.183095589242E+01
  0.633718297915E+01 -0.397418179029E+01  0.183026061686E+01
  0.694055654050E+01 -0.413557118319E+01  0.182997983833E+01
  0.754328010746E+01 -0.429677476527E+01  0.182970053993E+01
  0.814566950314E+01 -0.445793401916E+01  0.182951273520E+01
  0.874765374797E+01 -0.461905417966E+01  0.182934570830E+01
  0.934851000000E+01 -0.478004000000E+01  0.182756000000E+01
  0.432228141364E+01 -0.425216564960E+01  0.183138014301E+01
  0.492552010789E+01 -0.440506110799E+01  0.182929367749E+01
  0.552979798291E+01 -0.456798665637E+01  0.183024715642E+01
  0.613403170005E+01 -0.472980408536E+01  0.182982946362E+01
  0.673750446877E+01 -0.489136258394E+01  0.182958018225E+01
  0.734034454221E+01 -0.505271397039E+01  0.182941249369E+01
  0.794283703848E+01 -0.521403320313E+01  0.182929765248E+01
  0.854495485663E+01 -0.537521841034E+01  0.182920466909E+01
  0.914607000000E+01 -0.553555000000E+01  0.182756000000E+01
  0.412271825864E+01 -0.497923426759E+01  0.165785585905E+01
  0.473209975326E+01 -0.513360804759E+01  0.165384161444E+01
  0.533335307612E+01 -0.529671863399E+01  0.165440258380E+01
  0.593659350642E+01 -0.545781214928E+01  0.165439036430E+01
  0.653976707289E+01 -0.561945399495E+01  0.165440854278E+01
  0.714285342334E+01 -0.578097055408E+01  0.165439870381E+01
  0.774591254716E+01 -0.594244023637E+01  0.165439748349E+01
  0.834903342314E+01 -0.610416353773E+01  0.165454282800E+01
  0.895076000000E+01 -0.626444000000E+01  0.165354000000E+01
  0.394653000000E+01 -0.562197000000E+01  0.132252000000E+01
  0.455024000000E+01 -0.578373000000E+01  0.132252000000E+01
  0.515394000000E+01 -0.594549000000E+01  0.132252000000E+01
  0.575764000000E+01 -0.610725000000E+01  0.132252000000E+01
  0.636135000000E+01 -0.626901000000E+01  0.132252000000E+01
  0.696505000000E+01 -0.643078000000E+01  0.132252000000E+01
  0.756875000000E+01 -0.659254000000E+01  0.132252000000E+01
  0.817246000000E+01 -0.675430000000E+01  0.132252000000E+01
  0.877616000000E+01 -0.691606000000E+01  0.132252000000E+01
  0.482944000000E+01 -0.232692000000E+01  0.159099000000E+01
  0.543314000000E+01 -0.248869000000E+01  0.159099000000E+01
  0.603684000000E+01 -0.265045000000E+01  0.159099000000E+01
  0.664055000000E+01 -0.281221000000E+01  0.159099000000E+01
  0.724425000000E+01 -0.297397000000E+01  0.159099000000E+01
  0.784795000000E+01 -0.313573000000E+01  0.159099000000E+01
  0.845166000000E+01 -0.329750000000E+01  0.159099000000E+01
  0.905536000000E+01 -0.345926000000E+01  0.159099000000E+01
  0.965906000000E+01 -0.362102000000E+01  0.159099000000E+01
  0.468204000000E+01 -0.287703000000E+01  0.200476000000E+01
  0.528574000000E+01 -0.303879000000E+01  0.200476000000E+01
  0.588944000000E+01 -0.320055000000E+01  0.200476000000E+01
  0.649315000000E+01 -0.336232000000E+01  0.200476000000E+01
  0.709685000000E+01 -0.352408000000E+01  0.200476000000E+01
  0.770055000000E+01 -0.368584000000E+01  0.200476000000E+01
  0.830426000000E+01 -0.384760000000E+01  0.200476000000E+01
  0.890796000000E+01 -0.400936000000E+01  0.200476000000E+01
  0.951166000000E+01 -0.417113000000E+01  0.200476000000E+01
  0.450876000000E+01 -0.352372000000E+01  0.222230000000E+01
  0.511246000000E+01 -0.368548000000E+01  0.222230000000E+01
  0.571616000000E+01 -0.384724000000E+01  0.222230000000E+01
  0.631987000000E+01 -0.400900000000E+01  0.222230000000E+01
  0.692357000000E+01 -0.417077000000E+01  0.222230000000E+01
  0.752727000000E+01 -0.433253000000E+01  0.222230000000E+01
  0.813098000000E+01 -0.449429000000E+01  0.222230000000E+01
  0.873468000000E+01 -0.465605000000E+01  0.222230000000E+01
  0.933838000000E+01 -0.481781000000E+01  0.222230000000E+01
  0.432656000000E+01 -0.420369000000E+01  0.222230000000E+01
  0.493026000000E+01 -0.436545000000E+01  0.222230000000E+01
  0.553397000000E+01 -0.452721000000E+01  0.222230000000E+01
  0.613767000000E+01 -0.468897000000E+01  0.222230000000E+01
  0.674137000000E+01 -0.485074000000E+01  0.222230000000E+01
  0.734508000000E+01 -0.501250000000E+01  0.222230000000E+01
  0.794878000000E+01 -0.517426000000E+01  0.222230000000E+01
  0.855248000000E+01 -0.533602000000E+01  0.222230000000E+01
  0.915619000000E+01 -0.549778000000E+01  0.222230000000E+01
  0.415328000000E+01 -0.485038000000E+01  0.200476000000E+01
  0.475698000000E+01 -0.501214000000E+01  0.200476000000E+01
  0.536069000000E+01 -0.517390000000E+01  0.200476000000E+01
  0.596439000000E+01 -0.533566000000E+01  0.200476000000E+01
  0.656809000000E+01 -0.549742000000E+01  0.200476000000E+01
  0.717180000000E+01 -0.565919000000E+01  0.200476000000E+01
  0.777550000000E+01 -0.582095000000E+01  0.200476000000E+01
  0.837920000000E+01 -0.598271000000E+01  0.200476000000E+01
  0.898291000000E+01 -0.614447000000E+01  0.200476000000E+01
  0.400588000000E+01 -0.540048000000E+01  0.159099000000E+01
  0.460958000000E+01 -0.556224000000E+01  0.159099000000E+01
  0.521329000000E+01 -0.572401000000E+01  0.159099000000E+01
  0.581699000000E+01 -0.588577000000E+01  0.159099000000E+01
  0.642069000000E+01 -0.604753000000E+01  0.159099000000E+01
  0.702440000000E+01 -0.620929000000E+01  0.159099000000E+01
  0.762810000000E+01 -0.637105000000E+01  0.159099000000E+01
  0.823180000000E+01 -0.653282000000E+01  0.159099000000E+01
  0.883551000000E+01 -0.669458000000E+01  0.159099000000E+01
 -0.815638932924E+01 -0.440051077809E+01  0.000000000000E+00
 -0.712389018168E+01 -0.673040932306E+01  0.000000000000E+00
 -0.578821166434E+01 -0.830842125332E+01  0.000000000000E+00
 -0.445779110036E+01 -0.928698711516E+01  0.000000000000E+00
 -0.312981422031E+01 -0.989290907263E+01  0.000000000000E+00
 -0.180154024777E+01 -0.102042185741E+02  0.000000000000E+00
 -0.476750368010E+00 -0.102423805342E+02  0.000000000000E+00
  0.854497490113E+00 -0.997092915337E+01  0.000000000000E+00
  0.171005764601E+01 -0.944974296599E+01  0.000000000000E+00
  0.264934000000E+01 -0.852255000000E+01  0.000000000000E+00
 -0.815683298049E+01 -0.434718691766E+01  0.800901187804E+00
 -0.712383581637E+01 -0.664820346828E+01  0.122684185209E+01
 -0.578759514209E+01 -0.820630972731E+01  0.151403646894E+01
 -0.445650179028E+01 -0.917254694974E+01  0.169198757886E+01
 -0.312772520967E+01 -0.977061086176E+01  0.180347324786E+01
 -0.179864045948E+01 -0.100779410838E+02  0.186256583069E+01
 -0.472287350690E+00 -0.101157502256E+02  0.187688396067E+01
  0.860616395572E+00 -0.984848060420E+01  0.184862612110E+01
  0.172199955993E+01 -0.934330131636E+01  0.169610723571E+01
  0.265940000000E+01 -0.845929000000E+01  0.114965713704E+01
 -0.815780350152E+01 -0.418805893884E+01  0.158256117709E+01
 -0.712368841811E+01 -0.640340427427E+01  0.242406147376E+01
 -0.578586020047E+01 -0.790270007790E+01  0.299027302140E+01
 -0.445277366587E+01 -0.883232726629E+01  0.334195773890E+01
 -0.312156690409E+01 -0.940714371148E+01  0.356109205644E+01
 -0.178962452579E+01 -0.970225295199E+01  0.367722280578E+01
 -0.459018509589E+00 -0.973860975430E+01  0.370422784451E+01
  0.881524497128E+00 -0.948392231040E+01  0.364437915300E+01
  0.176319924284E+01 -0.902858111662E+01  0.333505133224E+01
  0.268944000000E+01 -0.827083000000E+01  0.225235347637E+01
 -0.815900652199E+01 -0.392677517658E+01  0.232480992663E+01
 -0.712356102350E+01 -0.600188406697E+01  0.356094374923E+01
 -0.578334142163E+01 -0.740541461546E+01  0.439173832931E+01
 -0.444699463755E+01 -0.827528221820E+01  0.490709507119E+01
 -0.311170252390E+01 -0.881230333982E+01  0.522764006396E+01
 -0.177449818882E+01 -0.908683915992E+01  0.539682393142E+01
 -0.435273751947E+00 -0.912015949254E+01  0.543259644237E+01
  0.916819684594E+00 -0.888650815906E+01  0.533537352402E+01
  0.182728994860E+01 -0.851376219543E+01  0.486251405472E+01
  0.273896000000E+01 -0.796106000000E+01  0.327498702465E+01
 -0.816059416931E+01 -0.356983851976E+01  0.300966281617E+01
 -0.712360204289E+01 -0.545353742482E+01  0.460966266387E+01
 -0.578049890033E+01 -0.672683534844E+01  0.568348111282E+01
 -0.443966397170E+01 -0.751546269783E+01  0.634865355379E+01
 -0.309906583758E+01 -0.800102853052E+01  0.676170357763E+01
 -0.175446868292E+01 -0.824836537303E+01  0.697690586778E+01
 -0.406101938168E+00 -0.827708310327E+01  0.701924242606E+01
  0.953666859028E+00 -0.806951452596E+01  0.687845636505E+01
  0.190175110973E+01 -0.781136030718E+01  0.623982188152E+01
  0.280715000000E+01 -0.753640000000E+01  0.418444935631E+01
 -0.816244071769E+01 -0.312579027919E+01  0.362047171374E+01
 -0.712456615325E+01 -0.477226274345E+01  0.554425736774E+01
 -0.577736929202E+01 -0.588361759327E+01  0.683393008089E+01
 -0.443218856076E+01 -0.657202698750E+01  0.763215661615E+01
 -0.308475934865E+01 -0.699438265367E+01  0.812570102780E+01
 -0.173432902240E+01 -0.720874897438E+01  0.838184554240E+01
 -0.377031146324E+00 -0.723201353195E+01  0.842463872867E+01
  0.987569354067E+00 -0.705293067322E+01  0.823943955675E+01
  0.198114340292E+01 -0.694505582105E+01  0.743695020429E+01
  0.289295000000E+01 -0.700555000000E+01  0.496802272733E+01
 -0.816543392291E+01 -0.260639415337E+01  0.414185130716E+01
 -0.712510992033E+01 -0.397400271172E+01  0.634234842023E+01
 -0.577540404736E+01 -0.489744201243E+01  0.781516680484E+01
 -0.442494508313E+01 -0.546836085568E+01  0.872614908667E+01
 -0.307255300020E+01 -0.581842439904E+01  0.928775609109E+01
 -0.171455032389E+01 -0.599508322280E+01  0.957900585923E+01
 -0.349335524473E+00 -0.601098226773E+01  0.961426761373E+01
  0.102329976737E+01 -0.586565271055E+01  0.938826214491E+01
  0.206646119346E+01 -0.589574442992E+01  0.846768921475E+01
  0.303424000000E+01 -0.614055000000E+01  0.582537730510E+01
 -0.816842314186E+01 -0.202250352433E+01  0.456201326268E+01
 -0.712707100204E+01 -0.307990545827E+01  0.698397739246E+01
 -0.577410516417E+01 -0.379136688586E+01  0.860442750375E+01
 -0.442112626709E+01 -0.423278112199E+01  0.960551834831E+01
 -0.306236772604E+01 -0.450135290096E+01  0.102204298071E+02
 -0.170070221721E+01 -0.463743051271E+01  0.105401304511E+02
 -0.324163833008E+00 -0.464625394399E+01  0.105629927709E+02
  0.104945770752E+01 -0.453480826223E+01  0.103057895187E+02
  0.214961319073E+01 -0.472565511626E+01  0.927895400793E+01
  0.320142000000E+01 -0.513372000000E+01  0.642571541026E+01
 -0.817214752813E+01 -0.139141886207E+01  0.486927933468E+01
 -0.712988815716E+01 -0.210937956661E+01  0.745466319736E+01
 -0.577612842084E+01 -0.259492043014E+01  0.918276870222E+01
 -0.441977379548E+01 -0.289359569460E+01  0.102495604364E+02
 -0.305918614027E+01 -0.307722284090E+01  0.109045671894E+02
 -0.169143679082E+01 -0.316746307018E+01  0.112418922629E+02
 -0.313059380998E+00 -0.317254370678E+01  0.112573597933E+02
  0.106242545117E+01 -0.309492420980E+01  0.109734057294E+02
  0.221714075678E+01 -0.346370048425E+01  0.986602599722E+01
  0.339046000000E+01 -0.402099000000E+01  0.677329119207E+01
 -0.817619278282E+01 -0.724636665150E+00  0.505732087104E+01
 -0.713519226645E+01 -0.109021289593E+01  0.774209245763E+01
 -0.578049664830E+01 -0.133395110505E+01  0.953644022581E+01
 -0.442445129596E+01 -0.148679079237E+01  0.106436396634E+02
 -0.306083864926E+01 -0.157727496005E+01  0.113226790103E+02
 -0.169379223172E+01 -0.162430701155E+01  0.116712854466E+02
 -0.310473460422E+00 -0.162206078006E+01  0.116804663996E+02
  0.104738817391E+01 -0.158185032396E+01  0.113880170040E+02
  0.226758711897E+01 -0.213962954053E+01  0.102078662273E+02
  0.359729000000E+01 -0.284101000000E+01  0.688122509046E+01
 -0.818130794148E+01 -0.437732631903E-01  0.512082901503E+01
 -0.714224403579E+01 -0.423193256014E-01  0.783984486089E+01
 -0.578896483110E+01 -0.437433056736E-01  0.965709466920E+01
 -0.443352027890E+01 -0.418212460512E-01  0.107780069718E+02
 -0.307133151742E+01 -0.427801993933E-01  0.114659360750E+02
 -0.170356788495E+01 -0.390055296417E-01  0.118169963325E+02
 -0.324077756901E+00 -0.382455321901E-01  0.118256833278E+02
  0.104300043597E+01 -0.265263111295E-01  0.115253914975E+02
  0.228975782452E+01 -0.780930601744E+00  0.103037219176E+02
  0.381812000000E+01 -0.163350000000E+01  0.670502497462E+01
 -0.818704443321E+01  0.640276374963E+00  0.505829761919E+01
 -0.715158333433E+01  0.100266069144E+01  0.774543788466E+01
 -0.580069805195E+01  0.124965783687E+01  0.954148435321E+01
 -0.444791107700E+01  0.140055514748E+01  0.106499760460E+02
 -0.308881274272E+01  0.149575369934E+01  0.113299685114E+02
 -0.172354646053E+01  0.154179778969E+01  0.116783748466E+02
 -0.346448141511E+00  0.155212377121E+01  0.116849891402E+02
  0.101621847748E+01  0.151618313477E+01  0.113880530274E+02
  0.218943872340E+01  0.876145565341E+00  0.103772153877E+02
  0.346924000000E+01  0.119503000000E+00  0.765618418075E+01
 -0.819314341497E+01  0.130449104926E+01  0.487173912422E+01
 -0.716308601599E+01  0.202523601625E+01  0.746046657112E+01
 -0.581524990842E+01  0.250917019818E+01  0.919247193882E+01
 -0.446704106471E+01  0.281117824486E+01  0.102618837607E+02
 -0.311199279881E+01  0.299399353900E+01  0.109176234031E+02
 -0.175492049218E+01  0.308955296345E+01  0.112578941374E+02
 -0.381121678078E+00  0.309786721211E+01  0.112627225088E+02
  0.977035505623E+00  0.303280168026E+01  0.109791009180E+02
  0.205668343554E+01  0.249617105672E+01  0.101137260287E+02
  0.311159000000E+01  0.194949000000E+01  0.792354470356E+01
 -0.819978178513E+01  0.193809705047E+01  0.456450749768E+01
 -0.717544119569E+01  0.299462127196E+01  0.699272918953E+01
 -0.583326999981E+01  0.370912643147E+01  0.861754219953E+01
 -0.448855845660E+01  0.415050399676E+01  0.962218556458E+01
 -0.314139327179E+01  0.442187803738E+01  0.102390643171E+02
 -0.179027461392E+01  0.455993580854E+01  0.105608034286E+02
 -0.429637162583E+00  0.457264430155E+01  0.105735117159E+02
  0.925773286210E+00  0.447364355905E+01  0.103076912216E+02
  0.189800170323E+01  0.404402830325E+01  0.954678271991E+01
  0.276762000000E+01  0.373421000000E+01  0.767660254265E+01
 -0.820560958422E+01  0.252074557632E+01  0.414572808555E+01
 -0.718879327515E+01  0.389158137833E+01  0.635165597269E+01
 -0.585227640916E+01  0.481600045483E+01  0.783092304973E+01
 -0.451411397184E+01  0.538972251283E+01  0.874537332081E+01
 -0.317209914528E+01  0.574059455404E+01  0.930950126355E+01
 -0.182970379977E+01  0.592088618824E+01  0.960276273313E+01
 -0.477069479521E+00  0.593808613707E+01  0.962865996169E+01
  0.873229889139E+00  0.580252602784E+01  0.939222873520E+01
  0.174530320799E+01  0.548247551851E+01  0.868542829589E+01
  0.245735000000E+01  0.536055000000E+01  0.696443326625E+01
 -0.821106700892E+01  0.304169816155E+01  0.362356637744E+01
 -0.720119102291E+01  0.469024502266E+01  0.555475140574E+01
 -0.587214159947E+01  0.580534466716E+01  0.685000494255E+01
 -0.453993325100E+01  0.649540796425E+01  0.765224817489E+01
 -0.320589130118E+01  0.692024642999E+01  0.814830591864E+01
 -0.186867763386E+01  0.713695048881E+01  0.840580971155E+01
 -0.527260337135E+00  0.716037468343E+01  0.844328253531E+01
  0.824645687291E+00  0.698585107961E+01  0.824718296224E+01
  0.159182539939E+01  0.675721744155E+01  0.753278874726E+01
  0.219858000000E+01  0.672672000000E+01  0.573958496050E+01
 -0.821583622817E+01  0.348553092345E+01  0.301330962190E+01
 -0.721144832465E+01  0.537359570372E+01  0.461880569145E+01
 -0.588961373912E+01  0.665040113503E+01  0.569884141686E+01
 -0.456529232170E+01  0.744203337166E+01  0.636756872338E+01
 -0.323774937825E+01  0.792966205595E+01  0.678290357189E+01
 -0.190818513540E+01  0.817917692754E+01  0.699857045202E+01
 -0.574247820411E+00  0.820664025473E+01  0.703824239637E+01
  0.769461471101E+00  0.799662487409E+01  0.689550988162E+01
  0.147544861337E+01  0.766785488219E+01  0.633053714826E+01
  0.208004000000E+01  0.735507000000E+01  0.483771064754E+01
 -0.821989379939E+01  0.384323982463E+01  0.232748021840E+01
 -0.721946654921E+01  0.592286293797E+01  0.356900654158E+01
 -0.590277649689E+01  0.733133668611E+01  0.440434542205E+01
 -0.458478470737E+01  0.820437310705E+01  0.492309446316E+01
 -0.326608710313E+01  0.874373969867E+01  0.524545522148E+01
 -0.194327827264E+01  0.901997184801E+01  0.541504620098E+01
 -0.618340245275E+00  0.904909299050E+01  0.544787311233E+01
  0.717953495521E+00  0.880879408401E+01  0.535845561942E+01
  0.137333740591E+01  0.840286047120E+01  0.493980186883E+01
  0.198540000000E+01  0.785780000000E+01  0.378060467669E+01
 -0.822263045314E+01  0.410473707179E+01  0.158472953472E+01
 -0.722559355087E+01  0.632549752600E+01  0.242969602397E+01
 -0.591207123104E+01  0.783015325272E+01  0.299949107800E+01
 -0.459828094800E+01  0.876360016458E+01  0.335322828566E+01
 -0.328412572683E+01  0.934084466288E+01  0.357372860161E+01
 -0.196940852059E+01  0.963727107845E+01  0.369041400107E+01
 -0.653763650922E+00  0.966660577567E+01  0.371545059114E+01
  0.671206553140E+00  0.940075905871E+01  0.366296262801E+01
  0.129137144033E+01  0.894158605571E+01  0.338947661788E+01
  0.191647000000E+01  0.822453000000E+01  0.259727191930E+01
 -0.822415415411E+01  0.426414375587E+01  0.801930879425E+00
 -0.722928354181E+01  0.657089342475E+01  0.122983687599E+01
 -0.591788769193E+01  0.813485797559E+01  0.151879750310E+01
 -0.460613760822E+01  0.910506883655E+01  0.169790711968E+01
 -0.329475487163E+01  0.970573293257E+01  0.180994823883E+01
 -0.198245224046E+01  0.100140059149E+02  0.186919330245E+01
 -0.672165452490E+00  0.100433602369E+02  0.188289275241E+01
  0.644271584375E+00  0.976129820378E+01  0.185911379286E+01
  0.124146166850E+01  0.927136005171E+01  0.172384070675E+01
  0.187456000000E+01  0.844766000000E+01  0.132148837613E+01
 -0.822451976454E+01  0.431752189408E+01  0.000000000000E+00
 -0.723055820208E+01  0.665332818670E+01  0.000000000000E+00
 -0.591980864025E+01  0.823730989445E+01  0.000000000000E+00
 -0.460883595861E+01  0.921997087846E+01  0.000000000000E+00
 -0.329811415897E+01  0.982850473444E+01  0.000000000000E+00
 -0.198665196890E+01  0.101404322436E+02  0.000000000000E+00
 -0.678149798957E+00  0.101700442800E+02  0.000000000000E+00
  0.637661723510E+00  0.988260891479E+01  0.000000000000E+00
  0.122830387646E+01  0.938405687073E+01  0.000000000000E+00
  0.186051000000E+01  0.852255000000E+01  0.000000000000E+00
 -0.843525926249E+01 -0.222692281529E+01  0.000000000000E+00
 -0.846014161733E+01 -0.179136123790E+01  0.000000000000E+00
 -0.847841088688E+01 -0.135469248268E+01  0.000000000000E+00
 -0.849197985037E+01 -0.917666460751E+00  0.000000000000E+00
 -0.850155808705E+01 -0.480277975572E+00  0.000000000000E+00
 -0.850704647627E+01 -0.427666909402E-01  0.000000000000E+00
 -0.850797920388E+01  0.394688859420E+00  0.000000000000E+00
 -0.850475155844E+01  0.832059978286E+00  0.000000000000E+00
 -0.849746568558E+01  0.126897392417E+01  0.000000000000E+00
 -0.848561715995E+01  0.170556849323E+01  0.000000000000E+00
 -0.846724528575E+01  0.214070903082E+01  0.000000000000E+00
 -0.843556146788E+01 -0.220000004968E+01  0.403888330016E+00
 -0.845909503576E+01 -0.177928049016E+01  0.450049268301E+00
 -0.847683280491E+01 -0.135154387994E+01  0.485327509700E+00
 -0.849002925300E+01 -0.918321313966E+00  0.508620792306E+00
 -0.849947129792E+01 -0.481458387852E+00  0.519719647854E+00
 -0.850495504693E+01 -0.427695779842E-01  0.518245130128E+00
 -0.850589050375E+01  0.395854012620E+00  0.519639728972E+00
 -0.850278226010E+01  0.832722925926E+00  0.508508500715E+00
 -0.849581351287E+01  0.126583698077E+01  0.485238008782E+00
 -0.848438125689E+01  0.169348243672E+01  0.449995226545E+00
 -0.846713029907E+01  0.211378138075E+01  0.403753377716E+00
 -0.843634422196E+01 -0.211992758187E+01  0.796492144102E+00
 -0.845677845944E+01 -0.172463784310E+01  0.888880060203E+00
 -0.847282672060E+01 -0.131633120709E+01  0.960666115731E+00
 -0.848501372500E+01 -0.897608789911E+00  0.100962331992E+01
 -0.849365691410E+01 -0.471956433387E+00  0.103413263268E+01
 -0.849890111280E+01 -0.427727032941E-01  0.103334941198E+01
 -0.849989142053E+01  0.386401844306E+00  0.103406095821E+01
 -0.849738138148E+01  0.812013636125E+00  0.100949350103E+01
 -0.849123090783E+01  0.123065437024E+01  0.960475398691E+00
 -0.848119299453E+01  0.163882109146E+01  0.888639860674E+00
 -0.846668747782E+01  0.203374720281E+01  0.796319764873E+00
 -0.843755452793E+01 -0.198881673895E+01  0.116910760794E+01
 -0.845343166671E+01 -0.162917878493E+01  0.131185039435E+01
 -0.846645082916E+01 -0.125021964754E+01  0.142393979630E+01
 -0.847668987626E+01 -0.856313980224E+00  0.150214448831E+01
 -0.848425552394E+01 -0.452147132660E+00  0.154384888533E+01
 -0.848900787418E+01 -0.427478313358E-01  0.154769766275E+01
 -0.849015644641E+01  0.366625123366E+00  0.154372151744E+01
 -0.848840613561E+01  0.770759719481E+00  0.150192222113E+01
 -0.848384133475E+01  0.116453949691E+01  0.142365288682E+01
 -0.847638127757E+01  0.154335008760E+01  0.131151999334E+01
 -0.846588720396E+01  0.190269219605E+01  0.116860090025E+01
 -0.843920826267E+01 -0.180986556144E+01  0.151301701633E+01
 -0.844900538938E+01 -0.149538610416E+01  0.171179480389E+01
 -0.845755082845E+01 -0.115546234597E+01  0.186972288226E+01
 -0.846480073106E+01 -0.795814168930E+00  0.198245228406E+01
 -0.847054403439E+01 -0.422760845397E+00  0.204677295036E+01
 -0.847444326219E+01 -0.426762871280E-01  0.206084799897E+01
 -0.847601383049E+01  0.337144834326E+00  0.204664625983E+01
 -0.847563712565E+01  0.710302358940E+00  0.198207203393E+01
 -0.847354979870E+01  0.106977053450E+01  0.186933426309E+01
 -0.846992791580E+01  0.140954132839E+01  0.171132994273E+01
 -0.846479293193E+01  0.172379908602E+01  0.151265012180E+01
 -0.844125923862E+01 -0.158742446826E+01  0.181986827611E+01
 -0.844340646150E+01 -0.132696787240E+01  0.208179474018E+01
 -0.844595540533E+01 -0.103456313110E+01  0.229308649114E+01
 -0.844868735453E+01 -0.718334591301E+00  0.244720349362E+01
 -0.845133603969E+01 -0.384232161627E+00  0.254183069179E+01
 -0.845391135874E+01 -0.432616664386E-01  0.257325741227E+01
 -0.845635556456E+01  0.299509790433E+00  0.254132336593E+01
 -0.845849626001E+01  0.632056689101E+00  0.244728462532E+01
 -0.846037614014E+01  0.949238718581E+00  0.229214606376E+01
 -0.846192805627E+01  0.124095672914E+01  0.208151847640E+01
 -0.846356100207E+01  0.150152895366E+01  0.181918328016E+01
CELLS       1130     10170
8      0      9     10      1     99    108    109    100
8     99    108    109    100    198    207    208    199
8    198    207    208    199    297    306    307    298
8    297    306    307    298    396    405    406    397
8    396    405    406    397    495    504    505    496
8      9     18     19     10    108    117    118    109
8    108    117    118    109    207    216    217    208
8    207    216    217    208    306    315    316    307
8    306    315    316    307    405    414    415    406
8    405    414    415    406    504    513    514    505
8     18     27     28     19    117    126    127    118
8    117    126    127    118    216    225    226    217
8    216    225    226    217    315    324    325    316
8    315    324    325    316    414    423    424    415
8    414    423    424    415    513    522    523    514
8     27     36     37     28    126    135    136    127
8    126    135    136    127    225    234    235    226
8    225    234    235    226    324    333    334    325
8    324    333    334    325    423    432    433    424
8    423    432    433    424    522    531    532    523
8     36     45     46     37    135    144    145    136
8    135    144    145    136    234    243    244    235
8    234    243    244    235    333    342    343    334
8    333    342    343    334    432    441    442    433
8    432    441    442    433    531    540    541    532
8     45     54     55     46    144    153    154    145
8    144    153    154    145    243    252    253    244
8    243    252    253    244    342    351    352    343
8    342    351    352    343    441    450    451    442
8    441    450    451    442    540    549    550    541
8     54     63     64     55    153    162    163    154
8    153    162    163    154    252    261    262    253
8    252    261    262    253    351    360    361    352
8    351    360    361    352    450    459    460    451
8    450    459    460    451    549    558    559    550
8     63     72     73     64    162    171    172    163
8    162    171    172    163    261    270    271    262
8    261    270    271    262    360    369    370    361
8    360    369    370    361    459    468    469    460
8    459    468    469    460    558    567    568    559
8     72     81     82     73    171    180    181    172
8    171    180    181    172    270    279    280    271
8    270    279    280    271    369    378    379    370
8    369    378    379    370    468    477    478    469
8    468    477    478    469    567    576    577    568
8     81     90     91     82    180    189    190    181
8    180    189    190    181    279    288    289    280
8    279    288    289    280    378    387    388    379
8    378    387    388    379    477    486    487    478
8    477    486    487    478    576    585    586    577
8      1     10     11      2    100    109    110    101
8    100    109    110    101    199    208    209    200
8    199    208    209    200    298    307    308    299
8    298    307    308    299    397    406    407    398
8    397    406    407    398    496    505    506    497
8     10     19     20     11    109    118    119    110
8    109    118    119    110    208    217    218    209
8    208    217    218    209    307    316    317    308
8    307    316    317    308    406    415    416    407
8    406    415    416    407    505    514    515    506
8     19     28     29     20    118    127    128    119
8    118    127    128    119    217    226    227    218
8    217    226    227    218    316    325    326    317
8    316    325    326    317    415    424    425    416
8    415    424    425    416    514    523    524    515
8     28     37     38     29    127    136    137    128
8    127    136    137    128    226    235    236    227
8    226    235    236    227    325    334    335    326
8    325    334    335    326    424    433    434    425
8    424    433    434    425    523    532    533    524
8     37     46     47     38    136    145    146    137
8    136    145    146    137    235    244    245    236
8    235    244    245    236    334    343    344    335
8    334    343    344    335    433    442    443    434
8    433    442    443    434    532    541    542    533
8     46     55     56     47    145    154    155    146
8    145    154    155    146    244    253    254    245
8    244    253    254    245    343    352    353    344
8    343    352    353    344    442    451    452    443
8    442    451    452    443    541    550    551    542
8     55     64     65     56    154    163    164    155
8    154    163    164    155    253    262    263    254
8    253    262    263    254    352    361    362    353
8    352    361    362    353    451    460    461    452
8    451    460    461    452    550    559    560    551
8     64     73     74     65    163    172    173    164
8    163    172    173    164    262    271    272    263
8    262    271    272    263    361    370    371    362
8    361    370    371    362    460    469    470    461
8    460    469    470    461    559    568    569    560
8     73     82     83     74    172    181    182    173
8    172    181    182    173    271    280    281    272
8    271    280    281    272    370    379    380    371
8    370    379    380    371    469    478    479    470
8    469    478    479    470    568    577    578    569
8     82     91     92     83    181    190    191    182
8    181    190    191    182    280    289    290    281
8    280    289    290    281    379    388    389    380
8    379    388    389    380    478    487    488    479
8    478    487    488    479    577    586    587    578
8      2     11     12      3    101    110    111    102
8    101    110    111    102    200    209    210    201
8    200    209    210    201    299    308    309    300
8    299    308    309    300    398    407    408    399
8    398    407    408    399    497    506    507    498
8     11     20     21     12    110    119    120    111
8    110    119    120    111    209    218    219    210
8    209    218    219    210    308    317    318    309
8    308    317    318    309    407    416    417    408
8    407    416    417    408    506    515    516    507
8     20     29     30     21    119    128    129    120
8    119    128    129    120    218    227    228    219
8    218    227    228    219    317    326    327    318
8    317    326    327    318    416    425    426    417
8    416    425    426    417    515    524    525    516
8     29     38     39     30    128    137    138    129
8    128    137    138    129    227    236    237    228
8    227    236    237    228    326    335    336    327
8    326    335    336    327    425    434    435    426
8    425    434    435    426    524    533    534    525
8     38     47     48     39    137    146    147    138
8    137    146    147    138    236    245    246    237
8    236    245    246    237    335    344    345    336
8    335    344    345    336    434    443    444    435
8    434    443    444    435    533    542    543    534
8     47     56     57     48    146    155    156    147
8    146    155    156    147    245    254    255    246
8    245    254    255    246    344    353    354    345
8    344    353    354    345    443    452    453    444
8    443    452    453    444    542    551    552    543
8     56     65     66     57    155    164    165    156
8    155    164    165    156    254    263    264    255
8    254    263    264    255    353    362    363    354
8    353    362    363    354    452    461    462    453
8    452    461    462    453    551    560    561    552
8     65     74     75     66    164    173    174    165
8    164    173    174    165    263    272    273    264
8    263    272    273    264    362    371    372    363
8    362    371    372    363    461    470    471    462
8    461    470    471    462    560    569    570    561
8     74     83     84     75    173    182    183    174
8    173    182    183    174    272    281    282    273
8    272    281    282    273    371    380    381    372
8    371    380    381    372    470    479    480    471
8    470    479    480    471    569    578    579    570
8     83     92     93     84    182    191    192    183
8    182    191    192    183    281    290    291    282
8    281    290    291    282    380    389    390    381
8    380    389    390    381    479    488    489    480
8    479    488    489    480    578    587    588    579
8      3     12     13      4    102    111    112    103
8    102    111    112    103    201    210    211    202
8    201    210    211    202    300    309    310    301
8    300    309    310    301    399    408    409    400
8    399    408    409    400    498    507    508    499
8     12     21     22     13    111    120    121    112
8    111    120    121    112    210    219    220    211
8    210    219    220    211    309    318    319    310
8    309    318    319    310    408    417    418    409
8    408    417    418    409    507    516    517    508
8     21     30     31     22    120    129    130    121
8    120    129    130    121    219    228    229    220
8    219    228    229    220    318    327    328    319
8    318    327    328    319    417    426    427    418
8    417    426    427    418    516    525    526    517
8     30     39     40     31    129    138    139    130
8    129    138    139    130    228    237    238    229
8    228    237    238    229    327    336    337    328
8    327    336    337    328    426    435    436    427
8    426    435    436    427    525    534    535    526
8     39     48     49     40    138    147    148    139
8    138    147    148    139    237    246    247    238
8    237    246    247    238    336    345    346    337
8    336    345    346    337    435    444    445    436
8    435    444    445    436    534    543    544    535
8     48     57     58     49    147    156    157    148
8    147    156    157    148    246    255    256    247
8    246    255    256    247    345    354    355    346
8    345    354    355    346    444    453    454    445
8    444    453    454    445    543    552    553    544
8     57     66     67     58    156    165    166    157
8    156    165    166    157    255    264    265    256
8    255    264    265    256    354    363    364    355
8    354    363    364    355    453    462    463    454
8    453    462    463    454    552    561    562    553
8     66     75     76     67    165    174    175    166
8    165    174    175    166    264    273    274    265
8    264    273    274    265    363    372    373    364
8    363    372    373    364    462    471    472    463
8    462    471    472    463    561    570    571    562
8     75     84     85     76    174    183    184    175
8    174    183    184    175    273    282    283    274
8    273    282    283    274    372    381    382    373
8    372    381    382    373    471    480    481    472
8    471    480    481    472    570    579    580    571
8     84     93     94     85    183    192    193    184
8    183    192    193    184    282    291    292    283
8    282    291    292    283    381    390    391    382
8    381    390    391    382    480    489    490    481
8    480    489    490    481    579    588    589    580
8      4     13     14      5    103    112    113    104
8    103    112    113    104    202    211    212    203
8    202    211    212    203    301    310    311    302
8    301    310    311    302    400    409    410    401
8    400    409    410    401    499    508    509    500
8     13     22     23     14    112    121    122    113
8    112    121    122    113    211    220    221    212
8    211    220    221    212    310    319    320    311
8    310    319    320    311    409    418    419    410
8    409    418    419    410    508    517    518    509
8     22     31     32     23    121    130    131    122
8    121    130    131    122    220    229    230    221
8    220    229    230    221    319    328    329    320
8    319    328    329    320    418    427    428    419
8    418    427    428    419    517    526    527    518
8     31     40     41     32    130    139    140    131
8    130    139    140    131    229    238    239    230
8    229    238    239    230    328    337    338    329
8    328    337    338    329    427    436    437    428
8    427    436    437    428    526    535    536    527
8     40     49     50     41    139    148    149    140
8    139    148    149    140    238    247    248    239
8    238    247    248    239    337    346    347    338
8    337    346    347    338    436    445    446    437
8    436    445    446    437    535    544    545    536
8     49     58     59     50    148    157    158    149
8    148    157    158    149    247    256    257    248
8    247    256    257    248    346    355    356    347
8    346    355    356    347    445    454    455    446
8    445    454    455    446    544    553    554    545
8     58     67     68     59    157    166    167    158
8    157    166    167    158    256    265    266    257
8    256    265    266    257    355    364    365    356
8    355    364    365    356    454    463    464    455
8    454    463    464    455    553    562    563    554
8     67     76     77     68    166    175    176    167
8    166    175    176    167    265    274    275    266
8    265    274    275    266    364    373    374    365
8    364    373    374    365    463    472    473    464
8    463    472    473    464    562    571    572    563
8     76     85     86     77    175    184    185    176
8    175    184    185    176    274    283    284    275
8    274    283    284    275    373    382    383    374
8    373    382    383    374    472    481    482    473
8    472    481    482    473    571    580    581    572
8     85     94     95     86    184    193    194    185
8    184    193    194    185    283    292    293    284
8    283    292    293    284    382    391    392    383
8    382    391    392    383    481    490    491    482
8    481    490    491    482    580    589    590    581
8      5     14     15      6    104    113    114    105
8    104    113    114    105    203    212    213    204
8    203    212    213    204    302    311    312    303
8    302    311    312    303    401    410    411    402
8    401    410    411    402    500    509    510    501
8     14     23     24     15    113    122    123    114
8    113    122    123    114    212    221    222    213
8    212    221    222    213    311    320    321    312
8    311    320    321    312    410    419    420    411
8    410    419    420    411    509    518    519    510
8     23     32     33     24    122    131    132    123
8    122    131    132    123    221    230    231    222
8    221    230    231    222    320    329    330    321
8    320    329    330    321    419    428    429    420
8    419    428    429    420    518    527    528    519
8     32     41     42     33    131    140    141    132
8    131    140    141    132    230    239    240    231
8    230    239    240    231    329    338    339    330
8    329    338    339    330    428    437    438    429
8    428    437    438    429    527    536    537    528
8     41     50     51     42    140    149    150    141
8    140    149    150    141    239    248    249    240
8    239    248    249    240    338    347    348    339
8    338    347    348    339    437    446    447    438
8    437    446    447    438    536    545    546    537
8     50     59     60     51    149    158    159    150
8    149    158    159    150    248    257    258    249
8    248    257    258    249    347    356    357    348
8    347    356    357    348    446    455    456    447
8    446    455    456    447    545    554    555    546
8     59     68     69     60    158    167    168    159
8    158    167    168    159    257    266    267    258
8    257    266    267    258    356    365    366    357
8    356    365    366    357    455    464    465    456
8    455    464    465    456    554    563    564    555
8     68     77     78     69    167    176    177    168
8    167    176    177    168    266    275    276    267
8    266    275    276    267    365    374    375    366
8    365    374    375    366    464    473    474    465
8    464    473    474    465    563    572    573    564
8     77     86     87     78    176    185    186    177
8    176    185    186    177    275    284    285    276
8    275    284    285    276    374    383    384    375
8    374    383    384    375    473    482    483    474
8    473    482    483    474    572    581    582    573
8     86     95     96     87    185    194    195    186
8    185    194    195    186    284    293    294    285
8    284    293    294    285    383    392    393    384
8    383    392    393    384    482    491    492    483
8    482    491    492    483    581    590    591    582
8      6     15     16      7    105    114    115    106
8    105    114    115    106    204    213    214    205
8    204    213    214    205    303    312    313    304
8    303    312    313    304    402    411    412    403
8    402    411    412    403    501    510    511    502
8     15     24     25     16    114    123    124    115
8    114    123    124    115    213    222    223    214
8    213    222    223    214    312    321    322    313
8    312    321    322    313    411    420    421    412
8    411    420    421    412    510    519    520    511
8     24     33     34     25    123    132    133    124
8    123    132    133    124    222    231    232    223
8    222    231    232    223    321    330    331    322
8    321    330    331    322    420    429    430    421
8    420    429    430    421    519    528    529    520
8     33     42     43     34    132    141    142    133
8    132    141    142    133    231    240    241    232
8    231    240    241    232    330    339    340    331
8    330    339    340    331    429    438    439    430
8    429    438    439    430    528    537    538    529
8     42     51     52     43    141    150    151    142
8    141    150    151    142    240    249    250    241
8    240    249    250    241    339    348    349    340
8    339    348    349    340    438    447    448    439
8    438    447    448    439    537    546    547    538
8     51     60     61     52    150    159    160    151
8    150    159    160    151    249    258    259    250
8    249    258    259    250    348    357    358    349
8    348    357    358    349    447    456    457    448
8    447    456    457    448    546    555    556    547
8     60     69     70     61    159    168    169    160
8    159    168    169    160    258    267    268    259
8    258    267    268    259    357    366    367    358
8    357    366    367    358    456    465    466    457
8    456    465    466    457    555    564    565    556
8     69     78     79     70    168    177    178    169
8    168    177    178    169    267    276    277    268
8    267    276    277    268    366    375    376    367
8    366    375    376    367    465    474    475    466
8    465    474    475    466    564    573    574    565
8     78     87     88     79    177    186    187    178
8    177    186    187    178    276    285    286    277
8    276    285    286    277    375    384    385    376
8    375    384    385    376    474    483    484    475
8    474    483    484    475    573    582    583    574
8     87     96     97     88    186    195    196    187
8    186    195    196    187    285    294    295    286
8    285    294    295    286    384    393    394    385
8    384    393    394    385    483    492    493    484
8    483    492    493    484    582    591    592    583
8      7     16     17      8    106    115    116    107
8    106    115    116    107    205    214    215    206
8    205    214    215    206    304    313    314    305
8    304    313    314    305    403    412    413    404
8    403    412    413    404    502    511    512    503
8     16     25     26     17    115    124    125    116
8    115    124    125    116    214    223    224    215
8    214    223    224    215    313    322    323    314
8    313    322    323    314    412    421    422    413
8    412    421    422    413    511    520    521    512
8     25     34     35     26    124    133    134    125
8    124    133    134    125    223    232    233    224
8    223    232    233    224    322    331    332    323
8    322    331    332    323    421    430    431    422
8    421    430    431    422    520    529    530    521
8     34     43     44     35    133    142    143    134
8    133    142    143    134    232    241    242    233
8    232    241    242    233    331    340    341    332
8    331    340    341    332    430    439    440    431
8    430    439    440    431    529    538    539    530
8     43     52     53     44    142    151    152    143
8    142    151    152    143    241    250    251    242
8    241    250    251    242    340    349    350    341
8    340    349    350    341    439    448    449    440
8    439    448    449    440    538    547    548    539
8     52     61     62     53    151    160    161    152
8    151    160    161    152    250    259    260    251
8    250    259    260    251    349    358    359    350
8    349    358    359    350    448    457    458    449
8    448    457    458    449    547    556    557    548
8     61     70     71     62    160    169    170    161
8    160    169    170    161    259    268    269    260
8    259    268    269    260    358    367    368    359
8    358    367    368    359    457    466    467    458
8    457    466    467    458    556    565    566    557
8     70     79     80     71    169    178    179    170
8    169    178    179    170    268    277    278    269
8    268    277    278    269    367    376    377    368
8    367    376    377    368    466    475    476    467
8    466    475    476    467    565    574    575    566
8     79     88     89     80    178    187    188    179
8    178    187    188    179    277    286    287    278
8    277    286    287    278    376    385    386    377
8    376    385    386    377    475    484    485    476
8    475    484    485    476    574    583    584    575
8     88     97     98     89    187    196    197    188
8    187    196    197    188    286    295    296    287
8    286    295    296    287    385    394    395    386
8    385    394    395    386    484    493    494    485
8    484    493    494    485    583    592    593    584
8     53     62    605    594    152    161    671    660
8    152    161    671    660    251    260    737    726
8    251    260    737    726    350    359    803    792
8    350    359    803    792    449    458    869    858
8    449    458    869    858    548    557    935    924
8     62     71    616    605    161    170    682    671
8    161    170    682    671    260    269    748    737
8    260    269    748    737    359    368    814    803
8    359    368    814    803    458    467    880    869
8    458    467    880    869    557    566    946    935
8     71     80    627    616    170    179    693    682
8    170    179    693    682    269    278    759    748
8    269    278    759    748    368    377    825    814
8    368    377    825    814    467    476    891    880
8    467    476    891    880    566    575    957    946
8     80     89    638    627    179    188    704    693
8    179    188    704    693    278    287    770    759
8    278    287    770    759    377    386    836    825
8    377    386    836    825    476    485    902    891
8    476    485    902    891    575    584    968    957
8     89     98    649    638    188    197    715    704
8    188    197    715    704    287    296    781    770
8    287    296    781    770    386    395    847    836
8    386    395    847    836    485    494    913    902
8    485    494    913    902    584    593    979    968
8      8     17   1025   1034    107    116   1079   1088
8    107    116   1079   1088    206    215   1133   1142
8    206    215   1133   1142    305    314   1187   1196
8    305    314   1187   1196    404    413   1241   1250
8    404    413   1241   1250    503    512   1295   1304
8     17     26   1016   1025    116    125   1070   1079
8    116    125   1070   1079    215    224   1124   1133
8    215    224   1124   1133    314    323   1178   1187
8    314    323   1178   1187    413    422   1232   1241
8    413    422   1232   1241    512    521   1286   1295
8     26     35   1007   1016    125    134   1061   1070
8    125    134   1061   1070    224    233   1115   1124
8    224    233   1115   1124    323    332   1169   1178
8    323    332   1169   1178    422    431   1223   1232
8    422    431   1223   1232    521    530   1277   1286
8     35     44    998   1007    134    143   1052   1061
8    134    143   1052   1061    233    242   1106   1115
8    233    242   1106   1115    332    341   1160   1169
8    332    341   1160   1169    431    440   1214   1223
8    431    440   1214   1223    530    539   1268   1277
8     44     53    594    998    143    152   1043   1052
8    143    152   1043   1052    242    251   1097   1106
8    242    251   1097   1106    341    350   1151   1160
8    341    350   1151   1160    440    449   1205   1214
8    440    449   1205   1214    539    548   1259   1268
8    594    605    606    595    660    671    672    661
8    660    671    672    661    726    737    738    727
8    726    737    738    727    792    803    804    793
8    792    803    804    793    858    869    870    859
8    858    869    870    859    924    935    936    925
8    605    616    617    606    671    682    683    672
8    671    682    683    672    737    748    749    738
8    737    748    749    738    803    814    815    804
8    803    814    815    804    869    880    881    870
8    869    880    881    870    935    946    947    936
8    616    627    628    617    682    693    694    683
8    682    693    694    683    748    759    760    749
8    748    759    760    749    814    825    826    815
8    814    825    826    815    880    891    892    881
8    880    891    892    881    946    957    958    947
8    627    638    639    628    693    704    705    694
8    693    704    705    694    759    770    771    760
8    759    770    771    760    825    836    837    826
8    825    836    837    826    891    902    903    892
8    891    902    903    892    957    968    969    958
8    638    649    650    639    704    715    716    705
8    704    715    716    705    770    781    782    771
8    770    781    782    771    836    847    848    837
8    836    847    848    837    902    913    914    903
8    902    913    914    903    968    979    980    969
8    595    606    607    596    661    672    673    662
8    661    672    673    662    727    738    739    728
8    727    738    739    728    793    804    805    794
8    793    804    805    794    859    870    871    860
8    859    870    871    860    925    936    937    926
8    606    617    618    607    672    683    684    673
8    672    683    684    673    738    749    750    739
8    738    749    750    739    804    815    816    805
8    804    815    816    805    870    881    882    871
8    870    881    882    871    936    947    948    937
8    617    628    629    618    683    694    695    684
8    683    694    695    684    749    760    761    750
8    749    760    761    750    815    826    827    816
8    815    826    827    816    881    892    893    882
8    881    892    893    882    947    958    959    948
8    628    639    640    629    694    705    706    695
8    694    705    706    695    760    771    772    761
8    760    771    772    761    826    837    838    827
8    826    837    838    827    892    903    904    893
8    892    903    904    893    958    969    970    959
8    639    650    651    640    705    716    717    706
8    705    716    717    706    771    782    783    772
8    771    782    783    772    837    848    849    838
8    837    848    849    838    903    914    915    904
8    903    914    915    904    969    980    981    970
8    596    607    608    597    662    673    674    663
8    662    673    674    663    728    739    740    729
8    728    739    740    729    794    805    806    795
8    794    805    806    795    860    871    872    861
8    860    871    872    861    926    937    938    927
8    607    618    619    608    673    684    685    674
8    673    684    685    674    739    750    751    740
8    739    750    751    740    805    816    817    806
8    805    816    817    806    871    882    883    872
8    871    882    883    872    937    948    949    938
8    618    629    630    619    684    695    696    685
8    684    695    696    685    750    761    762    751
8    750    761    762    751    816    827    828    817
8    816    827    828    817    882    893    894    883
8    882    893    894    883    948    959    960    949
8    629    640    641    630    695    706    707    696
8    695    706    707    696    761    772    773    762
8    761    772    773    762    827    838    839    828
8    827    838    839    828    893    904    905    894
8    893    904    905    894    959    970    971    960
8    640    651    652    641    706    717    718    707
8    706    717    718    707    772    783    784    773
8    772    783    784    773    838    849    850    839
8    838    849    850    839    904    915    916    905
8    904    915    916    905    970    981    982    971
8    597    608    609    598    663    674    675    664
8    663    674    675    664    729    740    741    730
8    729    740    741    730    795    806    807    796
8    795    806    807    796    861    872    873    862
8    861    872    873    862    927    938    939    928
8    608    619    620    609    674    685    686    675
8    674    685    686    675    740    751    752    741
8    740    751    752    741    806    817    818    807
8    806    817    818    807    872    883    884    873
8    872    883    884    873    938    949    950    939
8    619    630    631    620    685    696    697    686
8    685    696    697    686    751    762    763    752
8    751    762    763    752    817    828    829    818
8    817    828    829    818    883    894    895    884
8    883    894    895    884    949    960    961    950
8    630    641    642    631    696    707    708    697
8    696    707    708    697    762    773    774    763
8    762    773    774    763    828    839    840    829
8    828    839    840    829    894    905    906    895
8    894    905    906    895    960    971    972    961
8    641    652    653    642    707    718    719    708
8    707    718    719    708    773    784    785    774
8    773    784    785    774    839    850    851    840
8    839    850    851    840    905    916    917    906
8    905    916    917    906    971    982    983    972
8    598    609    610    599    664    675    676    665
8    664    675    676    665    730    741    742    731
8    730    741    742    731    796    807    808    797
8    796    807    808    797    862    873    874    863
8    862    873    874    863    928    939    940    929
8    609    620    621    610    675    686    687    676
8    675    686    687    676    741    752    753    742
8    741    752    753    742    807    818    819    808
8    807    818    819    808    873    884    885    874
8    873    884    885    874    939    950    951    940
8    620    631    632    621    686    697    698    687
8    686    697    698    687    752    763    764    753
8    752    763    764    753    818    829    830    819
8    818    829    830    819    884    895    896    885
8    884    895    896    885    950    961    962    951
8    631    642    643    632    697    708    709    698
8    697    708    709    698    763    774    775    764
8    763    774    775    764    829    840    841    830
8    829    840    841    830    895    906    907    896
8    895    906    907    896    961    972    973    962
8    642    653    654    643    708    719    720    709
8    708    719    720    709    774    785    786    775
8    774    785    786    775    840    851    852    841
8    840    851    852    841    906    917    918    907
8    906    917    918    907    972    983    984    973
8    599    610    611    600    665    676    677    666
8    665    676    677    666    731    742    743    732
8    731    742    743    732    797    808    809    798
8    797    808    809    798    863    874    875    864
8    863    874    875    864    929    940    941    930
8    610    621    622    611    676    687    688    677
8    676    687    688    677    742    753    754    743
8    742    753    754    743    808    819    820    809
8    808    819    820    809    874    885    886    875
8    874    885    886    875    940    951    952    941
8    621    632    633    622    687    698    699    688
8    687    698    699    688    753    764    765    754
8    753    764    765    754    819    830    831    820
8    819    830    831    820    885    896    897    886
8    885    896    897    886    951    962    963    952
8    632    643    644    633    698    709    710    699
8    698    709    710    699    764    775    776    765
8    764    775    776    765    830    841    842    831
8    830    841    842    831    896    907    908    897
8    896    907    908    897    962    973    974    963
8    643    654    655    644    709    720    721    710
8    709    720    721    710    775    786    787    776
8    775    786    787    776    841    852    853    842
8    841    852    853    842    907    918    919    908
8    907    918    919    908    973    984    985    974
8    600    611    612    601    666    677    678    667
8    666    677    678    667    732    743    744    733
8    732    743    744    733    798    809    810    799
8    798    809    810    799    864    875    876    865
8    864    875    876    865    930    941    942    931
8    611    622    623    612    677    688    689    678
8    677    688    689    678    743    754    755    744
8    743    754    755    744    809    820    821    810
8    809    820    821    810    875    886    887    876
8    875    886    887    876    941    952    953    942
8    622    633    634    623    688    699    700    689
8    688    699    700    689    754    765    766    755
8    754    765    766    755    820    831    832    821
8    820    831    832    821    886    897    898    887
8    886    897    898    887    952    963    964    953
8    633    644    645    634    699    710    711    700
8    699    710    711    700    765    776    777    766
8    765    776    777    766    831    842    843    832
8    831    842    843    832    897    908    909    898
8    897    908    909    898    963    974    975    964
8    644    655    656    645    710    721    722    711
8    710    721    722    711    776    787    788    777
8    776    787    788    777    842    853    854    843
8    842    853    854    843    908    919    920    909
8    908    919    920    909    974    985    986    975
8    601    612    613    602    667    678    679    668
8    667    678    679    668    733    744    745    734
8    733    744    745    734    799    810    811    800
8    799    810    811    800    865    876    877    866
8    865    876    877    866    931    942    943    932
8    612    623    624    613    678    689    690    679
8    678    689    690    679    744    755    756    745
8    744    755    756    745    810    821    822    811
8    810    821    822    811    876    887    888    877
8    876    887    888    877    942    953    954    943
8    623    634    635    624    689    700    701    690
8    689    700    701    690    755    766    767    756
8    755    766    767    756    821    832    833    822
8    821    832    833    822    887    898    899    888
8    887    898    899    888    953    964    965    954
8    634    645    646    635    700    711    712    701
8    700    711    712    701    766    777    778    767
8    766    777    778    767    832    843    844    833
8    832    843    844    833    898    909    910    899
8    898    909    910    899    964    975    976    965
8    645    656    657    646    711    722    723    712
8    711    722    723    712    777    788    789    778
8    777    788    789    778    843    854    855    844
8    843    854    855    844    909    920    921    910
8    909    920    921    910    975    986    987    976
8    602    613    614    603    668    679    680    669
8    668    679    680    669    734    745    746    735
8    734    745    746    735    800    811    812    801
8    800    811    812    801    866    877    878    867
8    866    877    878    867    932    943    944    933
8    613    624    625    614    679    690    691    680
8    679    690    691    680    745    756    757    746
8    745    756    757    746    811    822    823    812
8    811    822    823    812    877    888    889    878
8    877    888    889    878    943    954    955    944
8    624    635    636    625    690    701    702    691
8    690    701    702    691    756    767    768    757
8    756    767    768    757    822    833    834    823
8    822    833    834    823    888    899    900    889
8    888    899    900    889    954    965    966    955
8    635    646    647    636    701    712    713    702
8    701    712    713    702    767    778    779    768
8    767    778    779    768    833    844    845    834
8    833    844    845    834    899    910    911    900
8    899    910    911    900    965    976    977    966
8    646    657    658    647    712    723    724    713
8    712    723    724    713    778    789    790    779
8    778    789    790    779    844    855    856    845
8    844    855    856    845    910    921    922    911
8    910    921    922    911    976    987    988    977
8    603    614    615    604    669    680    681    670
8    669    680    681    670    735    746    747    736
8    735    746    747    736    801    812    813    802
8    801    812    813    802    867    878    879    868
8    867    878    879    868    933    944    945    934
8    614    625    626    615    680    691    692    681
8    680    691    692    681    746    757    758    747
8    746    757    758    747    812    823    824    813
8    812    823    824    813    878    889    890    879
8    878    889    890    879    944    955    956    945
8    625    636    637    626    691    702    703    692
8    691    702    703    692    757    768    769    758
8    757    768    769    758    823    834    835    824
8    823    834    835    824    889    900    901    890
8    889    900    901    890    955    966    967    956
8    636    647    648    637    702    713    714    703
8    702    713    714    703    768    779    780    769
8    768    779    780    769    834    845    846    835
8    834    845    846    835    900    911    912    901
8    900    911    912    901    966    977    978    967
8    647    658    659    648    713    724    725    714
8    713    724    725    714    779    790    791    780
8    779    790    791    780    845    856    857    846
8    845    856    857    846    911    922    923    912
8    911    922    923    912    977    988    989    978
8    998    594    990    999   1052   1043   1044   1053
8   1052   1043   1044   1053   1106   1097   1098   1107
8   1106   1097   1098   1107   1160   1151   1152   1161
8   1160   1151   1152   1161   1214   1205   1206   1215
8   1214   1205   1206   1215   1268   1259   1260   1269
8   1007    998    999   1008   1061   1052   1053   1062
8   1061   1052   1053   1062   1115   1106   1107   1116
8   1115   1106   1107   1116   1169   1160   1161   1170
8   1169   1160   1161   1170   1223   1214   1215   1224
8   1223   1214   1215   1224   1277   1268   1269   1278
8   1016   1007   1008   1017   1070   1061   1062   1071
8   1070   1061   1062   1071   1124   1115   1116   1125
8   1124   1115   1116   1125   1178   1169   1170   1179
8   1178   1169   1170   1179   1232   1223   1224   1233
8   1232   1223   1224   1233   1286   1277   1278   1287
8   1025   1016   1017   1026   1079   1070   1071   1080
8   1079   1070   1071   1080   1133   1124   1125   1134
8   1133   1124   1125   1134   1187   1178   1179   1188
8   1187   1178   1179   1188   1241   1232   1233   1242
8   1241   1232   1233   1242   1295   1286   1287   1296
8   1034   1025   1026   1035   1088   1079   1080   1089
8   1088   1079   1080   1089   1142   1133   1134   1143
8   1142   1133   1134   1143   1196   1187   1188   1197
8   1196   1187   1188   1197   1250   1241   1242   1251
8   1250   1241   1242   1251   1304   1295   1296   1305
8    999    990    991   1000   1053   1044   1045   1054
8   1053   1044   1045   1054   1107   1098   1099   1108
8   1107   1098   1099   1108   1161   1152   1153   1162
8   1161   1152   1153   1162   1215   1206   1207   1216
8   1215   1206   1207   1216   1269   1260   1261   1270
8   1008    999   1000   1009   1062   1053   1054   1063
8   1062   1053   1054   1063   1116   1107   1108   1117
8   1116   1107   1108   1117   1170   1161   1162   1171
8   1170   1161   1162   1171   1224   1215   1216   1225
8   1224   1215   1216   1225   1278   1269   1270   1279
8   1017   1008   1009   1018   1071   1062   1063   1072
8   1071   1062   1063   1072   1125   1116   1117   1126
8   1125   1116   1117   1126   1179   1170   1171   1180
8   1179   1170   1171   1180   1233   1224   1225   1234
8   1233   1224   1225   1234   1287   1278   1279   1288
8   1026   1017   1018   1027   1080   1071   1072   1081
8   1080   1071   1072   1081   1134   1125   1126   1135
8   1134   1125   1126   1135   1188   1179   1180   1189
8   1188   1179   1180   1189   1242   1233   1234   1243
8   1242   1233   1234   1243   1296   1287   1288   1297
8   1035   1026   1027   1036   1089   1080   1081   1090
8   1089   1080   1081   1090   1143   1134   1135   1144
8   1143   1134   1135   1144   1197   1188   1189   1198
8   1197   1188   1189   1198   1251   1242   1243   1252
8   1251   1242   1243   1252   1305   1296   1297   1306
8   1000    991    992   1001   1054   1045   1046   1055
8   1054   1045   1046   1055   1108   1099   1100   1109
8   1108   1099   1100   1109   1162   1153   1154   1163
8   1162   1153   1154   1163   1216   1207   1208   1217
8   1216   1207   1208   1217   1270   1261   1262   1271
8   1009   1000   1001   1010   1063   1054   1055   1064
8   1063   1054   1055   1064   1117   1108   1109   1118
8   1117   1108   1109   1118   1171   1162   1163   1172
8   1171   1162   1163   1172   1225   1216   1217   1226
8   1225   1216   1217   1226   1279   1270   1271   1280
8   1018   1009   1010   1019   1072   1063   1064   1073
8   1072   1063   1064   1073   1126   1117   1118   1127
8   1126   1117   1118   1127   1180   1171   1172   1181
8   1180   1171   1172   1181   1234   1225   1226   1235
8   1234   1225   1226   1235   1288   1279   1280   1289
8   1027   1018   1019   1028   1081   1072   1073   1082
8   1081   1072   1073   1082   1135   1126   1127   1136
8   1135   1126   1127   1136   1189   1180   1181   1190
8   1189   1180   1181   1190   1243   1234   1235   1244
8   1243   1234   1235   1244   1297   1288   1289   1298
8   1036   1027   1028   1037   1090   1081   1082   1091
8   1090   1081   1082   1091   1144   1135   1136   1145
8   1144   1135   1136   1145   1198   1189   1190   1199
8   1198   1189   1190   1199   1252   1243   1244   1253
8   1252   1243   1244   1253   1306   1297   1298   1307
8   1001    992    993   1002   1055   1046   1047   1056
8   1055   1046   1047   1056   1109   1100   1101   1110
8   1109   1100   1101   1110   1163   1154   1155   1164
8   1163   1154   1155   1164   1217   1208   1209   1218
8   1217   1208   1209   1218   1271   1262   1263   1272
8   1010   1001   1002   1011   1064   1055   1056   1065
8   1064   1055   1056   1065   1118   1109   1110   1119
8   1118   1109   1110   1119   1172   1163   1164   1173
8   1172   1163   1164   1173   1226   1217   1218   1227
8   1226   1217   1218   1227   1280   1271   1272   1281
8   1019   1010   1011   1020   1073   1064   1065   1074
8   1073   1064   1065   1074   1127   1118   1119   1128
8   1127   1118   1119   1128   1181   1172   1173   1182
8   1181   1172   1173   1182   1235   1226   1227   1236
8   1235   1226   1227   1236   1289   1280   1281   1290
8   1028   1019   1020   1029   1082   1073   1074   1083
8   1082   1073   1074   1083   1136   1127   1128   1137
8   1136   1127   1128   1137   1190   1181   1182   1191
8   1190   1181   1182   1191   1244   1235   1236   1245
8   1244   1235   1236   1245   1298   1289   1290   1299
8   1037   1028   1029   1038   1091   1082   1083   1092
8   1091   1082   1083   1092   1145   1136   1137   1146
8   1145   1136   1137   1146   1199   1190   1191   1200
8   1199   1190   1191   1200   1253   1244   1245   1254
8   1253   1244   1245   1254   1307   1298   1299   1308
8   1002    993    994   1003   1056   1047   1048   1057
8   1056   1047   1048   1057   1110   1101   1102   1111
8   1110   1101   1102   1111   1164   1155   1156   1165
8   1164   1155   1156   1165   1218   1209   1210   1219
8   1218   1209   1210   1219   1272   1263   1264   1273
8   1011   1002   1003   1012   1065   1056   1057   1066
8   1065   1056   1057   1066   1119   1110   1111   1120
8   1119   1110   1111   1120   1173   1164   1165   1174
8   1173   1164   1165   1174   1227   1218   1219   1228
8   1227   1218   1219   1228   1281   1272   1273   1282
8   1020   1011   1012   1021   1074   1065   1066   1075
8   1074   1065   1066   1075   1128   1119   1120   1129
8   1128   1119   1120   1129   1182   1173   1174   1183
8   1182   1173   1174   1183   1236   1227   1228   1237
8   1236   1227   1228   1237   1290   1281   1282   1291
8   1029   1020   1021   1030   1083   1074   1075   1084
8   1083   1074   1075   1084   1137   1128   1129   1138
8   1137   1128   1129   1138   1191   1182   1183   1192
8   1191   1182   1183   1192   1245   1236   1237   1246
8   1245   1236   1237   1246   1299   1290   1291   1300
8   1038   1029   1030   1039   1092   1083   1084   1093
8   1092   1083   1084   1093   1146   1137   1138   1147
8   1146   1137   1138   1147   1200   1191   1192   1201
8   1200   1191   1192   1201   1254   1245   1246   1255
8   1254   1245   1246   1255   1308   1299   1300   1309
8   1003    994    995   1004   1057   1048   1049   1058
8   1057   1048   1049   1058   1111   1102   1103   1112
8   1111   1102   1103   1112   1165   1156   1157   1166
8   1165   1156   1157   1166   1219   1210   1211   1220
8   1219   1210   1211   1220   1273   1264   1265   1274
8   1012   1003   1004   1013   1066   1057   1058   1067
8   1066   1057   1058   1067   1120   1111   1112   1121
8   1120   1111   1112   1121   1174   1165   1166   1175
8   1174   1165   1166   1175   1228   1219   1220   1229
8   1228   1219   1220   1229   1282   1273   1274   1283
8   1021   1012   1013   1022   1075   1066   1067   1076
8   1075   1066   1067   1076   1129   1120   1121   1130
8   1129   1120   1121   1130   1183   1174   1175   1184
8   1183   1174   1175   1184   1237   1228   1229   1238
8   1237   1228   1229   1238   1291   1282   1283   1292
8   1030   1021   1022   1031   1084   1075   1076   1085
8   1084   1075   1076   1085   1138   1129   1130   1139
8   1138   1129   1130   1139   1192   1183   1184   1193
8   1192   1183   1184   1193   1246   1237   1238   1247
8   1246   1237   1238   1247   1300   1291   1292   1301
8   1039   1030   1031   1040   1093   1084   1085   1094
8   1093   1084   1085   1094   1147   1138   1139   1148
8   1147   1138   1139   1148   1201   1192   1193   1202
8   1201   1192   1193   1202   1255   1246   1247   1256
8   1255   1246   1247   1256   1309   1300   1301   1310
8   1004    995    996   1005   1058   1049   1050   1059
8   1058   1049   1050   1059   1112   1103   1104   1113
8   1112   1103   1104   1113   1166   1157   1158   1167
8   1166   1157   1158   1167   1220   1211   1212   1221
8   1220   1211   1212   1221   1274   1265   1266   1275
8   1013   1004   1005   1014   1067   1058   1059   1068
8   1067   1058   1059   1068   1121   1112   1113   1122
8   1121   1112   1113   1122   1175   1166   1167   1176
8   1175   1166   1167   1176   1229   1220   1221   1230
8   1229   1220   1221   1230   1283   1274   1275   1284
8   1022   1013   1014   1023   1076   1067   1068   1077
8   1076   1067   1068   1077   1130   1121   1122   1131
8   1130   1121   1122   1131   1184   1175   1176   1185
8   1184   1175   1176   1185   1238   1229   1230   1239
8   1238   1229   1230   1239   1292   1283   1284   1293
8   1031   1022   1023   1032   1085   1076   1077   1086
8   1085   1076   1077   1086   1139   1130   1131   1140
8   1139   1130   1131   1140   1193   1184   1185   1194
8   1193   1184   1185   1194   1247   1238   1239   1248
8   1247   1238   1239   1248   1301   1292   1293   1302
8   1040   1031   1032   1041   1094   1085   1086   1095
8   1094   1085   1086   1095   1148   1139   1140   1149
8   1148   1139   1140   1149   1202   1193   1194   1203
8   1202   1193   1194   1203   1256   1247   1248   1257
8   1256   1247   1248   1257   1310   1301   1302   1311
8   1005    996    997   1006   1059   1050   1051   1060
8   1059   1050   1051   1060   1113   1104   1105   1114
8   1113   1104   1105   1114   1167   1158   1159   1168
8   1167   1158   1159   1168   1221   1212   1213   1222
8   1221   1212   1213   1222   1275   1266   1267   1276
8   1014   1005   1006   1015   1068   1059   1060   1069
8   1068   1059   1060   1069   1122   1113   1114   1123
8   1122   1113   1114   1123   1176   1167   1168   1177
8   1176   1167   1168   1177   1230   1221   1222   1231
8   1230   1221   1222   1231   1284   1275   1276   1285
8   1023   1014   1015   1024   1077   1068   1069   1078
8   1077   1068   1069   1078   1131   1122   1123   1132
8   1131   1122   1123   1132   1185   1176   1177   1186
8   1185   1176   1177   1186   1239   1230   1231   1240
8   1239   1230   1231   1240   1293   1284   1285   1294
8   1032   1023   1024   1033   1086   1077   1078   1087
8   1086   1077   1078   1087   1140   1131   1132   1141
8   1140   1131   1132   1141   1194   1185   1186   1195
8   1194   1185   1186   1195   1248   1239   1240   1249
8   1248   1239   1240   1249   1302   1293   1294   1303
8   1041   1032   1033   1042   1095   1086   1087   1096
8   1095   1086   1087   1096   1149   1140   1141   1150
8   1149   1140   1141   1150   1203   1194   1195   1204
8   1203   1194   1195   1204   1257   1248   1249   1258
8   1257   1248   1249   1258   1311   1302   1303   1312
8      0   1314   1324     99      1   1315   1325    100
8     99   1324   1334    198    100   1325   1335    199
8    198   1334   1344    297    199   1335   1345    298
8    297   1344   1354    396    298   1345   1355    397
8    396   1354   1364    495    397   1355   1365    496
8    495   1364   1374    504    496   1365   1375    505
8    504   1374   1384    513    505   1375   1385    514
8    513   1384   1394    522    514   1385   1395    523
8    522   1394   1404    531    523   1395   1405    532
8    531   1404   1414    540    532   1405   1415    541
8    540   1414   1424    549    541   1415   1425    550
8    549   1424   1434    558    550   1425   1435    559
8    558   1434   1444    567    559   1435   1445    568
8    567   1444   1454    576    568   1445   1455    577
8    576   1454   1464    585    577   1455   1465    586
8     90    189   1504   1514     91    190   1505   1515
8    189    288   1494   1504    190    289   1495   1505
8    288    387   1484   1494    289    388   1485   1495
8    387    486   1474   1484    388    487   1475   1485
8    486    585   1464   1474    487    586   1465   1475
8      1   1315   1325    100      2   1316   1326    101
8    100   1325   1335    199    101   1326   1336    200
8    199   1335   1345    298    200   1336   1346    299
8    298   1345   1355    397    299   1346   1356    398
8    397   1355   1365    496    398   1356   1366    497
8    496   1365   1375    505    497   1366   1376    506
8    505   1375   1385    514    506   1376   1386    515
8    514   1385   1395    523    515   1386   1396    524
8    523   1395   1405    532    524   1396   1406    533
8    532   1405   1415    541    533   1406   1416    542
8    541   1415   1425    550    542   1416   1426    551
8    550   1425   1435    559    551   1426   1436    560
8    559   1435   1445    568    560   1436   1446    569
8    568   1445   1455    577    569   1446   1456    578
8    577   1455   1465    586    578   1456   1466    587
8     91    190   1505   1515     92    191   1506   1516
8    190    289   1495   1505    191    290   1496   1506
8    289    388   1485   1495    290    389   1486   1496
8    388    487   1475   1485    389    488   1476   1486
8    487    586   1465   1475    488    587   1466   1476
8      2   1316   1326    101      3   1317   1327    102
8    101   1326   1336    200    102   1327   1337    201
8    200   1336   1346    299    201   1337   1347    300
8    299   1346   1356    398    300   1347   1357    399
8    398   1356   1366    497    399   1357   1367    498
8    497   1366   1376    506    498   1367   1377    507
8    506   1376   1386    515    507   1377   1387    516
8    515   1386   1396    524    516   1387   1397    525
8    524   1396   1406    533    525   1397   1407    534
8    533   1406   1416    542    534   1407   1417    543
8    542   1416   1426    551    543   1417   1427    552
8    551   1426   1436    560    552   1427   1437    561
8    560   1436   1446    569    561   1437   1447    570
8    569   1446   1456    578    570   1447   1457    579
8    578   1456   1466    587    579   1457   1467    588
8     92    191   1506   1516     93    192   1507   1517
8    191    290   1496   1506    192    291   1497   1507
8    290    389   1486   1496    291    390   1487   1497
8    389    488   1476   1486    390    489   1477   1487
8    488    587   1466   1476    489    588   1467   1477
8      3   1317   1327    102      4   1318   1328    103
8    102   1327   1337    201    103   1328   1338    202
8    201   1337   1347    300    202   1338   1348    301
8    300   1347   1357    399    301   1348   1358    400
8    399   1357   1367    498    400   1358   1368    499
8    498   1367   1377    507    499   1368   1378    508
8    507   1377   1387    516    508   1378   1388    517
8    516   1387   1397    525    517   1388   1398    526
8    525   1397   1407    534    526   1398   1408    535
8    534   1407   1417    543    535   1408   1418    544
8    543   1417   1427    552    544   1418   1428    553
8    552   1427   1437    561    553   1428   1438    562
8    561   1437   1447    570    562   1438   1448    571
8    570   1447   1457    579    571   1448   1458    580
8    579   1457   1467    588    580   1458   1468    589
8     93    192   1507   1517     94    193   1508   1518
8    192    291   1497   1507    193    292   1498   1508
8    291    390   1487   1497    292    391   1488   1498
8    390    489   1477   1487    391    490   1478   1488
8    489    588   1467   1477    490    589   1468   1478
8      4   1318   1328    103      5   1319   1329    104
8    103   1328   1338    202    104   1329   1339    203
8    202   1338   1348    301    203   1339   1349    302
8    301   1348   1358    400    302   1349   1359    401
8    400   1358   1368    499    401   1359   1369    500
8    499   1368   1378    508    500   1369   1379    509
8    508   1378   1388    517    509   1379   1389    518
8    517   1388   1398    526    518   1389   1399    527
8    526   1398   1408    535    527   1399   1409    536
8    535   1408   1418    544    536   1409   1419    545
8    544   1418   1428    553    545   1419   1429    554
8    553   1428   1438    562    554   1429   1439    563
8    562   1438   1448    571    563   1439   1449    572
8    571   1448   1458    580    572   1449   1459    581
8    580   1458   1468    589    581   1459   1469    590
8     94    193   1508   1518     95    194   1509   1519
8    193    292   1498   1508    194    293   1499   1509
8    292    391   1488   1498    293    392   1489   1499
8    391    490   1478   1488    392    491   1479   1489
8    490    589   1468   1478    491    590   1469   1479
8      5   1319   1329    104      6   1320   1330    105
8    104   1329   1339    203    105   1330   1340    204
8    203   1339   1349    302    204   1340   1350    303
8    302   1349   1359    401    303   1350   1360    402
8    401   1359   1369    500    402   1360   1370    501
8    500   1369   1379    509    501   1370   1380    510
8    509   1379   1389    518    510   1380   1390    519
8    518   1389   1399    527    519   1390   1400    528
8    527   1399   1409    536    528   1400   1410    537
8    536   1409   1419    545    537   1410   1420    546
8    545   1419   1429    554    546   1420   1430    555
8    554   1429   1439    563    555   1430   1440    564
8    563   1439   1449    572    564   1440   1450    573
8    572   1449   1459    581    573   1450   1460    582
8    581   1459   1469    590    582   1460   1470    591
8     95    194   1509   1519     96    195   1510   1520
8    194    293   1499   1509    195    294   1500   1510
8    293    392   1489   1499    294    393   1490   1500
8    392    491   1479   1489    393    492   1480   1490
8    491    590   1469   1479    492    591   1470   1480
8      6   1320   1330    105      7   1321   1331    106
8    105   1330   1340    204    106   1331   1341    205
8    204   1340   1350    303    205   1341   1351    304
8    303   1350   1360    402    304   1351   1361    403
8    402   1360   1370    501    403   1361   1371    502
8    501   1370   1380    510    502   1371   1381    511
8    510   1380   1390    519    511   1381   1391    520
8    519   1390   1400    528    520   1391   1401    529
8    528   1400   1410    537    529   1401   1411    538
8    537   1410   1420    546    538   1411   1421    547
8    546   1420   1430    555    547   1421   1431    556
8    555   1430   1440    564    556   1431   1441    565
8    564   1440   1450    573    565   1441   1451    574
8    573   1450   1460    582    574   1451   1461    583
8    582   1460   1470    591    583   1461   1471    592
8     96    195   1510   1520     97    196   1511   1521
8    195    294   1500   1510    196    295   1501   1511
8    294    393   1490   1500    295    394   1491   1501
8    393    492   1480   1490    394    493   1481   1491
8    492    591   1470   1480    493    592   1471   1481
8      7   1321   1331    106      8   1322   1332    107
8    106   1331   1341    205    107   1332   1342    206
8    205   1341   1351    304    206   1342   1352    305
8    304   1351   1361    403    305   1352   1362    404
8    403   1361   1371    502    404   1362   1372    503
8    502   1371   1381    511    503   1372   1382    512
8    511   1381   1391    520    512   1382   1392    521
8    520   1391   1401    529    521   1392   1402    530
8    529   1401   1411    538    530   1402   1412    539
8    538   1411   1421    547    539   1412   1422    548
8    547   1421   1431    556    548   1422   1432    557
8    556   1431   1441    565    557   1432   1442    566
8    565   1441   1451    574    566   1442   1452    575
8    574   1451   1461    583    575   1452   1462    584
8    583   1461   1471    592    584   1462   1472    593
8     97    196   1511   1521     98    197   1512   1522
8    196    295   1501   1511    197    296   1502   1512
8    295    394   1491   1501    296    395   1492   1502
8    394    493   1481   1491    395    494   1482   1492
8    493    592   1471   1481    494    593   1472   1482
8   1523   1524      9      0   1534   1535    108     99
8   1534   1535    108     99   1545   1546    207    198
8   1545   1546    207    198   1556   1557    306    297
8   1556   1557    306    297   1567   1568    405    396
8   1567   1568    405    396   1578   1579    504    495
8   1524   1525     18      9   1535   1536    117    108
8   1535   1536    117    108   1546   1547    216    207
8   1546   1547    216    207   1557   1558    315    306
8   1557   1558    315    306   1568   1569    414    405
8   1568   1569    414    405   1579   1580    513    504
8   1525   1526     27     18   1536   1537    126    117
8   1536   1537    126    117   1547   1548    225    216
8   1547   1548    225    216   1558   1559    324    315
8   1558   1559    324    315   1569   1570    423    414
8   1569   1570    423    414   1580   1581    522    513
8   1526   1527     36     27   1537   1538    135    126
8   1537   1538    135    126   1548   1549    234    225
8   1548   1549    234    225   1559   1560    333    324
8   1559   1560    333    324   1570   1571    432    423
8   1570   1571    432    423   1581   1582    531    522
8   1527   1528     45     36   1538   1539    144    135
8   1538   1539    144    135   1549   1550    243    234
8   1549   1550    243    234   1560   1561    342    333
8   1560   1561    342    333   1571   1572    441    432
8   1571   1572    441    432   1582   1583    540    531
8   1528   1529     54     45   1539   1540    153    144
8   1539   1540    153    144   1550   1551    252    243
8   1550   1551    252    243   1561   1562    351    342
8   1561   1562    351    342   1572   1573    450    441
8   1572   1573    450    441   1583   1584    549    540
8   1529   1530     63     54   1540   1541    162    153
8   1540   1541    162    153   1551   1552    261    252
8   1551   1552    261    252   1562   1563    360    351
8   1562   1563    360    351   1573   1574    459    450
8   1573   1574    459    450   1584   1585    558    549
8   1530   1531     72     63   1541   1542    171    162
8   1541   1542    171    162   1552   1553    270    261
8   1552   1553    270    261   1563   1564    369    360
8   1563   1564    369    360   1574   1575    468    459
8   1574   1575    468    459   1585   1586    567    558
8   1531   1532     81     72   1542   1543    180    171
8   1542   1543    180    171   1553   1554    279    270
8   1553   1554    279    270   1564   1565    378    369
8   1564   1565    378    369   1575   1576    477    468
8   1575   1576    477    468   1586   1587    576    567
8   1532   1533     90     81   1543   1544    189    180
8   1543   1544    189    180   1554   1555    288    279
8   1554   1555    288    279   1565   1566    387    378
8   1565   1566    387    378   1576   1577    486    477
8   1576   1577    486    477   1587   1588    585    576
8   1523   1313   1323   1534      0   1314   1324     99
8   1534   1323   1333   1545     99   1324   1334    198
8   1545   1333   1343   1556    198   1334   1344    297
8   1556   1343   1353   1567    297   1344   1354    396
8   1567   1353   1363   1578    396   1354   1364    495
8   1578   1363   1373   1579    495   1364   1374    504
8   1579   1373   1383   1580    504   1374   1384    513
8   1580   1383   1393   1581    513   1384   1394    522
8   1581   1393   1403   1582    522   1394   1404    531
8   1582   1403   1413   1583    531   1404   1414    540
8   1583   1413   1423   1584    540   1414   1424    549
8   1584   1423   1433   1585    549   1424   1434    558
8   1585   1433   1443   1586    558   1434   1444    567
8   1586   1443   1453   1587    567   1444   1454    576
8   1587   1453   1463   1588    576   1454   1464    585
8   1533   1544   1503   1513     90    189   1504   1514
8   1544   1555   1493   1503    189    288   1494   1504
8   1555   1566   1483   1493    288    387   1484   1494
8   1566   1577   1473   1483    387    486   1474   1484
8   1577   1588   1463   1473    486    585   1464   1474
CELL_TYPES  1130
12
12
12
12
12
12
12
12
12
12
12
12
12
12
12
12
12
12
12
12
12
12
12
12
12
12
12
12
12
12
12
12
12
12
12
12
12
12
12
12
12
12
12
12
12
12
12
12
12
12
12
12
12
12
12
12
12
12
12
12
12
12
12
12
12
12
12
12
12
12
12
12
12
12
12
12
12
12
12
12
12
12
12
12
12
12
12
12
12
12
12
12
12
12
12
12
12
12
12
12
12
12
12
12
12
12
12
12
12
12
12
12
12
12
12
12
12
12
12
12
12
12
12
12
12
12
12
12
12
12
12
12
12
12
12
12
12
12
12
12
12
12
12
12
12
12
12
12
12
12
12
12
12
12
12
12
12
12
12
12
12
12
12
12
12
12
12
12
12
12
12
12
12
12
12
12
12
12
12
12
12
12
12
12
12
12
12
12
12
12
12
12
12
12
12
12
12
12
12
12
12
12
12
12
12
12
12
12
12
12
12
12
12
12
12
12
12
12
12
12
12
12
12
12
12
12
12
12
12
12
12
12
12
12
12
12
12
12
12
12
12
12
12
12
12
12
12
12
12
12
12
12
12
12
12
12
12
12
12
12
12
12
12
12
12
12
12
12
12
12
12
12
12
12
12
12
12
12
12
12
12
12
12
12
12
12
12
12
12
12
12
12
12
12
12
12
12
12
12
12
12
12
12
12
12
12
12
12
12
12
12
12
12
12
12
12
12
12
12
12
12
12
12
12
12
12
12
12
12
12
12
12
12
12
12
12
12
12
12
12
12
12
12
12
12
12
12
12
12
12
12
12
12
12
12
12
12
12
12
12
12
12
12
12
12
12
12
12
12
12
12
12
12
12
12
12
12
12
12
12
12
12
12
12
12
12
12
12
12
12
12
12
12
12
12
12
12
12
12
12
12
12
12
12
12
12
12
12
12
12
12
12
12
12
12
12
12
12
12
12
12
12
12
12
12
12
12
12
12
12
12
12
12
12
12
12
12
12
12
12
12
12
12
12
12
12
12
12
12
12
12
12
12
12
12
12
12
12
12
12
12
12
12
12
12
12
12
12
12
12
12
12
12
12
12
12
12
12
12
12
12
12
12
12
12
12
12
12
12
12
12
12
12
12
12
12
12
12
12
12
12
12
12
12
12
12
12
12
12
12
12
12
12
12
12
12
12
12
12
12
12
12
12
12
12
12
12
12
12
12
12
12
12
12
12
12
12
12
12
12
12
12
12
12
12
12
12
12
12
12
12
12
12
12
12
12
12
12
12
12
12
12
12
12
12
12
12
12
12
12
12
12
12
12
12
12
12
12
12
12
12
12
12
12
12
12
12
12
12
12
12
12
12
12
12
12
12
12
12
12
12
12
12
12
12
12
12
12
12
12
12
12
12
12
12
12
12
12
12
12
12
12
12
12
12
12
12
12
12
12
12
12
12
12
12
12
12
12
12
12
12
12
12
12
12
12
12
12
12
12
12
12
12
12
12
12
12
12
12
12
12
12
12
12
12
12
12
12
12
12
12
12
12
12
12
12
12
12
12
12
12
12
12
12
12
12
12
12
12
12
12
12
12
12
12
12
12
12
12
12
12
12
12
12
12
12
12
12
12
12
12
12
12
12
12
12
12
12
12
12
12
12
12
12
12
12
12
12
12
12
12
12
12
12
12
12
12
12
12
12
12
12
12
12
12
12
12
12
12
12
12
12
12
12
12
12
12
12
12
12
12
12
12
12
12
12
12
12
12
12
12
12
12
12
12
12
12
12
12
12
12
12
12
12
12
12
12
12
12
12
12
12
12
12
12
12
12
12
12
12
12
12
12
12
12
12
12
12
12
12
12
12
12
12
12
12
12
12
12
12
12
12
12
12
12
12
12
12
12
12
12
12
12
12
12
12
12
12
12
12
12
12
12
12
12
12
12
12
12
12
12
12
12
12
12
12
12
12
12
12
12
12
12
12
12
12
12
12
12
12
12
12
12
12
12
12
12
12
12
12
12
12
12
12
12
12
12
12
12
12
12
12
12
12
12
12
12
12
12
12
12
12
12
12
12
12
12
12
12
12
12
12
12
12
12
12
12
12
12
12
12
12
12
12
12
12
12
12
12
12
12
12
12
12
12
12
12
12
12
12
12
12
12
12
12
12
12
12
12
12
12
12
12
12
12
12
12
12
12
12
12
12
12
12
12
12
12
12
12
12
12
12
12
12
12
12
12
12
12
12
12
12
12
12
12
12
12
12
12
12
12
12
12
12
12
12
12
12
12
12
12
12
12
12
12
12
12
12
12
12
12
12
12
12
12
12
12
12
12
12
12
12
12
12
12
12
12
12
12
12
12
12
12
12
12
12
12
12
12
12
12
12
12
12
12
12
12
12
12
12
12
12
12
12
12
12
12
12
12
12
12
12
12
12
12
12
12
12
12
12
12
12
12
12
12
12
12
12
12
12
12
12
12
12
12
12
12
12
12
12
12
12
12
12
12
12
12
12
12
12
12
12
12
12
12
12
12
12
12
12
12
12
12
12
12
12
12
12
12
12
12
12
12
12
12
12
12
12
12
12
POINT_DATA      1589
VECTORS Velocities float 
     0.00000000     0.00000000     0.00000000
     0.00000000     0.00000000     0.00000000
     0.00000000     0.00000000     0.00000000
     0.00000000     0.00000000     0.00000000
     0.00000000     0.00000000     0.00000000
     0.00000000     0.00000000     0.00000000
     0.00000000     0.00000000     0.00000000
     0.00000000     0.00000000     0.00000000
     0.00000000     0.00000000     0.00000000
     0.00000000     0.00000000     0.00000000
   -80.20536504    88.48949279     0.00000000
   -84.21250542     8.90537935     0.00000000
  -120.86417888    44.41977106     0.00000000
  -185.31749044     8.12915620     0.00000000
  -223.76235994    11.07516129     0.00000000
  -263.32340365   -37.79041607     0.00000000
  -317.89091377   -30.75507205     0.00000000
  -393.93661036   -90.45210120     0.00000000
     0.00000000     0.00000000     0.00000000
  -150.70584020    74.58803488     0.00000000
   -93.81009434    26.35208681     0.00000000
   -82.72290533    36.90260371     0.00000000
  -146.01870253     5.21006448     0.00000000
  -121.68810060    -4.83433346     0.00000000
  -137.96952461    32.06447510     0.00000000
   -17.97385518    19.18294493     0.00000000
   131.87631075   122.00163033     0.00000000
     0.00000000     0.00000000     0.00000000
  -160.32645541    -6.23672027     0.00000000
   -76.70467021    55.17032287     0.00000000
    -0.53408658    49.02606958     0.00000000
    -9.43021577   -35.99080334     0.00000000
    -0.66397379   -27.96622054     0.00000000
    77.76063132   -64.43711281     0.00000000
   114.51414227    38.50147321     0.00000000
   120.21982279   110.81170975     0.00000000
     0.00000000     0.00000000     0.00000000
  -128.34427513   -79.18466265     0.00000000
   -42.54264323    47.99605164     0.00000000
    73.92954455    73.06281339     0.00000000
     4.89851965    31.51759869     0.00000000
   -17.56290284   -83.43388647     0.00000000
   -35.25931523   -98.63104743     0.00000000
    48.33321895    93.29310751     0.00000000
   230.64607439     4.85013753     0.00000000
     0.00000000     0.00000000     0.00000000
  -143.65488353  -111.96284142     0.00000000
   -25.57240721     8.01799955     0.00000000
    27.47716662    87.86503377     0.00000000
    44.75242977    66.14630760     0.00000000
   -37.08798067     5.55510212     0.00000000
  -100.13855043   -56.71129014     0.00000000
    15.16148607   115.62287299     0.00000000
     0.00000000     0.00000000     0.00000000
     0.00000000     0.00000000     0.00000000
  -122.06225896  -124.21608262     0.00000000
   -59.17300598   -22.80964679     0.00000000
    70.97233077    45.14069894     0.00000000
   -21.48202402    61.63436206     0.00000000
    71.51808280     9.02061205     0.00000000
   -54.91074779    64.32992856     0.00000000
    84.05172748  -209.20688241     0.00000000
   145.62150939   170.20561685     0.00000000
     0.00000000     0.00000000     0.00000000
  -156.18206654  -120.03173341     0.00000000
   -81.47271228   -54.82021243     0.00000000
   -40.43082212   -36.43994945     0.00000000
   -32.26704719    58.94297314     0.00000000
    -4.08964631   -78.19851776     0.00000000
    72.06042908   111.06336610     0.00000000
   -17.82694056  -209.11380832     0.00000000
   -36.23380701   170.60651813     0.00000000
     0.00000000     0.00000000     0.00000000
  -129.63515191  -110.01759396     0.00000000
  -125.52341000   -73.13258219     0.00000000
  -131.19396458   -59.86704504     0.00000000
  -138.79319781   -25.29283141     0.00000000
   -77.82801566   -21.59945153     0.00000000
   -25.29417556   -11.32364777     0.00000000
    55.76435674    -8.61518429     0.00000000
    16.72108175    51.56947591     0.00000000
     0.00000000     0.00000000     0.00000000
   -64.23540460   -89.47621678     0.00000000
  -102.77448795   -34.17187813     0.00000000
  -138.62023858   -48.63877348     0.00000000
  -207.39610189   -26.56973138     0.00000000
  -236.42916987   -12.35355926     0.00000000
  -261.57932988    43.69258530     0.00000000
  -283.32591631   107.45566556     0.00000000
  -223.77280792   205.87900590     0.00000000
     0.00000000     0.00000000     0.00000000
     0.00000000     0.00000000     0.00000000
     0.00000000     0.00000000     0.00000000
     0.00000000     0.00000000     0.00000000
     0.00000000     0.00000000     0.00000000
     0.00000000     0.00000000     0.00000000
     0.00000000     0.00000000     0.00000000
     0.00000000     0.00000000     0.00000000
     0.00000000     0.00000000     0.00000000
     0.00000000     0.00000000     0.00000000
     0.00000000     0.00000000     0.00000000
     0.00000000     0.00000000     0.00000000
     0.00000000     0.00000000     0.00000000
     0.00000000     0.00000000     0.00000000
     0.00000000     0.00000000     0.00000000
     0.00000000     0.00000000     0.00000000
     0.00000000     0.00000000     0.00000000
     0.00000000     0.00000000     0.00000000
     0.00000000     0.00000000     0.00000000
   -21.26425846    -4.47390686    31.95666114
   -80.24082619    43.76120034   -18.29165312
  -114.84947940    24.29748135    48.98753597
  -141.91091970     9.37478263     6.00078276
  -177.30766066    10.38244654    30.29358501
  -207.83924549   -20.39585196    -3.84733097
  -270.18631561   -46.75187482   -11.36816262
  -399.23136500  -103.69783551   -37.67261121
     0.00000000     0.00000000     0.00000000
   -16.73147515    35.92291443   109.24602888
   -90.40501018    38.29269156   -76.83300168
   -81.90334324    29.17421526    61.20568646
  -102.57331868    22.21077885   -14.95418657
   -80.07609454   -36.68463750    43.79221659
   -68.69745866     7.36096237   -28.63336245
   -78.61800917    15.63499113   -79.12505348
   129.24753095   -14.82316678  -111.04924268
     0.00000000     0.00000000     0.00000000
    32.72206198    28.62762887   129.18021708
    49.33217978   -80.10871397   -63.42416783
    -3.57623120    79.13691912    29.38584483
    24.04517905   -23.25824640   -30.45555383
     3.78951816    17.15929982    25.68857583
    73.33759996   -76.79816285    23.72860261
   127.73198266    89.24187092   -45.04048503
    30.22946693   -20.20794555   -23.36898578
     0.00000000     0.00000000     0.00000000
    92.80457692   -46.30559426   112.16746059
    47.42559186  -117.46873085   -63.59900904
    86.73489484    38.57885334    14.22104005
    71.57469633     2.41445976   -47.96507268
    67.30650054    32.82642836    31.31355237
    62.23480828  -106.83620009   -75.85097414
    82.23636598    88.74768189    -8.63929627
   199.00527718   -27.78363390   -58.63629388
     0.00000000     0.00000000     0.00000000
    43.12505244   -94.09253007    73.91707501
    28.51708463   -96.03635018   -85.05274492
    -9.61135965    50.90918453    10.47222022
    58.88883509    10.54136153   -45.68990624
    46.20372293    43.98763415    13.07317392
   -28.14281555   -57.93559844   -51.33293027
     3.68221315    51.59396959   -49.45865253
     0.00000000     0.00000000     0.00000000
     0.00000000     0.00000000     0.00000000
    32.23205600  -107.33805692    73.21124509
   -22.41742532   -84.28356352   -71.81921039
    11.02698903    82.86867935    47.08065169
     8.06407017    30.35245296   -10.72359700
    33.74083992    12.01809907    40.89388508
    -4.11944397   103.23852520   -32.25791329
    72.87883949  -163.46355408    20.81613662
   100.39680963   177.76107343   -65.83282778
     0.00000000     0.00000000     0.00000000
   -15.22068505  -107.86106172    54.16793780
   -76.88108553   -73.06864282   -56.28890009
   -46.46868987    -2.98220870    82.94150485
    66.87427576    54.77158466     2.22646304
   -37.49260983   -26.00279890    38.17451232
    72.83701064   150.31854961   -41.76291058
    43.73099700  -201.35952651   -26.69006704
     5.79893110   167.07480601   -82.90349147
     0.00000000     0.00000000     0.00000000
   -26.22769529   -59.51473345    66.77510107
  -120.43470895   -84.79290336   -48.44949808
  -127.25788634   -43.96448514    38.68751319
  -108.14160809   -30.39657347   -23.68485860
   -63.95729882    22.23941549    12.17096066
   -21.19426907    32.97378365   -73.96043387
    30.51197429   -34.12043875    57.21365409
    32.74127062    69.52066873  -151.70023383
     0.00000000     0.00000000     0.00000000
   -30.14011025    -5.31128162    12.44481440
   -95.63682801   -56.37855665   -11.79784725
  -151.88420228   -43.54304371    20.89051773
  -178.58168891   -28.47767640    -4.03923090
  -228.16297199   -12.64568167    11.97018616
  -217.20940060    42.47493223    -2.35193668
  -250.67803404   133.11726990    -4.60078993
  -219.40939356   200.82132491   -11.19823934
     0.00000000     0.00000000     0.00000000
     0.00000000     0.00000000     0.00000000
     0.00000000     0.00000000     0.00000000
     0.00000000     0.00000000     0.00000000
     0.00000000     0.00000000     0.00000000
     0.00000000     0.00000000     0.00000000
     0.00000000     0.00000000     0.00000000
     0.00000000     0.00000000     0.00000000
     0.00000000     0.00000000     0.00000000
     0.00000000     0.00000000     0.00000000
     0.00000000     0.00000000     0.00000000
     0.00000000     0.00000000     0.00000000
     0.00000000     0.00000000     0.00000000
     0.00000000     0.00000000     0.00000000
     0.00000000     0.00000000     0.00000000
     0.00000000     0.00000000     0.00000000
     0.00000000     0.00000000     0.00000000
     0.00000000     0.00000000     0.00000000
     0.00000000     0.00000000     0.00000000
     4.40429707    24.93669332    57.77131950
   -33.13898514    20.79979068     3.81662894
   -55.34455401    32.33185277    42.21477509
   -54.90820929    26.79184996    26.57943640
   -38.36022915    -3.78358040    14.13198905
   -52.70522041    13.37818215    12.66785105
  -152.23043058   -50.56414586     9.43695825
  -434.52975512   -73.86579314   -16.13323293
     0.00000000     0.00000000     0.00000000
     8.70232889    30.09196283    72.20550656
     1.51999780    -0.02979345    12.28979496
   -36.29830701    38.76866418    24.58793303
   -44.30479187    37.63942060    15.40816688
   -19.60994300    15.26635468     5.41165724
    53.21125170   -16.90614364    22.86535687
  -104.33559036    68.16442776   -58.18811898
    -0.71558384   -77.41781015  -124.52822652
     0.00000000     0.00000000     0.00000000
    39.06656255    28.38279668   125.69685179
   102.10174035   -72.09646794    41.12520834
    80.95933207    45.92575636    28.20130496
    69.91514084   -20.83687512     6.61825906
    80.35914295    50.62647343   -14.61816207
    70.29618313   -61.74136007     4.15498780
   117.09564630   135.38939192   -79.71966211
   -25.17035147  -107.20365691   -73.66219945
     0.00000000     0.00000000     0.00000000
    83.68954751   -25.97815789    98.38914248
    99.97313810   -87.82013144     0.86883023
    81.00870162    17.90978098     9.18590317
   102.08807588   -54.19276098   -25.43080561
    77.97616269    62.89002664    23.15745167
   119.14116213   -76.41336177   -67.99852500
   122.53762804   107.11489150    24.88572738
   193.25350567   -43.57828622   -94.09364510
     0.00000000     0.00000000     0.00000000
    29.25646935   -69.63992079    59.97090162
    48.71716662   -82.67120978   -28.38624936
    15.51458190   -26.58636533   -49.19091714
    16.18293297   -44.40541409   -42.60335268
    66.29261024    49.38820327   -24.55938713
    25.30684600   -41.67510465   -50.35231191
    66.33166648    69.64568257   -95.22953493
     0.00000000     0.00000000     0.00000000
     0.00000000     0.00000000     0.00000000
    15.79350154   -82.35964092    44.77128593
    -9.95083017   -87.78988599   -27.11587166
    -0.05417063   -42.56089405     3.88744927
   -18.93453007     2.25115474   -39.45443179
    62.90791188   -24.71333665    32.69488542
    -2.20322776   117.74098947   -51.72670913
    83.82585728  -136.58960085   -35.39694085
    76.40478241   181.95735752   -71.63048494
     0.00000000     0.00000000     0.00000000
   -30.21093366   -79.00923847    46.00398998
   -57.83044712   -82.62396606    -9.94085304
   -45.88529717   -39.28899439    33.66935222
    45.22504333    15.39443321    29.48248298
    11.29799960   -13.08499378    64.68752771
    21.79854688    85.64098345   -55.38459860
   104.55995990  -154.78892114   -62.43410302
    48.37821175   198.69792666  -129.76688659
     0.00000000     0.00000000     0.00000000
   -26.07443289   -48.35299526    31.73040728
   -92.36051199   -72.96486076     1.34588961
  -103.28725374   -42.44404232     7.11531164
  -105.23696330   -29.25186579    17.98679828
   -56.73754321    24.16071025    -0.83175244
  -110.09011368    18.67724189   -35.05013743
   -62.06660579    23.97971100   -82.14944402
    14.83399070   146.60660129  -163.41224893
     0.00000000     0.00000000     0.00000000
   -13.83057559   -34.50461429    39.81158099
   -77.10674797   -36.06691334     4.68317321
  -121.02780021   -48.87662074    10.97706092
  -168.81544309   -20.19821346    14.74259574
  -208.81829862   -13.90581312    11.51349201
  -231.54364572    61.97477548    29.14789778
  -257.01027591   133.17340230    23.76561330
  -250.91049346   183.43697122    20.29719536
     0.00000000     0.00000000     0.00000000
     0.00000000     0.00000000     0.00000000
     0.00000000     0.00000000     0.00000000
     0.00000000     0.00000000     0.00000000
     0.00000000     0.00000000     0.00000000
     0.00000000     0.00000000     0.00000000
     0.00000000     0.00000000     0.00000000
     0.00000000     0.00000000     0.00000000
     0.00000000     0.00000000     0.00000000
     0.00000000     0.00000000     0.00000000
     0.00000000     0.00000000     0.00000000
     0.00000000     0.00000000     0.00000000
     0.00000000     0.00000000     0.00000000
     0.00000000     0.00000000     0.00000000
     0.00000000     0.00000000     0.00000000
     0.00000000     0.00000000     0.00000000
     0.00000000     0.00000000     0.00000000
     0.00000000     0.00000000     0.00000000
     0.00000000     0.00000000     0.00000000
     0.87402779    20.77872413    35.07097808
    13.29407061     1.44770414    23.95251920
    45.09371698    -5.75973365    18.68651780
    41.50519887    29.36961994    21.37489864
    45.50526021   -12.62827838    -6.40694293
    70.84445174    29.54159058     2.46051902
   120.27197850   -13.85039819   -16.26693830
  -370.28083742   -10.52533888     2.75673173
     0.00000000     0.00000000     0.00000000
    15.85665683    37.06055293    60.84187318
    55.51367603   -20.98666031    46.10428115
    59.75909753    13.79469117    35.51229195
   100.97966987    -2.90025704    13.22226871
    50.19826349    28.92855423    -4.99497403
   126.50495207   -23.36322513   -16.09724505
    45.62187759    48.61518735    18.67153362
   -31.41498620    60.23724774  -116.40848970
     0.00000000     0.00000000     0.00000000
    35.16125838    34.93323484    89.84541657
    92.68927344   -53.73921859    59.23057869
   111.69401624    35.21418172    40.44780629
   110.25046813   -37.31701762    29.47995222
   120.51924369    60.29958092    -4.61414782
    96.31746544   -64.75417555   -12.04327341
    73.07337223   148.59606869   -77.71074197
   -22.06177851   -36.58937034  -114.20755979
     0.00000000     0.00000000     0.00000000
    71.13814088    -4.84896015    95.95527760
    90.47057864   -57.92440011    19.38324510
   103.19296065    12.46922302    36.59665515
   114.05494562   -33.78529188   -20.07352260
   115.91793312    46.00150796    17.47483425
    98.35819273   -54.68846695   -47.63635392
   179.06932766   103.96811100     6.09229008
   203.82218970   -53.51861962   -41.74705762
     0.00000000     0.00000000     0.00000000
    41.22677861   -43.10259202    43.34271889
    53.99706585   -49.06147574     2.61291472
    69.50023361   -46.39195956    -3.19179017
    74.28888922   -33.40797241   -41.33652840
    88.83784461    20.24916749   -25.22091720
    25.74045878   -22.44335262   -43.84931098
    28.37259927   112.02158364  -134.27838328
     0.00000000     0.00000000     0.00000000
     0.00000000     0.00000000     0.00000000
     6.00659897   -61.32303753    45.54791122
    11.34608703   -59.74670067    -4.70564828
    15.92415917   -84.25017240   -12.58146587
    21.84533565   -25.36116969   -57.92569334
    50.90987494   -34.60620638    -1.12774500
    35.47226378    88.29657591   -45.63590842
    29.20005833   -42.01270913    -3.16067686
    50.00209035   220.27997649   -63.98278186
     0.00000000     0.00000000     0.00000000
    -8.34269692   -62.40994403    37.90297479
   -14.86764730   -71.16613491     0.94941840
   -43.15269543   -70.97254082     2.07484233
    -1.92234156   -44.20917380    -6.70949524
    -7.16032258    -0.42210855    55.65927285
    50.21669493    77.11319002   -30.48663559
     6.58386574  -120.26259601   -45.31000162
    16.34976183   256.93514149  -185.71157777
     0.00000000     0.00000000     0.00000000
   -10.20961408   -49.84691655    44.85941010
   -46.62256348   -60.46242992     7.40556626
   -74.74090669   -49.86829552    17.24683473
   -80.73284945   -50.76829296    15.64937439
   -37.50627292    22.15193572    21.17887167
    29.04932236    10.07057734   -47.13049639
  -127.46850023     4.42055893   -46.40871194
   -93.36750909   162.49019120  -137.62207416
     0.00000000     0.00000000     0.00000000
   -19.23340945   -31.74848867    30.73393378
   -28.66193787   -29.13402904    22.36619124
   -89.01471789   -39.68611182    11.02770867
  -108.19264050   -24.97741359    22.63534264
  -160.96684677   -23.09331512    31.91553019
  -160.14376553     6.00151057    49.73767796
  -228.13651634   103.90260495    86.46360460
  -306.44130417   148.53473045    39.97567096
     0.00000000     0.00000000     0.00000000
     0.00000000     0.00000000     0.00000000
     0.00000000     0.00000000     0.00000000
     0.00000000     0.00000000     0.00000000
     0.00000000     0.00000000     0.00000000
     0.00000000     0.00000000     0.00000000
     0.00000000     0.00000000     0.00000000
     0.00000000     0.00000000     0.00000000
     0.00000000     0.00000000     0.00000000
     0.00000000     0.00000000     0.00000000
     0.00000000     0.00000000     0.00000000
     0.00000000     0.00000000     0.00000000
     0.00000000     0.00000000     0.00000000
     0.00000000     0.00000000     0.00000000
     0.00000000     0.00000000     0.00000000
     0.00000000     0.00000000     0.00000000
     0.00000000     0.00000000     0.00000000
     0.00000000     0.00000000     0.00000000
     0.00000000     0.00000000     0.00000000
     6.93760998    12.80960225    21.30635140
    47.79778119   -13.07650606    19.04696587
    78.96831885    -8.39252744    15.04351780
    66.88768269    -3.14830734     3.17410481
    71.87350834   -12.09203794   -10.12732428
    29.65592876    15.82598903    -3.41105245
   128.41717419   -12.89007188   -41.66706935
  -162.38331446    20.24200198    37.49451547
     0.00000000     0.00000000     0.00000000
    17.07387896    16.94449422    28.87697720
    79.21267492   -26.47629814    35.25876317
    89.56058386    12.82215161    27.55286154
   106.98799746   -15.48953964    12.73281436
    84.62784839    22.93897353     9.82580352
    83.75488324   -28.94357947   -43.10243617
    82.29015872    40.72191432    26.86133887
    15.56388667   123.86374253   -61.46579546
     0.00000000     0.00000000     0.00000000
    32.37765892    30.01287092    57.53782087
    89.00490388   -28.37673977    41.16113369
   113.55804545    29.12440467    34.75887947
   106.95896118   -18.08373702    13.17426194
   119.88494749    42.78183679     7.91622941
    65.84696104   -24.45627351    -9.12578833
    30.78372932    57.73797156   -46.72842112
    19.22719373    28.00264433  -101.75111434
     0.00000000     0.00000000     0.00000000
    57.39677600    27.69267035    62.00670168
    95.86803741   -17.83589028    28.68665789
   103.25617459    24.90440466    33.16822525
   120.90688141    -9.07215288     4.38360062
    82.41067130    44.47246100     0.81207830
   140.82960382   -24.18762894   -12.72110460
    46.21603347   133.78105570   -11.76461685
   277.36457077   -43.67507158  -124.96890758
     0.00000000     0.00000000     0.00000000
    70.68014727    -6.70241207    50.35350482
   101.12587863     5.22101251    24.62868072
   109.80032191    -5.96135338    22.64149492
    90.94673101     6.40530897   -14.58352286
    94.07892559    19.09057769    -8.22227343
    -4.90245285     9.87958209   -12.44717818
   -16.87199680   158.79963237   -94.95906333
     0.00000000     0.00000000     0.00000000
     0.00000000     0.00000000     0.00000000
    25.04725434   -33.40240685    36.53747797
    60.71196907     8.40930035    13.51508833
    68.71419167   -37.41958267     9.23793461
    45.74913052     5.30922952   -35.55721919
    56.93743312   -38.99213687     9.79619314
    10.50854510   112.06073608   -55.28384312
    90.24241756   -96.06708868    57.41212138
   -16.43878628   178.40403382  -117.92012964
     0.00000000     0.00000000     0.00000000
    25.50144463   -28.74483461    39.50771800
    44.74062341    -9.75261753     6.98992583
    35.46593646   -49.55750237    13.54095787
     3.16025136   -25.71046147   -20.28459340
    10.79539976   -56.50420439    34.27111244
    14.66112180   125.41469952   -48.72816570
    25.62642731   -92.07857876    29.49532055
   -25.63071956   149.38776307  -187.14817703
     0.00000000     0.00000000     0.00000000
    14.79364380   -25.03632305    32.24136958
    26.51072387   -22.70698279    15.01423633
    -1.77679952   -41.91165499    26.78404460
   -27.77889765   -49.48522255     6.19518000
   -23.55310461   -38.80735150    46.03151903
    62.54898367    58.19339556   -66.07423067
    89.34846116   -63.36680687     6.42565670
  -157.05305140    27.02932898   -61.89284786
     0.00000000     0.00000000     0.00000000
    19.90008741   -13.09313109    36.90345993
     4.41798835   -20.01720462    10.43355910
     5.41101280   -16.93258366    30.93622863
   -47.12919099   -37.59387099     7.11896684
   -42.72733608   -17.56050842    43.87629809
   -23.59582233   -15.30575053    -0.14235166
    46.08347287    -3.93625924    24.72812877
  -288.08090309   125.89482776    63.37701331
     0.00000000     0.00000000     0.00000000
     0.00000000     0.00000000     0.00000000
     0.00000000     0.00000000     0.00000000
     0.00000000     0.00000000     0.00000000
     0.00000000     0.00000000     0.00000000
     0.00000000     0.00000000     0.00000000
     0.00000000     0.00000000     0.00000000
     0.00000000     0.00000000     0.00000000
     0.00000000     0.00000000     0.00000000
     0.00000000     0.00000000     0.00000000
     0.00000000     0.00000000     0.00000000
     0.00000000     0.00000000     0.00000000
     0.00000000     0.00000000     0.00000000
     0.00000000     0.00000000     0.00000000
     0.00000000     0.00000000     0.00000000
     0.00000000     0.00000000     0.00000000
     0.00000000     0.00000000     0.00000000
     0.00000000     0.00000000     0.00000000
     0.00000000     0.00000000     0.00000000
     0.00000000     0.00000000     0.00000000
     0.00000000     0.00000000     0.00000000
     0.00000000     0.00000000     0.00000000
     0.00000000     0.00000000     0.00000000
     0.00000000     0.00000000     0.00000000
     0.00000000     0.00000000     0.00000000
     0.00000000     0.00000000     0.00000000
     0.00000000     0.00000000     0.00000000
     0.00000000     0.00000000     0.00000000
     0.00000000     0.00000000     0.00000000
     0.00000000     0.00000000     0.00000000
     0.00000000     0.00000000     0.00000000
     0.00000000     0.00000000     0.00000000
     0.00000000     0.00000000     0.00000000
     0.00000000     0.00000000     0.00000000
     0.00000000     0.00000000     0.00000000
     0.00000000     0.00000000     0.00000000
     0.00000000     0.00000000     0.00000000
     0.00000000     0.00000000     0.00000000
     0.00000000     0.00000000     0.00000000
     0.00000000     0.00000000     0.00000000
     0.00000000     0.00000000     0.00000000
     0.00000000     0.00000000     0.00000000
     0.00000000     0.00000000     0.00000000
     0.00000000     0.00000000     0.00000000
     0.00000000     0.00000000     0.00000000
     0.00000000     0.00000000     0.00000000
     0.00000000     0.00000000     0.00000000
     0.00000000     0.00000000     0.00000000
     0.00000000     0.00000000     0.00000000
     0.00000000     0.00000000     0.00000000
     0.00000000     0.00000000     0.00000000
     0.00000000     0.00000000     0.00000000
     0.00000000     0.00000000     0.00000000
     0.00000000     0.00000000     0.00000000
     0.00000000     0.00000000     0.00000000
     0.00000000     0.00000000     0.00000000
     0.00000000     0.00000000     0.00000000
     0.00000000     0.00000000     0.00000000
     0.00000000     0.00000000     0.00000000
     0.00000000     0.00000000     0.00000000
     0.00000000     0.00000000     0.00000000
     0.00000000     0.00000000     0.00000000
     0.00000000     0.00000000     0.00000000
     0.00000000     0.00000000     0.00000000
     0.00000000     0.00000000     0.00000000
     0.00000000     0.00000000     0.00000000
     0.00000000     0.00000000     0.00000000
     0.00000000     0.00000000     0.00000000
     0.00000000     0.00000000     0.00000000
     0.00000000     0.00000000     0.00000000
     0.00000000     0.00000000     0.00000000
     0.00000000     0.00000000     0.00000000
     0.00000000     0.00000000     0.00000000
     0.00000000     0.00000000     0.00000000
     0.00000000     0.00000000     0.00000000
     0.00000000     0.00000000     0.00000000
     0.00000000     0.00000000     0.00000000
     0.00000000     0.00000000     0.00000000
     0.00000000     0.00000000     0.00000000
     0.00000000     0.00000000     0.00000000
     0.00000000     0.00000000     0.00000000
     0.00000000     0.00000000     0.00000000
     0.00000000     0.00000000     0.00000000
     0.00000000     0.00000000     0.00000000
     0.00000000     0.00000000     0.00000000
     0.00000000     0.00000000     0.00000000
     0.00000000     0.00000000     0.00000000
     0.00000000     0.00000000     0.00000000
     0.00000000     0.00000000     0.00000000
     0.00000000     0.00000000     0.00000000
     0.00000000     0.00000000     0.00000000
     0.00000000     0.00000000     0.00000000
     0.00000000     0.00000000     0.00000000
     0.00000000     0.00000000     0.00000000
     0.00000000     0.00000000     0.00000000
     0.00000000     0.00000000     0.00000000
     0.00000000     0.00000000     0.00000000
     0.00000000     0.00000000     0.00000000
     0.00000000     0.00000000     0.00000000
     0.00000000     0.00000000     0.00000000
     0.00000000     0.00000000     0.00000000
     0.00000000     0.00000000     0.00000000
     0.00000000     0.00000000     0.00000000
     0.00000000     0.00000000     0.00000000
     0.00000000     0.00000000     0.00000000
     0.00000000     0.00000000     0.00000000
     0.00000000     0.00000000     0.00000000
     0.00000000     0.00000000     0.00000000
     0.00000000     0.00000000     0.00000000
     0.00000000     0.00000000     0.00000000
     0.00000000     0.00000000     0.00000000
     0.00000000     0.00000000     0.00000000
     0.00000000     0.00000000     0.00000000
     0.00000000     0.00000000     0.00000000
     0.00000000     0.00000000     0.00000000
     0.00000000     0.00000000     0.00000000
     0.00000000     0.00000000     0.00000000
     0.00000000     0.00000000     0.00000000
     0.00000000     0.00000000     0.00000000
    28.80941491   -39.97084610     0.00000000
   -61.65208956    46.06698405     0.00000000
   -75.26427274   -13.48109866     0.00000000
   -67.64524614   -29.65076094     0.00000000
   -83.08982103   -14.81222805     0.00000000
   -51.18198236   -63.46189219     0.00000000
   -60.44730721    -7.53131931     0.00000000
   -37.92200412   -44.48709995     0.00000000
   -36.43353278    -5.04790414     0.00000000
   -23.62134121   -23.29920232     0.00000000
   -18.54579000    -4.96932000     0.00000000
   -32.82799771   241.16636628     0.00000000
   -59.56376302    49.38109630     0.00000000
   -44.21303893    -2.06493095     0.00000000
   -54.22596561   -13.95132200     0.00000000
   -65.98734923   -27.34803950     0.00000000
   -47.76126805   -68.78456137     0.00000000
   -43.33635816   -71.87303971     0.00000000
    -5.99228281   -74.82817164     0.00000000
   -19.68373638   -35.68897919     0.00000000
    -9.61968852   -26.54528427     0.00000000
   -27.81867000    -7.45398000     0.00000000
    59.14136103   311.07811257     0.00000000
    32.76572884   259.32360415     0.00000000
   -73.37849000    58.51638904     0.00000000
   -82.83576939    53.99605748     0.00000000
   -39.60174231   -70.65244815     0.00000000
    14.42370074   -38.91653567     0.00000000
    29.71357000  -105.86844025     0.00000000
    22.96983249   -72.44790658     0.00000000
     4.35538666   -64.79345864     0.00000000
   -16.19096221   -12.88248466     0.00000000
   -27.81867000    -7.45398000     0.00000000
   -74.34674684   179.57443755     0.00000000
    27.86289486   181.86830135     0.00000000
   105.17649238   127.17610789     0.00000000
   164.82711412    88.32500762     0.00000000
   154.08902107     3.10918384     0.00000000
   134.94471397    -0.65762512     0.00000000
    85.90422686   -25.26926646     0.00000000
    57.32176966   -20.95762166     0.00000000
     9.99252102   -30.84428864     0.00000000
    -7.01250023    -2.13732736     0.00000000
   -18.54579000    -4.96932000     0.00000000
     0.00000000     0.00000000     0.00000000
     0.00000000     0.00000000     0.00000000
     0.00000000     0.00000000     0.00000000
     0.00000000     0.00000000     0.00000000
     0.00000000     0.00000000     0.00000000
     0.00000000     0.00000000     0.00000000
     0.00000000     0.00000000     0.00000000
     0.00000000     0.00000000     0.00000000
     0.00000000     0.00000000     0.00000000
     0.00000000     0.00000000     0.00000000
     0.00000000     0.00000000     0.00000000
     0.00000000     0.00000000     0.00000000
     0.00000000     0.00000000     0.00000000
     0.00000000     0.00000000     0.00000000
     0.00000000     0.00000000     0.00000000
     0.00000000     0.00000000     0.00000000
     0.00000000     0.00000000     0.00000000
     0.00000000     0.00000000     0.00000000
     0.00000000     0.00000000     0.00000000
     0.00000000     0.00000000     0.00000000
     0.00000000     0.00000000     0.00000000
     0.00000000     0.00000000     0.00000000
    28.55738966   -57.25037747    49.64077684
   -52.21955727    39.80947547    34.33678814
   -68.87190781   -17.24701241    -7.95867966
   -70.75712322   -35.97356926    26.50433156
   -80.35439900   -19.02226186    -6.40584755
   -54.44530717   -59.99232583    18.51940205
   -59.02906693   -10.60682718    -9.43870200
   -36.78604060   -43.45183769    10.41760126
   -37.54320373   -10.33324611    -8.84099926
   -19.09077624   -22.58841716    -1.99436024
   -17.51406000    -4.69287000     0.00000000
   -63.42969365   215.44884324    87.85411534
   -84.15243098     4.07878324    18.94559823
   -56.61974204    19.07269344    11.11958801
   -66.82982574   -22.09086557    -1.35988518
   -62.36523651   -17.85971091     4.25729913
   -55.22370269   -79.53587619    -8.10647223
   -31.61474831   -63.47486970    12.65869049
   -14.66423179   -78.36051730     7.61022897
    -6.78651477   -32.46024571    13.17217963
   -18.21534585   -29.10037184     7.52472210
   -26.50323000    -7.10151000     0.00000000
    22.74687375   315.38021852    17.12533270
    -8.18227260   221.03797278    31.44010961
   -64.86550646    39.03882899    -7.62055286
   -85.82769497    54.48175827   -58.30233904
    -1.48314937   -66.84822616   -22.65665078
     4.92735728   -43.67268415   -15.63298160
    43.57221417  -101.69733738    -8.10951433
    17.05568897   -68.81025692     7.69651088
    10.96471580   -61.22379208    13.34180255
   -21.77355583    -8.82590352    10.22576674
   -26.50323000    -7.10151000     0.00000000
   -79.50115911   165.19415941    55.24739857
    16.40298197   150.37923934    41.04714719
   123.62366892   110.20361568     5.16388494
   151.75329971    59.12991972    15.79187511
   168.20424108     2.83119239    -5.81241888
   123.20693170    -6.90822714    12.46327462
    99.63538679   -21.85701696     0.95763944
    48.03842375   -24.90828806    13.46594137
    19.62533860   -27.07260974    11.82910438
   -21.79879265    -3.60452434    10.30434089
   -17.51406000    -4.69287000     0.00000000
     0.00000000     0.00000000     0.00000000
     0.00000000     0.00000000     0.00000000
     0.00000000     0.00000000     0.00000000
     0.00000000     0.00000000     0.00000000
     0.00000000     0.00000000     0.00000000
     0.00000000     0.00000000     0.00000000
     0.00000000     0.00000000     0.00000000
     0.00000000     0.00000000     0.00000000
     0.00000000     0.00000000     0.00000000
     0.00000000     0.00000000     0.00000000
     0.00000000     0.00000000     0.00000000
     0.00000000     0.00000000     0.00000000
     0.00000000     0.00000000     0.00000000
     0.00000000     0.00000000     0.00000000
     0.00000000     0.00000000     0.00000000
     0.00000000     0.00000000     0.00000000
     0.00000000     0.00000000     0.00000000
     0.00000000     0.00000000     0.00000000
     0.00000000     0.00000000     0.00000000
     0.00000000     0.00000000     0.00000000
     0.00000000     0.00000000     0.00000000
     0.00000000     0.00000000     0.00000000
     2.12287479   -90.94461995    75.03563198
   -39.89472131    23.72023662    57.92919884
   -68.05815441   -16.00926201     9.32872988
   -69.60058500   -33.90545341    49.18956623
   -84.87250353   -15.28481746    -7.74726325
   -54.30255410   -50.53042330    29.59388168
   -56.89433371   -12.30530446   -12.60512490
   -35.92347184   -41.66720331    17.46536898
   -30.26195044   -13.75630012   -10.23409202
   -21.54664567   -25.04318889    -5.13688902
   -14.90328000    -3.99333000     0.00000000
   -74.09539131   204.87991429   144.28810598
  -100.51199687   -21.30302659     2.07117024
   -91.03341557    13.36909941     2.74372632
   -77.88830753   -29.48471571   -17.50850889
   -81.91462324   -28.96446270     1.29346527
   -49.53494051   -72.65379743   -17.71066980
   -45.72050496   -60.71495127    23.66363204
    -8.26995393   -64.32884051     3.68492729
   -16.99757848   -31.73436119    20.70136296
    -6.10215442   -25.81085185    11.38199456
   -22.71996000    -6.08781000     0.00000000
     7.01608736   327.07472923    46.72136694
    -7.89333424   209.21698406    74.56885862
   -67.36491460    11.17362185   -46.62585566
   -36.44093730    33.76212143   -83.70720972
   -13.21210696   -78.99935689   -19.29076970
    25.25109326   -52.03792985   -32.33607425
    27.85535438   -97.62177130     5.38274473
    13.15123711   -63.60674328    17.16701139
    -1.95600209   -49.61623616    25.71023320
   -16.51185846    -4.26865459    13.72984260
   -22.71996000    -6.08781000     0.00000000
  -102.87612425   164.94584997    85.08680814
    29.44665219   121.08020367    62.74539514
   117.13786135    62.71998564   -17.75094055
   185.16536574    43.10726102    13.69830835
   158.45459080    -5.81884723    -6.22027344
   139.39052706   -11.04461922     9.72038197
    91.03934811   -25.55522329     6.98168993
    52.51232729   -24.36462994    30.64272984
    -4.34280067   -27.34808963    30.71883807
   -14.60172901     0.20096391    12.54160347
   -14.90328000    -3.99333000     0.00000000
     0.00000000     0.00000000     0.00000000
     0.00000000     0.00000000     0.00000000
     0.00000000     0.00000000     0.00000000
     0.00000000     0.00000000     0.00000000
     0.00000000     0.00000000     0.00000000
     0.00000000     0.00000000     0.00000000
     0.00000000     0.00000000     0.00000000
     0.00000000     0.00000000     0.00000000
     0.00000000     0.00000000     0.00000000
     0.00000000     0.00000000     0.00000000
     0.00000000     0.00000000     0.00000000
     0.00000000     0.00000000     0.00000000
     0.00000000     0.00000000     0.00000000
     0.00000000     0.00000000     0.00000000
     0.00000000     0.00000000     0.00000000
     0.00000000     0.00000000     0.00000000
     0.00000000     0.00000000     0.00000000
     0.00000000     0.00000000     0.00000000
     0.00000000     0.00000000     0.00000000
     0.00000000     0.00000000     0.00000000
     0.00000000     0.00000000     0.00000000
     0.00000000     0.00000000     0.00000000
   -17.68737101  -123.35774866   145.74877087
   -75.79721275    11.18921929    29.58212709
   -70.30455752    -3.01312647    59.10401512
   -88.48602205     2.66397704    43.83415762
   -71.18592796   -12.84865727    -3.12671789
   -59.94583327   -23.44515966    32.03036582
   -51.83626486   -11.10327769   -12.27238948
   -34.43741195   -24.67813609    21.12096293
   -26.32760979   -10.43088233    -8.35624499
   -11.29186147   -21.04456122    -5.09541394
   -10.90554000    -2.92212000     0.00000000
   -78.16604985   131.11149258   209.80007377
  -115.69669478   -53.48991073   -70.32548413
   -94.98577294    11.23831861    46.91781634
  -112.85747918   -54.37014883   -50.03093652
   -78.62841597   -14.19463532     4.19537515
   -74.30653473   -68.74125354   -14.14013286
   -45.15016789   -36.51873341    15.69468602
   -26.62177358   -50.51340584     1.40506829
   -12.00419958   -20.03590905    12.20447161
   -10.59074275   -24.52122674    11.98768177
   -16.73892000    -4.48518000     0.00000000
     6.76257267   300.80564840   129.17687920
    -2.57374517   124.52941966    39.81210238
    -4.06565728    -0.41758653   -63.57469311
   -71.09488010    -9.70951879   -47.60505719
   -19.32634080   -88.72274874   -40.33611477
   -22.10184613   -64.64731284    -2.52862742
   -11.39097368   -90.03486275    11.27516471
   -20.99915650   -46.69278081    27.73547016
    -7.07998362   -38.37321709    17.11464964
   -16.09510249    -0.39399998    12.10908969
   -16.73892000    -4.48518000     0.00000000
  -108.68461008   144.01848782    96.36130378
    65.53046322    61.61532802    16.72627013
   181.46196061    84.97658535   -35.46541168
   161.92011494    27.61516811    22.81327712
   154.92241170    -9.33763962   -23.46639882
    94.28192082   -21.11899433    24.84339756
    46.01202038   -31.11620711     8.74882089
    -5.80350811   -35.32925182    54.02822646
   -11.80194216   -28.36971246    26.88748922
   -20.55550643    -1.37869067    12.54428961
   -10.90554000    -2.92212000     0.00000000
     0.00000000     0.00000000     0.00000000
     0.00000000     0.00000000     0.00000000
     0.00000000     0.00000000     0.00000000
     0.00000000     0.00000000     0.00000000
     0.00000000     0.00000000     0.00000000
     0.00000000     0.00000000     0.00000000
     0.00000000     0.00000000     0.00000000
     0.00000000     0.00000000     0.00000000
     0.00000000     0.00000000     0.00000000
     0.00000000     0.00000000     0.00000000
     0.00000000     0.00000000     0.00000000
     0.00000000     0.00000000     0.00000000
     0.00000000     0.00000000     0.00000000
     0.00000000     0.00000000     0.00000000
     0.00000000     0.00000000     0.00000000
     0.00000000     0.00000000     0.00000000
     0.00000000     0.00000000     0.00000000
     0.00000000     0.00000000     0.00000000
     0.00000000     0.00000000     0.00000000
     0.00000000     0.00000000     0.00000000
     0.00000000     0.00000000     0.00000000
     0.00000000     0.00000000     0.00000000
   -20.49408231   -32.16538760   244.86033973
  -114.64816242   -39.06992581    -8.61645755
  -109.52858903    30.44209029    65.03274517
   -55.44418984    -9.96266369     8.02202793
   -65.67391518    -0.05537489     7.43203035
   -47.81874631    -9.55009073    15.99535296
   -41.45634986    -6.65263535    -5.76409060
   -30.60279041    -9.98887118    11.88488194
   -12.08423552    -5.82815213    -6.27731198
   -12.30138595    -8.83706630    -0.99680777
    -5.81406000    -1.55787000     0.00000000
   -49.15158457   180.24953788   213.98659152
  -113.84851231   -72.95960027   -86.25265524
   -98.10324056    12.72595331    74.63964702
   -80.84739028   -22.02669605   -61.13168546
   -90.74041868   -13.22692866    30.19790601
   -64.97680592   -36.36872824   -25.94950016
   -51.22245641   -23.39244587    16.20917169
   -24.87002947   -24.93436496    -9.29167927
   -24.97747660   -15.10949060     6.96200577
    -7.84927594   -11.08545342     3.65318276
    -8.98422000    -2.40732000     0.00000000
   -92.06006480   325.48731369   174.42803378
    14.02121956   -19.16484536   -65.35475728
   -41.82736877    14.53598122    36.80414402
   -69.31637826   -32.29084690   -65.04166952
   -71.73814721   -71.68240816    10.67738240
   -64.23819960   -51.62924286   -12.17115713
   -44.19405783   -60.91772815    23.27558570
   -31.90610279   -30.09603530     2.77140616
   -15.05206878   -28.01683839     9.87651705
   -11.41937540    -8.71260423     3.23520203
    -8.98422000    -2.40732000     0.00000000
  -156.07119740   126.78537860    83.94977102
    75.65601540    35.67186327   -50.93460639
    80.80080354    40.64046691    17.12045016
   106.39210434     2.97578280    -2.31224712
    38.76503233   -13.95737700    10.24229029
   -12.39118688   -30.07233628     6.93008687
   -38.68946102   -34.43615387    22.08024921
   -26.11060613   -37.12306911    27.96157742
   -17.28525915   -21.08321403    16.37584792
    -9.04709075   -10.07311941     8.60871818
    -5.81406000    -1.55787000     0.00000000
     0.00000000     0.00000000     0.00000000
     0.00000000     0.00000000     0.00000000
     0.00000000     0.00000000     0.00000000
     0.00000000     0.00000000     0.00000000
     0.00000000     0.00000000     0.00000000
     0.00000000     0.00000000     0.00000000
     0.00000000     0.00000000     0.00000000
     0.00000000     0.00000000     0.00000000
     0.00000000     0.00000000     0.00000000
     0.00000000     0.00000000     0.00000000
     0.00000000     0.00000000     0.00000000
     0.00000000     0.00000000     0.00000000
     0.00000000     0.00000000     0.00000000
     0.00000000     0.00000000     0.00000000
     0.00000000     0.00000000     0.00000000
     0.00000000     0.00000000     0.00000000
     0.00000000     0.00000000     0.00000000
     0.00000000     0.00000000     0.00000000
     0.00000000     0.00000000     0.00000000
     0.00000000     0.00000000     0.00000000
     0.00000000     0.00000000     0.00000000
     0.00000000     0.00000000     0.00000000
     0.00000000     0.00000000     0.00000000
     0.00000000     0.00000000     0.00000000
     0.00000000     0.00000000     0.00000000
     0.00000000     0.00000000     0.00000000
     0.00000000     0.00000000     0.00000000
     0.00000000     0.00000000     0.00000000
     0.00000000     0.00000000     0.00000000
     0.00000000     0.00000000     0.00000000
     0.00000000     0.00000000     0.00000000
     0.00000000     0.00000000     0.00000000
     0.00000000     0.00000000     0.00000000
     0.00000000     0.00000000     0.00000000
     0.00000000     0.00000000     0.00000000
     0.00000000     0.00000000     0.00000000
     0.00000000     0.00000000     0.00000000
     0.00000000     0.00000000     0.00000000
     0.00000000     0.00000000     0.00000000
     0.00000000     0.00000000     0.00000000
     0.00000000     0.00000000     0.00000000
     0.00000000     0.00000000     0.00000000
     0.00000000     0.00000000     0.00000000
     0.00000000     0.00000000     0.00000000
     0.00000000     0.00000000     0.00000000
     0.00000000     0.00000000     0.00000000
     0.00000000     0.00000000     0.00000000
     0.00000000     0.00000000     0.00000000
     0.00000000     0.00000000     0.00000000
     0.00000000     0.00000000     0.00000000
     0.00000000     0.00000000     0.00000000
     0.00000000     0.00000000     0.00000000
     0.00000000     0.00000000     0.00000000
     0.00000000     0.00000000     0.00000000
     0.00000000     0.00000000     0.00000000
     0.00000000     0.00000000     0.00000000
     0.00000000     0.00000000     0.00000000
     0.00000000     0.00000000     0.00000000
     0.00000000     0.00000000     0.00000000
     0.00000000     0.00000000     0.00000000
     0.00000000     0.00000000     0.00000000
     0.00000000     0.00000000     0.00000000
     0.00000000     0.00000000     0.00000000
     0.00000000     0.00000000     0.00000000
     0.00000000     0.00000000     0.00000000
     0.00000000     0.00000000     0.00000000
     0.00000000     0.00000000     0.00000000
     0.00000000     0.00000000     0.00000000
     0.00000000     0.00000000     0.00000000
     0.00000000     0.00000000     0.00000000
     0.00000000     0.00000000     0.00000000
     0.00000000     0.00000000     0.00000000
     0.00000000     0.00000000     0.00000000
     0.00000000     0.00000000     0.00000000
     0.00000000     0.00000000     0.00000000
     0.00000000     0.00000000     0.00000000
     0.00000000     0.00000000     0.00000000
     0.00000000     0.00000000     0.00000000
     0.00000000     0.00000000     0.00000000
     0.00000000     0.00000000     0.00000000
     0.00000000     0.00000000     0.00000000
     0.00000000     0.00000000     0.00000000
     0.00000000     0.00000000     0.00000000
     0.00000000     0.00000000     0.00000000
     0.00000000     0.00000000     0.00000000
    -0.78418472  -188.05611598     0.00000000
  -143.75309142    13.06255434     0.00000000
  -203.66235017    73.08606380     0.00000000
  -188.34003350    62.11901454     0.00000000
  -173.76690980    87.70823103     0.00000000
  -118.40139480    94.51320409     0.00000000
   -70.74145462    82.90802254     0.00000000
    -7.17190237    69.97790126     0.00000000
     0.00000000     0.00000000     0.00000000
    42.58633693  -386.84173221     0.00000000
    23.09597889  -156.20512487     0.00000000
  -120.58626923   -27.01066784     0.00000000
  -135.12261590    29.16464288     0.00000000
   -33.95963092    85.47068260     0.00000000
    58.49317877   106.11896231     0.00000000
    87.19852035    97.50498686     0.00000000
    65.50212828   107.92470642     0.00000000
     0.00000000     0.00000000     0.00000000
    57.51591036  -502.52228604     0.00000000
   -71.89548773  -252.05740735     0.00000000
  -129.37353419   -73.98237728     0.00000000
   -57.63658318    42.14240896     0.00000000
    68.97124481    77.56087803     0.00000000
   123.16841020    84.50525103     0.00000000
   139.49047476    71.40434995     0.00000000
    71.28481067    70.79099182     0.00000000
     0.00000000     0.00000000     0.00000000
    31.24800925  -254.08974690     0.00000000
   339.59549485  -258.44525609     0.00000000
   419.67908575  -128.02772735     0.00000000
   395.90322310   -76.31064375     0.00000000
   303.41926712   -13.94384486     0.00000000
   234.05304735   -16.17920704     0.00000000
   140.64324043    14.48426336     0.00000000
    67.37836406     8.12145490     0.00000000
     0.00000000     0.00000000     0.00000000
     0.00000000     0.00000000     0.00000000
     0.00000000     0.00000000     0.00000000
     0.00000000     0.00000000     0.00000000
     0.00000000     0.00000000     0.00000000
     0.00000000     0.00000000     0.00000000
     0.00000000     0.00000000     0.00000000
     0.00000000     0.00000000     0.00000000
     0.00000000     0.00000000     0.00000000
     0.00000000     0.00000000     0.00000000
     0.00000000     0.00000000     0.00000000
     0.00000000     0.00000000     0.00000000
     0.00000000     0.00000000     0.00000000
     0.00000000     0.00000000     0.00000000
     0.00000000     0.00000000     0.00000000
     0.00000000     0.00000000     0.00000000
     0.00000000     0.00000000     0.00000000
     0.00000000     0.00000000     0.00000000
     0.00000000     0.00000000     0.00000000
   -42.41968706  -181.65761850     5.78341175
  -157.93852734    51.17541772   117.92385925
  -205.04747854    59.26354989   -40.41042289
  -187.89431965    66.72891557    45.11750057
  -184.59479899    65.36340448   -13.15260629
  -123.20500131    99.67602321    35.12777972
   -75.81333059    72.39908087     5.77450897
   -14.09883365    62.79525978    19.99942946
     0.00000000     0.00000000     0.00000000
   -43.95785709  -403.40640192   -26.71167863
   -19.86552170   -87.19021517    35.76019590
  -160.59506177   -60.44599926   -24.34724350
  -116.66460979    83.00256341   -53.69562457
   -18.92625438    68.14367521   -53.73046923
    60.15105025   122.72318136   -23.45381507
    80.69484504    94.02180933    -3.84325327
    57.65402501   106.11890434    43.37117749
     0.00000000     0.00000000     0.00000000
    -7.86600130  -525.45651969    22.85676333
  -117.28601570  -222.16419442    97.63739677
   -94.15196552   -57.92616158    24.23448778
    57.63305823    46.41912873   -35.99733671
   127.65697412    84.06827966   -37.41083566
   161.54182284    72.06362715   -21.63525455
   136.87845740    78.39971834    -6.77296311
    76.81755456    65.76863013    44.59683292
     0.00000000     0.00000000     0.00000000
    26.97981382  -306.12180740   -20.83134703
   332.87114470  -217.52136496    17.27281596
   427.92475954  -103.63940669    12.47211561
   368.82537463   -59.68709598    19.53508164
   302.23401798   -18.01229695     2.64625366
   202.33223656    -3.80272706     5.93390745
   145.24254643     8.66679921     7.46885291
    38.58812048    16.52701574    37.05995496
     0.00000000     0.00000000     0.00000000
     0.00000000     0.00000000     0.00000000
     0.00000000     0.00000000     0.00000000
     0.00000000     0.00000000     0.00000000
     0.00000000     0.00000000     0.00000000
     0.00000000     0.00000000     0.00000000
     0.00000000     0.00000000     0.00000000
     0.00000000     0.00000000     0.00000000
     0.00000000     0.00000000     0.00000000
     0.00000000     0.00000000     0.00000000
     0.00000000     0.00000000     0.00000000
     0.00000000     0.00000000     0.00000000
     0.00000000     0.00000000     0.00000000
     0.00000000     0.00000000     0.00000000
     0.00000000     0.00000000     0.00000000
     0.00000000     0.00000000     0.00000000
     0.00000000     0.00000000     0.00000000
     0.00000000     0.00000000     0.00000000
     0.00000000     0.00000000     0.00000000
  -197.48298778  -162.81182841    60.15067963
  -145.09738566   121.35338947   144.92664005
  -226.23934660   -12.50839637   -29.36337783
  -181.24690218   100.32849040    44.07533419
  -208.83101973    11.10533896     2.69051386
  -135.53779824   115.39616774    35.83734413
   -86.62791058    29.02812307    27.51476965
   -36.80671192    59.30540978    22.68411698
     0.00000000     0.00000000     0.00000000
  -191.41349917  -373.36510548    21.31572903
  -108.59555417    95.24501743   -11.12954300
  -232.32638541  -120.16382477   -62.80021419
  -105.28398239   171.35706262   -83.19231269
   -57.86498293    47.83877463   -56.70494329
    19.49085849   139.87294136   -32.60952685
    18.05357455    86.63403778    10.74572683
    41.77969361    85.77592384    73.09574642
     0.00000000     0.00000000     0.00000000
   -71.72985464  -554.66636469    78.36444266
  -172.72706778   -57.53772350   154.55799929
     4.00370010   -25.52561783   -13.70682094
   173.69097149    77.25398598   -72.45119702
   175.50100168    86.82554075   -51.04051275
   146.16220609    74.45848522   -26.96599779
   107.57545379    89.74045153    -0.49692341
    30.75143690    66.43403578    67.49390878
     0.00000000     0.00000000     0.00000000
    -9.94079199  -359.12194267   -18.03649009
   371.69274045  -146.94582057    -1.55384205
   413.96988145   -32.28935567    18.93175122
   349.91624410   -50.38786142    29.02211598
   258.65099310    -3.80497646     6.22604499
   187.78198455     1.41327155     7.24010775
    88.27395756    14.68880720    21.32686515
    42.62238022    21.99944106    58.85994998
     0.00000000     0.00000000     0.00000000
     0.00000000     0.00000000     0.00000000
     0.00000000     0.00000000     0.00000000
     0.00000000     0.00000000     0.00000000
     0.00000000     0.00000000     0.00000000
     0.00000000     0.00000000     0.00000000
     0.00000000     0.00000000     0.00000000
     0.00000000     0.00000000     0.00000000
     0.00000000     0.00000000     0.00000000
     0.00000000     0.00000000     0.00000000
     0.00000000     0.00000000     0.00000000
     0.00000000     0.00000000     0.00000000
     0.00000000     0.00000000     0.00000000
     0.00000000     0.00000000     0.00000000
     0.00000000     0.00000000     0.00000000
     0.00000000     0.00000000     0.00000000
     0.00000000     0.00000000     0.00000000
     0.00000000     0.00000000     0.00000000
     0.00000000     0.00000000     0.00000000
  -304.90624072  -139.43700361    78.36324129
  -141.13046279   155.39788360   107.92416944
  -220.12803565  -112.02791332    -2.68527728
  -185.03547045   135.03341651    34.60096305
  -212.71873456   -25.88690808     2.29534284
  -139.40382937   100.68549520    35.37680171
  -116.93783582   -17.42518951    32.05924878
   -36.59817061    55.02821379    16.07073858
     0.00000000     0.00000000     0.00000000
  -212.94733020  -396.02941713    97.15970036
  -142.02872923   254.01184773   -83.32478405
  -265.05433581  -115.15681013   -50.85405490
  -136.69143284   209.70744828   -84.19272402
  -153.90125011     5.88852536   -10.15354039
   -78.48968734   145.98042045   -41.62762859
   -64.30320474    24.83489643    40.08076066
     7.08777245    69.15524394    60.90374328
     0.00000000     0.00000000     0.00000000
  -123.73610901  -563.56208907   106.21235912
   -71.59324573    38.19920367    88.25295096
    98.65661438    62.56752804   -62.15509790
   135.93709392    60.51996727   -55.78295207
    51.73713053   104.37429963   -36.04206117
    14.02946391    75.28287479   -11.38859406
   -22.92921817    94.79244853     0.32389140
    -7.50183067    45.02237312    52.60155317
     0.00000000     0.00000000     0.00000000
   -27.70344420  -368.66308080   -14.69918521
   387.87302651  -111.02377061   -52.12143427
   396.78896592   -34.90203169    20.76814100
   285.57261337   -19.71432998    25.26792794
   221.36010662     1.37441536     8.21059207
    97.57268012    16.01609588    15.65695110
    38.88697390    31.47378929    31.86842254
    -5.20445704    36.15892116    54.12162341
     0.00000000     0.00000000     0.00000000
     0.00000000     0.00000000     0.00000000
     0.00000000     0.00000000     0.00000000
     0.00000000     0.00000000     0.00000000
     0.00000000     0.00000000     0.00000000
     0.00000000     0.00000000     0.00000000
     0.00000000     0.00000000     0.00000000
     0.00000000     0.00000000     0.00000000
     0.00000000     0.00000000     0.00000000
     0.00000000     0.00000000     0.00000000
     0.00000000     0.00000000     0.00000000
     0.00000000     0.00000000     0.00000000
     0.00000000     0.00000000     0.00000000
     0.00000000     0.00000000     0.00000000
     0.00000000     0.00000000     0.00000000
     0.00000000     0.00000000     0.00000000
     0.00000000     0.00000000     0.00000000
     0.00000000     0.00000000     0.00000000
     0.00000000     0.00000000     0.00000000
  -297.33179773  -152.48215475   122.61381393
  -132.90776847   159.01169470   -11.88311166
  -160.73813072  -107.72157271    48.15204717
  -170.94507078   124.70908773   -10.41690504
  -161.19174324   -24.10064355    15.52163562
  -145.80853284    68.79883849    11.40434751
   -87.52076409   -19.40628853    20.86493423
   -62.04472729    30.30790952     5.94214122
     0.00000000     0.00000000     0.00000000
  -121.70988794  -381.12285139    78.55015513
  -131.82716802   186.54285120   -36.58751538
  -234.89435111   -41.74078165   -25.46357956
  -123.65355415   138.70209752   -32.13912964
  -179.59466185     7.24171391     1.09083304
  -105.07482674    80.77009539   -19.28365458
  -125.59322880   -11.56484813    28.05428939
    -3.39800149    22.89529387    21.82309377
     0.00000000     0.00000000     0.00000000
  -106.69717742  -469.97066922    11.02684825
    71.32550050     3.95226631     4.47331077
    36.78361526    73.63117258   -32.53430753
   -74.36227849    70.20515527   -12.10532414
   -73.04452958    92.22944534    -7.22650230
  -105.37922670    55.08386654    -0.44927938
   -67.71996672    43.91184738    -6.58694670
   -38.16311142    21.34903974    16.49533489
     0.00000000     0.00000000     0.00000000
   -38.53618736  -242.21865616   -61.35709141
   393.00041587   -89.94922966   -41.42143775
   240.60656196   -49.80182643    24.71211053
   175.33399847     3.86998971    10.12053210
    51.45906775     9.06002300    18.33776739
    -4.54307690    31.20818536     9.91200535
   -45.11359560    39.63532826    26.44678807
   -14.15103115    24.91998929    22.54484213
     0.00000000     0.00000000     0.00000000
     0.00000000     0.00000000     0.00000000
     0.00000000     0.00000000     0.00000000
     0.00000000     0.00000000     0.00000000
     0.00000000     0.00000000     0.00000000
     0.00000000     0.00000000     0.00000000
     0.00000000     0.00000000     0.00000000
     0.00000000     0.00000000     0.00000000
     0.00000000     0.00000000     0.00000000
     0.00000000     0.00000000     0.00000000
     0.00000000     0.00000000     0.00000000
     0.00000000     0.00000000     0.00000000
     0.00000000     0.00000000     0.00000000
     0.00000000     0.00000000     0.00000000
     0.00000000     0.00000000     0.00000000
     0.00000000     0.00000000     0.00000000
     0.00000000     0.00000000     0.00000000
     0.00000000     0.00000000     0.00000000
     0.00000000     0.00000000     0.00000000
     0.00000000     0.00000000     0.00000000
     0.00000000     0.00000000     0.00000000
     0.00000000     0.00000000     0.00000000
     0.00000000     0.00000000     0.00000000
     0.00000000     0.00000000     0.00000000
     0.00000000     0.00000000     0.00000000
     0.00000000     0.00000000     0.00000000
     0.00000000     0.00000000     0.00000000
     0.00000000     0.00000000     0.00000000
     0.00000000     0.00000000     0.00000000
     0.00000000     0.00000000     0.00000000
     0.00000000     0.00000000     0.00000000
     0.00000000     0.00000000     0.00000000
     0.00000000     0.00000000     0.00000000
     0.00000000     0.00000000     0.00000000
     0.00000000     0.00000000     0.00000000
     0.00000000     0.00000000     0.00000000
     0.00000000     0.00000000     0.00000000
     0.00000000     0.00000000     0.00000000
     0.00000000     0.00000000     0.00000000
     0.00000000     0.00000000     0.00000000
     0.00000000     0.00000000     0.00000000
     0.00000000     0.00000000     0.00000000
     0.00000000     0.00000000     0.00000000
     0.00000000     0.00000000     0.00000000
     0.00000000     0.00000000     0.00000000
     0.00000000     0.00000000     0.00000000
     0.00000000     0.00000000     0.00000000
     0.00000000     0.00000000     0.00000000
     0.00000000     0.00000000     0.00000000
     0.00000000     0.00000000     0.00000000
     0.00000000     0.00000000     0.00000000
     0.00000000     0.00000000     0.00000000
     0.00000000     0.00000000     0.00000000
     0.00000000     0.00000000     0.00000000
     0.00000000     0.00000000     0.00000000
     0.00000000     0.00000000     0.00000000
     0.00000000     0.00000000     0.00000000
     0.00000000     0.00000000     0.00000000
     0.00000000     0.00000000     0.00000000
     0.00000000     0.00000000     0.00000000
     0.00000000     0.00000000     0.00000000
     0.00000000     0.00000000     0.00000000
     0.00000000     0.00000000     0.00000000
     0.00000000     0.00000000     0.00000000
     0.00000000     0.00000000     0.00000000
     0.00000000     0.00000000     0.00000000
     0.00000000     0.00000000     0.00000000
     0.00000000     0.00000000     0.00000000
     0.00000000     0.00000000     0.00000000
     0.00000000     0.00000000     0.00000000
     0.00000000     0.00000000     0.00000000
     0.00000000     0.00000000     0.00000000
     0.00000000     0.00000000     0.00000000
     0.00000000     0.00000000     0.00000000
     0.00000000     0.00000000     0.00000000
     0.00000000     0.00000000     0.00000000
     0.00000000     0.00000000     0.00000000
     0.00000000     0.00000000     0.00000000
     0.00000000     0.00000000     0.00000000
     0.00000000     0.00000000     0.00000000
     0.00000000     0.00000000     0.00000000
     0.00000000     0.00000000     0.00000000
     0.00000000     0.00000000     0.00000000
     0.00000000     0.00000000     0.00000000
     0.00000000     0.00000000     0.00000000
     0.00000000     0.00000000     0.00000000
     0.00000000     0.00000000     0.00000000
     0.00000000     0.00000000     0.00000000
     0.00000000     0.00000000     0.00000000
     0.00000000     0.00000000     0.00000000
     0.00000000     0.00000000     0.00000000
     0.00000000     0.00000000     0.00000000
     0.00000000     0.00000000     0.00000000
     0.00000000     0.00000000     0.00000000
     0.00000000     0.00000000     0.00000000
     0.00000000     0.00000000     0.00000000
     0.00000000     0.00000000     0.00000000
     0.00000000     0.00000000     0.00000000
     0.00000000     0.00000000     0.00000000
     0.00000000     0.00000000     0.00000000
     0.00000000     0.00000000     0.00000000
     0.00000000     0.00000000     0.00000000
     0.00000000     0.00000000     0.00000000
     0.00000000     0.00000000     0.00000000
     0.00000000     0.00000000     0.00000000
     0.00000000     0.00000000     0.00000000
     0.00000000     0.00000000     0.00000000
     0.00000000     0.00000000     0.00000000
     0.00000000     0.00000000     0.00000000
     0.00000000     0.00000000     0.00000000
     0.00000000     0.00000000     0.00000000
     0.00000000     0.00000000     0.00000000
     0.00000000     0.00000000     0.00000000
     0.00000000     0.00000000     0.00000000
     0.00000000     0.00000000     0.00000000
     0.00000000     0.00000000     0.00000000
     0.00000000     0.00000000     0.00000000
     0.00000000     0.00000000     0.00000000
     0.00000000     0.00000000     0.00000000
     0.00000000     0.00000000     0.00000000
     0.00000000     0.00000000     0.00000000
     0.00000000     0.00000000     0.00000000
     0.00000000     0.00000000     0.00000000
     0.00000000     0.00000000     0.00000000
     0.00000000     0.00000000     0.00000000
     0.00000000     0.00000000     0.00000000
     0.00000000     0.00000000     0.00000000
     0.00000000     0.00000000     0.00000000
     0.00000000     0.00000000     0.00000000
     0.00000000     0.00000000     0.00000000
     0.00000000     0.00000000     0.00000000
     0.00000000     0.00000000     0.00000000
     0.00000000     0.00000000     0.00000000
     0.00000000     0.00000000     0.00000000
     0.00000000     0.00000000     0.00000000
     0.00000000     0.00000000     0.00000000
     0.00000000     0.00000000     0.00000000
     0.00000000     0.00000000     0.00000000
     0.00000000     0.00000000     0.00000000
     0.00000000     0.00000000     0.00000000
     0.00000000     0.00000000     0.00000000
     0.00000000     0.00000000     0.00000000
     0.00000000     0.00000000     0.00000000
     0.00000000     0.00000000     0.00000000
     0.00000000     0.00000000     0.00000000
     0.00000000     0.00000000     0.00000000
     0.00000000     0.00000000     0.00000000
     0.00000000     0.00000000     0.00000000
     0.00000000     0.00000000     0.00000000
     0.00000000     0.00000000     0.00000000
     0.00000000     0.00000000     0.00000000
     0.00000000     0.00000000     0.00000000
     0.00000000     0.00000000     0.00000000
     0.00000000     0.00000000     0.00000000
     0.00000000     0.00000000     0.00000000
     0.00000000     0.00000000     0.00000000
     0.00000000     0.00000000     0.00000000
     0.00000000     0.00000000     0.00000000
     0.00000000     0.00000000     0.00000000
     0.00000000     0.00000000     0.00000000
     0.00000000     0.00000000     0.00000000
     0.00000000     0.00000000     0.00000000
     0.00000000     0.00000000     0.00000000
     0.00000000     0.00000000     0.00000000
     0.00000000     0.00000000     0.00000000
     0.00000000     0.00000000     0.00000000
     0.00000000     0.00000000     0.00000000
     0.00000000     0.00000000     0.00000000
     0.00000000     0.00000000     0.00000000
     0.00000000     0.00000000     0.00000000
     0.00000000     0.00000000     0.00000000
     0.00000000     0.00000000     0.00000000
     0.00000000     0.00000000     0.00000000
     0.00000000     0.00000000     0.00000000
     0.00000000     0.00000000     0.00000000
     0.00000000     0.00000000     0.00000000
     0.00000000     0.00000000     0.00000000
     0.00000000     0.00000000     0.00000000
     0.00000000     0.00000000     0.00000000
     0.00000000     0.00000000     0.00000000
     0.00000000     0.00000000     0.00000000
     0.00000000     0.00000000     0.00000000
     0.00000000     0.00000000     0.00000000
     0.00000000     0.00000000     0.00000000
     0.00000000     0.00000000     0.00000000
     0.00000000     0.00000000     0.00000000
     0.00000000     0.00000000     0.00000000
     0.00000000     0.00000000     0.00000000
     0.00000000     0.00000000     0.00000000
     0.00000000     0.00000000     0.00000000
     0.00000000     0.00000000     0.00000000
     0.00000000     0.00000000     0.00000000
     0.00000000     0.00000000     0.00000000
     0.00000000     0.00000000     0.00000000
     0.00000000     0.00000000     0.00000000
     0.00000000     0.00000000     0.00000000
     0.00000000     0.00000000     0.00000000
     0.00000000     0.00000000     0.00000000
     0.00000000     0.00000000     0.00000000
     0.00000000     0.00000000     0.00000000
     0.00000000     0.00000000     0.00000000
     0.00000000     0.00000000     0.00000000
     0.00000000     0.00000000     0.00000000
     0.00000000     0.00000000     0.00000000
     0.00000000     0.00000000     0.00000000
     0.00000000     0.00000000     0.00000000
     0.00000000     0.00000000     0.00000000
     0.00000000     0.00000000     0.00000000
     0.00000000     0.00000000     0.00000000
     0.00000000     0.00000000     0.00000000
     0.00000000     0.00000000     0.00000000
     0.00000000     0.00000000     0.00000000
     0.00000000     0.00000000     0.00000000
     0.00000000     0.00000000     0.00000000
     0.00000000     0.00000000     0.00000000
     0.00000000     0.00000000     0.00000000
     0.00000000     0.00000000     0.00000000
     0.00000000     0.00000000     0.00000000
     0.00000000     0.00000000     0.00000000
     0.00000000     0.00000000     0.00000000
     0.00000000     0.00000000     0.00000000
     0.00000000     0.00000000     0.00000000
     0.00000000     0.00000000     0.00000000
     0.00000000     0.00000000     0.00000000
     0.00000000     0.00000000     0.00000000
     0.00000000     0.00000000     0.00000000
     0.00000000     0.00000000     0.00000000
     0.00000000     0.00000000     0.00000000
     0.00000000     0.00000000     0.00000000
     0.00000000     0.00000000     0.00000000
     0.00000000     0.00000000     0.00000000
     0.00000000     0.00000000     0.00000000
     0.00000000     0.00000000     0.00000000
     0.00000000     0.00000000     0.00000000
     0.00000000     0.00000000     0.00000000
     0.00000000     0.00000000     0.00000000
     0.00000000     0.00000000     0.00000000
     0.00000000     0.00000000     0.00000000
     0.00000000     0.00000000     0.00000000
     0.00000000     0.00000000     0.00000000
     0.00000000     0.00000000     0.00000000
     0.00000000     0.00000000     0.00000000
     0.00000000     0.00000000     0.00000000
     0.00000000     0.00000000     0.00000000
     0.00000000     0.00000000     0.00000000
     0.00000000     0.00000000     0.00000000
     0.00000000     0.00000000     0.00000000
     0.00000000     0.00000000     0.00000000
     0.00000000     0.00000000     0.00000000
     0.00000000     0.00000000     0.00000000
     0.00000000     0.00000000     0.00000000
     0.00000000     0.00000000     0.00000000
     0.00000000     0.00000000     0.00000000
     0.00000000     0.00000000     0.00000000
     0.00000000     0.00000000     0.00000000
     0.00000000     0.00000000     0.00000000
     0.00000000     0.00000000     0.00000000
     0.00000000     0.00000000     0.00000000
     0.00000000     0.00000000     0.00000000
     0.00000000     0.00000000     0.00000000
     0.00000000     0.00000000     0.00000000
     0.00000000     0.00000000     0.00000000
     0.00000000     0.00000000     0.00000000
     0.00000000     0.00000000     0.00000000
     0.00000000     0.00000000     0.00000000
     0.00000000     0.00000000     0.00000000
     0.00000000     0.00000000     0.00000000
     0.00000000     0.00000000     0.00000000
     0.00000000     0.00000000     0.00000000
     0.00000000     0.00000000     0.00000000
     0.00000000     0.00000000     0.00000000
     0.00000000     0.00000000     0.00000000
     0.00000000     0.00000000     0.00000000
     0.00000000     0.00000000     0.00000000
     0.00000000     0.00000000     0.00000000
     0.00000000     0.00000000     0.00000000
     0.00000000     0.00000000     0.00000000
     0.00000000     0.00000000     0.00000000
     0.00000000     0.00000000     0.00000000
     0.00000000     0.00000000     0.00000000
     0.00000000     0.00000000     0.00000000
     0.00000000     0.00000000     0.00000000
     0.00000000     0.00000000     0.00000000
     0.00000000     0.00000000     0.00000000
     0.00000000     0.00000000     0.00000000
     0.00000000     0.00000000     0.00000000
     0.00000000     0.00000000     0.00000000
     0.00000000     0.00000000     0.00000000
     0.00000000     0.00000000     0.00000000
     0.00000000     0.00000000     0.00000000
     0.00000000     0.00000000     0.00000000
     0.00000000     0.00000000     0.00000000
     0.00000000     0.00000000     0.00000000
     0.00000000     0.00000000     0.00000000
     0.00000000     0.00000000     0.00000000
     0.00000000     0.00000000     0.00000000
     0.00000000     0.00000000     0.00000000
     0.00000000     0.00000000     0.00000000
     0.00000000     0.00000000     0.00000000
     0.00000000     0.00000000     0.00000000
     0.00000000     0.00000000     0.00000000
     0.00000000     0.00000000     0.00000000
     0.00000000     0.00000000     0.00000000
     0.00000000     0.00000000     0.00000000
     0.00000000     0.00000000     0.00000000
     0.00000000     0.00000000     0.00000000
     0.00000000     0.00000000     0.00000000
     0.00000000     0.00000000     0.00000000
     0.00000000     0.00000000     0.00000000
     0.00000000     0.00000000     0.00000000
     0.00000000     0.00000000     0.00000000
     0.00000000     0.00000000     0.00000000
     0.00000000     0.00000000     0.00000000
     0.00000000     0.00000000     0.00000000
     0.00000000     0.00000000     0.00000000
     0.00000000     0.00000000     0.00000000
     0.00000000     0.00000000     0.00000000
     0.00000000     0.00000000     0.00000000
     0.00000000     0.00000000     0.00000000
     0.00000000     0.00000000     0.00000000
     0.00000000     0.00000000     0.00000000
     0.00000000     0.00000000     0.00000000
     0.00000000     0.00000000     0.00000000
     0.00000000     0.00000000     0.00000000
     0.00000000     0.00000000     0.00000000
     0.00000000     0.00000000     0.00000000
     0.00000000     0.00000000     0.00000000
     0.00000000     0.00000000     0.00000000
     0.00000000     0.00000000     0.00000000
     0.00000000     0.00000000     0.00000000
     0.00000000     0.00000000     0.00000000
     0.00000000     0.00000000     0.00000000
     0.00000000     0.00000000     0.00000000
     0.00000000     0.00000000     0.00000000
     0.00000000     0.00000000     0.00000000
     0.00000000     0.00000000     0.00000000
     0.00000000     0.00000000     0.00000000
     0.00000000     0.00000000     0.00000000
     0.00000000     0.00000000     0.00000000
     0.00000000     0.00000000     0.00000000
SCALARS Temperatures float
LOOKUP_TABLE default
     0.00000000
     0.00000000
     0.00000000
     0.00000000
     0.00000000
     0.00000000
     0.00000000
     0.00000000
     0.00000000
     0.00000000
     0.00000000
     0.00000000
     0.00000000
     0.00000000
     0.00000000
     0.00000000
     0.00000000
     0.00000000
     0.00000000
     0.00000000
     0.00000000
     0.00000000
     0.00000000
     0.00000000
     0.00000000
     0.00000000
     0.00000000
     0.00000000
     0.00000000
     0.00000000
     0.00000000
     0.00000000
     0.00000000
     0.00000000
     0.00000000
     0.00000000
     0.00000000
     0.00000000
     0.00000000
     0.00000000
     0.00000000
     0.00000000
     0.00000000
     0.00000000
     0.00000000
     0.00000000
     0.00000000
     0.00000000
     0.00000000
     0.00000000
     0.00000000
     0.00000000
     0.00000000
     0.00000000
     0.00000000
     0.00000000
     0.00000000
     0.00000000
     0.00000000
     0.00000000
     0.00000000
     0.00000000
     0.00000000
     0.00000000
     0.00000000
     0.00000000
     0.00000000
     0.00000000
     0.00000000
     0.00000000
     0.00000000
     0.00000000
     0.00000000
     0.00000000
     0.00000000
     0.00000000
     0.00000000
     0.00000000
     0.00000000
     0.00000000
     0.00000000
     0.00000000
     0.00000000
     0.00000000
     0.00000000
     0.00000000
     0.00000000
     0.00000000
     0.00000000
     0.00000000
     0.00000000
     0.00000000
     0.00000000
     0.00000000
     0.00000000
     0.00000000
     0.00000000
     0.00000000
     0.00000000
     0.00000000
     0.00000000
     0.00000000
     0.00000000
     0.00000000
     0.00000000
     0.00000000
     0.00000000
     0.00000000
     0.00000000
     0.00000000
     0.00000000
     0.00000000
     0.00000000
     0.00000000
     0.00000000
     0.00000000
     0.00000000
     0.00000000
     0.00000000
     0.00000000
     0.00000000
     0.00000000
     0.00000000
     0.00000000
     0.00000000
     0.00000000
     0.00000000
     0.00000000
     0.00000000
     0.00000000
     0.00000000
     0.00000000
     0.00000000
     0.00000000
     0.00000000
     0.00000000
     0.00000000
     0.00000000
     0.00000000
     0.00000000
     0.00000000
     0.00000000
     0.00000000
     0.00000000
     0.00000000
     0.00000000
     0.00000000
     0.00000000
     0.00000000
     0.00000000
     0.00000000
     0.00000000
     0.00000000
     0.00000000
     0.00000000
     0.00000000
     0.00000000
     0.00000000
     0.00000000
     0.00000000
     0.00000000
     0.00000000
     0.00000000
     0.00000000
     0.00000000
     0.00000000
     0.00000000
     0.00000000
     0.00000000
     0.00000000
     0.00000000
     0.00000000
     0.00000000
     0.00000000
     0.00000000
     0.00000000
     0.00000000
     0.00000000
     0.00000000
     0.00000000
     0.00000000
     0.00000000
     0.00000000
     0.00000000
     0.00000000
     0.00000000
     0.00000000
     0.00000000
     0.00000000
     0.00000000
     0.00000000
     0.00000000
     0.00000000
     0.00000000
     0.00000000
     0.00000000
     0.00000000
     0.00000000
     0.00000000
     0.00000000
     0.00000000
     0.00000000
     0.00000000
     0.00000000
     0.00000000
     0.00000000
     0.00000000
     0.00000000
     0.00000000
     0.00000000
     0.00000000
     0.00000000
     0.00000000
     0.00000000
     0.00000000
     0.00000000
     0.00000000
     0.00000000
     0.00000000
     0.00000000
     0.00000000
     0.00000000
     0.00000000
     0.00000000
     0.00000000
     0.00000000
     0.00000000
     0.00000000
     0.00000000
     0.00000000
     0.00000000
     0.00000000
     0.00000000
     0.00000000
     0.00000000
     0.00000000
     0.00000000
     0.00000000
     0.00000000
     0.00000000
     0.00000000
     0.00000000
     0.00000000
     0.00000000
     0.00000000
     0.00000000
     0.00000000
     0.00000000
     0.00000000
     0.00000000
     0.00000000
     0.00000000
     0.00000000
     0.00000000
     0.00000000
     0.00000000
     0.00000000
     0.00000000
     0.00000000
     0.00000000
     0.00000000
     0.00000000
     0.00000000
     0.00000000
     0.00000000
     0.00000000
     0.00000000
     0.00000000
     0.00000000
     0.00000000
     0.00000000
     0.00000000
     0.00000000
     0.00000000
     0.00000000
     0.00000000
     0.00000000
     0.00000000
     0.00000000
     0.00000000
     0.00000000
     0.00000000
     0.00000000
     0.00000000
     0.00000000
     0.00000000
     0.00000000
     0.00000000
     0.00000000
     0.00000000
     0.00000000
     0.00000000
     0.00000000
     0.00000000
     0.00000000
     0.00000000
     0.00000000
     0.00000000
     0.00000000
     0.00000000
     0.00000000
     0.00000000
     0.00000000
     0.00000000
     0.00000000
     0.00000000
     0.00000000
     0.00000000
     0.00000000
     0.00000000
     0.00000000
     0.00000000
     0.00000000
     0.00000000
     0.00000000
     0.00000000
     0.00000000
     0.00000000
     0.00000000
     0.00000000
     0.00000000
     0.00000000
     0.00000000
     0.00000000
     0.00000000
     0.00000000
     0.00000000
     0.00000000
     0.00000000
     0.00000000
     0.00000000
     0.00000000
     0.00000000
     0.00000000
     0.00000000
     0.00000000
     0.00000000
     0.00000000
     0.00000000
     0.00000000
     0.00000000
     0.00000000
     0.00000000
     0.00000000
     0.00000000
     0.00000000
     0.00000000
     0.00000000
     0.00000000
     0.00000000
     0.00000000
     0.00000000
     0.00000000
     0.00000000
     0.00000000
     0.00000000
     0.00000000
     0.00000000
     0.00000000
     0.00000000
     0.00000000
     0.00000000
     0.00000000
     0.00000000
     0.00000000
     0.00000000
     0.00000000
     0.00000000
     0.00000000
     0.00000000
     0.00000000
     0.00000000
     0.00000000
     0.00000000
     0.00000000
     0.00000000
     0.00000000
     0.00000000
     0.00000000
     0.00000000
     0.00000000
     0.00000000
     0.00000000
     0.00000000
     0.00000000
     0.00000000
     0.00000000
     0.00000000
     0.00000000
     0.00000000
     0.00000000
     0.00000000
     0.00000000
     0.00000000
     0.00000000
     0.00000000
     0.00000000
     0.00000000
     0.00000000
     0.00000000
     0.00000000
     0.00000000
     0.00000000
     0.00000000
     0.00000000
     0.00000000
     0.00000000
     0.00000000
     0.00000000
     0.00000000
     0.00000000
     0.00000000
     0.00000000
     0.00000000
     0.00000000
     0.00000000
     0.00000000
     0.00000000
     0.00000000
     0.00000000
     0.00000000
     0.00000000
     0.00000000
     0.00000000
     0.00000000
     0.00000000
     0.00000000
     0.00000000
     0.00000000
     0.00000000
     0.00000000
     0.00000000
     0.00000000
     0.00000000
     0.00000000
     0.00000000
     0.00000000
     0.00000000
     0.00000000
     0.00000000
     0.00000000
     0.00000000
     0.00000000
     0.00000000
     0.00000000
     0.00000000
     0.00000000
     0.00000000
     0.00000000
     0.00000000
     0.00000000
     0.00000000
     0.00000000
     0.00000000
     0.00000000
     0.00000000
     0.00000000
     0.00000000
     0.00000000
     0.00000000
     0.00000000
     0.00000000
     0.00000000
     0.00000000
     0.00000000
     0.00000000
     0.00000000
     0.00000000
     0.00000000
     0.00000000
     0.00000000
     0.00000000
     0.00000000
     0.00000000
     0.00000000
     0.00000000
     0.00000000
     0.00000000
     0.00000000
     0.00000000
     0.00000000
     0.00000000
     0.00000000
     0.00000000
     0.00000000
     0.00000000
     0.00000000
     0.00000000
     0.00000000
     0.00000000
     0.00000000
     0.00000000
     0.00000000
     0.00000000
     0.00000000
     0.00000000
     0.00000000
     0.00000000
     0.00000000
     0.00000000
     0.00000000
     0.00000000
     0.00000000
     0.00000000
     0.00000000
     0.00000000
     0.00000000
     0.00000000
     0.00000000
     0.00000000
     0.00000000
     0.00000000
     0.00000000
     0.00000000
     0.00000000
     0.00000000
     0.00000000
     0.00000000
     0.00000000
     0.00000000
     0.00000000
     0.00000000
     0.00000000
     0.00000000
     0.00000000
     0.00000000
     0.00000000
     0.00000000
     0.00000000
     0.00000000
     0.00000000
     0.00000000
     0.00000000
     0.00000000
     0.00000000
     0.00000000
     0.00000000
     0.00000000
     0.00000000
     0.00000000
     0.00000000
     0.00000000
     0.00000000
     0.00000000
     0.00000000
     0.00000000
     0.00000000
     0.00000000
     0.00000000
     0.00000000
     0.00000000
     0.00000000
     0.00000000
     0.00000000
     0.00000000
     0.00000000
     0.00000000
     0.00000000
     0.00000000
     0.00000000
     0.00000000
     0.00000000
     0.00000000
     0.00000000
     0.00000000
     0.00000000
     0.00000000
     0.00000000
     0.00000000
     0.00000000
     0.00000000
     0.00000000
     0.00000000
     0.00000000
     0.00000000
     0.00000000
     0.00000000
     0.00000000
     0.00000000
     0.00000000
     0.00000000
     0.00000000
     0.00000000
     0.00000000
     0.00000000
     0.00000000
     0.00000000
     0.00000000
     0.00000000
     0.00000000
     0.00000000
     0.00000000
     0.00000000
     0.00000000
     0.00000000
     0.00000000
     0.00000000
     0.00000000
     0.00000000
     0.00000000
     0.00000000
     0.00000000
     0.00000000
     0.00000000
     0.00000000
     0.00000000
     0.00000000
     0.00000000
     0.00000000
     0.00000000
     0.00000000
     0.00000000
     0.00000000
     0.00000000
     0.00000000
     0.00000000
     0.00000000
     0.00000000
     0.00000000
     0.00000000
     0.00000000
     0.00000000
     0.00000000
     0.00000000
     0.00000000
     0.00000000
     0.00000000
     0.00000000
     0.00000000
     0.00000000
     0.00000000
     0.00000000
     0.00000000
     0.00000000
     0.00000000
     0.00000000
     0.00000000
     0.00000000
     0.00000000
     0.00000000
     0.00000000
     0.00000000
     0.00000000
     0.00000000
     0.00000000
     0.00000000
     0.00000000
     0.00000000
     0.00000000
     0.00000000
     0.00000000
     0.00000000
     0.00000000
     0.00000000
     0.00000000
     0.00000000
     0.00000000
     0.00000000
     0.00000000
     0.00000000
     0.00000000
     0.00000000
     0.00000000
     0.00000000
     0.00000000
     0.00000000
     0.00000000
     0.00000000
     0.00000000
     0.00000000
     0.00000000
     0.00000000
     0.00000000
     0.00000000
     0.00000000
     0.00000000
     0.00000000
     0.00000000
     0.00000000
     0.00000000
     0.00000000
     0.00000000
     0.00000000
     0.00000000
     0.00000000
     0.00000000
     0.00000000
     0.00000000
     0.00000000
     0.00000000
     0.00000000
     0.00000000
     0.00000000
     0.00000000
     0.00000000
     0.00000000
     0.00000000
     0.00000000
     0.00000000
     0.00000000
     0.00000000
     0.00000000
     0.00000000
     0.00000000
     0.00000000
     0.00000000
     0.00000000
     0.00000000
     0.00000000
     0.00000000
     0.00000000
     0.00000000
     0.00000000
     0.00000000
     0.00000000
     0.00000000
     0.00000000
     0.00000000
     0.00000000
     0.00000000
     0.00000000
     0.00000000
     0.00000000
     0.00000000
     0.00000000
     0.00000000
     0.00000000
     0.00000000
     0.00000000
     0.00000000
     0.00000000
     0.00000000
     0.00000000
     0.00000000
     0.00000000
     0.00000000
     0.00000000
     0.00000000
     0.00000000
     0.00000000
     0.00000000
     0.00000000
     0.00000000
     0.00000000
     0.00000000
     0.00000000
     0.00000000
     0.00000000
     0.00000000
     0.00000000
     0.00000000
     0.00000000
     0.00000000
     0.00000000
     0.00000000
     0.00000000
     0.00000000
     0.00000000
     0.00000000
     0.00000000
     0.00000000
     0.00000000
     0.00000000
     0.00000000
     0.00000000
     0.00000000
     0.00000000
     0.00000000
     0.00000000
     0.00000000
     0.00000000
     0.00000000
     0.00000000
     0.00000000
     0.00000000
     0.00000000
     0.00000000
     0.00000000
     0.00000000
     0.00000000
     0.00000000
     0.00000000
     0.00000000
     0.00000000
     0.00000000
     0.00000000
     0.00000000
     0.00000000
     0.00000000
     0.00000000
     0.00000000
     0.00000000
     0.00000000
     0.00000000
     0.00000000
     0.00000000
     0.00000000
     0.00000000
     0.00000000
     0.00000000
     0.00000000
     0.00000000
     0.00000000
     0.00000000
     0.00000000
     0.00000000
     0.00000000
     0.00000000
     0.00000000
     0.00000000
     0.00000000
     0.00000000
     0.00000000
     0.00000000
     0.00000000
     0.00000000
     0.00000000
     0.00000000
     0.00000000
     0.00000000
     0.00000000
     0.00000000
     0.00000000
     0.00000000
     0.00000000
     0.00000000
     0.00000000
     0.00000000
     0.00000000
     0.00000000
     0.00000000
     0.00000000
     0.00000000
     0.00000000
     0.00000000
     0.00000000
     0.00000000
     0.00000000
     0.00000000
     0.00000000
     0.00000000
     0.00000000
     0.00000000
     0.00000000
     0.00000000
     0.00000000
     0.00000000
     0.00000000
     0.00000000
     0.00000000
     0.00000000
     0.00000000
     0.00000000
     0.00000000
     0.00000000
     0.00000000
     0.00000000
     0.00000000
     0.00000000
     0.00000000
     0.00000000
     0.00000000
     0.00000000
     0.00000000
     0.00000000
     0.00000000
     0.00000000
     0.00000000
     0.00000000
     0.00000000
     0.00000000
     0.00000000
     0.00000000
     0.00000000
     0.00000000
     0.00000000
     0.00000000
     0.00000000
     0.00000000
     0.00000000
     0.00000000
     0.00000000
     0.00000000
     0.00000000
     0.00000000
     0.00000000
     0.00000000
     0.00000000
     0.00000000
     0.00000000
     0.00000000
     0.00000000
     0.00000000
     0.00000000
     0.00000000
     0.00000000
     0.00000000
     0.00000000
     0.00000000
     0.00000000
     0.00000000
     0.00000000
     0.00000000
     0.00000000
     0.00000000
     0.00000000
     0.00000000
     0.00000000
     0.00000000
     0.00000000
     0.00000000
     0.00000000
     0.00000000
     0.00000000
     0.00000000
     0.00000000
     0.00000000
     0.00000000
     0.00000000
     0.00000000
     0.00000000
     0.00000000
     0.00000000
     0.00000000
     0.00000000
     0.00000000
     0.00000000
     0.00000000
     0.00000000
     0.00000000
     0.00000000
     0.00000000
     0.00000000
     0.00000000
     0.00000000
     0.00000000
     0.00000000
     0.00000000
     0.00000000
     0.00000000
     0.00000000
     0.00000000
     0.00000000
     0.00000000
     0.00000000
     0.00000000
     0.00000000
     0.00000000
     0.00000000
     0.00000000
     0.00000000
     0.00000000
     0.00000000
     0.00000000
     0.00000000
     0.00000000
     0.00000000
     0.00000000
     0.00000000
     0.00000000
     0.00000000
     0.00000000
     0.00000000
     0.00000000
     0.00000000
     0.00000000
     0.00000000
     0.00000000
     0.00000000
     0.00000000
     0.00000000
     0.00000000
     0.00000000
     0.00000000
     0.00000000
     0.00000000
     0.00000000
     0.00000000
     0.00000000
     0.00000000
     0.00000000
     0.00000000
     0.00000000
     0.00000000
     0.00000000
     0.00000000
     0.00000000
     0.00000000
     0.00000000
     0.00000000
     0.00000000
     0.00000000
     0.00000000
     0.00000000
     0.00000000
     0.00000000
     0.00000000
     0.00000000
     0.00000000
     0.00000000
     0.00000000
     0.00000000
     0.00000000
     0.00000000
     0.00000000
     0.00000000
     0.00000000
     0.00000000
     0.00000000
     0.00000000
     0.00000000
     0.00000000
     0.00000000
     0.00000000
     0.00000000
     0.00000000
     0.00000000
     0.00000000
     0.00000000
     0.00000000
     0.00000000
     0.00000000
     0.00000000
     0.00000000
     0.00000000
     0.00000000
     0.00000000
     0.00000000
     0.00000000
     0.00000000
     0.00000000
     0.00000000
     0.00000000
     0.00000000
     0.00000000
     0.00000000
     0.00000000
     0.00000000
     0.00000000
     0.00000000
     0.00000000
     0.00000000
     0.00000000
     0.00000000
     0.00000000
     0.00000000
     0.00000000
     0.00000000
     0.00000000
     0.00000000
     0.00000000
     0.00000000
     0.00000000
     0.00000000
     0.00000000
     0.00000000
     0.00000000
     0.00000000
     0.00000000
     0.00000000
     0.00000000
     0.00000000
     0.00000000
     0.00000000
     0.00000000
     0.00000000
     0.00000000
     0.00000000
     0.00000000
     0.00000000
     0.00000000
     0.00000000
     0.00000000
     0.00000000
     0.00000000
     0.00000000
     0.00000000
     0.00000000
     0.00000000
     0.00000000
     0.00000000
     0.00000000
     0.00000000
     0.00000000
     0.00000000
     0.00000000
     0.00000000
     0.00000000
     0.00000000
     0.00000000
     0.00000000
     0.00000000
     0.00000000
     0.00000000
     0.00000000
     0.00000000
     0.00000000
     0.00000000
     0.00000000
     0.00000000
     0.00000000
     0.00000000
     0.00000000
     0.00000000
     0.00000000
     0.00000000
     0.00000000
     0.00000000
     0.00000000
     0.00000000
     0.00000000
     0.00000000
     0.00000000
     0.00000000
     0.00000000
     0.00000000
     0.00000000
     0.00000000
     0.00000000
     0.00000000
     0.00000000
     0.00000000
     0.00000000
     0.00000000
     0.00000000
     0.00000000
     0.00000000
     0.00000000
     0.00000000
     0.00000000
     0.00000000
     0.00000000
     0.00000000
     0.00000000
     0.00000000
     0.00000000
     0.00000000
     0.00000000
     0.00000000
     0.00000000
     0.00000000
     0.00000000
     0.00000000
     0.00000000
     0.00000000
     0.00000000
     0.00000000
     0.00000000
     0.00000000
     0.00000000
     0.00000000
     0.00000000
     0.00000000
     0.00000000
     0.00000000
     0.00000000
     0.00000000
     0.00000000
     0.00000000
     0.00000000
     0.00000000
     0.00000000
     0.00000000
     0.00000000
     0.00000000
     0.00000000
     0.00000000
     0.00000000
     0.00000000
     0.00000000
     0.00000000
     0.00000000
     0.00000000
     0.00000000
     0.00000000
     0.00000000
     0.00000000
     0.00000000
     0.00000000
     0.00000000
     0.00000000
     0.00000000
     0.00000000
     0.00000000
     0.00000000
     0.00000000
     0.00000000
     0.00000000
     0.00000000
     0.00000000
     0.00000000
     0.00000000
     0.00000000
     0.00000000
     0.00000000
     0.00000000
     0.00000000
     0.00000000
     0.00000000
     0.00000000
     0.00000000
     0.00000000
     0.00000000
     0.00000000
     0.00000000
     0.00000000
     0.00000000
     0.00000000
     0.00000000
     0.00000000
     0.00000000
     0.00000000
     0.00000000
     0.00000000
     0.00000000
     0.00000000
     0.00000000
     0.00000000
     0.00000000
     0.00000000
     0.00000000
     0.00000000
     0.00000000
     0.00000000
     0.00000000
     0.00000000
     0.00000000
     0.00000000
     0.00000000
     0.00000000
     0.00000000
     0.00000000
     0.00000000
     0.00000000
     0.00000000
     0.00000000
     0.00000000
     0.00000000
     0.00000000
     0.00000000
     0.00000000
     0.00000000
     0.00000000
     0.00000000
     0.00000000
     0.00000000
     0.00000000
     0.00000000
     0.00000000
     0.00000000
     0.00000000
     0.00000000
     0.00000000
     0.00000000
     0.00000000
     0.00000000
     0.00000000
     0.00000000
     0.00000000
     0.00000000
     0.00000000
     0.00000000
     0.00000000
     0.00000000
     0.00000000
     0.00000000
     0.00000000
     0.00000000
     0.00000000
     0.00000000
     0.00000000
     0.00000000
     0.00000000
     0.00000000
     0.00000000
     0.00000000
     0.00000000
     0.00000000
     0.00000000
     0.00000000
     0.00000000
     0.00000000
     0.00000000
     0.00000000
     0.00000000
     0.00000000
     0.00000000
     0.00000000
     0.00000000
     0.00000000
     0.00000000
     0.00000000
     0.00000000
     0.00000000
     0.00000000
     0.00000000
     0.00000000
     0.00000000
     0.00000000
     0.00000000
     0.00000000
     0.00000000
     0.00000000
     0.00000000
     0.00000000
     0.00000000
     0.00000000
     0.00000000
     0.00000000
     0.00000000
     0.00000000
     0.00000000
     0.00000000
     0.00000000
     0.00000000
     0.00000000
     0.00000000
     0.00000000
     0.00000000
     0.00000000
     0.00000000
     0.00000000
     0.00000000
     0.00000000
     0.00000000
     0.00000000
     0.00000000
     0.00000000
     0.00000000
     0.00000000
     0.00000000
     0.00000000
     0.00000000
     0.00000000
     0.00000000
     0.00000000
     0.00000000
     0.00000000
     0.00000000
     0.00000000
     0.00000000
     0.00000000
     0.00000000
     0.00000000
     0.00000000
     0.00000000
     0.00000000
     0.00000000
     0.00000000
     0.00000000
     0.00000000
     0.00000000
     0.00000000
     0.00000000
     0.00000000
     0.00000000
     0.00000000
     0.00000000
     0.00000000
     0.00000000
     0.00000000
     0.00000000
     0.00000000
     0.00000000
     0.00000000
     0.00000000
     0.00000000
     0.00000000
     0.00000000
     0.00000000
     0.00000000
     0.00000000
     0.00000000
     0.00000000
     0.00000000
     0.00000000
     0.00000000
     0.00000000
     0.00000000
     0.00000000
     0.00000000
     0.00000000
     0.00000000
     0.00000000
     0.00000000
     0.00000000
     0.00000000
     0.00000000
     0.00000000
     0.00000000
     0.00000000
     0.00000000
     0.00000000
     0.00000000
     0.00000000
     0.00000000
     0.00000000
     0.00000000
     0.00000000
     0.00000000
     0.00000000
     0.00000000
     0.00000000
     0.00000000
     0.00000000
     0.00000000
     0.00000000
     0.00000000
     0.00000000
     0.00000000
     0.00000000
     0.00000000
     0.00000000
     0.00000000
     0.00000000
     0.00000000
     0.00000000
     0.00000000
     0.00000000
     0.00000000
     0.00000000
     0.00000000
     0.00000000
     0.00000000
     0.00000000
     0.00000000
     0.00000000
     0.00000000
     0.00000000
     0.00000000
     0.00000000
     0.00000000
     0.00000000
     0.00000000
     0.00000000
     0.00000000
     0.00000000
     0.00000000
     0.00000000
     0.00000000
     0.00000000
     0.00000000
     0.00000000
     0.00000000
     0.00000000
     0.00000000
     0.00000000
     0.00000000
     0.00000000
     0.00000000
     0.00000000
     0.00000000
     0.00000000
     0.00000000
     0.00000000
     0.00000000
     0.00000000
     0.00000000
     0.00000000
     0.00000000
     0.00000000
     0.00000000
     0.00000000
     0.00000000
     0.00000000
     0.00000000
     0.00000000
     0.00000000
     0.00000000
     0.00000000
     0.00000000
     0.00000000
     0.00000000
     0.00000000
     0.00000000
     0.00000000
     0.00000000
     0.00000000
     0.00000000
     0.00000000
     0.00000000
     0.00000000
     0.00000000
     0.00000000
     0.00000000
     0.00000000
     0.00000000
     0.00000000
     0.00000000
     0.00000000
     0.00000000
     0.00000000
     0.00000000
     0.00000000
     0.00000000
     0.00000000
     0.00000000
     0.00000000
     0.00000000
     0.00000000
     0.00000000
     0.00000000
     0.00000000
     0.00000000
     0.00000000
     0.00000000
     0.00000000
     0.00000000
     0.00000000
     0.00000000
     0.00000000
     0.00000000
     0.00000000
     0.00000000
     0.00000000
     0.00000000
     0.00000000
     0.00000000
     0.00000000
     0.00000000
     0.00000000
     0.00000000
     0.00000000
     0.00000000
     0.00000000
     0.00000000
     0.00000000
     0.00000000
     0.00000000
     0.00000000
     0.00000000
     0.00000000
     0.00000000
     0.00000000
     0.00000000
     0.00000000
     0.00000000
     0.00000000
     0.00000000
     0.00000000
     0.00000000
     0.00000000
     0.00000000
     0.00000000
     0.00000000
     0.00000000
     0.00000000
     0.00000000
     0.00000000
     0.00000000
     0.00000000
     0.00000000
     0.00000000
     0.00000000
     0.00000000
     0.00000000
     0.00000000
     0.00000000
     0.00000000
     0.00000000
     0.00000000
     0.00000000
     0.00000000
     0.00000000
     0.00000000
     0.00000000
     0.00000000
     0.00000000
     0.00000000
     0.00000000
     0.00000000
     0.00000000
     0.00000000
     0.00000000
     0.00000000
     0.00000000
     0.00000000
     0.00000000
     0.00000000
     0.00000000
     0.00000000
     0.00000000
     0.00000000
     0.00000000
     0.00000000
     0.00000000
     0.00000000
     0.00000000
     0.00000000
VECTORS ShearStress float 
    -0.00784438     0.00862831     0.00100384
    -0.06796352     0.04202568     0.00589070
    -0.06350146     0.02378705    -0.00130372
    -0.08262548     0.01864269     0.00564969
    -0.10849506     0.01029318     0.00145172
    -0.12981775    -0.00276809     0.00361488
    -0.15543918    -0.03276525     0.00088197
    -0.20949879    -0.08538191     0.00182017
    -0.47693738    -0.20481777    -0.00682960
    -0.00104492     0.02962705     0.00350409
     0.00000000     0.00000000     0.00000000
     0.00000000     0.00000000     0.00000000
     0.00000000     0.00000000     0.00000000
     0.00000000     0.00000000     0.00000000
     0.00000000     0.00000000     0.00000000
     0.00000000     0.00000000     0.00000000
     0.00000000     0.00000000     0.00000000
     0.00000000     0.00000000     0.00000000
    -0.00065348     0.02872791     0.00988299
     0.00000000     0.00000000     0.00000000
     0.00000000     0.00000000     0.00000000
     0.00000000     0.00000000     0.00000000
     0.00000000     0.00000000     0.00000000
     0.00000000     0.00000000     0.00000000
     0.00000000     0.00000000     0.00000000
     0.00000000     0.00000000     0.00000000
     0.00000000     0.00000000     0.00000000
    -0.00001586     0.00075512     0.01199483
     0.00000000     0.00000000     0.00000000
     0.00000000     0.00000000     0.00000000
     0.00000000     0.00000000     0.00000000
     0.00000000     0.00000000     0.00000000
     0.00000000     0.00000000     0.00000000
     0.00000000     0.00000000     0.00000000
     0.00000000     0.00000000     0.00000000
     0.00000000     0.00000000     0.00000000
     0.00017899    -0.03103029     0.01056335
     0.00000000     0.00000000     0.00000000
     0.00000000     0.00000000     0.00000000
     0.00000000     0.00000000     0.00000000
     0.00000000     0.00000000     0.00000000
     0.00000000     0.00000000     0.00000000
     0.00000000     0.00000000     0.00000000
     0.00000000     0.00000000     0.00000000
     0.00000000     0.00000000     0.00000000
     0.00000104    -0.04837675     0.00743824
     0.00000000     0.00000000     0.00000000
     0.00000000     0.00000000     0.00000000
     0.00000000     0.00000000     0.00000000
     0.00000000     0.00000000     0.00000000
     0.00000000     0.00000000     0.00000000
     0.00000000     0.00000000     0.00000000
     0.00000000     0.00000000     0.00000000
     0.38007176    -0.12917366    -0.02645875
    -0.00031218    -0.05467116     0.00680297
     0.00000000     0.00000000     0.00000000
     0.00000000     0.00000000     0.00000000
     0.00000000     0.00000000     0.00000000
     0.00000000     0.00000000     0.00000000
     0.00000000     0.00000000     0.00000000
     0.00000000     0.00000000     0.00000000
     0.00000000     0.00000000     0.00000000
     0.00000000     0.00000000     0.00000000
    -0.00067459    -0.05365068     0.00544668
     0.00000000     0.00000000     0.00000000
     0.00000000     0.00000000     0.00000000
     0.00000000     0.00000000     0.00000000
     0.00000000     0.00000000     0.00000000
     0.00000000     0.00000000     0.00000000
     0.00000000     0.00000000     0.00000000
     0.00000000     0.00000000     0.00000000
     0.00000000     0.00000000     0.00000000
    -0.00102407    -0.04601652     0.00568372
     0.00000000     0.00000000     0.00000000
     0.00000000     0.00000000     0.00000000
     0.00000000     0.00000000     0.00000000
     0.00000000     0.00000000     0.00000000
     0.00000000     0.00000000     0.00000000
     0.00000000     0.00000000     0.00000000
     0.00000000     0.00000000     0.00000000
     0.00000000     0.00000000     0.00000000
    -0.00111869    -0.03176460     0.00156992
     0.00000000     0.00000000     0.00000000
     0.00000000     0.00000000     0.00000000
     0.00000000     0.00000000     0.00000000
     0.00000000     0.00000000     0.00000000
     0.00000000     0.00000000     0.00000000
     0.00000000     0.00000000     0.00000000
     0.00000000     0.00000000     0.00000000
     0.00000000     0.00000000     0.00000000
    -0.00722900    -0.00817615     0.00048739
    -0.06443280    -0.03937035     0.00327824
    -0.07741469    -0.02897005    -0.00063427
    -0.09678099    -0.02154220     0.00271118
    -0.12373362    -0.01164322     0.00048261
    -0.14139412     0.00323110     0.00176460
    -0.15420223     0.03938507     0.00067395
    -0.17508385     0.08967228     0.00009567
    -0.27988456     0.15401552    -0.00547176
    -0.00185847     0.00233603     0.00434399
    -0.02335734     0.01733831     0.02331955
    -0.06137660     0.02294789    -0.00154817
    -0.07672272     0.02111984     0.02330532
    -0.09060604     0.01015094     0.00830419
    -0.10770019    -0.00020620     0.01392770
    -0.13032215    -0.02732610     0.00245377
    -0.19657377    -0.08328295    -0.00154743
    -0.51217368    -0.23469334    -0.03514212
    -0.00009897     0.00552670     0.01597345
     0.00000000     0.00000000     0.00000000
     0.00000000     0.00000000     0.00000000
     0.00000000     0.00000000     0.00000000
     0.00000000     0.00000000     0.00000000
     0.00000000     0.00000000     0.00000000
     0.00000000     0.00000000     0.00000000
     0.00000000     0.00000000     0.00000000
     0.00000000     0.00000000     0.00000000
    -0.00019717     0.01632590     0.04094936
     0.00000000     0.00000000     0.00000000
     0.00000000     0.00000000     0.00000000
     0.00000000     0.00000000     0.00000000
     0.00000000     0.00000000     0.00000000
     0.00000000     0.00000000     0.00000000
     0.00000000     0.00000000     0.00000000
     0.00000000     0.00000000     0.00000000
     0.00000000     0.00000000     0.00000000
     0.00006996     0.00865019     0.05086357
     0.00000000     0.00000000     0.00000000
     0.00000000     0.00000000     0.00000000
     0.00000000     0.00000000     0.00000000
     0.00000000     0.00000000     0.00000000
     0.00000000     0.00000000     0.00000000
     0.00000000     0.00000000     0.00000000
     0.00000000     0.00000000     0.00000000
     0.00000000     0.00000000     0.00000000
     0.00026320    -0.02059507     0.04450289
     0.00000000     0.00000000     0.00000000
     0.00000000     0.00000000     0.00000000
     0.00000000     0.00000000     0.00000000
     0.00000000     0.00000000     0.00000000
     0.00000000     0.00000000     0.00000000
     0.00000000     0.00000000     0.00000000
     0.00000000     0.00000000     0.00000000
     0.00000000     0.00000000     0.00000000
     0.00009643    -0.04109118     0.03111431
     0.00000000     0.00000000     0.00000000
     0.00000000     0.00000000     0.00000000
     0.00000000     0.00000000     0.00000000
     0.00000000     0.00000000     0.00000000
     0.00000000     0.00000000     0.00000000
     0.00000000     0.00000000     0.00000000
     0.00000000     0.00000000     0.00000000
     0.31985939    -0.11275450    -0.11961672
    -0.00018936    -0.04798442     0.02793694
     0.00000000     0.00000000     0.00000000
     0.00000000     0.00000000     0.00000000
     0.00000000     0.00000000     0.00000000
     0.00000000     0.00000000     0.00000000
     0.00000000     0.00000000     0.00000000
     0.00000000     0.00000000     0.00000000
     0.00000000     0.00000000     0.00000000
     0.00000000     0.00000000     0.00000000
    -0.00050567    -0.04660275     0.02280703
     0.00000000     0.00000000     0.00000000
     0.00000000     0.00000000     0.00000000
     0.00000000     0.00000000     0.00000000
     0.00000000     0.00000000     0.00000000
     0.00000000     0.00000000     0.00000000
     0.00000000     0.00000000     0.00000000
     0.00000000     0.00000000     0.00000000
     0.00000000     0.00000000     0.00000000
    -0.00055395    -0.02931940     0.02313731
     0.00000000     0.00000000     0.00000000
     0.00000000     0.00000000     0.00000000
     0.00000000     0.00000000     0.00000000
     0.00000000     0.00000000     0.00000000
     0.00000000     0.00000000     0.00000000
     0.00000000     0.00000000     0.00000000
     0.00000000     0.00000000     0.00000000
     0.00000000     0.00000000     0.00000000
    -0.00029698    -0.00987004     0.00775212
     0.00000000     0.00000000     0.00000000
     0.00000000     0.00000000     0.00000000
     0.00000000     0.00000000     0.00000000
     0.00000000     0.00000000     0.00000000
     0.00000000     0.00000000     0.00000000
     0.00000000     0.00000000     0.00000000
     0.00000000     0.00000000     0.00000000
     0.00000000     0.00000000     0.00000000
    -0.00291921    -0.00316830     0.00189104
    -0.03319864    -0.02117183     0.01014528
    -0.07745993    -0.02893532    -0.00146479
    -0.10313884    -0.02476422     0.00992422
    -0.12007649    -0.01190126     0.00215645
    -0.14241633     0.00219538     0.00658275
    -0.14809173     0.03783563     0.00215513
    -0.17761953     0.09331890    -0.00095948
    -0.29275472     0.16601072    -0.00836646
    -0.00018511     0.00310567     0.00868713
    -0.00492160     0.01959392     0.05223391
    -0.03097986     0.01663539     0.01385112
    -0.04079407     0.01901176     0.02951451
    -0.04019721     0.01103590     0.02073672
    -0.03377636     0.00237370     0.01014812
    -0.04593235    -0.00704300     0.01083194
    -0.13734345    -0.06327492     0.00874125
    -0.59617182    -0.29875971     0.00869297
    -0.00009785     0.00945137     0.02304254
     0.00000000     0.00000000     0.00000000
     0.00000000     0.00000000     0.00000000
     0.00000000     0.00000000     0.00000000
     0.00000000     0.00000000     0.00000000
     0.00000000     0.00000000     0.00000000
     0.00000000     0.00000000     0.00000000
     0.00000000     0.00000000     0.00000000
     0.00000000     0.00000000     0.00000000
    -0.00000630     0.01395107     0.03567351
     0.00000000     0.00000000     0.00000000
     0.00000000     0.00000000     0.00000000
     0.00000000     0.00000000     0.00000000
     0.00000000     0.00000000     0.00000000
     0.00000000     0.00000000     0.00000000
     0.00000000     0.00000000     0.00000000
     0.00000000     0.00000000     0.00000000
     0.00000000     0.00000000     0.00000000
     0.00027863     0.01079087     0.05280133
     0.00000000     0.00000000     0.00000000
     0.00000000     0.00000000     0.00000000
     0.00000000     0.00000000     0.00000000
     0.00000000     0.00000000     0.00000000
     0.00000000     0.00000000     0.00000000
     0.00000000     0.00000000     0.00000000
     0.00000000     0.00000000     0.00000000
     0.00000000     0.00000000     0.00000000
     0.00040032    -0.01133336     0.04501890
     0.00000000     0.00000000     0.00000000
     0.00000000     0.00000000     0.00000000
     0.00000000     0.00000000     0.00000000
     0.00000000     0.00000000     0.00000000
     0.00000000     0.00000000     0.00000000
     0.00000000     0.00000000     0.00000000
     0.00000000     0.00000000     0.00000000
     0.00000000     0.00000000     0.00000000
     0.00020052    -0.03019335     0.02866729
     0.00000000     0.00000000     0.00000000
     0.00000000     0.00000000     0.00000000
     0.00000000     0.00000000     0.00000000
     0.00000000     0.00000000     0.00000000
     0.00000000     0.00000000     0.00000000
     0.00000000     0.00000000     0.00000000
     0.00000000     0.00000000     0.00000000
     0.26170449    -0.10245598    -0.14191576
    -0.00006154    -0.03697812     0.02233826
     0.00000000     0.00000000     0.00000000
     0.00000000     0.00000000     0.00000000
     0.00000000     0.00000000     0.00000000
     0.00000000     0.00000000     0.00000000
     0.00000000     0.00000000     0.00000000
     0.00000000     0.00000000     0.00000000
     0.00000000     0.00000000     0.00000000
     0.00000000     0.00000000     0.00000000
    -0.00029652    -0.03547006     0.02054796
     0.00000000     0.00000000     0.00000000
     0.00000000     0.00000000     0.00000000
     0.00000000     0.00000000     0.00000000
     0.00000000     0.00000000     0.00000000
     0.00000000     0.00000000     0.00000000
     0.00000000     0.00000000     0.00000000
     0.00000000     0.00000000     0.00000000
     0.00000000     0.00000000     0.00000000
    -0.00038930    -0.02361530     0.01716938
     0.00000000     0.00000000     0.00000000
     0.00000000     0.00000000     0.00000000
     0.00000000     0.00000000     0.00000000
     0.00000000     0.00000000     0.00000000
     0.00000000     0.00000000     0.00000000
     0.00000000     0.00000000     0.00000000
     0.00000000     0.00000000     0.00000000
     0.00000000     0.00000000     0.00000000
    -0.00034677    -0.01402590     0.01482804
     0.00000000     0.00000000     0.00000000
     0.00000000     0.00000000     0.00000000
     0.00000000     0.00000000     0.00000000
     0.00000000     0.00000000     0.00000000
     0.00000000     0.00000000     0.00000000
     0.00000000     0.00000000     0.00000000
     0.00000000     0.00000000     0.00000000
     0.00000000     0.00000000     0.00000000
    -0.00241678    -0.00459260     0.00593681
    -0.02692454    -0.02841030     0.03659846
    -0.06898639    -0.03013449     0.01008864
    -0.10034128    -0.02716734     0.01211514
    -0.12529560    -0.01609298     0.01102087
    -0.15225994    -0.00082260     0.01327697
    -0.17308306     0.03999061     0.02002955
    -0.20929425     0.11000000     0.02369153
    -0.36158216     0.21011897     0.02863401
    -0.00000598     0.00380568     0.00748572
     0.00249972     0.02377938     0.05017726
     0.01876583     0.00659226     0.02788182
     0.03993498     0.00118101     0.02239959
     0.03617663     0.00755895     0.02289337
     0.04168130    -0.00079012    -0.00310718
     0.06060229     0.01536490     0.00165043
     0.04436637     0.00332702    -0.02624368
    -0.58793886    -0.31417800     0.08561393
    -0.00005133     0.00921654     0.01623586
     0.00000000     0.00000000     0.00000000
     0.00000000     0.00000000     0.00000000
     0.00000000     0.00000000     0.00000000
     0.00000000     0.00000000     0.00000000
     0.00000000     0.00000000     0.00000000
     0.00000000     0.00000000     0.00000000
     0.00000000     0.00000000     0.00000000
     0.00000000     0.00000000     0.00000000
     0.00010459     0.01506961     0.02763573
     0.00000000     0.00000000     0.00000000
     0.00000000     0.00000000     0.00000000
     0.00000000     0.00000000     0.00000000
     0.00000000     0.00000000     0.00000000
     0.00000000     0.00000000     0.00000000
     0.00000000     0.00000000     0.00000000
     0.00000000     0.00000000     0.00000000
     0.00000000     0.00000000     0.00000000
     0.00046412     0.01370337     0.04035273
     0.00000000     0.00000000     0.00000000
     0.00000000     0.00000000     0.00000000
     0.00000000     0.00000000     0.00000000
     0.00000000     0.00000000     0.00000000
     0.00000000     0.00000000     0.00000000
     0.00000000     0.00000000     0.00000000
     0.00000000     0.00000000     0.00000000
     0.00000000     0.00000000     0.00000000
     0.00065693    -0.00172029     0.04060064
     0.00000000     0.00000000     0.00000000
     0.00000000     0.00000000     0.00000000
     0.00000000     0.00000000     0.00000000
     0.00000000     0.00000000     0.00000000
     0.00000000     0.00000000     0.00000000
     0.00000000     0.00000000     0.00000000
     0.00000000     0.00000000     0.00000000
     0.00000000     0.00000000     0.00000000
     0.00036076    -0.01815305     0.02336891
     0.00000000     0.00000000     0.00000000
     0.00000000     0.00000000     0.00000000
     0.00000000     0.00000000     0.00000000
     0.00000000     0.00000000     0.00000000
     0.00000000     0.00000000     0.00000000
     0.00000000     0.00000000     0.00000000
     0.00000000     0.00000000     0.00000000
     0.24952241    -0.11956356    -0.07021496
     0.00014748    -0.02669344     0.02017059
     0.00000000     0.00000000     0.00000000
     0.00000000     0.00000000     0.00000000
     0.00000000     0.00000000     0.00000000
     0.00000000     0.00000000     0.00000000
     0.00000000     0.00000000     0.00000000
     0.00000000     0.00000000     0.00000000
     0.00000000     0.00000000     0.00000000
     0.00000000     0.00000000     0.00000000
    -0.00007108    -0.02707730     0.01816607
     0.00000000     0.00000000     0.00000000
     0.00000000     0.00000000     0.00000000
     0.00000000     0.00000000     0.00000000
     0.00000000     0.00000000     0.00000000
     0.00000000     0.00000000     0.00000000
     0.00000000     0.00000000     0.00000000
     0.00000000     0.00000000     0.00000000
     0.00000000     0.00000000     0.00000000
    -0.00018966    -0.02154000     0.01863609
     0.00000000     0.00000000     0.00000000
     0.00000000     0.00000000     0.00000000
     0.00000000     0.00000000     0.00000000
     0.00000000     0.00000000     0.00000000
     0.00000000     0.00000000     0.00000000
     0.00000000     0.00000000     0.00000000
     0.00000000     0.00000000     0.00000000
     0.00000000     0.00000000     0.00000000
    -0.00024083    -0.01349592     0.01377484
     0.00000000     0.00000000     0.00000000
     0.00000000     0.00000000     0.00000000
     0.00000000     0.00000000     0.00000000
     0.00000000     0.00000000     0.00000000
     0.00000000     0.00000000     0.00000000
     0.00000000     0.00000000     0.00000000
     0.00000000     0.00000000     0.00000000
     0.00000000     0.00000000     0.00000000
    -0.00248559    -0.00595116     0.00657861
    -0.02413708    -0.03901795     0.04526431
    -0.04314245    -0.03183134     0.02784553
    -0.08757202    -0.03166832     0.01984692
    -0.11233278    -0.02370263     0.02315746
    -0.14794094    -0.01386353     0.03399417
    -0.16043923     0.02092091     0.04922043
    -0.22945068     0.10837600     0.07773906
    -0.49896766     0.29031368     0.10462288
     0.00131751     0.00361731     0.00693702
     0.02169824     0.02242965     0.05122884
     0.08667495    -0.01337190     0.03579247
     0.12176031    -0.01445875     0.02634524
     0.10573668    -0.00669610     0.00903755
     0.10218778    -0.00855825    -0.01431832
     0.07840552     0.01387903    -0.00963690
     0.14347724     0.02529461    -0.08233098
    -0.43438462    -0.21539602     0.16909707
     0.00004896     0.00534536     0.00913848
     0.00000000     0.00000000     0.00000000
     0.00000000     0.00000000     0.00000000
     0.00000000     0.00000000     0.00000000
     0.00000000     0.00000000     0.00000000
     0.00000000     0.00000000     0.00000000
     0.00000000     0.00000000     0.00000000
     0.00000000     0.00000000     0.00000000
     0.00000000     0.00000000     0.00000000
     0.00020890     0.00816834     0.01460721
     0.00000000     0.00000000     0.00000000
     0.00000000     0.00000000     0.00000000
     0.00000000     0.00000000     0.00000000
     0.00000000     0.00000000     0.00000000
     0.00000000     0.00000000     0.00000000
     0.00000000     0.00000000     0.00000000
     0.00000000     0.00000000     0.00000000
     0.00000000     0.00000000     0.00000000
     0.00055703     0.01186705     0.02478625
     0.00000000     0.00000000     0.00000000
     0.00000000     0.00000000     0.00000000
     0.00000000     0.00000000     0.00000000
     0.00000000     0.00000000     0.00000000
     0.00000000     0.00000000     0.00000000
     0.00000000     0.00000000     0.00000000
     0.00000000     0.00000000     0.00000000
     0.00000000     0.00000000     0.00000000
     0.00072862     0.00870181     0.02710437
     0.00000000     0.00000000     0.00000000
     0.00000000     0.00000000     0.00000000
     0.00000000     0.00000000     0.00000000
     0.00000000     0.00000000     0.00000000
     0.00000000     0.00000000     0.00000000
     0.00000000     0.00000000     0.00000000
     0.00000000     0.00000000     0.00000000
     0.00000000     0.00000000     0.00000000
     0.00061993    -0.00395083     0.02128601
     0.00000000     0.00000000     0.00000000
     0.00000000     0.00000000     0.00000000
     0.00000000     0.00000000     0.00000000
     0.00000000     0.00000000     0.00000000
     0.00000000     0.00000000     0.00000000
     0.00000000     0.00000000     0.00000000
     0.00000000     0.00000000     0.00000000
     0.28048557    -0.17916328    -0.16703077
     0.00037987    -0.01367927     0.01634841
     0.00000000     0.00000000     0.00000000
     0.00000000     0.00000000     0.00000000
     0.00000000     0.00000000     0.00000000
     0.00000000     0.00000000     0.00000000
     0.00000000     0.00000000     0.00000000
     0.00000000     0.00000000     0.00000000
     0.00000000     0.00000000     0.00000000
     0.00000000     0.00000000     0.00000000
     0.00028917    -0.01331578     0.01610501
     0.00000000     0.00000000     0.00000000
     0.00000000     0.00000000     0.00000000
     0.00000000     0.00000000     0.00000000
     0.00000000     0.00000000     0.00000000
     0.00000000     0.00000000     0.00000000
     0.00000000     0.00000000     0.00000000
     0.00000000     0.00000000     0.00000000
     0.00000000     0.00000000     0.00000000
     0.00014230    -0.01107637     0.01442194
     0.00000000     0.00000000     0.00000000
     0.00000000     0.00000000     0.00000000
     0.00000000     0.00000000     0.00000000
     0.00000000     0.00000000     0.00000000
     0.00000000     0.00000000     0.00000000
     0.00000000     0.00000000     0.00000000
     0.00000000     0.00000000     0.00000000
     0.00000000     0.00000000     0.00000000
     0.00014160    -0.00607039     0.01350142
     0.00000000     0.00000000     0.00000000
     0.00000000     0.00000000     0.00000000
     0.00000000     0.00000000     0.00000000
     0.00000000     0.00000000     0.00000000
     0.00000000     0.00000000     0.00000000
     0.00000000     0.00000000     0.00000000
     0.00000000     0.00000000     0.00000000
     0.00000000     0.00000000     0.00000000
     0.00382556    -0.00386354     0.01090287
     0.03071103    -0.03173569     0.07634159
     0.00002705    -0.02831749     0.03927122
    -0.01337390    -0.03499961     0.04369644
    -0.07839265    -0.03536225     0.03577199
    -0.08137700    -0.03579198     0.05139914
    -0.04797268    -0.00768101     0.02688748
    -0.04689526     0.01441254     0.04419725
    -0.64830667     0.37452847     0.20245411
     0.00111710     0.00209031     0.00341283
     0.01322200     0.01210382     0.02279888
     0.04649289    -0.00750495     0.01662752
     0.06350122    -0.00743647     0.01257442
     0.05484702    -0.00445068     0.00319105
     0.05263117    -0.00572439    -0.00690058
     0.03720912     0.00628697    -0.00510741
     0.07440710     0.01038187    -0.04602279
    -0.19701861    -0.10135217     0.10967641
     0.00250080     0.00420342     0.00598087
     0.03173503     0.02726840     0.04299905
     0.09835248    -0.01557712     0.03326972
     0.12994410    -0.01213735     0.02659667
     0.11505254    -0.00886107     0.00752881
     0.10807491    -0.01025496    -0.00998094
     0.07988608     0.00970398    -0.01364282
     0.14644066     0.02524733    -0.08912139
    -0.34649436    -0.17830443     0.24031199
     0.00335140     0.00383481     0.00567562
     0.03808170     0.02251789     0.03628135
     0.09293981    -0.01525032     0.03069174
     0.09912833     0.00599363     0.02758930
     0.10246303    -0.00560003     0.00847525
     0.08753366     0.01171325     0.00437003
     0.08077530    -0.01369294    -0.02585937
     0.08024977     0.07178801    -0.02341571
     0.08265499     0.08495976    -0.06268612
     0.00519832     0.00500070     0.00750713
     0.05022106     0.02901815     0.04089755
     0.08258695    -0.01112115     0.02833943
     0.08855037     0.01398549     0.02517911
     0.08425060    -0.00358929     0.00764733
     0.08138955     0.02041232     0.00554108
     0.05791984    -0.00568570    -0.01451405
     0.05588698     0.05465939    -0.03495410
     0.12334638    -0.04740153    -0.18562675
     0.00665220     0.00367172     0.00787130
     0.06089742     0.02051507     0.04050834
     0.07388101    -0.00617676     0.02645362
     0.07470854     0.01090334     0.01857903
     0.07394083    -0.00029528     0.00746865
     0.06083124     0.01891639     0.00228146
     0.06938003     0.00264216    -0.01561815
     0.05641865     0.09927885    -0.04150131
     0.23854375    -0.07647475    -0.37120174
     0.00650798    -0.00073637     0.00688333
     0.05980542    -0.00379899     0.03609831
     0.06879058     0.00109209     0.02521451
     0.06763343    -0.00242114     0.01524787
     0.05580198     0.00309154     0.00557919
     0.04947557     0.00900557    -0.00008043
     0.01539723     0.01903230    -0.00368036
     0.02974792     0.10308901    -0.03128695
     0.05830254     0.03823135    -0.06842853
     0.00367996    -0.00434481     0.00479992
     0.03419814    -0.02473475     0.02484145
     0.04633525    -0.00088322     0.01743483
     0.04497707    -0.01774020     0.01315832
     0.03069769    -0.00092773     0.00335772
     0.03221652    -0.01035084     0.00166859
     0.01629896     0.04923654    -0.01262215
     0.02615160    -0.02792486    -0.01601049
     0.07007600     0.24924048    -0.06410067
     0.00353267    -0.00476952     0.00548406
     0.03179595    -0.03020485     0.03022098
     0.03572854    -0.01213012     0.01814465
     0.02491388    -0.03131900     0.01640138
     0.00449937    -0.01892316     0.00703305
     0.00851058    -0.02598055     0.00865633
     0.01669246     0.06122685    -0.02473341
     0.02485922    -0.04545831    -0.00792221
     0.05575468     0.26775866    -0.11155231
     0.00318510    -0.00506510     0.00616938
     0.02821029    -0.03623531     0.03836717
     0.02592639    -0.02707055     0.02539627
     0.00255326    -0.04287917     0.02349408
    -0.02535848    -0.04150131     0.01920888
    -0.01601189    -0.03519314     0.01839025
     0.04717475     0.03883660    -0.03462241
     0.05435270    -0.05037440    -0.01257684
    -0.17243187     0.21627463     0.06264641
     0.00571655    -0.00463297     0.00983638
     0.04617357    -0.03933670     0.06579577
     0.01354181    -0.03586767     0.03357240
     0.00255681    -0.04437389     0.03472683
    -0.06485933    -0.04982876     0.02966231
    -0.06172871    -0.04645869     0.03601712
    -0.01631493    -0.01086532     0.01077561
    -0.00540887    -0.00444894     0.02801280
    -0.70197640     0.48887646     0.32164379
     0.00316752    -0.00215574     0.00580695
     0.02139220    -0.01685432     0.03621890
     0.00442256    -0.01543980     0.01813533
     0.00075925    -0.01912718     0.02004969
    -0.03384366    -0.02092212     0.01661166
    -0.03273768    -0.02112649     0.02217215
    -0.01323754    -0.00742233     0.01013281
    -0.00736159     0.00012285     0.01684158
    -0.33833829     0.21426215     0.13077825
     0.10117485    -0.05743706     0.03512414
    -0.06489191     0.00849132     0.03395098
    -0.19520453    -0.05213294     0.00211263
    -0.20425690    -0.05394806     0.00959994
    -0.22043223    -0.05910300    -0.00047256
    -0.18446639    -0.04944553    -0.00021756
    -0.16288431    -0.04390076    -0.00314465
    -0.13143560    -0.03536156    -0.00176206
    -0.10187932    -0.02763834    -0.00416914
    -0.07661298    -0.02087948    -0.00430810
    -0.02579823    -0.02007377    -0.00084406
     0.00000000     0.00000000     0.00000000
     0.00000000     0.00000000     0.00000000
     0.00000000     0.00000000     0.00000000
     0.00000000     0.00000000     0.00000000
     0.00000000     0.00000000     0.00000000
     0.00000000     0.00000000     0.00000000
     0.00000000     0.00000000     0.00000000
     0.00000000     0.00000000     0.00000000
     0.00000000     0.00000000     0.00000000
     0.00000000     0.00000000     0.00000000
     0.02810560    -0.10489216    -0.00115634
     0.00000000     0.00000000     0.00000000
     0.00000000     0.00000000     0.00000000
     0.00000000     0.00000000     0.00000000
     0.00000000     0.00000000     0.00000000
     0.00000000     0.00000000     0.00000000
     0.00000000     0.00000000     0.00000000
     0.00000000     0.00000000     0.00000000
     0.00000000     0.00000000     0.00000000
     0.00000000     0.00000000     0.00000000
     0.00000000     0.00000000     0.00000000
     0.03727930    -0.13912806     0.00996835
     0.00000000     0.00000000     0.00000000
     0.00000000     0.00000000     0.00000000
     0.00000000     0.00000000     0.00000000
     0.00000000     0.00000000     0.00000000
     0.00000000     0.00000000     0.00000000
     0.00000000     0.00000000     0.00000000
     0.00000000     0.00000000     0.00000000
     0.00000000     0.00000000     0.00000000
     0.00000000     0.00000000     0.00000000
     0.00000000     0.00000000     0.00000000
     0.01440428    -0.05375752     0.01458442
     0.00000000     0.00000000     0.00000000
     0.00000000     0.00000000     0.00000000
     0.00000000     0.00000000     0.00000000
     0.00000000     0.00000000     0.00000000
     0.00000000     0.00000000     0.00000000
     0.00000000     0.00000000     0.00000000
     0.00000000     0.00000000     0.00000000
     0.00000000     0.00000000     0.00000000
     0.00000000     0.00000000     0.00000000
     0.00000000     0.00000000     0.00000000
     0.00098242    -0.00366675     0.01370725
    -0.46121853     0.32886378     0.01673281
    -0.05803214     0.20317128     0.00129327
     0.37400374     0.10142504    -0.01488976
     0.46906392     0.12572064    -0.00041882
     0.41756974     0.11143079     0.00560812
     0.34222519     0.09057253     0.01382596
     0.22235956     0.05861194     0.01190088
     0.12772750     0.03298938     0.01516154
     0.01947596     0.00411794     0.01350998
    -0.02687004    -0.00771453     0.00631733
    -0.02398351    -0.00626939     0.00233117
     0.03121193    -0.07910188     0.12251430
    -0.07341136     0.00742455     0.13420491
    -0.19698952    -0.05085649     0.00832662
    -0.22281452    -0.05062140     0.05034167
    -0.23187898    -0.06239403    -0.00153915
    -0.19772417    -0.04959384     0.02085628
    -0.16979759    -0.04792717    -0.01338651
    -0.13645141    -0.03571823     0.00628821
    -0.10766623    -0.03225786    -0.01870501
    -0.07379986    -0.02243911    -0.01363812
    -0.02515172    -0.02057583    -0.00313641
     0.00000000     0.00000000     0.00000000
     0.00000000     0.00000000     0.00000000
     0.00000000     0.00000000     0.00000000
     0.00000000     0.00000000     0.00000000
     0.00000000     0.00000000     0.00000000
     0.00000000     0.00000000     0.00000000
     0.00000000     0.00000000     0.00000000
     0.00000000     0.00000000     0.00000000
     0.00000000     0.00000000     0.00000000
     0.00000000     0.00000000     0.00000000
     0.02892148    -0.10793565    -0.00644600
     0.00000000     0.00000000     0.00000000
     0.00000000     0.00000000     0.00000000
     0.00000000     0.00000000     0.00000000
     0.00000000     0.00000000     0.00000000
     0.00000000     0.00000000     0.00000000
     0.00000000     0.00000000     0.00000000
     0.00000000     0.00000000     0.00000000
     0.00000000     0.00000000     0.00000000
     0.00000000     0.00000000     0.00000000
     0.00000000     0.00000000     0.00000000
     0.03691654    -0.13777487     0.04452597
     0.00000000     0.00000000     0.00000000
     0.00000000     0.00000000     0.00000000
     0.00000000     0.00000000     0.00000000
     0.00000000     0.00000000     0.00000000
     0.00000000     0.00000000     0.00000000
     0.00000000     0.00000000     0.00000000
     0.00000000     0.00000000     0.00000000
     0.00000000     0.00000000     0.00000000
     0.00000000     0.00000000     0.00000000
     0.00000000     0.00000000     0.00000000
     0.00845466    -0.03155374     0.06432838
     0.00000000     0.00000000     0.00000000
     0.00000000     0.00000000     0.00000000
     0.00000000     0.00000000     0.00000000
     0.00000000     0.00000000     0.00000000
     0.00000000     0.00000000     0.00000000
     0.00000000     0.00000000     0.00000000
     0.00000000     0.00000000     0.00000000
     0.00000000     0.00000000     0.00000000
     0.00000000     0.00000000     0.00000000
     0.00000000     0.00000000     0.00000000
    -0.00243114     0.00907274     0.05967616
    -0.48877786     0.33621243     0.13207738
    -0.06184054     0.19033233     0.09182308
     0.40267871     0.11114636    -0.01145774
     0.47508229     0.12327218     0.02395458
     0.45309397     0.11876329     0.01192601
     0.35073021     0.08594107     0.04237877
     0.25111740     0.06087836     0.03182971
     0.12623410     0.02358794     0.05311422
     0.02797675    -0.00182282     0.04870589
    -0.04662162    -0.01718071     0.02619702
    -0.02720441    -0.00611086     0.01011330
    -0.03758401    -0.14144203     0.23033221
    -0.11644943    -0.01073101     0.24793258
    -0.22935458    -0.03605891     0.06924195
    -0.26484229    -0.03353523     0.10779173
    -0.27114408    -0.06959121     0.00814344
    -0.22556952    -0.04707248     0.03933602
    -0.18923427    -0.05719820    -0.01893744
    -0.15126036    -0.03690167     0.01125350
    -0.10916648    -0.03930789    -0.02903871
    -0.08249190    -0.03285505    -0.03031630
    -0.02577466    -0.02277178    -0.00730754
     0.00000000     0.00000000     0.00000000
     0.00000000     0.00000000     0.00000000
     0.00000000     0.00000000     0.00000000
     0.00000000     0.00000000     0.00000000
     0.00000000     0.00000000     0.00000000
     0.00000000     0.00000000     0.00000000
     0.00000000     0.00000000     0.00000000
     0.00000000     0.00000000     0.00000000
     0.00000000     0.00000000     0.00000000
     0.00000000     0.00000000     0.00000000
     0.03084001    -0.11509549    -0.01854115
     0.00000000     0.00000000     0.00000000
     0.00000000     0.00000000     0.00000000
     0.00000000     0.00000000     0.00000000
     0.00000000     0.00000000     0.00000000
     0.00000000     0.00000000     0.00000000
     0.00000000     0.00000000     0.00000000
     0.00000000     0.00000000     0.00000000
     0.00000000     0.00000000     0.00000000
     0.00000000     0.00000000     0.00000000
     0.00000000     0.00000000     0.00000000
     0.03632056    -0.13554977     0.06693924
     0.00000000     0.00000000     0.00000000
     0.00000000     0.00000000     0.00000000
     0.00000000     0.00000000     0.00000000
     0.00000000     0.00000000     0.00000000
     0.00000000     0.00000000     0.00000000
     0.00000000     0.00000000     0.00000000
     0.00000000     0.00000000     0.00000000
     0.00000000     0.00000000     0.00000000
     0.00000000     0.00000000     0.00000000
     0.00000000     0.00000000     0.00000000
     0.00333748    -0.01245614     0.08978075
     0.00000000     0.00000000     0.00000000
     0.00000000     0.00000000     0.00000000
     0.00000000     0.00000000     0.00000000
     0.00000000     0.00000000     0.00000000
     0.00000000     0.00000000     0.00000000
     0.00000000     0.00000000     0.00000000
     0.00000000     0.00000000     0.00000000
     0.00000000     0.00000000     0.00000000
     0.00000000     0.00000000     0.00000000
     0.00000000     0.00000000     0.00000000
    -0.00553077     0.02064198     0.07848261
    -0.61916228     0.40052121     0.24523933
    -0.03402088     0.17696390     0.13593814
     0.45320443     0.14264154    -0.05787593
     0.59113587     0.14643740     0.03398968
     0.51179726     0.12550444     0.03194515
     0.41612617     0.08466793     0.07472909
     0.26665274     0.04389549     0.07682560
     0.13256762    -0.00888293     0.12512069
    -0.00903405    -0.04003351     0.10766556
    -0.04667437    -0.02589416     0.03916244
    -0.02650716    -0.00532590     0.01316557
    -0.18417058    -0.21778500     0.51925908
    -0.25940622    -0.10181488     0.31272345
    -0.34903128     0.02477223     0.21570879
    -0.36562468    -0.00919527     0.16555325
    -0.31973906    -0.06741512     0.03268575
    -0.28206527    -0.03844109     0.06921589
    -0.22546191    -0.06758474    -0.01392090
    -0.17622110    -0.03296003     0.02680736
    -0.11519025    -0.04605216    -0.02841998
    -0.07169707    -0.04078775    -0.04006347
    -0.02373717    -0.02199087    -0.00853828
     0.00000000     0.00000000     0.00000000
     0.00000000     0.00000000     0.00000000
     0.00000000     0.00000000     0.00000000
     0.00000000     0.00000000     0.00000000
     0.00000000     0.00000000     0.00000000
     0.00000000     0.00000000     0.00000000
     0.00000000     0.00000000     0.00000000
     0.00000000     0.00000000     0.00000000
     0.00000000     0.00000000     0.00000000
     0.00000000     0.00000000     0.00000000
     0.02742323    -0.10234431    -0.01787570
     0.00000000     0.00000000     0.00000000
     0.00000000     0.00000000     0.00000000
     0.00000000     0.00000000     0.00000000
     0.00000000     0.00000000     0.00000000
     0.00000000     0.00000000     0.00000000
     0.00000000     0.00000000     0.00000000
     0.00000000     0.00000000     0.00000000
     0.00000000     0.00000000     0.00000000
     0.00000000     0.00000000     0.00000000
     0.00000000     0.00000000     0.00000000
     0.03118999    -0.11639967     0.06619504
     0.00000000     0.00000000     0.00000000
     0.00000000     0.00000000     0.00000000
     0.00000000     0.00000000     0.00000000
     0.00000000     0.00000000     0.00000000
     0.00000000     0.00000000     0.00000000
     0.00000000     0.00000000     0.00000000
     0.00000000     0.00000000     0.00000000
     0.00000000     0.00000000     0.00000000
     0.00000000     0.00000000     0.00000000
     0.00000000     0.00000000     0.00000000
    -0.00021947     0.00082015     0.08003485
     0.00000000     0.00000000     0.00000000
     0.00000000     0.00000000     0.00000000
     0.00000000     0.00000000     0.00000000
     0.00000000     0.00000000     0.00000000
     0.00000000     0.00000000     0.00000000
     0.00000000     0.00000000     0.00000000
     0.00000000     0.00000000     0.00000000
     0.00000000     0.00000000     0.00000000
     0.00000000     0.00000000     0.00000000
     0.00000000     0.00000000     0.00000000
    -0.00452931     0.01690474     0.07645713
    -0.81894667     0.50722715     0.34953219
     0.12399687     0.17673834     0.00673850
     0.71619566     0.25607964    -0.11966345
     0.70126702     0.15435146     0.06177344
     0.57791227     0.13064127     0.04222955
     0.36156879     0.02342523     0.13497971
     0.15378347    -0.02826284     0.12704756
    -0.00644428    -0.11492051     0.20969156
    -0.05983340    -0.08888660     0.13570566
    -0.07235475    -0.04333803     0.04474568
    -0.02834638    -0.00758146     0.01348496
    -0.41744149    -0.06381165     1.14278982
    -0.54891553    -0.33330761     0.38880202
    -0.66469784     0.09345870     0.35306698
    -0.42450812    -0.03092282     0.11062271
    -0.41270522    -0.05085921     0.07695597
    -0.33907665    -0.03645929     0.07167079
    -0.27308853    -0.07102725     0.00217326
    -0.21082041    -0.03308324     0.03093778
    -0.10087840    -0.04686549    -0.02614249
    -0.08244712    -0.04043538    -0.02449179
    -0.02496585    -0.01363713    -0.00384584
     0.00000000     0.00000000     0.00000000
     0.00000000     0.00000000     0.00000000
     0.00000000     0.00000000     0.00000000
     0.00000000     0.00000000     0.00000000
     0.00000000     0.00000000     0.00000000
     0.00000000     0.00000000     0.00000000
     0.00000000     0.00000000     0.00000000
     0.00000000     0.00000000     0.00000000
     0.00000000     0.00000000     0.00000000
     0.00000000     0.00000000     0.00000000
     0.01061202    -0.03960461    -0.00434172
     0.00000000     0.00000000     0.00000000
     0.00000000     0.00000000     0.00000000
     0.00000000     0.00000000     0.00000000
     0.00000000     0.00000000     0.00000000
     0.00000000     0.00000000     0.00000000
     0.00000000     0.00000000     0.00000000
     0.00000000     0.00000000     0.00000000
     0.00000000     0.00000000     0.00000000
     0.00000000     0.00000000     0.00000000
     0.00000000     0.00000000     0.00000000
     0.01504303    -0.05614016     0.02513501
     0.00000000     0.00000000     0.00000000
     0.00000000     0.00000000     0.00000000
     0.00000000     0.00000000     0.00000000
     0.00000000     0.00000000     0.00000000
     0.00000000     0.00000000     0.00000000
     0.00000000     0.00000000     0.00000000
     0.00000000     0.00000000     0.00000000
     0.00000000     0.00000000     0.00000000
     0.00000000     0.00000000     0.00000000
     0.00000000     0.00000000     0.00000000
     0.00845650    -0.03155948     0.03062906
     0.00000000     0.00000000     0.00000000
     0.00000000     0.00000000     0.00000000
     0.00000000     0.00000000     0.00000000
     0.00000000     0.00000000     0.00000000
     0.00000000     0.00000000     0.00000000
     0.00000000     0.00000000     0.00000000
     0.00000000     0.00000000     0.00000000
     0.00000000     0.00000000     0.00000000
     0.00000000     0.00000000     0.00000000
     0.00000000     0.00000000     0.00000000
     0.00865639    -0.03230562     0.04869308
    -1.27778455     0.83643137     0.48103835
     0.22761652     0.29162231    -0.27872767
     0.62475312     0.18685202    -0.02764106
     0.66119434     0.12285795     0.07038083
     0.31228602     0.00016073     0.10737787
    -0.02143898    -0.10250749     0.12695537
    -0.19111560    -0.17984066     0.16782952
    -0.16778856    -0.20250172     0.20710100
    -0.11625622    -0.12989171     0.12986219
    -0.06942865    -0.06433021     0.05957809
    -0.02290455    -0.01529880     0.01255728
    -0.32276852    -0.04011678     0.65113420
    -0.34479984    -0.19350904     0.24025051
    -0.40711975     0.09211737     0.16885244
    -0.24106152    -0.01147920     0.04461333
    -0.23924942    -0.01571398     0.04028521
    -0.19284007    -0.01640657     0.02992260
    -0.15551720    -0.03666329     0.00395908
    -0.11913217    -0.01898887     0.01126465
    -0.05355412    -0.02780849    -0.01132692
    -0.04588333    -0.02526111    -0.01072458
    -0.01876031    -0.00763523    -0.00175828
    -0.94757231     0.04417673     1.51543337
    -0.84521217    -0.41066846     0.52476638
    -0.99928726     0.24768455     0.27732190
    -0.60391637    -0.04116034     0.06826063
    -0.60756737    -0.03020932     0.07002681
    -0.48168593    -0.06753615     0.03891656
    -0.38890285    -0.09309061     0.00684451
    -0.28537909    -0.06887092     0.00900558
    -0.13839541    -0.07473033    -0.01948920
    -0.10894245    -0.06926069    -0.02034218
    -0.03452587    -0.01821638    -0.00276094
    -0.80148939     1.05701457     0.84625683
    -0.45170427    -0.20585041     0.13402024
    -0.63871295     0.05433768     0.04654465
    -0.52524180    -0.14515717    -0.00240959
    -0.55500925    -0.12178784     0.01293007
    -0.42630098    -0.22055759    -0.01395998
    -0.32691927    -0.16543125    -0.00611149
    -0.19035621    -0.15259926    -0.01398412
    -0.14600760    -0.10014930    -0.00715379
    -0.07014960    -0.06424896    -0.00652357
    -0.02851361    -0.01941940     0.00159707
    -1.17337831     1.66869882     0.56074176
    -0.05629554     0.21974125    -0.07219309
    -0.20560702     0.04045744    -0.01151370
    -0.34548214    -0.13276988     0.00301169
    -0.40211232    -0.35443227     0.04276767
    -0.38625361    -0.31764791     0.03468766
    -0.29508983    -0.34695509     0.04693783
    -0.20392955    -0.21955604     0.02906547
    -0.11481600    -0.16932472     0.02446958
    -0.07483398    -0.07110794     0.00885488
    -0.03020376    -0.01769561     0.00379300
    -1.66555069     1.40835857     0.71415732
     0.33291279     0.50480194    -0.33930714
     0.68878338     0.25358940    -0.03248285
     0.74886190     0.06657773     0.07116725
     0.27716554    -0.14954410     0.11238357
    -0.14364448    -0.26496117     0.11560370
    -0.32668514    -0.36137653     0.14123946
    -0.24420699    -0.35843082     0.15649036
    -0.15592859    -0.22931925     0.09893747
    -0.08815118    -0.11017512     0.04636548
    -0.03093334    -0.02259987     0.01046444
    -0.72459810     0.52213399     0.28408760
     0.13729776     0.19858772    -0.17194595
     0.32875061     0.10335761    -0.01180941
     0.36295669     0.04975781     0.03893011
     0.14956367    -0.03064289     0.05855538
    -0.04407539    -0.08641865     0.06176048
    -0.13317425    -0.13101628     0.07974148
    -0.10104834    -0.13870403     0.09349072
    -0.06577810    -0.08707302     0.05820862
    -0.03604729    -0.04305795     0.02803187
    -0.01652955    -0.01000588     0.00491895
    -0.52812948     0.13452296     0.08574127
    -0.80628603     0.21735351    -0.01604528
    -0.78205008     0.20785857     0.02082448
    -0.73402205     0.19772047    -0.01277841
    -0.55258521     0.14770180     0.00442772
    -0.34972757     0.09455758    -0.01042600
    -0.11854828     0.03210522    -0.00417627
    -0.00080449     0.04089954     0.00221060
     0.00000000     0.00000000     0.00000000
     0.00000000     0.00000000     0.00000000
     0.00000000     0.00000000     0.00000000
     0.00000000     0.00000000     0.00000000
     0.00000000     0.00000000     0.00000000
     0.00000000     0.00000000     0.00000000
     0.00000000     0.00000000     0.00000000
     0.00000000     0.00000000     0.00000000
     0.09240613     0.34486056     0.02411951
     0.00000000     0.00000000     0.00000000
     0.00000000     0.00000000     0.00000000
     0.00000000     0.00000000     0.00000000
     0.00000000     0.00000000     0.00000000
     0.00000000     0.00000000     0.00000000
     0.00000000     0.00000000     0.00000000
     0.00000000     0.00000000     0.00000000
     0.00000000     0.00000000     0.00000000
     0.16101752     0.60092935     0.04836022
     0.00000000     0.00000000     0.00000000
     0.00000000     0.00000000     0.00000000
     0.00000000     0.00000000     0.00000000
     0.00000000     0.00000000     0.00000000
     0.00000000     0.00000000     0.00000000
     0.00000000     0.00000000     0.00000000
     0.00000000     0.00000000     0.00000000
     0.00000000     0.00000000     0.00000000
     0.12132292     0.45278993     0.05149855
     0.00000000     0.00000000     0.00000000
     0.00000000     0.00000000     0.00000000
     0.00000000     0.00000000     0.00000000
     0.00000000     0.00000000     0.00000000
     0.00000000     0.00000000     0.00000000
     0.00000000     0.00000000     0.00000000
     0.00000000     0.00000000     0.00000000
     0.00000000     0.00000000     0.00000000
     0.04288023     0.16002920     0.04042066
     0.05618988    -0.19733861    -0.08108629
     1.43418672    -0.38725359    -0.03644210
     1.67671122    -0.44884779     0.00515582
     1.52326164    -0.40620275     0.02394245
     1.17154211    -0.31206825     0.02274035
     0.86668115    -0.23057682     0.02028272
     0.52696194    -0.13926317     0.02373091
     0.22996564    -0.05888974     0.03349065
     0.02776362     0.00915999     0.00901225
     0.00863720    -0.03879533     0.13225056
    -0.64374247     0.11099635     0.34628230
    -0.85067274     0.23579519    -0.04843713
    -0.83127686     0.20540632     0.10081101
    -0.78971056     0.21331228    -0.01169235
    -0.60594464     0.15227586     0.06363454
    -0.37861457     0.09927471     0.01388292
    -0.14506677     0.03449806     0.02960265
    -0.00513310     0.03708349     0.01505187
     0.00000000     0.00000000     0.00000000
     0.00000000     0.00000000     0.00000000
     0.00000000     0.00000000     0.00000000
     0.00000000     0.00000000     0.00000000
     0.00000000     0.00000000     0.00000000
     0.00000000     0.00000000     0.00000000
     0.00000000     0.00000000     0.00000000
     0.00000000     0.00000000     0.00000000
     0.08382436     0.31283326     0.10529526
     0.00000000     0.00000000     0.00000000
     0.00000000     0.00000000     0.00000000
     0.00000000     0.00000000     0.00000000
     0.00000000     0.00000000     0.00000000
     0.00000000     0.00000000     0.00000000
     0.00000000     0.00000000     0.00000000
     0.00000000     0.00000000     0.00000000
     0.00000000     0.00000000     0.00000000
     0.15405301     0.57493254     0.22070614
     0.00000000     0.00000000     0.00000000
     0.00000000     0.00000000     0.00000000
     0.00000000     0.00000000     0.00000000
     0.00000000     0.00000000     0.00000000
     0.00000000     0.00000000     0.00000000
     0.00000000     0.00000000     0.00000000
     0.00000000     0.00000000     0.00000000
     0.00000000     0.00000000     0.00000000
     0.11705546     0.43685977     0.23251628
     0.00000000     0.00000000     0.00000000
     0.00000000     0.00000000     0.00000000
     0.00000000     0.00000000     0.00000000
     0.00000000     0.00000000     0.00000000
     0.00000000     0.00000000     0.00000000
     0.00000000     0.00000000     0.00000000
     0.00000000     0.00000000     0.00000000
     0.00000000     0.00000000     0.00000000
     0.04376429     0.16332856     0.18322375
     0.01570420    -0.26387744    -0.22545789
     1.47888193    -0.40548517    -0.03770832
     1.74741921    -0.45744291     0.05765562
     1.53119097    -0.39292616     0.09224985
     1.20088618    -0.31025199     0.05800717
     0.83379155    -0.21241003     0.05608866
     0.53444640    -0.12895627     0.07366371
     0.18260292    -0.02381860     0.13635967
     0.02118220     0.01455307     0.03929086
    -0.46185535     0.01931514     0.39946063
    -0.86233822     0.08035173     0.44829294
    -0.98820629     0.24122475     0.05676955
    -0.97906692     0.23057994     0.09753598
    -0.95675564     0.23001881     0.07132346
    -0.75719856     0.18424200     0.05891879
    -0.46681787     0.09146385     0.09485864
    -0.23423987     0.05336206     0.03086842
    -0.01746586     0.03495433     0.01574276
     0.00000000     0.00000000     0.00000000
     0.00000000     0.00000000     0.00000000
     0.00000000     0.00000000     0.00000000
     0.00000000     0.00000000     0.00000000
     0.00000000     0.00000000     0.00000000
     0.00000000     0.00000000     0.00000000
     0.00000000     0.00000000     0.00000000
     0.00000000     0.00000000     0.00000000
     0.07103395     0.26509417     0.13693340
     0.00000000     0.00000000     0.00000000
     0.00000000     0.00000000     0.00000000
     0.00000000     0.00000000     0.00000000
     0.00000000     0.00000000     0.00000000
     0.00000000     0.00000000     0.00000000
     0.00000000     0.00000000     0.00000000
     0.00000000     0.00000000     0.00000000
     0.00000000     0.00000000     0.00000000
     0.12682585     0.47330900     0.35676943
     0.00000000     0.00000000     0.00000000
     0.00000000     0.00000000     0.00000000
     0.00000000     0.00000000     0.00000000
     0.00000000     0.00000000     0.00000000
     0.00000000     0.00000000     0.00000000
     0.00000000     0.00000000     0.00000000
     0.00000000     0.00000000     0.00000000
     0.00000000     0.00000000     0.00000000
     0.10093165     0.37667642     0.35797507
     0.00000000     0.00000000     0.00000000
     0.00000000     0.00000000     0.00000000
     0.00000000     0.00000000     0.00000000
     0.00000000     0.00000000     0.00000000
     0.00000000     0.00000000     0.00000000
     0.00000000     0.00000000     0.00000000
     0.00000000     0.00000000     0.00000000
     0.00000000     0.00000000     0.00000000
     0.04815709     0.17972488     0.29048306
    -0.13248985    -0.46290414    -0.44614965
     1.73370588    -0.50668948    -0.11394170
     1.92555171    -0.46066874     0.15475703
     1.64830450    -0.37901047     0.17789372
     1.22294163    -0.28326210     0.12394744
     0.83423627    -0.18311288     0.11278179
     0.42875350    -0.05789015     0.16100011
     0.17719333     0.03922963     0.24968340
     0.02328517     0.02515618     0.06631870
    -0.98803190     0.03571652     0.69814067
    -1.18621755     0.16054131     0.31068537
    -1.18902415     0.12967278     0.33642201
    -1.29232679     0.33667685     0.02555133
    -1.23154491     0.23767347     0.16688388
    -1.00324400     0.23774080     0.06093146
    -0.68443158     0.07075484     0.20678322
    -0.32796893     0.08679297     0.00451232
    -0.02801816     0.03595683     0.00625565
     0.00000000     0.00000000     0.00000000
     0.00000000     0.00000000     0.00000000
     0.00000000     0.00000000     0.00000000
     0.00000000     0.00000000     0.00000000
     0.00000000     0.00000000     0.00000000
     0.00000000     0.00000000     0.00000000
     0.00000000     0.00000000     0.00000000
     0.00000000     0.00000000     0.00000000
     0.05895016     0.22000809     0.10420936
     0.00000000     0.00000000     0.00000000
     0.00000000     0.00000000     0.00000000
     0.00000000     0.00000000     0.00000000
     0.00000000     0.00000000     0.00000000
     0.00000000     0.00000000     0.00000000
     0.00000000     0.00000000     0.00000000
     0.00000000     0.00000000     0.00000000
     0.00000000     0.00000000     0.00000000
     0.09073740     0.33862910     0.30135159
     0.00000000     0.00000000     0.00000000
     0.00000000     0.00000000     0.00000000
     0.00000000     0.00000000     0.00000000
     0.00000000     0.00000000     0.00000000
     0.00000000     0.00000000     0.00000000
     0.00000000     0.00000000     0.00000000
     0.00000000     0.00000000     0.00000000
     0.00000000     0.00000000     0.00000000
     0.06424230     0.23975087     0.29360489
     0.00000000     0.00000000     0.00000000
     0.00000000     0.00000000     0.00000000
     0.00000000     0.00000000     0.00000000
     0.00000000     0.00000000     0.00000000
     0.00000000     0.00000000     0.00000000
     0.00000000     0.00000000     0.00000000
     0.00000000     0.00000000     0.00000000
     0.00000000     0.00000000     0.00000000
     0.04441529     0.16576323     0.26391233
    -0.25389267    -0.83130633    -0.74859588
     2.25021814    -0.75475980    -0.27899841
     2.33651054    -0.51002358     0.21378179
     1.77662230    -0.33800473     0.25415373
     1.25216783    -0.22871148     0.19528298
     0.61007881    -0.06127138     0.18754237
     0.21224940     0.08344556     0.25883045
     0.00699743     0.15908174     0.30111606
     0.00333395     0.03964525     0.06907011
    -1.34906082    -0.24186221     1.07739827
    -1.56367725     0.53224805    -0.13339944
    -1.43597214    -0.10306409     0.63012902
    -1.68486750     0.57731680    -0.15837088
    -1.51560177     0.20742619     0.25712693
    -1.38797027     0.35038439     0.03019161
    -0.86426694     0.04419539     0.24470781
    -0.56328793     0.14470532     0.00841299
    -0.06225754     0.02928311     0.00031766
     0.00000000     0.00000000     0.00000000
     0.00000000     0.00000000     0.00000000
     0.00000000     0.00000000     0.00000000
     0.00000000     0.00000000     0.00000000
     0.00000000     0.00000000     0.00000000
     0.00000000     0.00000000     0.00000000
     0.00000000     0.00000000     0.00000000
     0.00000000     0.00000000     0.00000000
     0.02207631     0.08239355     0.04232269
     0.00000000     0.00000000     0.00000000
     0.00000000     0.00000000     0.00000000
     0.00000000     0.00000000     0.00000000
     0.00000000     0.00000000     0.00000000
     0.00000000     0.00000000     0.00000000
     0.00000000     0.00000000     0.00000000
     0.00000000     0.00000000     0.00000000
     0.00000000     0.00000000     0.00000000
     0.03325721     0.12412254     0.12277190
     0.00000000     0.00000000     0.00000000
     0.00000000     0.00000000     0.00000000
     0.00000000     0.00000000     0.00000000
     0.00000000     0.00000000     0.00000000
     0.00000000     0.00000000     0.00000000
     0.00000000     0.00000000     0.00000000
     0.00000000     0.00000000     0.00000000
     0.00000000     0.00000000     0.00000000
     0.02239102     0.08356550     0.11383771
     0.00000000     0.00000000     0.00000000
     0.00000000     0.00000000     0.00000000
     0.00000000     0.00000000     0.00000000
     0.00000000     0.00000000     0.00000000
     0.00000000     0.00000000     0.00000000
     0.00000000     0.00000000     0.00000000
     0.00000000     0.00000000     0.00000000
     0.00000000     0.00000000     0.00000000
     0.02547127     0.09506008     0.11948921
    -0.25428091    -1.31214783    -1.10120477
     3.13070468    -1.06158092    -0.29394857
     2.47779957    -0.51840647     0.19208783
     1.66566246    -0.23207077     0.27924018
     0.67357760    -0.00898674     0.22430436
     0.03736125     0.15251836     0.21215998
    -0.30183810     0.29504664     0.28078641
    -0.14337768     0.21560684     0.23471232
    -0.01104164     0.03652462     0.04234397
    -0.81839417    -0.37118720     0.56639760
    -0.87898159     0.38811878    -0.12369918
    -0.83685682    -0.17744452     0.33279855
    -0.94905358     0.37946682    -0.10250437
    -0.86822647     0.06840124     0.13577790
    -0.79419892     0.21457011     0.00012804
    -0.49749502    -0.00779200     0.11755361
    -0.33007385     0.09099143    -0.00127154
    -0.05016407     0.01877338    -0.00275062
    -2.31764025    -1.69204871     1.44003834
    -2.08403173     1.10468684    -0.26746596
    -2.14191547    -0.53924139     0.58840098
    -2.24798976     1.04652258    -0.21639105
    -2.14525272     0.11638726     0.24256480
    -1.89433029     0.58994310    -0.03004774
    -1.25390292    -0.06313600     0.20840380
    -0.75023684     0.23441432    -0.01368475
    -0.08283017     0.04319648    -0.00183254
    -1.19692424    -2.92900112     0.50254336
    -1.19403515     0.83482269    -0.09818075
    -1.73079887     0.06240925     0.08592974
    -1.31163528     0.96279038    -0.09976833
    -1.50616979     0.31318068     0.03030986
    -1.12877857     0.59054784    -0.04435574
    -1.01639815     0.03135262     0.05164362
    -0.22946230     0.14676077    -0.00850710
    -0.01185678     0.03310368     0.00987731
    -0.93716241    -3.53708302    -0.44430106
     0.58936341    -0.31575651    -0.03840823
     0.26683354     0.38973555     0.08009953
    -0.43668347     0.61354161     0.07320344
    -0.68881819     0.66333668     0.08182859
    -0.86787034     0.52295440     0.04581216
    -0.67683298     0.36298906     0.03780425
    -0.31519793     0.22423269     0.02665192
    -0.03084921     0.03329487     0.01415486
    -0.35501591    -2.93844033    -1.14604708
     4.04293913    -1.42403177    -0.18644204
     3.07130109    -0.50421675     0.15867801
     1.96649084    -0.00651046     0.26656944
     0.62284998     0.22967998     0.20001062
    -0.16405193     0.40946044     0.18976285
    -0.53509001     0.54793580     0.21648002
    -0.22987380     0.36787777     0.16505822
    -0.01961390     0.05222250     0.03154184
    -0.14833937    -0.96878436    -0.57807591
     1.80133102    -0.62500686    -0.12081133
     1.37423448    -0.26705734     0.08466653
     0.91494505    -0.07329654     0.14203602
     0.31970060     0.04270036     0.10694195
    -0.02481939     0.13263619     0.10453549
    -0.20629601     0.20910873     0.12874405
    -0.08577824     0.14218941     0.09997864
    -0.01029563     0.02303488     0.01742851
     0.00000000     0.00000000     0.00000000
     0.00000000     0.00000000     0.00000000
     0.00000000     0.00000000     0.00000000
     0.00000000     0.00000000     0.00000000
     0.00000000     0.00000000     0.00000000
     0.00000000     0.00000000     0.00000000
     0.00000000     0.00000000     0.00000000
     0.00000000     0.00000000     0.00000000
     0.00000000     0.00000000     0.00000000
     0.00000000     0.00000000     0.00000000
     0.00000000     0.00000000     0.00000000
     0.00000000     0.00000000     0.00000000
     0.00000000     0.00000000     0.00000000
     0.00000000     0.00000000     0.00000000
     0.00000000     0.00000000     0.00000000
     0.00000000     0.00000000     0.00000000
     0.00000000     0.00000000     0.00000000
     0.00000000     0.00000000     0.00000000
     0.00000000     0.00000000     0.00000000
     0.00000000     0.00000000     0.00000000
     0.00000000     0.00000000     0.00000000
     0.00000000     0.00000000     0.00000000
     0.00000000     0.00000000     0.00000000
     0.00000000     0.00000000     0.00000000
     0.00000000     0.00000000     0.00000000
     0.00000000     0.00000000     0.00000000
     0.00000000     0.00000000     0.00000000
     0.00000000     0.00000000     0.00000000
     0.00000000     0.00000000     0.00000000
     0.00000000     0.00000000     0.00000000
     0.00000000     0.00000000     0.00000000
     0.00000000     0.00000000     0.00000000
     0.00000000     0.00000000     0.00000000
     0.00000000     0.00000000     0.00000000
     0.00000000     0.00000000     0.00000000
     0.00000000     0.00000000     0.00000000
     0.00000000     0.00000000     0.00000000
     0.00000000     0.00000000     0.00000000
     0.00000000     0.00000000     0.00000000
     0.00000000     0.00000000     0.00000000
     0.00000000     0.00000000     0.00000000
     0.00000000     0.00000000     0.00000000
     0.00000000     0.00000000     0.00000000
     0.00000000     0.00000000     0.00000000
     0.00000000     0.00000000     0.00000000
     0.00000000     0.00000000     0.00000000
     0.00000000     0.00000000     0.00000000
     0.00000000     0.00000000     0.00000000
     0.00000000     0.00000000     0.00000000
     0.00000000     0.00000000     0.00000000
     0.00000000     0.00000000     0.00000000
     0.00000000     0.00000000     0.00000000
     0.00000000     0.00000000     0.00000000
     0.00000000     0.00000000     0.00000000
     0.00000000     0.00000000     0.00000000
     0.00000000     0.00000000     0.00000000
     0.00000000     0.00000000     0.00000000
     0.00000000     0.00000000     0.00000000
     0.00000000     0.00000000     0.00000000
     0.00000000     0.00000000     0.00000000
     0.00000000     0.00000000     0.00000000
     0.00000000     0.00000000     0.00000000
     0.00000000     0.00000000     0.00000000
     0.00000000     0.00000000     0.00000000
     0.00000000     0.00000000     0.00000000
     0.00000000     0.00000000     0.00000000
     0.00000000     0.00000000     0.00000000
     0.00000000     0.00000000     0.00000000
     0.00000000     0.00000000     0.00000000
     0.00000000     0.00000000     0.00000000
     0.00000000     0.00000000     0.00000000
     0.00000000     0.00000000     0.00000000
     0.00000000     0.00000000     0.00000000
     0.00000000     0.00000000     0.00000000
     0.00000000     0.00000000     0.00000000
     0.00000000     0.00000000     0.00000000
     0.00000000     0.00000000     0.00000000
     0.00000000     0.00000000     0.00000000
     0.00000000     0.00000000     0.00000000
     0.00000000     0.00000000     0.00000000
     0.00000000     0.00000000     0.00000000
     0.00000000     0.00000000     0.00000000
     0.00000000     0.00000000     0.00000000
     0.00000000     0.00000000     0.00000000
     0.00000000     0.00000000     0.00000000
     0.00000000     0.00000000     0.00000000
     0.00000000     0.00000000     0.00000000
     0.00000000     0.00000000     0.00000000
     0.00000000     0.00000000     0.00000000
     0.00000000     0.00000000     0.00000000
     0.00000000     0.00000000     0.00000000
     0.00000000     0.00000000     0.00000000
     0.00000000     0.00000000     0.00000000
     0.00000000     0.00000000     0.00000000
     0.00000000     0.00000000     0.00000000
     0.00000000     0.00000000     0.00000000
     0.00000000     0.00000000     0.00000000
     0.00000000     0.00000000     0.00000000
     0.00000000     0.00000000     0.00000000
     0.00000000     0.00000000     0.00000000
     0.00000000     0.00000000     0.00000000
     0.00000000     0.00000000     0.00000000
     0.00000000     0.00000000     0.00000000
     0.00000000     0.00000000     0.00000000
     0.00000000     0.00000000     0.00000000
     0.00000000     0.00000000     0.00000000
     0.00000000     0.00000000     0.00000000
     0.00000000     0.00000000     0.00000000
     0.00000000     0.00000000     0.00000000
     0.00000000     0.00000000     0.00000000
     0.00000000     0.00000000     0.00000000
     0.00000000     0.00000000     0.00000000
     0.00000000     0.00000000     0.00000000
     0.00000000     0.00000000     0.00000000
     0.00000000     0.00000000     0.00000000
     0.00000000     0.00000000     0.00000000
     0.00000000     0.00000000     0.00000000
     0.00000000     0.00000000     0.00000000
     0.00000000     0.00000000     0.00000000
     0.00000000     0.00000000     0.00000000
     0.00000000     0.00000000     0.00000000
     0.00000000     0.00000000     0.00000000
     0.00000000     0.00000000     0.00000000
     0.00000000     0.00000000     0.00000000
     0.00000000     0.00000000     0.00000000
     0.00000000     0.00000000     0.00000000
     0.00000000     0.00000000     0.00000000
     0.00000000     0.00000000     0.00000000
     0.00000000     0.00000000     0.00000000
     0.00000000     0.00000000     0.00000000
     0.00000000     0.00000000     0.00000000
     0.00000000     0.00000000     0.00000000
     0.00000000     0.00000000     0.00000000
     0.00000000     0.00000000     0.00000000
     0.00000000     0.00000000     0.00000000
     0.00000000     0.00000000     0.00000000
     0.00000000     0.00000000     0.00000000
     0.00000000     0.00000000     0.00000000
     0.00000000     0.00000000     0.00000000
     0.00000000     0.00000000     0.00000000
     0.00000000     0.00000000     0.00000000
     0.00000000     0.00000000     0.00000000
     0.00000000     0.00000000     0.00000000
     0.00000000     0.00000000     0.00000000
     0.00000000     0.00000000     0.00000000
     0.00000000     0.00000000     0.00000000
     0.00000000     0.00000000     0.00000000
     0.00000000     0.00000000     0.00000000
     0.00000000     0.00000000     0.00000000
     0.00000000     0.00000000     0.00000000
     0.00000000     0.00000000     0.00000000
     0.00000000     0.00000000     0.00000000
     0.00000000     0.00000000     0.00000000
     0.00000000     0.00000000     0.00000000
     0.00000000     0.00000000     0.00000000
     0.00000000     0.00000000     0.00000000
     0.00000000     0.00000000     0.00000000
     0.00000000     0.00000000     0.00000000
     0.00000000     0.00000000     0.00000000
     0.00000000     0.00000000     0.00000000
     0.00000000     0.00000000     0.00000000
     0.00000000     0.00000000     0.00000000
     0.00000000     0.00000000     0.00000000
     0.00000000     0.00000000     0.00000000
     0.00000000     0.00000000     0.00000000
     0.00000000     0.00000000     0.00000000
     0.00000000     0.00000000     0.00000000
     0.00000000     0.00000000     0.00000000
     0.00000000     0.00000000     0.00000000
     0.00000000     0.00000000     0.00000000
     0.00000000     0.00000000     0.00000000
     0.00000000     0.00000000     0.00000000
     0.00000000     0.00000000     0.00000000
     0.00000000     0.00000000     0.00000000
     0.00000000     0.00000000     0.00000000
     0.00000000     0.00000000     0.00000000
     0.00000000     0.00000000     0.00000000
     0.00000000     0.00000000     0.00000000
     0.00000000     0.00000000     0.00000000
     0.00000000     0.00000000     0.00000000
     0.00000000     0.00000000     0.00000000
     0.00000000     0.00000000     0.00000000
     0.00000000     0.00000000     0.00000000
     0.00000000     0.00000000     0.00000000
     0.00000000     0.00000000     0.00000000
     0.00000000     0.00000000     0.00000000
     0.00000000     0.00000000     0.00000000
     0.00000000     0.00000000     0.00000000
     0.00000000     0.00000000     0.00000000
     0.00000000     0.00000000     0.00000000
     0.00000000     0.00000000     0.00000000
     0.00000000     0.00000000     0.00000000
     0.00000000     0.00000000     0.00000000
     0.00000000     0.00000000     0.00000000
     0.00000000     0.00000000     0.00000000
     0.00000000     0.00000000     0.00000000
     0.00000000     0.00000000     0.00000000
     0.00000000     0.00000000     0.00000000
     0.00000000     0.00000000     0.00000000
     0.00000000     0.00000000     0.00000000
     0.00000000     0.00000000     0.00000000
     0.00000000     0.00000000     0.00000000
     0.00000000     0.00000000     0.00000000
     0.00000000     0.00000000     0.00000000
     0.00000000     0.00000000     0.00000000
     0.00000000     0.00000000     0.00000000
     0.00000000     0.00000000     0.00000000
     0.00000000     0.00000000     0.00000000
     0.00000000     0.00000000     0.00000000
     0.00000000     0.00000000     0.00000000
     0.00000000     0.00000000     0.00000000
     0.00000000     0.00000000     0.00000000
     0.00000000     0.00000000     0.00000000
     0.00000000     0.00000000     0.00000000
     0.00000000     0.00000000     0.00000000
     0.00000000     0.00000000     0.00000000
     0.00000000     0.00000000     0.00000000
     0.00000000     0.00000000     0.00000000
     0.00000000     0.00000000     0.00000000
     0.00000000     0.00000000     0.00000000
     0.00000000     0.00000000     0.00000000
     0.00000000     0.00000000     0.00000000
     0.00000000     0.00000000     0.00000000
     0.00000000     0.00000000     0.00000000
     0.00000000     0.00000000     0.00000000
     0.00000000     0.00000000     0.00000000
     0.00000000     0.00000000     0.00000000
     0.00000000     0.00000000     0.00000000
     0.00000000     0.00000000     0.00000000
     0.00000000     0.00000000     0.00000000
     0.00000000     0.00000000     0.00000000
     0.00000000     0.00000000     0.00000000
     0.00000000     0.00000000     0.00000000
     0.00000000     0.00000000     0.00000000
     0.00000000     0.00000000     0.00000000
     0.00000000     0.00000000     0.00000000
     0.00000000     0.00000000     0.00000000
     0.00000000     0.00000000     0.00000000
     0.00000000     0.00000000     0.00000000
     0.00000000     0.00000000     0.00000000
     0.00000000     0.00000000     0.00000000
     0.00000000     0.00000000     0.00000000
     0.00000000     0.00000000     0.00000000
     0.00000000     0.00000000     0.00000000
     0.00000000     0.00000000     0.00000000
     0.00000000     0.00000000     0.00000000
     0.00000000     0.00000000     0.00000000
     0.00000000     0.00000000     0.00000000
     0.00000000     0.00000000     0.00000000
     0.00000000     0.00000000     0.00000000
     0.00000000     0.00000000     0.00000000
     0.00000000     0.00000000     0.00000000
     0.00000000     0.00000000     0.00000000
     0.00000000     0.00000000     0.00000000
     0.00000000     0.00000000     0.00000000
     0.00000000     0.00000000     0.00000000
     0.00000000     0.00000000     0.00000000
     0.00000000     0.00000000     0.00000000
     0.00000000     0.00000000     0.00000000
     0.00000000     0.00000000     0.00000000
     0.00000000     0.00000000     0.00000000
     0.00000000     0.00000000     0.00000000
     0.00000000     0.00000000     0.00000000
     0.00000000     0.00000000     0.00000000
     0.00000000     0.00000000     0.00000000
     0.00000000     0.00000000     0.00000000
     0.00000000     0.00000000     0.00000000
     0.00000000     0.00000000     0.00000000
     0.00000000     0.00000000     0.00000000
     0.00000000     0.00000000     0.00000000
     0.00000000     0.00000000     0.00000000
     0.00000000     0.00000000     0.00000000
     0.00000000     0.00000000     0.00000000
     0.00000000     0.00000000     0.00000000
     0.00000000     0.00000000     0.00000000
     0.00000000     0.00000000     0.00000000
SCALARS Pressures float
LOOKUP_TABLE default
  2131.08116370
  4247.75376254
  4226.24170375
  4224.02924591
  4219.72928876
  4214.93969762
  4208.01314783
  4226.43831253
  5715.25649516
  4284.13694888
  8509.68205538
  8451.18312284
  8447.57875603
  8438.20528424
  8425.80284697
  8420.62265778
  8441.33667469
  8478.09601212
  4300.63339043
  8523.63137373
  8448.88407800
  8445.42179751
  8434.11213499
  8422.78607601
  8418.84996080
  8425.49508238
  8367.25105524
  4304.44443750
  8525.35007453
  8445.55583143
  8441.65773886
  8430.94069344
  8424.53168213
  8417.61086226
  8423.00598001
  8391.81970072
  4305.47187567
  8525.91779375
  8442.16574717
  8437.04508144
  8429.70244712
  8426.35258996
  8426.08216858
  8450.93712997
  8432.27316666
  4304.76570797
  8525.74618268
  8440.31410432
  8434.54950202
  8428.56201017
  8426.94387865
  8434.11829257
  8472.76111889
  8445.83412266
  4303.92651117
  8525.49219787
  8441.46246612
  8433.88226211
  8428.72807193
  8424.38276315
  8420.88982439
  8424.43308496
  8441.54881763
  4301.23143661
  8525.45719254
  8444.53556108
  8435.13096321
  8428.34755862
  8422.84490180
  8407.37381387
  8391.98193312
  8411.21063805
  4299.40724206
  8525.04509431
  8449.63154215
  8440.95788026
  8432.18492925
  8428.33288240
  8417.29387856
  8407.77068233
  8413.23906708
  4283.23561847
  8512.14069754
  8454.96177548
  8447.67371690
  8441.35694635
  8444.59011126
  8444.92905712
  8444.46723080
  8473.07854271
  2137.29396641
  4250.53598046
  4228.16485798
  4225.25440979
  4222.95562077
  4227.91941166
  4233.52570343
  4238.47864532
  5679.04605103
  2132.49906221
  4250.03344867
  4227.17777461
  4223.55693072
  4218.92712998
  4212.18682748
  4207.02866015
  4223.75143334
  5715.82831065
  4278.37467638
  8506.64131321
  8453.41922332
  8446.72574374
  8436.85165277
  8421.94758710
  8416.20757613
  8436.16643712
  8476.90971184
  4286.77634716
  8513.70613925
  8452.09880324
  8444.91955945
  8433.73904261
  8421.03874421
  8415.77093300
  8421.00297523
  8362.79806781
  4290.69303548
  8516.03084207
  8449.27462083
  8441.36687103
  8431.48458907
  8423.06761774
  8415.67984208
  8418.22957778
  8389.01243091
  4292.22442615
  8517.03539574
  8445.46869236
  8436.59675941
  8430.39894480
  8424.66633382
  8423.36724210
  8447.90051961
  8436.66891193
  4291.32472754
  8517.28697836
  8443.43412721
  8433.49652976
  8428.56620356
  8425.35491303
  8431.75045395
  8469.72458720
  8446.86859298
  4289.44279796
  8516.68032092
  8445.04286772
  8432.93500954
  8428.03559029
  8423.00880738
  8418.95734496
  8422.72945595
  8439.84048629
  4286.76462269
  8517.04394150
  8449.01441622
  8434.96567655
  8427.85346282
  8421.73354824
  8407.81426974
  8389.30634069
  8407.67683315
  4285.38683879
  8516.58608273
  8453.68329510
  8440.24152237
  8431.64642322
  8426.51023722
  8416.48445678
  8402.58293915
  8404.90923977
  4277.14322564
  8509.56912717
  8457.11639529
  8446.49529183
  8440.36375099
  8441.71138251
  8440.65749645
  8436.62570763
  8465.58603859
  2137.97081545
  4252.53081501
  4228.78734985
  4224.80033141
  4222.37252831
  4226.40409851
  4230.50100136
  4232.08532715
  5673.28755824
  2132.78076902
  4250.26842919
  4228.34605360
  4222.95354864
  4217.53247294
  4209.21569741
  4204.81053254
  4212.65068862
  5711.93747171
  4271.07341018
  8502.51739791
  8456.83923721
  8445.84783682
  8434.36223176
  8418.96320301
  8413.22492597
  8428.35040233
  8475.56498694
  4272.27874088
  8504.22925603
  8457.11925966
  8444.61525291
  8433.13222951
  8420.31628945
  8416.08496842
  8425.22977543
  8365.49428177
  4274.24384010
  8506.00446725
  8454.97903112
  8441.33678153
  8432.23715091
  8421.77110359
  8415.59723935
  8417.22574139
  8393.18441391
  4276.68419898
  8507.90546048
  8451.45206782
  8437.11884126
  8430.80637971
  8423.96785954
  8421.25543106
  8441.83625209
  8449.43293190
  4276.61058080
  8508.03980339
  8449.71363819
  8434.08245027
  8428.45280400
  8425.01071003
  8428.36179149
  8461.27888727
  8451.00575185
  4275.41839927
  8507.21481401
  8450.92331684
  8433.51541355
  8426.89672902
  8421.99336733
  8418.10791422
  8422.00597703
  8435.18473172
  4273.60139143
  8507.01916385
  8454.01564431
  8436.18535182
  8426.50911888
  8419.68385352
  8409.59448685
  8385.74362159
  8398.70231247
  4273.42920363
  8507.10356271
  8457.21437848
  8440.65165180
  8430.13213700
  8422.63421106
  8413.81779611
  8391.07504797
  8387.31922817
  4271.46513775
  8505.37795419
  8458.73152283
  8445.18096828
  8437.48031935
  8435.15065333
  8429.68763518
  8419.13772631
  8450.14824295
  2136.40304849
  4252.23726416
  4229.22399727
  4223.77868056
  4220.54167673
  4222.45209870
  4222.38943648
  4218.93863773
  5662.96190770
  2130.26695803
  4249.15588602
  4229.26797062
  4222.76013925
  4216.68976381
  4210.40875137
  4205.08958161
  4207.52571964
  5697.23972289
  4268.53651562
  8501.77941677
  8458.84035638
  8445.74749701
  8433.62678679
  8421.99828908
  8415.97384581
  8428.36729860
  8478.41933799
  4270.57084751
  8504.76456308
  8459.34739891
  8444.70456383
  8433.71651715
  8423.38416609
  8420.39847061
  8439.68352699
  8387.71137238
  4272.31098264
  8506.37144244
  8457.33278066
  8441.96719497
  8432.84235728
  8423.68393093
  8421.72153926
  8428.84443951
  8407.55935335
  4275.08241349
  8507.87838358
  8454.75302476
  8439.11022258
  8431.34352040
  8425.79154927
  8425.99781775
  8441.15321517
  8460.07775640
  4274.75618428
  8507.49483126
  8453.72783041
  8437.03506410
  8429.39173770
  8427.27622747
  8428.15977192
  8454.83924544
  8451.76190543
  4273.56183630
  8505.88091725
  8453.67262650
  8436.23429492
  8427.80819777
  8423.67838234
  8418.25872344
  8420.88971341
  8430.51972222
  4271.83103502
  8504.50615984
  8454.60476261
  8438.04782203
  8427.08130077
  8419.56130713
  8410.27834088
  8387.31999850
  8396.32727003
  4271.60067451
  8504.19584215
  8456.29549646
  8441.34392047
  8429.63369203
  8420.11067617
  8410.86081588
  8384.56207085
  8383.34323525
  4268.99480098
  8502.34060711
  8457.57905795
  8443.96024771
  8434.75306970
  8427.57491076
  8416.72754860
  8396.33839011
  8438.48467278
  2135.34678870
  4250.61686534
  4228.74827076
  4222.60468479
  4218.50356108
  4216.72114015
  4212.25563717
  4201.89512610
  5650.62754822
  2130.58933503
  4249.53222269
  4230.03757888
  4222.63717475
  4217.14359684
  4212.25258254
  4208.05997211
  4210.53305656
  5675.56376139
  4267.54896492
  8501.42697400
  8459.88351619
  8445.45980170
  8434.76111317
  8425.62156101
  8419.86323121
  8432.29268092
  8476.32258415
  4269.77513069
  8504.07276896
  8459.41894743
  8444.62346029
  8434.84063375
  8427.03498515
  8424.79815075
  8444.19089401
  8416.06036091
  4272.12989062
  8505.80107802
  8457.36628453
  8442.74019192
  8434.12543344
  8427.03107971
  8430.26514101
  8443.70872021
  8423.81202269
  4273.47370370
  8505.97121422
  8455.23023699
  8440.75219752
  8433.46249372
  8427.76139055
  8432.66053514
  8453.73590243
  8466.55437088
  4272.62308069
  8504.80543549
  8453.90680006
  8439.20931196
  8432.05851993
  8428.76423548
  8428.68505834
  8450.27611303
  8455.96459317
  4271.80115467
  8503.29803640
  8453.30293526
  8438.46460231
  8430.77486861
  8426.32621908
  8417.68109554
  8418.31918657
  8438.10781264
  4270.29225817
  8501.77415401
  8453.70939054
  8439.01028330
  8430.14111353
  8422.42333740
  8408.36778069
  8390.94056273
  8418.53448057
  4268.97485736
  8500.64511442
  8454.72257499
  8440.49005788
  8430.70128749
  8420.98368889
  8406.54504579
  8379.37008023
  8407.00887394
  4267.73501882
  8499.20692012
  8455.85684876
  8441.75339673
  8433.15931925
  8422.44256827
  8406.25798601
  8373.98586750
  8434.66444349
  2135.71503178
  4249.49520496
  4228.01056655
  4221.20549287
  4217.32261893
  4211.92391565
  4203.69439793
  4185.05482459
  5633.19184621
  1421.52622088
  2832.65093128
  2820.07831883
  2815.05103517
  2811.89842715
  2808.45673321
  2806.34511574
  2806.83433127
  4248.09217072
  2133.77965755
  4250.36466962
  4230.05473512
  4222.62377578
  4217.74754749
  4213.54031132
  4211.21806413
  4216.77768487
  5647.47536977
  2135.02337211
  4251.64700952
  4229.53404394
  4222.32548869
  4217.57337099
  4214.32140231
  4214.13869596
  4221.48170841
  5619.56097349
  2135.59193134
  4252.07829803
  4228.51582988
  4221.57177688
  4217.50598472
  4214.31647569
  4217.26643014
  4225.36343431
  5621.77933693
  2135.58700086
  4251.92179225
  4227.54346128
  4220.68659751
  4217.37763178
  4214.44766198
  4217.59199063
  4231.98698473
  5647.16962369
  2135.53560366
  4250.93652059
  4226.61553279
  4220.03491938
  4216.83438775
  4214.61574434
  4214.19577025
  4223.37172711
  5641.67587725
  2136.17817527
  4250.69771117
  4226.24199094
  4219.75184245
  4216.19184554
  4213.82377827
  4209.01785356
  4208.92253673
  5631.60899289
  2135.91371021
  4249.97181278
  4226.37363657
  4219.74761815
  4215.88924815
  4212.23478645
  4203.55656385
  4196.04881167
  5625.11734517
  2135.12016872
  4249.48929942
  4226.77393297
  4220.03520697
  4215.64577387
  4211.16342777
  4201.66450852
  4187.18545938
  5616.92688084
  2134.67993918
  4248.74548880
  4227.37380609
  4220.31568393
  4216.20129108
  4210.60198396
  4201.02510470
  4182.39311147
  5623.04166190
  1423.26327908
  2831.80370534
  2818.37516292
  2813.60848284
  2811.28802220
  2806.94730870
  2800.12006346
  2785.66977564
  4217.64250946
  8368.45226240
  8402.03478909
  8361.25048065
  8351.69166946
  8367.14582825
  8351.71202850
  8366.97028542
  8358.18881035
  8369.29161263
  8360.83923340
  8172.18011856
  8493.90298319
  8435.63943672
  8349.56357908
  8351.42258358
  8352.24065018
  8353.30733204
  8356.75714207
  8359.03259659
  8361.99312401
  8359.64408445
  8345.90787601
  8478.78658581
  8430.92073679
  8333.29756689
  8327.72901058
  8328.77790928
  8335.54043961
  8344.72195053
  8352.90545034
  8355.99680901
  8358.41632700
  8362.43032074
  8458.06544876
  8414.10240793
  8317.44532061
  8301.94752693
  8308.76131153
  8327.72319126
  8344.64871216
  8356.71943426
  8360.93999529
  8363.34952831
  8367.26284027
  8537.39295816
  8468.93537807
  8359.59554911
  8341.63163376
  8336.67380524
  8347.20201683
  8360.94412518
  8369.21637440
  8373.59601760
  8370.60468125
  8356.15562534
  8624.29557133
  8502.26332951
  8413.01891327
  8383.67273712
  8376.04533386
  8355.13589478
  8375.49072838
  8370.92839813
  8382.61102724
  8372.89402437
  8183.01057816
  8483.67874146
  8395.78298426
  8360.56780720
  8349.43539429
  8364.25320911
  8351.38601875
  8365.63224220
  8357.73179054
  8367.93482161
  8360.15120697
  8178.41019344
  8487.14055777
  8430.86910582
  8348.76897693
  8349.77584553
  8350.96044731
  8352.31897306
  8356.10543251
  8358.27517819
  8361.19320488
  8358.95446038
  8343.98087406
  8475.59005499
  8427.40818715
  8330.44954133
  8326.33541870
  8328.01155424
  8335.35882282
  8344.72316599
  8352.55198455
  8355.60859382
  8357.88127840
  8362.45375776
  8453.11838341
  8410.62037969
  8313.42572808
  8301.16629124
  8309.64698410
  8328.22016668
  8344.89005756
  8356.16726828
  8360.22961128
  8362.41475880
  8366.93514490
  8534.18213630
  8466.40890503
  8356.38297391
  8339.47061348
  8335.87734509
  8346.40186501
  8360.18656397
  8367.86097991
  8372.15296733
  8369.18725729
  8354.02606392
  8622.70524168
  8500.43819761
  8409.84342766
  8379.16318512
  8370.81614494
  8353.82911491
  8373.46072197
  8369.67282653
  8380.61231160
  8371.54983997
  8189.53779888
  8456.95566511
  8381.28611469
  8356.86337185
  8345.56523514
  8359.29286289
  8351.03200817
  8362.68906307
  8356.79519176
  8364.96579981
  8358.67624521
  8201.84077835
  8471.95207381
  8417.45672464
  8345.04374123
  8345.42607260
  8348.17850590
  8350.65203381
  8354.78366232
  8356.99060655
  8359.50859606
  8357.59251571
  8340.90578628
  8465.61374712
  8415.79665995
  8324.61485720
  8323.26659203
  8326.92770624
  8335.67801285
  8344.77135468
  8351.99023867
  8354.71865046
  8356.61933208
  8360.99096608
  8444.54946852
  8402.62585783
  8307.97876835
  8301.48902941
  8311.88761616
  8330.23894930
  8344.79886436
  8354.81812179
  8358.31865180
  8360.18449402
  8364.54270601
  8531.50899458
  8463.08198214
  8349.50308895
  8333.66104126
  8334.03658390
  8345.35504007
  8357.55322737
  8364.50041813
  8368.45973158
  8366.09574652
  8348.59631538
  8618.19806385
  8498.87823391
  8399.05424500
  8365.59029770
  8361.08919907
  8351.31614780
  8368.17317379
  8366.15904868
  8375.66806817
  8368.55238295
  8210.11835670
  8433.01957130
  8365.48589134
  8346.78958130
  8344.91971779
  8354.09122086
  8351.52766132
  8359.34024525
  8356.82889605
  8361.91305661
  8357.36520195
  8252.48294306
  8451.13087940
  8395.28884411
  8335.05725288
  8340.26775837
  8345.73594666
  8349.13768721
  8353.56132388
  8355.97096252
  8358.07814264
  8356.28547049
  8341.04995108
  8451.27164364
  8400.25087833
  8317.04953432
  8320.68447924
  8328.08106518
  8336.85834980
  8345.32344973
  8351.49087965
  8354.14478993
  8355.28622460
  8358.77550125
  8448.04050851
  8405.16334629
  8307.90385103
  8305.06761217
  8317.46587181
  8333.05882883
  8345.13442981
  8353.22956747
  8356.62944573
  8357.83791721
  8361.40913916
  8537.90264630
  8463.30049038
  8339.37082958
  8327.55296946
  8333.84800816
  8343.56290489
  8354.49847543
  8360.63939881
  8364.73649937
  8362.92320383
  8347.89500570
  8613.02537537
  8491.68424797
  8373.70810127
  8350.72387409
  8351.54573059
  8347.97713864
  8361.59258819
  8362.68839300
  8370.26045847
  8365.53728342
  8260.90577650
  8418.80690479
  8343.42070782
  8334.75108826
  8342.01548433
  8349.73980522
  8350.80379260
  8356.38719118
  8356.66349936
  8359.64578354
  8356.21893334
  8285.57941890
  8440.06595230
  8366.02242714
  8323.75485402
  8336.39562678
  8342.57440209
  8347.07374448
  8351.76820248
  8354.77230769
  8356.81210855
  8355.68636528
  8340.46954858
  8461.16462564
  8387.38339329
  8310.54683852
  8320.21562767
  8328.09806955
  8337.27827072
  8345.22857392
  8350.46964920
  8353.48745805
  8355.14818546
  8357.73249346
  8485.14695573
  8411.80932140
  8305.64069462
  8310.66312790
  8321.87407506
  8335.26692235
  8345.15231001
  8351.75344658
  8355.28067240
  8356.98814350
  8359.69990414
  8554.98206544
  8449.07216334
  8323.08750176
  8324.80562443
  8331.64331844
  8342.14449301
  8351.61527336
  8358.14923263
  8361.88088816
  8360.91126195
  8344.31718379
  8600.67447090
  8460.66832399
  8343.22867155
  8337.94047916
  8340.32562691
  8344.96798640
  8356.23386073
  8360.84975445
  8366.19691408
  8362.98881060
  8289.33986795
  8414.00186157
  8328.91068292
  8329.76462388
  8338.14288425
  8348.52230453
  8349.55626988
  8355.17781901
  8355.98481941
  8358.81902289
  8355.59677267
  8285.23424006
  8441.39616108
  8350.28184044
  8319.50830996
  8334.97877455
  8340.35367823
  8345.84556806
  8350.52735889
  8354.06614363
  8356.09183818
  8355.72198468
  8338.59689546
  8478.61993408
  8381.96271229
  8308.62280703
  8320.65365410
  8326.64422202
  8337.01866150
  8344.62857628
  8349.73949766
  8352.90225852
  8355.61635607
  8357.41872180
  8515.14051342
  8411.40531445
  8302.02508831
  8313.78403473
  8322.05898213
  8336.17694354
  8344.50208616
  8351.06889951
  8354.42052966
  8357.18945134
  8359.05949247
  8566.20551300
  8433.82487822
  8313.26912355
  8324.51779926
  8328.58290344
  8342.27154320
  8349.91104782
  8357.51491845
  8360.49832368
  8360.39777595
  8338.14048445
  8590.57940674
  8437.11155415
  8330.48168850
  8330.96017241
  8334.15123475
  8344.09165609
  8354.19817710
  8360.22356534
  8364.59545159
  8361.80216467
  8281.03987670
  7876.27640152
  7846.24787903
  7832.30669403
  7900.66575623
  7938.01008224
  7994.27291489
  8002.31195974
  7663.43887615
  8149.62138939
  7858.22759056
  7814.48289108
  7819.84783173
  7865.68514252
  7922.97343636
  7973.75894737
  7996.07033992
  7978.02727652
  8085.16454697
  7794.40145874
  7745.60886860
  7751.29755878
  7817.40435219
  7891.77872276
  7948.15190315
  7984.37191772
  8002.69207382
  8090.02070999
  7801.12936783
  7691.41242313
  7708.59919071
  7810.12513542
  7895.44563103
  7947.78442955
  7983.37921429
  8003.21399117
  8357.30147934
  8036.59223175
  7810.49603271
  7777.71858978
  7850.43484879
  7918.45151901
  7964.83131981
  7987.51204348
  7970.10879230
  8646.67903137
  8219.54986572
  7946.66705322
  7833.44494629
  7884.72360229
  7921.63243103
  7977.15260696
  7987.18077374
  7646.55807304
  8210.69861031
  7845.38395500
  7833.86603165
  7830.33695221
  7895.50718307
  7939.27775192
  7989.61794949
  8002.63568759
  7726.64448500
  8138.36755657
  7833.43015194
  7805.25272942
  7816.49471283
  7862.20998478
  7920.22836590
  7971.26014805
  7994.83268154
  7979.64940429
  8075.01625824
  7774.90300417
  7731.04579329
  7746.29661298
  7817.04425240
  7888.52391052
  7945.29524374
  7980.68614960
  7998.91547871
  8072.58225250
  7777.07185793
  7683.96314788
  7712.46580625
  7813.80675220
  7894.51543427
  7943.94233990
  7977.72512007
  7995.99900341
  8355.31341362
  8029.38642502
  7807.48532104
  7781.87550735
  7853.32654190
  7918.06764317
  7961.39469624
  7982.98325276
  7970.14922953
  8649.45833588
  8232.95879364
  7932.49650574
  7828.76015472
  7884.21529770
  7922.97325897
  7972.59285355
  7984.85888910
  7713.47708607
  8153.18466377
  7790.50326824
  7818.94270611
  7829.15449524
  7881.98308563
  7938.93549061
  7979.71305084
  8002.42323017
  7860.65210342
  8118.16757298
  7781.31720686
  7785.22784376
  7809.41953087
  7854.65124130
  7914.86768961
  7965.19135666
  7992.25725555
  7986.85252857
  8056.85256958
  7730.00699472
  7702.96025777
  7742.22848392
  7820.56797981
  7884.09505272
  7939.57653570
  7973.57524514
  7987.70403051
  8043.57058525
  7730.51778269
  7675.82258725
  7730.67644382
  7824.67491722
  7894.00805759
  7936.47275448
  7966.72364545
  7982.20798349
  8351.27365303
  8006.78751945
  7797.49084854
  7791.83636665
  7860.62371254
  7916.80615234
  7953.72313070
  7973.43748617
  7962.28426361
  8645.96079254
  8240.42231750
  7897.74405670
  7817.09224701
  7885.71415329
  7922.98640633
  7962.98416138
  7978.48689079
  7822.50766754
  8153.03166008
  7755.03975010
  7813.89981174
  7825.62163925
  7866.25888443
  7930.92369938
  7971.05518627
  8000.21642303
  7849.18462753
  8105.89375782
  7733.34714937
  7766.56476450
  7800.10693169
  7848.37523842
  7910.10215998
  7958.74036598
  7989.43537951
  7973.47731209
  8035.81054306
  7687.83123970
  7693.08204746
  7754.14308834
  7830.34876060
  7887.31364441
  7938.46441936
  7970.05289227
  7985.07019913
  8034.53447914
  7707.35032082
  7688.21843243
  7760.17764378
  7839.93819427
  7897.58453083
  7934.95077944
  7961.00293320
  7975.36265981
  8340.68626404
  7968.27960205
  7777.56996536
  7801.74199295
  7866.66947126
  7914.55141622
  7947.43855411
  7965.63535810
  7950.69691133
  8625.16880035
  8185.86649323
  7845.63744354
  7816.82265091
  7883.66848278
  7919.28043902
  7955.47884238
  7970.71629834
  7823.03890467
  8139.10474777
  7729.11031151
  7785.60811424
  7806.65376210
  7853.76770329
  7918.26708353
  7962.35236108
  7995.09423411
  7871.32062459
  8087.77373576
  7704.47078705
  7747.15370178
  7790.49437869
  7844.72530901
  7906.93503016
  7954.38798255
  7986.77247029
  7975.58514559
  8031.58750606
  7667.94989491
  7699.51886487
  7771.49202085
  7838.94385892
  7895.33113128
  7943.55423689
  7971.22900391
  7981.63057327
  8060.31654739
  7712.18745995
  7705.02579522
  7781.22606301
  7850.48944741
  7902.27423197
  7939.97394395
  7962.45941651
  7974.62510514
  8324.28867149
  7914.87464714
  7749.72904778
  7805.71074653
  7865.88390851
  7912.59080607
  7944.19034778
  7962.66762229
  7930.66047700
  8554.67653656
  8061.44290161
  7779.74494553
  7817.61841345
  7872.99372530
  7915.69243395
  7949.11767742
  7964.42371289
  7795.48222366
  8098.14945984
  7714.65615082
  7759.81783295
  7792.00602579
  7848.63519907
  7912.01232791
  7957.05746722
  7991.64266705
  7975.72610711
  8072.98137808
  7696.24897575
  7735.61099434
  7786.47236180
  7843.26779675
  7905.91782415
  7952.91659772
  7985.59366953
  7996.64919209
  8040.39109564
  7664.84675026
  7702.31143236
  7777.85916567
  7841.64200366
  7898.95598090
  7946.89412212
  7972.50233209
  7973.38992572
  8083.56151199
  7717.69549561
  7708.74602747
  7787.11730433
  7852.96397173
  7903.81027997
  7942.89158773
  7964.28923166
  7974.15684199
  8316.42677307
  7884.58451080
  7734.82525253
  7805.57781553
  7863.45806456
  7912.00731707
  7942.99177608
  7962.48503868
  7914.30599180
  8498.69941711
  7985.62973022
  7745.37715912
  7811.70065594
  7866.37179852
  7914.48271561
  7945.21289271
  7961.85160622
  7809.50587398
     0.00000000
     0.00000000
     0.00000000
     0.00000000
     0.00000000
     0.00000000
     0.00000000
     0.00000000
     0.00000000
     0.00000000
     0.00000000
     0.00000000
     0.00000000
     0.00000000
     0.00000000
     0.00000000
     0.00000000
     0.00000000
     0.00000000
     0.00000000
     0.00000000
     0.00000000
     0.00000000
     0.00000000
     0.00000000
     0.00000000
     0.00000000
     0.00000000
     0.00000000
     0.00000000
     0.00000000
     0.00000000
     0.00000000
     0.00000000
     0.00000000
     0.00000000
     0.00000000
     0.00000000
     0.00000000
     0.00000000
     0.00000000
     0.00000000
     0.00000000
     0.00000000
     0.00000000
     0.00000000
     0.00000000
     0.00000000
     0.00000000
     0.00000000
     0.00000000
     0.00000000
     0.00000000
     0.00000000
     0.00000000
     0.00000000
     0.00000000
     0.00000000
     0.00000000
     0.00000000
     0.00000000
     0.00000000
     0.00000000
     0.00000000
     0.00000000
     0.00000000
     0.00000000
     0.00000000
     0.00000000
     0.00000000
     0.00000000
     0.00000000
     0.00000000
     0.00000000
     0.00000000
     0.00000000
     0.00000000
     0.00000000
     0.00000000
     0.00000000
     0.00000000
     0.00000000
     0.00000000
     0.00000000
     0.00000000
     0.00000000
     0.00000000
     0.00000000
     0.00000000
     0.00000000
     0.00000000
     0.00000000
     0.00000000
     0.00000000
     0.00000000
     0.00000000
     0.00000000
     0.00000000
     0.00000000
     0.00000000
     0.00000000
     0.00000000
     0.00000000
     0.00000000
     0.00000000
     0.00000000
     0.00000000
     0.00000000
     0.00000000
     0.00000000
     0.00000000
     0.00000000
     0.00000000
     0.00000000
     0.00000000
     0.00000000
     0.00000000
     0.00000000
     0.00000000
     0.00000000
     0.00000000
     0.00000000
     0.00000000
     0.00000000
     0.00000000
     0.00000000
     0.00000000
     0.00000000
     0.00000000
     0.00000000
     0.00000000
     0.00000000
     0.00000000
     0.00000000
     0.00000000
     0.00000000
     0.00000000
     0.00000000
     0.00000000
     0.00000000
     0.00000000
     0.00000000
     0.00000000
     0.00000000
     0.00000000
     0.00000000
     0.00000000
     0.00000000
     0.00000000
     0.00000000
     0.00000000
     0.00000000
     0.00000000
     0.00000000
     0.00000000
     0.00000000
     0.00000000
     0.00000000
     0.00000000
     0.00000000
     0.00000000
     0.00000000
     0.00000000
     0.00000000
     0.00000000
     0.00000000
     0.00000000
     0.00000000
     0.00000000
     0.00000000
     0.00000000
     0.00000000
     0.00000000
     0.00000000
     0.00000000
     0.00000000
     0.00000000
     0.00000000
     0.00000000
     0.00000000
     0.00000000
     0.00000000
     0.00000000
     0.00000000
     0.00000000
     0.00000000
     0.00000000
     0.00000000
     0.00000000
     0.00000000
     0.00000000
     0.00000000
     0.00000000
     0.00000000
     0.00000000
     0.00000000
     0.00000000
     0.00000000
     0.00000000
     0.00000000
     0.00000000
     0.00000000
     0.00000000
     0.00000000
     0.00000000
     0.00000000
     0.00000000
     0.00000000
     0.00000000
     0.00000000
     0.00000000
     0.00000000
     0.00000000
     0.00000000
     0.00000000
     0.00000000
     0.00000000
     0.00000000
     0.00000000
     0.00000000
     0.00000000
     0.00000000
     0.00000000
     0.00000000
     0.00000000
     0.00000000
     0.00000000
     0.00000000
     0.00000000
     0.00000000
     0.00000000
     0.00000000
     0.00000000
     0.00000000
     0.00000000
     0.00000000
     0.00000000
     0.00000000
     0.00000000
     0.00000000
     0.00000000
     0.00000000
     0.00000000
     0.00000000
     0.00000000
     0.00000000
     0.00000000
     0.00000000
     0.00000000
     0.00000000
     0.00000000
     0.00000000
     0.00000000
     0.00000000
     0.00000000
     0.00000000
     0.00000000
     0.00000000
     0.00000000
     0.00000000
     0.00000000
     0.00000000
     0.00000000
     0.00000000
     0.00000000
     0.00000000
     0.00000000
     0.00000000
     0.00000000
     0.00000000
     0.00000000
     0.00000000
     0.00000000
     0.00000000
     0.00000000
     0.00000000
VECTORS Displacements float 
     4.84121725    -0.41712629     0.00000000
     4.19029319    -0.55927378     0.00000000
     3.53080256    -0.63093054     0.00000000
     2.86551128    -0.65475701     0.00000000
     2.19838149    -0.63564242     0.00000000
     1.52376586    -0.54342212     0.00000000
     0.84447326    -0.37743763     0.00000000
     0.37122659    -0.12041815     0.00000000
     0.00000000     0.00000000     0.00000000
     4.81804008    -0.34399694     0.00625091
     4.11680243    -0.46458478     0.00000000
     3.41663804    -0.52235114     0.00000000
     2.71430324    -0.54034055     0.00000000
     2.00637836    -0.51764094     0.00000000
     1.29999540    -0.43204726     0.00000000
     0.61721023    -0.27400742     0.00000000
     0.22458883    -0.03954311     0.00000000
     0.03504395     0.03635757     0.00000000
     4.80321800    -0.26970420     0.00738239
     4.06760298    -0.36687952     0.00000000
     3.33113021    -0.41001440     0.00000000
     2.60010506    -0.41990994     0.00000000
     1.87737902    -0.39556186     0.00000000
     1.17965169    -0.31956329     0.00000000
     0.54858434    -0.18031548     0.00000000
     0.19849246    -0.00922509     0.00000000
     0.03746247     0.02836201     0.00000000
     4.79377320    -0.19479617     0.00763284
     4.03344147    -0.26401175     0.00000000
     3.27187198    -0.29333728     0.00000000
     2.52362212    -0.29811102     0.00000000
     1.79776419    -0.27788763     0.00000000
     1.11691503    -0.22055923     0.00000000
     0.52475553    -0.11995845     0.00000000
     0.18854058    -0.00703953     0.00000000
     0.03974148     0.01564509     0.00000000
     4.78726890    -0.11901319     0.00740954
     4.01119061    -0.15704422     0.00000000
     3.23350094    -0.17319029     0.00000000
     2.47526008    -0.17624433     0.00000000
     1.74960077    -0.16579932     0.00000000
     1.08157453    -0.13585072     0.00000000
     0.51559990    -0.08324203     0.00000000
     0.17806271    -0.01907943     0.00000000
     0.02503919     0.00778690     0.00000000
     4.78090989    -0.04285412     0.00732869
     3.99653250    -0.04701706     0.00000000
     3.20988784    -0.05041882     0.00000000
     2.44539856    -0.05379549     0.00000000
     1.71838455    -0.05677570     0.00000000
     1.05609563    -0.05866402     0.00000000
     0.50516743    -0.06255421     0.00000000
     0.17513434    -0.03429956     0.00000000
     0.00000000     0.00000000     0.00000000
     4.77339403     0.03343330     0.00738780
     3.98728194     0.06409678     0.00000000
     3.19876191     0.07392359     0.00000000
     2.43099079     0.07046419     0.00000000
     1.69930338     0.05407989     0.00000000
     1.03285156     0.01943312     0.00000000
     0.48307087    -0.04190687     0.00000000
     0.19650788    -0.05238354     0.00000000
     0.06180006    -0.01445110     0.00000000
     4.76561891     0.10942788     0.00765812
     3.98637066     0.17407340     0.00000000
     3.20534331     0.19833221     0.00000000
     2.44025255     0.19730499     0.00000000
     1.70416246     0.17066645     0.00000000
     1.02698918     0.10630904     0.00000000
     0.46624444    -0.01089200     0.00000000
     0.21096153    -0.07143207     0.00000000
     0.10897546    -0.02167343     0.00000000
     4.75999477     0.18486058     0.00751025
     3.99803828     0.28096613     0.00000000
     3.23610954     0.32100586     0.00000000
     2.48246752     0.32629562     0.00000000
     1.74330695     0.29526268     0.00000000
     1.04462165     0.20833682     0.00000000
     0.44634396     0.04322175     0.00000000
     0.20250406    -0.08065770     0.00000000
     0.11633829    -0.03965782     0.00000000
     4.75883850     0.25989921     0.00667225
     4.02567148     0.38276137     0.00000000
     3.29794962     0.44012356     0.00000000
     2.57047227     0.45566423     0.00000000
     1.83983201     0.42750516     0.00000000
     1.11661541     0.32999157     0.00000000
     0.44498035     0.13747485     0.00000000
     0.17604541    -0.06376718     0.00000000
     0.07688069    -0.04648568     0.00000000
     4.76472030     0.33394291     0.00000000
     4.07873216     0.48036250     0.00000000
     3.39437630     0.55479419     0.00000000
     2.70753356     0.57967489     0.00000000
     2.01871886     0.55756184     0.00000000
     1.32246968     0.45667926     0.00000000
     0.61151451     0.26249175     0.00000000
     0.23540341     0.01633551     0.00000000
     0.00000000     0.00000000     0.00000000
     4.84129651    -0.41257139     0.18195597
     4.19071352    -0.55291192     0.24394432
     3.53191837    -0.62347161     0.28047198
     2.86758303    -0.64678277     0.30048984
     2.20154015    -0.62755895     0.30698287
     1.52882265    -0.53650531     0.30051195
     0.85146721    -0.37263013     0.28275041
     0.37981381    -0.12008262     0.22278040
     0.00000000     0.00000000     0.00000000
     4.81930392    -0.34173467     0.20358959
     4.12025868    -0.46071862     0.27360260
     3.42485141    -0.51802172     0.31407633
     2.72663156    -0.53591544     0.33745345
     2.02307091    -0.51342839     0.34552124
     1.32077779    -0.42888946     0.33729681
     0.64014988    -0.27558555     0.29643129
     0.23856236    -0.04545711     0.20829357
     0.03341455     0.03413343    -0.02496033
     4.80435107    -0.26910236     0.22152241
     4.07255221    -0.36490512     0.29690881
     3.34265783    -0.40796537     0.34105418
     2.61757100    -0.41808149     0.36503331
     1.89960195    -0.39429716     0.37128522
     1.20426873    -0.31987977     0.35495049
     0.57043543    -0.18435091     0.30502402
     0.20984116    -0.01424778     0.21229194
     0.03296856     0.02711549    -0.03242515
     4.79455361    -0.19482931     0.23364026
     4.03874932    -0.26321300     0.31326000
     3.28455192    -0.29258609     0.35905309
     2.54263397    -0.29768397     0.38316352
     1.82126080    -0.27797275     0.38716719
     1.14176673    -0.22189307     0.36711678
     0.54538515    -0.12271740     0.31488896
     0.19763671    -0.00958849     0.21487494
     0.03316075     0.01558229    -0.03685664
     4.78758497    -0.11917232     0.23976675
     4.01626998    -0.15674765     0.32176169
     3.24611600    -0.17297564     0.36815463
     2.49421962    -0.17627533     0.39194341
     1.77276919    -0.16619849     0.39449588
     1.10597159    -0.13675879     0.37248947
     0.53607486    -0.08390971     0.31897199
     0.18734582    -0.01963808     0.21742616
     0.01826077     0.00872106    -0.03364666
     4.78100821    -0.04283233     0.23957464
     4.00131112    -0.04689160     0.32184290
     3.22210727    -0.05028479     0.36795229
     2.46368206    -0.05378375     0.39111553
     1.74034014    -0.05690892     0.39229024
     1.07853682    -0.05863405     0.36786873
     0.52327941    -0.06134634     0.31235369
     0.18545653    -0.03500222     0.19819575
     0.00000000     0.00000000     0.00000000
     4.77360750     0.03360516     0.23999559
     3.99233515     0.06406030     0.32285079
     3.21135479     0.07399920     0.36922843
     2.44952335     0.07061418     0.39219767
     1.72084722     0.05440717     0.39237833
     1.05321864     0.02069007     0.36523943
     0.49558053    -0.03806908     0.30237026
     0.19808191    -0.05010692     0.18729648
     0.05377954    -0.01096308    -0.03045270
     4.76623589     0.10948140     0.23408691
     3.99167319     0.17347143     0.31525951
     3.21815098     0.19790214     0.36115978
     2.45890815     0.19717889     0.38388086
     1.72549266     0.17115290     0.38390695
     1.04621258     0.10875692     0.35556298
     0.47592492    -0.00401528     0.28761616
     0.20850640    -0.06687532     0.17523143
     0.09854195    -0.01801680    -0.03644075
     4.76102514     0.18426182     0.22224522
     4.00311565     0.27904820     0.29947893
     3.24817816     0.31917575     0.34401162
     2.50032074     0.32488906     0.36683444
     1.76442009     0.29473019     0.36895100
     1.06466772     0.21063428     0.34287772
     0.45739115     0.05229425     0.27459055
     0.20130694    -0.07393664     0.16876659
     0.10709081    -0.03705977    -0.03377661
     4.76033638     0.25760357     0.20450953
     4.02964143     0.37879164     0.27635543
     3.30717747     0.43572715     0.31739697
     2.58407767     0.45146884     0.34040321
     1.85748853     0.42390144     0.34656374
     1.13698234     0.32849392     0.33184181
     0.46325328     0.14492089     0.27048743
     0.18071747    -0.05551887     0.16724703
     0.07179090    -0.04504748    -0.02403527
     4.76571374     0.32931672     0.18311319
     4.08038676     0.47380378     0.24624658
     3.39693832     0.54709730     0.28358480
     2.71097531     0.57144853     0.30364259
     2.02333544     0.54927881     0.30941634
     1.32839832     0.45037274     0.30277056
     0.61992930     0.25924098     0.27700071
     0.24582224     0.01913696     0.20252849
     0.00000000     0.00000000     0.00000000
     4.84129925    -0.39895382     0.35864300
     4.19194109    -0.53391073     0.48170069
     3.53511979    -0.60131893     0.55309930
     2.87360337    -0.62316108     0.59259335
     2.21093765    -0.60369277     0.60512172
     1.54263729    -0.51623710     0.59115617
     0.87730834    -0.35848957     0.55272125
     0.41298915    -0.11800777     0.43037968
     0.00000000     0.00000000     0.00000000
     4.82193673    -0.33212311     0.40184097
     4.13006797    -0.44568128     0.54040915
     3.44471570    -0.50126297     0.62102428
     2.75675506    -0.51781270     0.66656368
     2.06529655    -0.49609489     0.68183454
     1.37561859    -0.41525742     0.66510628
     0.70288848    -0.27557809     0.58495881
     0.27703062    -0.05818695     0.42218952
     0.02985191     0.02914937    -0.04181177
     4.80750517    -0.26277284     0.43604092
     4.08728855    -0.35366175     0.58740012
     3.37328670    -0.39565919     0.67506328
     2.66370317    -0.40567219     0.72249706
     1.95999783    -0.38379260     0.73520266
     1.27349854    -0.31495510     0.70475989
     0.63636461    -0.19034359     0.60773128
     0.24799161    -0.02688517     0.43532706
     0.02574932     0.02264228    -0.05480899
     4.79713393    -0.19097615     0.46015151
     4.05583579    -0.25558984     0.62047145
     3.32081292    -0.28445838     0.71177864
     2.59646341    -0.29000476     0.76003039
     1.88889213    -0.27261739     0.76900371
     1.21522241    -0.22121223     0.73112549
     0.61184046    -0.12806646     0.63065570
     0.23316264    -0.01786969     0.44403568
     0.02153675     0.01340282    -0.06249993
     4.78925061    -0.11740402     0.47284228
     4.03379234    -0.15265811     0.63811378
     3.28431951    -0.16865568     0.73097833
     2.55047970    -0.17252308     0.77895765
     1.84222749    -0.16418169     0.78531192
     1.17987805    -0.13733335     0.74310086
     0.60265195    -0.08586865     0.64025941
     0.22431210    -0.02312603     0.45026088
     0.00704500     0.00858447    -0.05688573
     4.78227645    -0.04283978     0.47321931
     4.01856768    -0.04640264     0.63937268
     3.26035805    -0.04967977     0.73190029
     2.51966818    -0.05338291     0.77900618
     1.80796352    -0.05717543     0.78296961
     1.14776567    -0.05861250     0.73623464
     0.58141098    -0.05877512     0.62916881
     0.21891408    -0.03690068     0.40903844
     0.00000000     0.00000000     0.00000000
     4.77534481     0.03181871     0.47324901
     4.01045402     0.06081099     0.64019009
     3.25072038     0.07089438     0.73311237
     2.50640431     0.06778749     0.77995528
     1.78790690     0.05247576     0.78253360
     1.11795739     0.02229268     0.73194915
     0.54133036    -0.02885681     0.61282495
     0.21142998    -0.04418938     0.39683415
     0.03565699    -0.00144596    -0.05500237
     4.76906742     0.10559865     0.46100137
     4.00994140     0.16635434     0.62420595
     3.25679954     0.19074566     0.71596477
     2.51445658     0.19072774     0.76214586
     1.79060804     0.16709476     0.76473314
     1.10699791     0.11165460     0.71255190
     0.51404452     0.01187436     0.58409875
     0.20941499    -0.05326725     0.37475246
     0.07250164    -0.00717481    -0.06494632
     4.76486999     0.17786722     0.43733951
     4.01969127     0.26777622     0.59224167
     3.28224972     0.30740479     0.68073248
     2.55025451     0.31356348     0.72658662
     1.82536980     0.28650792     0.73256165
     1.12478488     0.21136744     0.68517454
     0.49762812     0.07138670     0.55495160
     0.20483082    -0.05528488     0.35823685
     0.08401509    -0.02832226    -0.05971721
     4.76442661     0.24785618     0.40358818
     4.04197412     0.36319228     0.54547433
     3.33107718     0.41880292     0.62742883
     2.61924694     0.43361654     0.67235045
     1.90488710     0.40816593     0.68430227
     1.19314100     0.32015982     0.65624779
     0.51598702     0.15724772     0.53901658
     0.19602652    -0.03485648     0.35130483
     0.05949819    -0.04076019    -0.04151996
     4.76842077     0.31546749     0.36062731
     4.08537401     0.45428826     0.48625264
     3.40434447     0.52420190     0.55891866
     2.72136652     0.54706308     0.59880395
     2.03589750     0.52515387     0.61025140
     1.34723115     0.43150648     0.59417970
     0.65320883     0.24937431     0.54139798
     0.27853254     0.02286540     0.38849398
     0.00000000     0.00000000     0.00000000
     4.84100900    -0.37662353     0.52668872
     4.19373627    -0.50268974     0.70718467
     3.54006365    -0.56508321     0.81197405
     2.88292885    -0.58463498     0.86877167
     2.22579587    -0.56520616     0.88652068
     1.56696659    -0.48377908     0.86361572
     0.91782724    -0.33524769     0.79725199
     0.46048459    -0.11285534     0.61344564
     0.00000000     0.00000000     0.00000000
     4.82573863    -0.31564148     0.59236590
     4.14712251    -0.42082676     0.79641567
     3.47499945    -0.47276550     0.91408132
     2.80178025    -0.48746238     0.98004406
     2.12707241    -0.46648653     1.00009941
     1.45855734    -0.39417877     0.97400722
     0.80189080    -0.26748144     0.85709142
     0.34422536    -0.07120942     0.64194181
     0.02947315     0.02133329    -0.04907279
     4.81323862    -0.25098398     0.64449653
     4.11331291    -0.33436565     0.86774976
     3.42174411    -0.37383465     0.99594643
     2.73490099    -0.38351393     1.06573134
     2.05231937    -0.36368088     1.08410854
     1.38366693    -0.30507556     1.04183885
     0.74692378    -0.19404645     0.90409725
     0.32017827    -0.04282110     0.67218958
     0.02525044     0.01601598    -0.06562194
     4.80298152    -0.18348921     0.68152540
     4.08718243    -0.24213081     0.91839619
     3.38048209    -0.26924266     1.05290594
     2.68281089    -0.27543368     1.12495981
     1.99705398    -0.26019357     1.13942037
     1.33742995    -0.21795260     1.08658463
     0.72858440    -0.13400822     0.94450835
     0.30812400    -0.02959882     0.69199119
     0.01805041     0.00766954    -0.07547625
     4.79465380    -0.11379005     0.70176493
     4.06740434    -0.14526383     0.94658744
     3.34936361    -0.16026813     1.08414314
     2.64398210    -0.16457764     1.15681743
     1.95656180    -0.15800497     1.16786212
     1.30693126    -0.13673270     1.10808342
     0.72165550    -0.08870748     0.96156733
     0.30425716    -0.02917775     0.70256701
     0.00563594     0.00445480    -0.07029399
     4.78733470    -0.04286024     0.70433858
     4.05268045    -0.04555724     0.95100885
     3.32722611    -0.04816253     1.08873492
     2.61522843    -0.05181368     1.16085333
     1.92316384    -0.05584420     1.16931342
     1.27130626    -0.05860052     1.10393906
     0.68940289    -0.05371082     0.95184133
     0.28669109    -0.03724084     0.64203128
     0.00000000     0.00000000     0.00000000
     4.78103210     0.02810379     0.70246356
     4.04533010     0.05501553     0.94929510
     3.31871598     0.06521658     1.08722283
     2.60323175     0.06318592     1.15911429
     1.90327795     0.04928579     1.16660647
     1.23782453     0.02346944     1.09841594
     0.63707604    -0.01461854     0.93354392
     0.25933727    -0.03410828     0.64080997
     0.01956103     0.00930910    -0.07029880
     4.77566539     0.09803088     0.68286587
     4.04386608     0.15378845     0.92334588
     3.32164680     0.17771663     1.05878632
     2.60739908     0.17914056     1.12937048
     1.90140833     0.15876235     1.13732461
     1.22045604     0.11299439     1.06894207
     0.59728140     0.03421250     0.89289174
     0.23913358    -0.03334764     0.61384347
     0.04308995     0.00860553    -0.07970263
     4.77217326     0.16593049     0.64647309
     4.04926645     0.24867568     0.87409184
     3.33752826     0.28656410     1.00382355
     2.63021541     0.29384901     1.07238603
     1.92457737     0.27039575     1.08397635
     1.23079043     0.20880746     1.02259797
     0.57889511     0.09375771     0.84346108
     0.23153864    -0.02918819     0.58179463
     0.05710874    -0.01410059    -0.07245641
     4.77095152     0.23114766     0.59482900
     4.06374311     0.33775849     0.80335096
     3.36850965     0.39010451     0.92274435
     2.67389644     0.40424547     0.98834851
     1.97667361     0.38100209     1.00456249
     1.28341183     0.30514272     0.96466438
     0.60674600     0.16490429     0.80299334
     0.23394826    -0.01001880     0.55807220
     0.04608791    -0.03082596    -0.04964935
     4.77259099     0.29281797     0.52965689
     4.09326724     0.42221908     0.71322602
     3.41624606     0.48688070     0.82038228
     2.73761536     0.50737849     0.87754748
     2.06012212     0.48655272     0.89335788
     1.38048704     0.40045953     0.86760574
     0.70383034     0.23282877     0.77367009
     0.32390030     0.02707901     0.55642548
     0.00000000     0.00000000     0.00000000
     4.84042936    -0.34614052     0.68160013
     4.19568484    -0.46001789     0.91505181
     3.54607883    -0.51582584     1.04955095
     2.89432142    -0.53255508     1.12229682
     2.24525278    -0.51365068     1.14319611
     1.59727142    -0.44023298     1.11146827
     0.96642755    -0.30400613     1.00629004
     0.51662913    -0.10921473     0.77307487
     0.00000000     0.00000000     0.00000000
     4.83119774    -0.29251001     0.77188200
     4.16942607    -0.38679976     1.03645388
     3.51345359    -0.43311530     1.18828817
     2.85653607    -0.44566728     1.27149755
     2.20189680    -0.42823761     1.29456160
     1.55372025    -0.35982251     1.25511489
     0.93170130    -0.25844454     1.10435126
     0.44173547    -0.08996088     0.85977768
     0.02846253     0.01723633    -0.04285564
     4.82210514    -0.23440622     0.84405362
     4.14910501    -0.30794843     1.13339609
     3.48554450    -0.34303744     1.29968827
     2.82410562    -0.35200966     1.38905282
     2.16826174    -0.33712107     1.41175802
     1.52140196    -0.27965049     1.35742518
     0.90758689    -0.20360329     1.18284114
     0.42426169    -0.06923924     0.92375793
     0.02981095     0.01650137    -0.06171743
     4.81396669    -0.17277828     0.89571613
     4.13209741    -0.22346030     1.20359698
     3.46130114    -0.24763048     1.37880944
     2.79585144    -0.25324650     1.47322635
     2.13808960    -0.24340046     1.49260591
     1.49823672    -0.20029725     1.42548540
     0.90560145    -0.14655504     1.24469919
     0.41875607    -0.05138706     0.96259230
     0.02494062     0.00739439    -0.07212138
     4.80640879    -0.10845179     0.92565902
     4.11749055    -0.13528641     1.24429147
     3.44099754    -0.14773058     1.42529730
     2.77083823    -0.15178149     1.52117835
     2.11241108    -0.14753692     1.53862985
     1.47663325    -0.12594293     1.46008612
     0.90954184    -0.09608620     1.27108281
     0.42736844    -0.03783900     0.97868235
     0.01447090    -0.00626802    -0.07270670
     4.79920966    -0.04302806     0.93263813
     4.10501373    -0.04421206     1.25480134
     3.42366002    -0.04596442     1.43681866
     2.74933537    -0.04747245     1.53352085
     2.08596050    -0.05141245     1.54858912
     1.44666997    -0.05199397     1.46488600
     0.87268082    -0.05306392     1.27255934
     0.39931546    -0.03288004     0.90604429
     0.00000000     0.00000000     0.00000000
     4.79326629     0.02275649     0.92650398
     4.09749039     0.04684427     1.24733642
     3.41465553     0.05737821     1.42861324
     2.73770815     0.05762700     1.52503448
     2.06796244     0.04819267     1.53990032
     1.41489705     0.02558667     1.45577291
     0.81849579    -0.00304505     1.25330732
     0.35407841    -0.01353891     0.93209233
     0.01033812     0.02655600    -0.06868773
     4.78785395     0.08705412     0.89758234
     4.09239348     0.13672552     1.20863413
     3.41062958     0.15896666     1.38596205
     2.73243303     0.16303742     1.47933673
     2.05919058     0.14927741     1.49533754
     1.39120200     0.10857035     1.41466901
     0.76926116     0.05716737     1.20288848
     0.30504763     0.00446266     0.91165756
     0.02363880     0.01316732    -0.07410517
     4.78333273     0.14914876     0.84651069
     4.09055661     0.22254915     1.14049132
     3.41106691     0.25763949     1.30846573
     2.73434134     0.26512985     1.39822537
     2.05886014     0.24990632     1.41545777
     1.38458015     0.19258110     1.34522794
     0.73724736     0.12205804     1.13009010
     0.28568483     0.01637682     0.85384246
     0.03341713    -0.00974600    -0.06608922
     4.78021067     0.20769425     0.77493415
     4.09283122     0.30337633     1.04401970
     3.41793833     0.35061865     1.19844888
     2.74261104     0.36300755     1.28158368
     2.06955871     0.34584528     1.30120611
     1.39618298     0.27523393     1.24845315
     0.74855632     0.17579332     1.05116854
     0.29823479     0.02474674     0.78964483
     0.03551209    -0.02474206    -0.04497534
     4.77797611     0.26191309     0.68479867
     4.10365329     0.37850525     0.92262988
     3.43223275     0.43629829     1.05936817
     2.76202359     0.45410399     1.13292038
     2.09238331     0.43445559     1.15172005
     1.42595459     0.35824152     1.11247929
     0.76604365     0.21026165     0.97529542
     0.38063298     0.03445459     0.70127201
     0.00000000     0.00000000     0.00000000
     4.83967101    -0.30813598     0.81953907
     4.19746032    -0.40719293     1.09993833
     3.55179957    -0.45507927     1.25977418
     2.90650861    -0.46905472     1.34608641
     2.26435200    -0.45067332     1.37008546
     1.63014332    -0.38683482     1.32493961
     1.01566015    -0.26690545     1.18264788
     0.57375084    -0.10485366     0.91046913
     0.00000000     0.00000000     0.00000000
     4.83742860    -0.26347128     0.93766102
     4.19822511    -0.34560274     1.25699507
     3.55702371    -0.38468569     1.43927291
     2.91635915    -0.39574865     1.53586748
     2.28179184    -0.37865282     1.56119173
     1.65666075    -0.32533133     1.50368868
     1.05461825    -0.22475102     1.32315534
     0.62744028    -0.09650038     1.03019483
     0.00000000     0.00000000     0.00000000
     4.83487187    -0.21362282     1.03211348
     4.19808523    -0.27634109     1.38388737
     3.55921150    -0.30655476     1.58237932
     2.92428229    -0.31424764     1.68920435
     2.29298238    -0.29938545     1.71253353
     1.67884429    -0.25835267     1.64416709
     1.08010740    -0.17733796     1.43322115
     0.67299062    -0.08608806     1.11138175
     0.00000000     0.00000000     0.00000000
     4.83169573    -0.15881796     1.10211034
     4.19535256    -0.20234302     1.47587173
     3.55945973    -0.22158096     1.68849241
     2.92577701    -0.22741627     1.80008629
     2.30039891    -0.21499124     1.82334948
     1.68637599    -0.18674658     1.74233410
     1.10160879    -0.12866260     1.51033464
     0.70105937    -0.06815701     1.16181652
     0.00000000     0.00000000     0.00000000
     4.82728092    -0.10228253     1.14432105
     4.19087009    -0.12302595     1.53352115
     3.55468270    -0.13413127     1.75260688
     2.92366405    -0.13485213     1.87010494
     2.29705841    -0.12959901     1.88831752
     1.68807242    -0.11094609     1.80454347
     1.09132153    -0.07851833     1.54685729
     0.72106257    -0.04765725     1.17263164
     0.00000000     0.00000000     0.00000000
     4.82178123    -0.04256908     1.15925536
     4.18326671    -0.04379014     1.55326114
     3.54668437    -0.04200133     1.77600438
     2.91397020    -0.04303266     1.89402472
     2.28798699    -0.03925414     1.91282958
     1.67500611    -0.03863465     1.82124456
     1.08353227    -0.02397321     1.56571469
     0.68069694    -0.02302845     1.10487141
     0.00000000     0.00000000     0.00000000
     4.81518656     0.01530559     1.14582190
     4.17306937     0.03807286     1.53557668
     3.53426093     0.04739315     1.75665762
     2.89864102     0.05260951     1.87317107
     2.27044138     0.04634879     1.89231613
     1.65468143     0.03922294     1.80126094
     1.05351703     0.01891129     1.53688160
     0.66876885     0.01319408     1.15230411
     0.00000000     0.00000000     0.00000000
     4.80761334     0.07358553     1.10378799
     4.16075598     0.11592452     1.48142395
     3.51707868     0.13773574     1.69399706
     2.87921720     0.14320607     1.80900775
     2.24292623     0.13449133     1.82559637
     1.62610122     0.11025783     1.74383711
     1.00910455     0.06573021     1.47281353
     0.63956259     0.02982743     1.13931719
     0.00000000     0.00000000     0.00000000
     4.79965095     0.12766174     1.03556708
     4.14614130     0.19199639     1.38977035
     3.49750574     0.22237484     1.59195211
     2.85210238     0.23225676     1.69854722
     2.21191136     0.21777320     1.71917804
     1.58303000     0.18131807     1.64108349
     0.95978978     0.10731122     1.38803643
     0.57810857     0.04243570     1.06545542
     0.00000000     0.00000000     0.00000000
     4.79170518     0.17848935     0.94077155
     4.13124951     0.26156623     1.26516364
     3.47482595     0.30252145     1.44895239
     2.82248583     0.31431533     1.54755512
     2.17215900     0.29786561     1.56886269
     1.53434380     0.24678774     1.50067613
     0.90148451     0.14798580     1.27805672
     0.51298819     0.04586244     0.96819883
     0.00000000     0.00000000     0.00000000
     4.78482380     0.22337593     0.82322866
     4.11622463     0.32462089     1.10743703
     3.45292913     0.37410424     1.27083921
     2.79039259     0.38915992     1.35704547
     2.13216979     0.37077248     1.37923586
     1.47834711     0.30606102     1.32339912
     0.83664490     0.18313123     1.14330716
     0.43999506     0.04182192     0.83478014
     0.00000000     0.00000000     0.00000000
     0.00000000     0.00000000     0.00000000
     0.00000000     0.00000000     0.00000000
     0.00000000     0.00000000     0.00000000
     0.00000000     0.00000000     0.00000000
     0.00000000     0.00000000     0.00000000
     0.00000000     0.00000000     0.00000000
     0.00000000     0.00000000     0.00000000
     0.00000000     0.00000000     0.00000000
     0.00000000     0.00000000     0.00000000
     0.00000000     0.00000000     0.00000000
     0.00000000     0.00000000     0.00000000
     0.03803404    -0.00681328     0.00000000
     0.05491235     0.00802614     0.00000000
     0.05430382    -0.00006520     0.00000000
     0.04909736     0.00078926     0.00000000
     0.04275998     0.00077744     0.00000000
     0.03592167     0.00005482     0.00000000
     0.02897536    -0.00116738     0.00000000
     0.02204597    -0.00264253     0.00000000
     0.01519168    -0.00410613     0.00000000
     0.00843099    -0.00542440     0.00000000
     0.00000000     0.00000000     0.00000000
     0.11295807    -0.01554013     0.00000000
     0.11464063     0.00775626     0.00000000
     0.10837948     0.01102543     0.00000000
     0.09413764     0.01316523     0.00000000
     0.07836752     0.01280161     0.00000000
     0.06304111     0.01055409     0.00000000
     0.04841104     0.00761110     0.00000000
     0.03449686     0.00439961     0.00000000
     0.02136882     0.00112318     0.00000000
     0.00932030    -0.00120858     0.00000000
     0.00000000     0.00000000     0.00000000
     0.14053752    -0.03024629     0.00000000
     0.12985814    -0.00071988     0.00000000
     0.11446925     0.02120680     0.00000000
     0.09593261     0.02600803     0.00000000
     0.07849366     0.02445831     0.00000000
     0.06216806     0.02137527     0.00000000
     0.04698510     0.01771146     0.00000000
     0.03274581     0.01394432     0.00000000
     0.01939261     0.01028159     0.00000000
     0.00757152     0.00610552     0.00000000
     0.00000000     0.00000000     0.00000000
     0.07229741    -0.01816342     0.00000000
     0.07876896    -0.00932099     0.00000000
     0.05650599     0.01944114     0.00000000
     0.04563242     0.01968689     0.00000000
     0.03702208     0.01884783     0.00000000
     0.02967321     0.01706854     0.00000000
     0.02293101     0.01517879     0.00000000
     0.01649695     0.01328444     0.00000000
     0.01028455     0.01129134     0.00000000
     0.00422490     0.00913192     0.00000000
     0.00000000     0.00000000     0.00000000
     0.00000000     0.00000000     0.00000000
     0.00000000     0.00000000     0.00000000
     0.00000000     0.00000000     0.00000000
     0.00000000     0.00000000     0.00000000
     0.00000000     0.00000000     0.00000000
     0.00000000     0.00000000     0.00000000
     0.00000000     0.00000000     0.00000000
     0.00000000     0.00000000     0.00000000
     0.00000000     0.00000000     0.00000000
     0.00000000     0.00000000     0.00000000
     0.00000000     0.00000000     0.00000000
     0.00000000     0.00000000     0.00000000
     0.00000000     0.00000000     0.00000000
     0.00000000     0.00000000     0.00000000
     0.00000000     0.00000000     0.00000000
     0.00000000     0.00000000     0.00000000
     0.00000000     0.00000000     0.00000000
     0.00000000     0.00000000     0.00000000
     0.00000000     0.00000000     0.00000000
     0.00000000     0.00000000     0.00000000
     0.00000000     0.00000000     0.00000000
     0.00000000     0.00000000     0.00000000
     0.03310484    -0.00719245     0.00212158
     0.05056531     0.00684667    -0.00094018
     0.04964506    -0.00047134     0.00222090
     0.04499294     0.00050223     0.00285442
     0.03936166     0.00056999     0.00292346
     0.03323057    -0.00002106     0.00287379
     0.02694949    -0.00110853     0.00278418
     0.02063726    -0.00244957     0.00267836
     0.01435150    -0.00380142     0.00249924
     0.00807767    -0.00509272     0.00204061
     0.00000000     0.00000000     0.00000000
     0.10313037    -0.01573811    -0.00777478
     0.10718854     0.00648980    -0.00303399
     0.10090444     0.00984182     0.00385361
     0.08752649     0.01201021     0.00655740
     0.07294638     0.01178528     0.00712804
     0.05886606     0.00978320     0.00684679
     0.04541849     0.00711148     0.00635624
     0.03257211     0.00415140     0.00579021
     0.02035894     0.00108811     0.00493368
     0.00898875    -0.00113352     0.00326952
     0.00000000     0.00000000     0.00000000
     0.13018891    -0.02921970    -0.01151208
     0.12228947    -0.00130324    -0.00315850
     0.10707554     0.01972577     0.00382319
     0.08943084     0.02428412     0.00710746
     0.07317567     0.02287834     0.00767697
     0.05810929     0.02005436     0.00725152
     0.04411888     0.01669100     0.00662490
     0.03094918     0.01321123     0.00596629
     0.01850172     0.00980897     0.00505566
     0.00732382     0.00587269     0.00335102
     0.00000000     0.00000000     0.00000000
     0.06481854    -0.01590083    -0.00292586
     0.07297829    -0.00913011    -0.00086943
     0.05147177     0.01790717     0.00401225
     0.04155939     0.01805523     0.00400437
     0.03384500     0.01741629     0.00347044
     0.02729286     0.01584274     0.00299250
     0.02124255     0.01415693     0.00267529
     0.01541309     0.01244403     0.00247312
     0.00973373     0.01062776     0.00227613
     0.00409179     0.00867736     0.00186998
     0.00000000     0.00000000     0.00000000
     0.00000000     0.00000000     0.00000000
     0.00000000     0.00000000     0.00000000
     0.00000000     0.00000000     0.00000000
     0.00000000     0.00000000     0.00000000
     0.00000000     0.00000000     0.00000000
     0.00000000     0.00000000     0.00000000
     0.00000000     0.00000000     0.00000000
     0.00000000     0.00000000     0.00000000
     0.00000000     0.00000000     0.00000000
     0.00000000     0.00000000     0.00000000
     0.00000000     0.00000000     0.00000000
     0.00000000     0.00000000     0.00000000
     0.00000000     0.00000000     0.00000000
     0.00000000     0.00000000     0.00000000
     0.00000000     0.00000000     0.00000000
     0.00000000     0.00000000     0.00000000
     0.00000000     0.00000000     0.00000000
     0.00000000     0.00000000     0.00000000
     0.00000000     0.00000000     0.00000000
     0.00000000     0.00000000     0.00000000
     0.00000000     0.00000000     0.00000000
     0.00000000     0.00000000     0.00000000
     0.02186103    -0.00910595     0.00622648
     0.03985962     0.00376377    -0.00039852
     0.03836032    -0.00144200     0.00372765
     0.03512710    -0.00025067     0.00449386
     0.03124410     0.00011951     0.00457269
     0.02679203    -0.00014275     0.00453924
     0.02209564    -0.00089661     0.00442404
     0.01728387    -0.00192986     0.00429856
     0.01235526    -0.00297919     0.00406626
     0.00726772    -0.00419285     0.00341652
     0.00000000     0.00000000     0.00000000
     0.07817242    -0.01601919    -0.00979377
     0.08736235     0.00295065    -0.00474015
     0.08072565     0.00672407     0.00677132
     0.06961025     0.00890851     0.01089534
     0.05826831     0.00910332     0.01158327
     0.04754113     0.00780100     0.01105956
     0.03727296     0.00583615     0.01028434
     0.02731963     0.00354600     0.00945304
     0.01758256     0.00106312     0.00818989
     0.00808909    -0.00084587     0.00557818
     0.00000000     0.00000000     0.00000000
     0.10285447    -0.02560966    -0.01766311
     0.10155745    -0.00230725    -0.00505310
     0.08680221     0.01577895     0.00701343
     0.07160349     0.01956701     0.01210253
     0.05868925     0.01849783     0.01263518
     0.04708922     0.01638503     0.01179640
     0.03634258     0.01381804     0.01076651
     0.02608064     0.01112425     0.00977297
     0.01609392     0.00842482     0.00841779
     0.00669943     0.00515243     0.00573661
     0.00000000     0.00000000     0.00000000
     0.04615840    -0.01018664    -0.00217561
     0.05831729    -0.00823950    -0.00084960
     0.03917653     0.01401017     0.00669254
     0.03170197     0.01416950     0.00636387
     0.02627306     0.01397118     0.00541295
     0.02168169     0.01289148     0.00466526
     0.01728316     0.01167594     0.00420386
     0.01290414     0.01041357     0.00393438
     0.00849661     0.00898152     0.00368081
     0.00386221     0.00752549     0.00311889
     0.00000000     0.00000000     0.00000000
     0.00000000     0.00000000     0.00000000
     0.00000000     0.00000000     0.00000000
     0.00000000     0.00000000     0.00000000
     0.00000000     0.00000000     0.00000000
     0.00000000     0.00000000     0.00000000
     0.00000000     0.00000000     0.00000000
     0.00000000     0.00000000     0.00000000
     0.00000000     0.00000000     0.00000000
     0.00000000     0.00000000     0.00000000
     0.00000000     0.00000000     0.00000000
     0.00000000     0.00000000     0.00000000
     0.00000000     0.00000000     0.00000000
     0.00000000     0.00000000     0.00000000
     0.00000000     0.00000000     0.00000000
     0.00000000     0.00000000     0.00000000
     0.00000000     0.00000000     0.00000000
     0.00000000     0.00000000     0.00000000
     0.00000000     0.00000000     0.00000000
     0.00000000     0.00000000     0.00000000
     0.00000000     0.00000000     0.00000000
     0.00000000     0.00000000     0.00000000
     0.00000000     0.00000000     0.00000000
     0.00689285    -0.01223326     0.01459769
     0.02536492    -0.00083252     0.00162857
     0.02358607    -0.00240274     0.00392032
     0.02252713    -0.00089334     0.00429593
     0.02065403    -0.00022143     0.00445631
     0.01820274    -0.00018669     0.00446302
     0.01545377    -0.00059078     0.00439214
     0.01253967    -0.00122556     0.00429873
     0.00952991    -0.00196217     0.00417647
     0.00602418    -0.00290719     0.00374405
     0.00000000     0.00000000     0.00000000
     0.04454427    -0.01647735    -0.00189226
     0.05865115    -0.00238524    -0.00393651
     0.05131903     0.00225075     0.00786413
     0.04405399     0.00453894     0.01114495
     0.03752081     0.00550258     0.01150684
     0.03153331     0.00503751     0.01091904
     0.02565296     0.00399346     0.01021004
     0.01970803     0.00261404     0.00951999
     0.01355062     0.00092521     0.00854707
     0.00669338    -0.00046071     0.00621736
     0.00000000     0.00000000     0.00000000
     0.06435821    -0.01897688    -0.01353493
     0.07068992    -0.00339946    -0.00452648
     0.05649340     0.00987399     0.00887264
     0.04557065     0.01258347     0.01287835
     0.03792221     0.01221291     0.01276239
     0.03137224     0.01111717     0.01175522
     0.02516493     0.00967100     0.01075794
     0.01896955     0.00807437     0.00989356
     0.01254140     0.00644568     0.00882825
     0.00570280     0.00405682     0.00642892
     0.00000000     0.00000000     0.00000000
     0.02313815    -0.00390295     0.00331839
     0.03873748    -0.00596099     0.00000594
     0.02320476     0.00910052     0.00731400
     0.01907363     0.00923985     0.00618846
     0.01663457     0.00942992     0.00513473
     0.01437219     0.00893164     0.00447169
     0.01196701     0.00828041     0.00408613
     0.00939277     0.00754878     0.00387895
     0.00669920     0.00675517     0.00374505
     0.00347006     0.00582197     0.00340193
     0.00000000     0.00000000     0.00000000
     0.00000000     0.00000000     0.00000000
     0.00000000     0.00000000     0.00000000
     0.00000000     0.00000000     0.00000000
     0.00000000     0.00000000     0.00000000
     0.00000000     0.00000000     0.00000000
     0.00000000     0.00000000     0.00000000
     0.00000000     0.00000000     0.00000000
     0.00000000     0.00000000     0.00000000
     0.00000000     0.00000000     0.00000000
     0.00000000     0.00000000     0.00000000
     0.00000000     0.00000000     0.00000000
     0.00000000     0.00000000     0.00000000
     0.00000000     0.00000000     0.00000000
     0.00000000     0.00000000     0.00000000
     0.00000000     0.00000000     0.00000000
     0.00000000     0.00000000     0.00000000
     0.00000000     0.00000000     0.00000000
     0.00000000     0.00000000     0.00000000
     0.00000000     0.00000000     0.00000000
     0.00000000     0.00000000     0.00000000
     0.00000000     0.00000000     0.00000000
     0.00000000     0.00000000     0.00000000
    -0.01403542    -0.02236853     0.03178520
     0.00663755    -0.00283342     0.00343479
     0.00863746    -0.00156125     0.00202459
     0.00942181    -0.00049920     0.00272301
     0.00933382    -0.00008917     0.00273660
     0.00871114    -0.00006224     0.00277971
     0.00781700    -0.00021852     0.00273707
     0.00678239    -0.00048265     0.00271143
     0.00567334    -0.00066559     0.00261330
     0.00467262    -0.00146173     0.00275135
     0.00000000     0.00000000     0.00000000
     0.00130540    -0.01359001     0.02236715
     0.02251578    -0.00697872    -0.00079696
     0.01791673    -0.00123040     0.00525977
     0.01639477     0.00114943     0.00656651
     0.01532664     0.00209128     0.00667694
     0.01413831     0.00216726     0.00637942
     0.01255642     0.00190790     0.00606841
     0.01063888     0.00146368     0.00580644
     0.00839405     0.00076418     0.00537301
     0.00528525    -0.00003098     0.00476295
     0.00000000     0.00000000     0.00000000
     0.00865725    -0.00551188     0.01373993
     0.02928565    -0.00598231    -0.00090885
     0.01941008     0.00222754     0.00677962
     0.01617369     0.00461659     0.00772593
     0.01512652     0.00510228     0.00742943
     0.01392269     0.00515282     0.00688321
     0.01231423     0.00484868     0.00641378
     0.01032623     0.00434535     0.00606066
     0.00792434     0.00380822     0.00557730
     0.00471655     0.00284566     0.00494949
     0.00000000     0.00000000     0.00000000
    -0.00718534     0.00690126     0.01794155
     0.01553842    -0.00554053     0.00172519
     0.00579227     0.00304538     0.00495090
     0.00655858     0.00334866     0.00345365
     0.00675508     0.00423124     0.00296608
     0.00655320     0.00434445     0.00261761
     0.00594640     0.00426148     0.00245060
     0.00510749     0.00405906     0.00238318
     0.00420399     0.00368562     0.00229522
     0.00307095     0.00387830     0.00246769
     0.00000000     0.00000000     0.00000000
     0.00000000     0.00000000     0.00000000
     0.00000000     0.00000000     0.00000000
     0.00000000     0.00000000     0.00000000
     0.00000000     0.00000000     0.00000000
     0.00000000     0.00000000     0.00000000
     0.00000000     0.00000000     0.00000000
     0.00000000     0.00000000     0.00000000
     0.00000000     0.00000000     0.00000000
     0.00000000     0.00000000     0.00000000
     0.00000000     0.00000000     0.00000000
     0.00000000     0.00000000     0.00000000
     0.00000000     0.00000000     0.00000000
     0.00000000     0.00000000     0.00000000
     0.00000000     0.00000000     0.00000000
     0.00000000     0.00000000     0.00000000
     0.00000000     0.00000000     0.00000000
     0.00000000     0.00000000     0.00000000
     0.00000000     0.00000000     0.00000000
     0.00000000     0.00000000     0.00000000
     0.00000000     0.00000000     0.00000000
     0.00000000     0.00000000     0.00000000
     0.00000000     0.00000000     0.00000000
     0.00000000     0.00000000     0.00000000
     0.00000000     0.00000000     0.00000000
     0.00000000     0.00000000     0.00000000
     0.00000000     0.00000000     0.00000000
     0.00000000     0.00000000     0.00000000
     0.00000000     0.00000000     0.00000000
     0.00000000     0.00000000     0.00000000
     0.00000000     0.00000000     0.00000000
     0.00000000     0.00000000     0.00000000
     0.00000000     0.00000000     0.00000000
     0.00000000     0.00000000     0.00000000
     0.00000000     0.00000000     0.00000000
     0.00000000     0.00000000     0.00000000
     0.00000000     0.00000000     0.00000000
     0.00000000     0.00000000     0.00000000
     0.00000000     0.00000000     0.00000000
     0.00000000     0.00000000     0.00000000
     0.00000000     0.00000000     0.00000000
     0.00000000     0.00000000     0.00000000
     0.00000000     0.00000000     0.00000000
     0.00000000     0.00000000     0.00000000
     0.00000000     0.00000000     0.00000000
     0.00000000     0.00000000     0.00000000
     0.00000000     0.00000000     0.00000000
     0.00000000     0.00000000     0.00000000
     0.00000000     0.00000000     0.00000000
     0.00000000     0.00000000     0.00000000
     0.00000000     0.00000000     0.00000000
     0.00000000     0.00000000     0.00000000
     0.00000000     0.00000000     0.00000000
     0.00000000     0.00000000     0.00000000
     0.00000000     0.00000000     0.00000000
     0.00000000     0.00000000     0.00000000
     0.00000000     0.00000000     0.00000000
     0.00000000     0.00000000     0.00000000
     0.00000000     0.00000000     0.00000000
     0.00000000     0.00000000     0.00000000
     0.00000000     0.00000000     0.00000000
     0.00000000     0.00000000     0.00000000
     0.00000000     0.00000000     0.00000000
     0.00000000     0.00000000     0.00000000
     0.00000000     0.00000000     0.00000000
     0.00000000     0.00000000     0.00000000
     0.00000000     0.00000000     0.00000000
     0.00000000     0.00000000     0.00000000
     0.00000000     0.00000000     0.00000000
     0.00000000     0.00000000     0.00000000
     0.00000000     0.00000000     0.00000000
     0.00000000     0.00000000     0.00000000
     0.00000000     0.00000000     0.00000000
     0.00000000     0.00000000     0.00000000
     0.00000000     0.00000000     0.00000000
     0.00000000     0.00000000     0.00000000
     0.00000000     0.00000000     0.00000000
     0.00000000     0.00000000     0.00000000
     0.00000000     0.00000000     0.00000000
     0.00000000     0.00000000     0.00000000
     0.00000000     0.00000000     0.00000000
     0.00000000     0.00000000     0.00000000
     0.00000000     0.00000000     0.00000000
     0.00000000     0.00000000     0.00000000
     0.00000000     0.00000000     0.00000000
     0.00000000     0.00000000     0.00000000
     0.06697468    -0.01384079     0.00000000
     0.05965290    -0.01212046     0.00000000
     0.04545639    -0.00976602     0.00000000
     0.03328658    -0.00666875     0.00000000
     0.02391751    -0.00421438     0.00000000
     0.01656636    -0.00221961     0.00000000
     0.01044179    -0.00057802     0.00000000
     0.00516976     0.00105979     0.00000000
     0.00000000     0.00000000     0.00000000
     0.08235656    -0.00902991     0.00000000
     0.07486554    -0.01909768     0.00000000
     0.05902808    -0.01731160     0.00000000
     0.04423529    -0.01312017     0.00000000
     0.03197272    -0.00922310     0.00000000
     0.02183255    -0.00597398     0.00000000
     0.01310843    -0.00320876     0.00000000
     0.00547592    -0.00089931     0.00000000
     0.00000000     0.00000000     0.00000000
     0.07450407    -0.00431285     0.00000000
     0.06298280    -0.01989204     0.00000000
     0.04925557    -0.01883627     0.00000000
     0.03714530    -0.01503086     0.00000000
     0.02723570    -0.01133868     0.00000000
     0.01881792    -0.00822968     0.00000000
     0.01127590    -0.00563878     0.00000000
     0.00449738    -0.00321289     0.00000000
     0.00000000     0.00000000     0.00000000
     0.03974562    -0.00615420     0.00000000
     0.02934395    -0.01169394     0.00000000
     0.02285403    -0.01140666     0.00000000
     0.01828199    -0.00964046     0.00000000
     0.01439653    -0.00791999     0.00000000
     0.01066696    -0.00639974     0.00000000
     0.00694093    -0.00500537     0.00000000
     0.00313885    -0.00384997     0.00000000
     0.00000000     0.00000000     0.00000000
     0.00000000     0.00000000     0.00000000
     0.00000000     0.00000000     0.00000000
     0.00000000     0.00000000     0.00000000
     0.00000000     0.00000000     0.00000000
     0.00000000     0.00000000     0.00000000
     0.00000000     0.00000000     0.00000000
     0.00000000     0.00000000     0.00000000
     0.00000000     0.00000000     0.00000000
     0.00000000     0.00000000     0.00000000
     0.00000000     0.00000000     0.00000000
     0.00000000     0.00000000     0.00000000
     0.00000000     0.00000000     0.00000000
     0.00000000     0.00000000     0.00000000
     0.00000000     0.00000000     0.00000000
     0.00000000     0.00000000     0.00000000
     0.00000000     0.00000000     0.00000000
     0.00000000     0.00000000     0.00000000
     0.00000000     0.00000000     0.00000000
     0.05754604    -0.01219884    -0.00153205
     0.05010463    -0.01023998     0.00486218
     0.03903925    -0.00879289     0.00480530
     0.02939285    -0.00613540     0.00340094
     0.02161674    -0.00398649     0.00231713
     0.01523243    -0.00214589     0.00166907
     0.00974804    -0.00062039     0.00130499
     0.00491512     0.00093843     0.00101430
     0.00000000     0.00000000     0.00000000
     0.07218038    -0.00792461    -0.00458091
     0.06432062    -0.01675305     0.00407197
     0.05131864    -0.01535262     0.00560589
     0.03922260    -0.01185747     0.00454204
     0.02894202    -0.00849420     0.00335311
     0.02012344    -0.00559628     0.00252870
     0.01228638    -0.00306265     0.00197830
     0.00522461    -0.00089636     0.00131583
     0.00000000     0.00000000     0.00000000
     0.06522857    -0.00415721    -0.00650406
     0.05373813    -0.01740772     0.00371861
     0.04271134    -0.01652165     0.00499349
     0.03293746    -0.01342725     0.00388030
     0.02469348    -0.01032579     0.00283577
     0.01737792    -0.00762614     0.00217084
     0.01059053    -0.00530782     0.00174282
     0.00430723    -0.00306294     0.00118077
     0.00000000     0.00000000     0.00000000
     0.03389671    -0.00655623    -0.00110655
     0.02445751    -0.00985271     0.00241328
     0.01972239    -0.00988297     0.00217093
     0.01631205    -0.00855418     0.00152781
     0.01314726    -0.00716992     0.00115712
     0.00988330    -0.00588745     0.00096939
     0.00652952    -0.00465713     0.00087576
     0.00302356    -0.00362506     0.00077585
     0.00000000     0.00000000     0.00000000
     0.00000000     0.00000000     0.00000000
     0.00000000     0.00000000     0.00000000
     0.00000000     0.00000000     0.00000000
     0.00000000     0.00000000     0.00000000
     0.00000000     0.00000000     0.00000000
     0.00000000     0.00000000     0.00000000
     0.00000000     0.00000000     0.00000000
     0.00000000     0.00000000     0.00000000
     0.00000000     0.00000000     0.00000000
     0.00000000     0.00000000     0.00000000
     0.00000000     0.00000000     0.00000000
     0.00000000     0.00000000     0.00000000
     0.00000000     0.00000000     0.00000000
     0.00000000     0.00000000     0.00000000
     0.00000000     0.00000000     0.00000000
     0.00000000     0.00000000     0.00000000
     0.00000000     0.00000000     0.00000000
     0.00000000     0.00000000     0.00000000
     0.03697243    -0.00834610     0.00197481
     0.02972605    -0.00637693     0.00669211
     0.02535247    -0.00658207     0.00660428
     0.02103064    -0.00504835     0.00482744
     0.01652569    -0.00347333     0.00344441
     0.01223517    -0.00200363     0.00256527
     0.00817075    -0.00074568     0.00207489
     0.00435008     0.00060629     0.00167566
     0.00000000     0.00000000     0.00000000
     0.04874230    -0.00587998    -0.00335115
     0.04019664    -0.01131435     0.00584411
     0.03346727    -0.01072820     0.00807592
     0.02749747    -0.00890297     0.00655454
     0.02167370    -0.00675282     0.00498962
     0.01592987    -0.00467509     0.00389309
     0.01021998    -0.00270819     0.00316881
     0.00459104    -0.00091542     0.00219756
     0.00000000     0.00000000     0.00000000
     0.04449757    -0.00460106    -0.00755218
     0.03319797    -0.01199282     0.00552826
     0.02790169    -0.01120643     0.00710042
     0.02333038    -0.00970376     0.00556481
     0.01872620    -0.00791470     0.00420317
     0.01392096    -0.00614511     0.00334158
     0.00891491    -0.00446309     0.00279605
     0.00385969    -0.00265833     0.00197813
     0.00000000     0.00000000     0.00000000
     0.02110303    -0.00764142     0.00039069
     0.01457016    -0.00616802     0.00316705
     0.01332492    -0.00686540     0.00279763
     0.01226928    -0.00624927     0.00209600
     0.01041610    -0.00556015     0.00171227
     0.00814446    -0.00473847     0.00149184
     0.00560666    -0.00385416     0.00139613
     0.00279463    -0.00308196     0.00128743
     0.00000000     0.00000000     0.00000000
     0.00000000     0.00000000     0.00000000
     0.00000000     0.00000000     0.00000000
     0.00000000     0.00000000     0.00000000
     0.00000000     0.00000000     0.00000000
     0.00000000     0.00000000     0.00000000
     0.00000000     0.00000000     0.00000000
     0.00000000     0.00000000     0.00000000
     0.00000000     0.00000000     0.00000000
     0.00000000     0.00000000     0.00000000
     0.00000000     0.00000000     0.00000000
     0.00000000     0.00000000     0.00000000
     0.00000000     0.00000000     0.00000000
     0.00000000     0.00000000     0.00000000
     0.00000000     0.00000000     0.00000000
     0.00000000     0.00000000     0.00000000
     0.00000000     0.00000000     0.00000000
     0.00000000     0.00000000     0.00000000
     0.00000000     0.00000000     0.00000000
     0.01728085    -0.00400866     0.00908850
     0.01197916    -0.00364725     0.00484303
     0.01341049    -0.00447074     0.00500787
     0.01262918    -0.00366513     0.00406938
     0.01085104    -0.00270523     0.00308807
     0.00854224    -0.00168464     0.00243341
     0.00611167    -0.00078451     0.00206714
     0.00355564     0.00021040     0.00180085
     0.00000000     0.00000000     0.00000000
     0.02393785    -0.00455674     0.00353842
     0.01636653    -0.00589679     0.00453511
     0.01618998    -0.00613557     0.00654740
     0.01548639    -0.00573832     0.00548339
     0.01369294    -0.00469054     0.00440609
     0.01095331    -0.00348135     0.00364832
     0.00764358    -0.00217734     0.00316899
     0.00374668    -0.00089633     0.00239575
     0.00000000     0.00000000     0.00000000
     0.02252558    -0.00626503    -0.00263591
     0.01295629    -0.00628873     0.00479493
     0.01371938    -0.00577623     0.00555530
     0.01345385    -0.00589521     0.00462572
     0.01209578    -0.00524657     0.00369335
     0.00975495    -0.00436127     0.00313729
     0.00678495    -0.00338903     0.00280809
     0.00324425    -0.00210169     0.00217355
     0.00000000     0.00000000     0.00000000
     0.00889326    -0.00847905     0.00341719
     0.00687476    -0.00306997     0.00205073
     0.00821603    -0.00398883     0.00184999
     0.00802025    -0.00401236     0.00171567
     0.00718654    -0.00374356     0.00152959
     0.00586158    -0.00332497     0.00141892
     0.00432052    -0.00283284     0.00139401
     0.00243476    -0.00233649     0.00139456
     0.00000000     0.00000000     0.00000000
     0.00000000     0.00000000     0.00000000
     0.00000000     0.00000000     0.00000000
     0.00000000     0.00000000     0.00000000
     0.00000000     0.00000000     0.00000000
     0.00000000     0.00000000     0.00000000
     0.00000000     0.00000000     0.00000000
     0.00000000     0.00000000     0.00000000
     0.00000000     0.00000000     0.00000000
     0.00000000     0.00000000     0.00000000
     0.00000000     0.00000000     0.00000000
     0.00000000     0.00000000     0.00000000
     0.00000000     0.00000000     0.00000000
     0.00000000     0.00000000     0.00000000
     0.00000000     0.00000000     0.00000000
     0.00000000     0.00000000     0.00000000
     0.00000000     0.00000000     0.00000000
     0.00000000     0.00000000     0.00000000
     0.00000000     0.00000000     0.00000000
     0.00518034    -0.00362034     0.01302199
     0.00794200    -0.00319917     0.00094451
     0.00686937    -0.00201260     0.00253821
     0.00630765    -0.00206624     0.00207316
     0.00560022    -0.00149695     0.00174899
     0.00457727    -0.00102566     0.00146529
     0.00348496    -0.00063601     0.00128078
     0.00262688    -0.00010792     0.00128157
     0.00000000     0.00000000     0.00000000
     0.00637294    -0.00865773     0.00927760
     0.00676151    -0.00231739     0.00110266
     0.00666584    -0.00325643     0.00339589
     0.00719298    -0.00295179     0.00270062
     0.00686654    -0.00257118     0.00241984
     0.00589011    -0.00201477     0.00214054
     0.00456950    -0.00141402     0.00195274
     0.00285375    -0.00077418     0.00178571
     0.00000000     0.00000000     0.00000000
     0.00584141    -0.01070565     0.00382014
     0.00538011    -0.00184111     0.00173368
     0.00594798    -0.00300666     0.00268716
     0.00648170    -0.00306409     0.00226946
     0.00625447    -0.00285258     0.00202018
     0.00538454    -0.00244397     0.00185249
     0.00417704    -0.00200320     0.00173765
     0.00259486    -0.00142841     0.00164467
     0.00000000     0.00000000     0.00000000
     0.00158826    -0.00888427     0.00431586
     0.00725975    -0.00149805     0.00030161
     0.00481308    -0.00284863     0.00086258
     0.00435351    -0.00218215     0.00085036
     0.00381707    -0.00206399     0.00086854
     0.00320342    -0.00181055     0.00085870
     0.00255255    -0.00152024     0.00085748
     0.00197342    -0.00148354     0.00100283
     0.00000000     0.00000000     0.00000000
     0.00000000     0.00000000     0.00000000
     0.00000000     0.00000000     0.00000000
     0.00000000     0.00000000     0.00000000
     0.00000000     0.00000000     0.00000000
     0.00000000     0.00000000     0.00000000
     0.00000000     0.00000000     0.00000000
     0.00000000     0.00000000     0.00000000
     0.00000000     0.00000000     0.00000000
     0.00000000     0.00000000     0.00000000
     0.00000000     0.00000000     0.00000000
     0.00000000     0.00000000     0.00000000
     0.00000000     0.00000000     0.00000000
     0.00000000     0.00000000     0.00000000
     0.00000000     0.00000000     0.00000000
     0.00000000     0.00000000     0.00000000
     0.00000000     0.00000000     0.00000000
     0.00000000     0.00000000     0.00000000
     0.00000000     0.00000000     0.00000000
     0.00000000     0.00000000     0.00000000
     0.00000000     0.00000000     0.00000000
     0.00000000     0.00000000     0.00000000
     0.00000000     0.00000000     0.00000000
     0.00000000     0.00000000     0.00000000
     0.00000000     0.00000000     0.00000000
     0.00000000     0.00000000     0.00000000
     0.00000000     0.00000000     0.00000000
     0.00000000     0.00000000     0.00000000
     0.00000000     0.00000000     0.00000000
     0.00000000     0.00000000     0.00000000
     0.00000000     0.00000000     0.00000000
     0.00000000     0.00000000     0.00000000
     0.00000000     0.00000000     0.00000000
     0.00000000     0.00000000     0.00000000
     0.00000000     0.00000000     0.00000000
     0.00000000     0.00000000     0.00000000
     0.00000000     0.00000000     0.00000000
     0.00000000     0.00000000     0.00000000
     0.00000000     0.00000000     0.00000000
     0.00000000     0.00000000     0.00000000
     0.00000000     0.00000000     0.00000000
     0.00000000     0.00000000     0.00000000
     0.00000000     0.00000000     0.00000000
     0.00000000     0.00000000     0.00000000
     0.00000000     0.00000000     0.00000000
     0.00000000     0.00000000     0.00000000
     0.00000000     0.00000000     0.00000000
     0.00000000     0.00000000     0.00000000
     0.00000000     0.00000000     0.00000000
     0.00000000     0.00000000     0.00000000
     0.00000000     0.00000000     0.00000000
     0.00000000     0.00000000     0.00000000
     0.00000000     0.00000000     0.00000000
     0.00000000     0.00000000     0.00000000
     0.00000000     0.00000000     0.00000000
     0.00000000     0.00000000     0.00000000
     0.00000000     0.00000000     0.00000000
     0.00000000     0.00000000     0.00000000
     0.00000000     0.00000000     0.00000000
     0.00000000     0.00000000     0.00000000
     0.00000000     0.00000000     0.00000000
     0.00000000     0.00000000     0.00000000
     0.00000000     0.00000000     0.00000000
     0.00000000     0.00000000     0.00000000
     5.36201067    -0.40051078     0.00000000
     4.87610982    -0.58462932     0.00000000
     4.21178834    -0.71825125     0.00000000
     3.54220890    -0.79179712     0.00000000
     2.87018578    -0.82183907     0.00000000
     2.19845975    -0.80911857     0.00000000
     1.52324963    -0.74238053     0.00000000
     0.85449749    -0.57582915     0.00000000
     0.38856765    -0.43786297     0.00000000
     0.00000000     0.00000000     0.00000000
     5.36156702    -0.39643692     0.17516319
     4.87616418    -0.57808347     0.26542985
     4.21240486    -0.70958973     0.32667647
     3.54349821    -0.78194695     0.36304758
     2.87227479    -0.81122086     0.38444325
     2.20135954    -0.79851108     0.39284583
     1.52771265    -0.73271023     0.39075396
     0.86061640    -0.56905060     0.37890612
     0.39451956    -0.43113132     0.35543724
     0.00000000     0.00000000     0.26471014
     5.36059650    -0.38382894     0.34649118
     4.87631158    -0.55841427     0.52491147
     4.21413980    -0.68402008     0.64478302
     3.54722633    -0.75291727     0.71679774
     2.87843310    -0.78004371     0.75798206
     2.21037547    -0.76698295     0.77397281
     1.54098149    -0.70356975     0.76856784
     0.88152450    -0.54865231     0.74112915
     0.41790924    -0.41290112     0.68684133
     0.00000000     0.00000000     0.50109348
     5.35939348    -0.36274518     0.50884993
     4.87643898    -0.52595407     0.77081375
     4.21665858    -0.64252462     0.94586833
     3.55300536    -0.70601222     1.05035507
     2.88829748    -0.72992334     1.10946006
     2.22550181    -0.71573916     1.13153393
     1.56472625    -0.65559949     1.11968644
     0.91681968    -0.51540816     1.07008352
     0.45277995    -0.38355220     0.97195405
     0.00000000     0.00000000     0.69427702
     5.35780583    -0.33376852     0.65852282
     4.87639796    -0.48149742     0.99726266
     4.21950110    -0.58625535     1.22209111
     3.56033603    -0.64271270     1.35530355
     2.90093416    -0.66237853     1.42986358
     2.24553132    -0.64756537     1.45460587
     1.59389806    -0.59142310     1.43528243
     0.95366686    -0.46871453     1.35615637
     0.48732111    -0.34303031     1.20214188
     0.00000000     0.00000000     0.82860936
     5.35595928    -0.29736028     0.79204171
     4.87543385    -0.42654274     1.19853737
     4.22263071    -0.51655759     1.46687008
     3.56781144    -0.56501699     1.62514662
     2.91524065    -0.58017265     1.71149103
     2.26567098    -0.56540897     1.73850554
     1.62296885    -0.51450353     1.70712873
     0.98756935    -0.40959067     1.59609956
     0.51700340    -0.29826582     1.37458020
     0.00000000     0.00000000     0.90765273
     5.35296608    -0.25525415     0.90578131
     4.87489008    -0.36160271     1.37030842
     4.22459595    -0.43605201     1.67458680
     3.57505492    -0.47501086     1.85339909
     2.92744700    -0.48658440     1.94910609
     2.28544968    -0.47278322     1.97820586
     1.65066448    -0.42702227     1.92860761
     1.02329977    -0.34335271     1.78746214
     0.54196119    -0.24296443     1.50120921
     0.00000000     0.00000000     0.95243731
     5.34997686    -0.20654352     0.99798326
     4.87292900    -0.28977546     1.50804739
     4.22589484    -0.34549689     1.84153750
     3.57887373    -0.37604112     2.03624835
     2.93763227    -0.38317290     2.13804981
     2.29929778    -0.37214051     2.16903045
     1.67583617    -0.33334394     2.09843277
     1.04945771    -0.26951826     1.93468952
     0.55696319    -0.19002512     1.58614401
     0.00000000     0.00000000     0.92682541
     5.34625247    -0.15534886     1.06504933
     4.87011184    -0.21022957     1.60967320
     4.22387158    -0.24943043     1.96408870
     3.58022620    -0.26843569     2.17015044
     2.94081386    -0.27411284     2.27746719
     2.30856321    -0.26421307     2.30662226
     1.68694062    -0.23688371     2.22231979
     1.06242545    -0.19167421     2.03813573
     0.55015076    -0.14058048     1.64213600
     0.00000000     0.00000000     0.86001119
     5.34220722    -0.09889867     1.10657087
     4.86480773    -0.12880090     1.67197246
     4.21950335    -0.14659111     2.03972023
     3.57554870    -0.15785079     2.25303966
     2.93916135    -0.15824496     2.36328901
     2.30620777    -0.15458701     2.39185545
     1.68952654    -0.13593078     2.29742640
     1.04738817    -0.11213032     2.10858700
     0.52176712    -0.09482954     1.66108623
     0.00000000     0.00000000     0.78347509
     5.33709206    -0.04377326     1.12082902
     4.85775596    -0.04231933     1.69406486
     4.21103517    -0.04374331     2.06692467
     3.56647972    -0.04182125     2.28281697
     2.92866848    -0.04278020     2.39486608
     2.29643212    -0.03900553     2.42189633
     1.67592224    -0.03824553     2.32568333
     1.04300044    -0.02652631     2.13029150
     0.46242782    -0.04958160     1.65060192
     0.00000000     0.00000000     0.66529497
     5.33135557     0.01453837     1.10754762
     4.84841667     0.04124869     1.67531788
     4.19930195     0.06229784     2.04476435
     3.55208892     0.07161515     2.25937605
     2.91118726     0.07672370     2.37057851
     2.27645354     0.07207779     2.39894485
     1.65355186     0.06599377     2.30194914
     1.01621848     0.04646313     2.10862303
     0.50832872     0.01641557     1.66597539
     0.00000000     0.00000000     0.91431418
     5.32525659     0.06842105     1.06750912
     4.83691398     0.12608602     1.61547657
     4.18475009     0.16368020     1.97379194
     3.53295894     0.18601824     2.18247376
     2.88800720     0.19088354     2.29052340
     2.24507951     0.18630296     2.32262414
     1.61887832     0.16220721     2.22768251
     0.97703551     0.12955168     2.04383092
     0.51991344     0.06466106     1.63963603
     0.00000000     0.00000000     0.99125470
     5.31861821     0.12213705     1.00047750
     4.82455880     0.20449127     1.51679919
     4.16673000     0.26325643     1.85465220
     3.51144154     0.29376400     2.05291556
     2.85860673     0.30369804     2.15668432
     2.20972539     0.29464581     2.18970343
     1.57036284     0.25973430     2.10895172
     0.92577329     0.20835356     1.93659122
     0.49890170     0.11251830     1.59576272
     0.00000000     0.00000000     1.05029254
     5.31279042     0.16960558     0.90965809
     4.81120672     0.27918138     1.37961597
     4.14772359     0.35461045     1.69034305
     3.48588603     0.39637251     1.87262332
     2.82790085     0.40875455     1.97085126
     2.17029620     0.39858619     2.00196273
     1.52293052     0.35412614     1.94299996
     0.87322989     0.28022603     1.79142874
     0.47263321     0.17252552     1.52481830
     0.00000000     0.00000000     1.10291327
     5.30733299     0.21326816     0.79513638
     4.79880898     0.34452502     1.20903141
     4.12785840     0.43828467     1.48294494
     3.46006675     0.48839796     1.64523817
     2.79410870     0.50603643     1.73409592
     2.13132237     0.49361049     1.76246971
     1.47273966     0.44286468     1.72577254
     0.82464569     0.34251108     1.60384296
     0.43020540     0.23598744     1.40281875
     0.00000000     0.00000000     1.04130496
     5.30256377     0.24946092     0.66216962
     4.78855168     0.40155570     1.00640569
     4.11038626     0.50982114     1.23745142
     3.43470768     0.56928337     1.37421872
     2.76225062     0.59101206     1.45106357
     2.09181486     0.57837693     1.47627045
     1.42575218     0.52098025     1.45428240
     0.76946147     0.39582487     1.37320988
     0.39332861     0.27913488     1.23877715
     0.00000000     0.00000000     0.94973065
     5.29850620     0.27920982     0.51152022
     4.78053345     0.44693294     0.77887654
     4.09722350     0.56844669     0.95847542
     3.41521529     0.63510311     1.06635446
     2.73391290     0.66135970     1.12727522
     2.05672173     0.64887185     1.14975620
     1.38165975     0.58453299     1.13496311
     0.71795350     0.43769408     1.09316562
     0.35509741     0.31693047     1.00930187
     0.00000000     0.00000000     0.78791468
     5.29576955     0.30050707     0.34865953
     4.77440645     0.48050753     0.53054602
     4.08792877     0.61147325     0.65400108
     3.40171905     0.68419016     0.72806829
     2.71587427     0.71374466     0.77061860
     2.03059148     0.70200108     0.78716400
     1.34623635     0.63156578     0.77979059
     0.67120655     0.46548906     0.75971263
     0.31987044     0.34538606     0.71518662
     0.00000000     0.00000000     0.56517192
     5.29424585     0.31339376     0.17619288
     4.77071646     0.50077342     0.26842488
     4.08211231     0.63813798     0.33143750
     3.39386239     0.71446884     0.36896712
     2.70524513     0.74634293     0.39091824
     2.01754776     0.73457591     0.39947330
     1.32783455     0.66032024     0.39676275
     0.64427158     0.48186820     0.38939379
     0.29845567     0.36402005     0.37035071
     0.00000000     0.00000000     0.29424838
     5.29388024     0.31752189     0.00000000
     4.76944180     0.50754819     0.00000000
     4.08019136     0.64713989     0.00000000
     3.39116404     0.72478088     0.00000000
     2.70188584     0.75743473     0.00000000
     2.01334803     0.74533224     0.00000000
     1.32185020     0.67004428     0.00000000
     0.63766172     0.48750891     0.00000000
     0.29487188     0.37217687     0.00000000
     0.00000000     0.00000000     0.00000000
     5.45584074    -0.22692282     0.00000000
     5.47085838    -0.19136124     0.00000000
     5.48308911    -0.15469248     0.00000000
     5.49102015    -0.11766646     0.00000000
     5.49424191    -0.08027798     0.00000000
     5.49295352    -0.04276669     0.00000000
     5.48782080    -0.00531114     0.00000000
     5.47824844     0.03205998     0.00000000
     5.46403431     0.06897392     0.00000000
     5.44538284     0.10556849     0.00000000
     5.42385471     0.14070903     0.00000000
     5.45553853    -0.22462005     0.09101933
     5.46960496    -0.19014049     0.10242127
     5.48106720    -0.15442388     0.11090951
     5.48877075    -0.11770131     0.11618779
     5.49202870    -0.08037739     0.11863865
     5.49084495    -0.04276958     0.11824513
     5.48560950    -0.00522699     0.11855873
     5.47601774     0.03210293     0.11607550
     5.46208649     0.06871698     0.11082001
     5.44431874     0.10434244     0.10236723
     5.42396970     0.13840138     0.09088438
     5.45475578    -0.21781758     0.17845814
     5.46642154    -0.18526784     0.19978806
     5.47587328    -0.15128121     0.21645212
     5.48238627    -0.11582379     0.22783832
     5.48514309    -0.07952343     0.23351263
     5.48409889    -0.04277270     0.23334941
     5.47890858    -0.00603116     0.23344096
     5.47001862     0.03022864     0.22770850
     5.45746909     0.06560437     0.21626140
     5.44200701     0.09945109     0.19954786
     5.42441252     0.13163720     0.17828576
     5.45354547    -0.20680674     0.26112661
     5.46146833    -0.17704878     0.29347039
     5.46784917    -0.14533965     0.31905980
     5.47201012    -0.11209998     0.33709449
     5.47364448    -0.07772913     0.34672889
     5.47249213    -0.04274783     0.34769766
     5.46774355    -0.00779288     0.34660152
     5.46029386     0.02654572     0.33687222
     5.45045867     0.05965950     0.31877289
     5.43851872     0.09122009     0.29313999
     5.42521280     0.12068220     0.26061990
     5.45189174    -0.19183556     0.33744702
     5.45509461    -0.16559610     0.38200480
     5.45734917    -0.13708235     0.41759288
     5.45839927    -0.10672217     0.44308228
     5.45815597    -0.07513285     0.45763295
     5.45655674    -0.04267629     0.46084800
     5.45268617    -0.01048317     0.45750626
     5.44756287     0.02121036     0.44270203
     5.44135020     0.05139053     0.41720426
     5.43417208     0.07975133     0.38153994
     5.42630707     0.10576909     0.33708012
     5.44984076    -0.17321447     0.40565828
     5.44769354    -0.15139787     0.46376474
     5.44514459    -0.12658213     0.51107649
     5.44241265    -0.10030059     0.54509349
     5.43976396    -0.07136316     0.56645069
     5.43718864    -0.04326167     0.57325741
     5.43474444    -0.01335921     0.56594337
     5.43260374     0.01402269     0.54517463
     5.43072386     0.04125772     0.51013606
     5.42917194     0.06538673     0.46348848
     5.42753900     0.08731895     0.40497328
