# vtk DataFile Version 3.0
Example VTK
ASCII
DATASET UNSTRUCTURED_GRID
POINTS  1589 float
 -0.718844741127E+01 -0.463223227439E+01  0.124907473240E-26
 -0.585033056429E+01 -0.622135871692E+01  0.380558491584E-26
 -0.450499822686E+01 -0.719495984818E+01  0.445967097472E-26
 -0.316619520560E+01 -0.779229187977E+01  0.485147439547E-26
 -0.182772384206E+01 -0.808816173623E+01  0.503473909958E-26
 -0.496532342020E+00 -0.808383229810E+01  0.495828143792E-26
  0.832536332349E+00 -0.779027962603E+01  0.384303362110E-26
  0.164365291099E+01 -0.713763516819E+01  0.232877311186E-26
  0.255688000000E+01 -0.652469000000E+01  0.115270282627E-26
 -0.719747225273E+01 -0.372784474067E+01 -0.285846936688E-02
 -0.591698200372E+01 -0.501577257845E+01  0.000000000000E+00
 -0.461784239350E+01 -0.579415590278E+01  0.000000000000E+00
 -0.331888790661E+01 -0.626975418615E+01  0.000000000000E+00
 -0.202531677543E+01 -0.649646116810E+01  0.000000000000E+00
 -0.726853256652E+00 -0.647756439086E+01  0.000000000000E+00
  0.602053940984E+00 -0.621287234584E+01  0.000000000000E+00
  0.158055873514E+01 -0.577071983748E+01  0.000000000000E+00
  0.276016654514E+01 -0.540777681396E+01  0.000000000000E+00
 -0.720533430807E+01 -0.282565570573E+01 -0.592935827836E-02
 -0.595423157780E+01 -0.380528237992E+01  0.000000000000E+00
 -0.469611361580E+01 -0.438919591706E+01  0.000000000000E+00
 -0.343049384963E+01 -0.474032308789E+01  0.000000000000E+00
 -0.215402612905E+01 -0.490020543127E+01  0.000000000000E+00
 -0.846977896903E+00 -0.486996765657E+01  0.000000000000E+00
  0.536433587729E+00 -0.464629344769E+01  0.000000000000E+00
  0.163748260106E+01 -0.445585354007E+01  0.000000000000E+00
  0.292567319096E+01 -0.433855891793E+01  0.000000000000E+00
 -0.721159999619E+01 -0.192433297268E+01 -0.909315318738E-02
 -0.598062657243E+01 -0.258756681177E+01  0.000000000000E+00
 -0.474838216443E+01 -0.297803431201E+01  0.000000000000E+00
 -0.350249411918E+01 -0.320862660747E+01  0.000000000000E+00
 -0.223107774211E+01 -0.330787707958E+01  0.000000000000E+00
 -0.908028190020E+00 -0.327587458663E+01  0.000000000000E+00
  0.513827372223E+00 -0.311288373396E+01  0.000000000000E+00
  0.170686887359E+01 -0.316845898025E+01  0.000000000000E+00
  0.308456343618E+01 -0.327419995560E+01  0.000000000000E+00
 -0.721698816639E+01 -0.102373947293E+01 -0.115660831663E-01
 -0.599834802286E+01 -0.136547707651E+01  0.000000000000E+00
 -0.478181394776E+01 -0.156251609305E+01  0.000000000000E+00
 -0.354677800424E+01 -0.167619669765E+01  0.000000000000E+00
 -0.227638579985E+01 -0.172065121603E+01  0.000000000000E+00
 -0.941955843196E+00 -0.169550605870E+01  0.000000000000E+00
  0.503625087648E+00 -0.160162827529E+01  0.000000000000E+00
  0.177107701199E+01 -0.189250321049E+01  0.000000000000E+00
  0.322007224616E+01 -0.220306493112E+01  0.000000000000E+00
 -0.722141940110E+01 -0.123464222218E+00 -0.132996177263E-01
 -0.601016901833E+01 -0.140784724207E+00  0.000000000000E+00
 -0.480159229742E+01 -0.144252983669E+00  0.000000000000E+00
 -0.357306712080E+01 -0.143013035086E+00  0.000000000000E+00
 -0.230444165155E+01 -0.136245007065E+00  0.000000000000E+00
 -0.964915266040E+00 -0.122260605955E+00  0.000000000000E+00
  0.494304436603E+00 -0.104601304588E+00  0.000000000000E+00
  0.183984915426E+01 -0.614145961698E+00  0.000000000000E+00
  0.333333000000E+01 -0.112691000000E+01  0.416116910357E-26
 -0.722472187027E+01  0.776800829355E+00 -0.135437529084E-01
 -0.601469882875E+01  0.108508793094E+01  0.000000000000E+00
 -0.480890755354E+01  0.127574651911E+01  0.000000000000E+00
 -0.358371422435E+01  0.139188983423E+01  0.000000000000E+00
 -0.231891352502E+01  0.144948765209E+01  0.000000000000E+00
 -0.981357673500E+00  0.145121245038E+01  0.000000000000E+00
  0.483134963468E+00  0.139050947401E+01  0.000000000000E+00
  0.173679943749E+01  0.878417880738E+00  0.000000000000E+00
  0.313565571429E+01  0.381715422837E+00  0.000000000000E+00
 -0.722689224597E+01  0.167722786876E+01 -0.128230677081E-01
 -0.601269587897E+01  0.231072679063E+01  0.000000000000E+00
 -0.480021144093E+01  0.269625632418E+01  0.000000000000E+00
 -0.357238896174E+01  0.292924757769E+01  0.000000000000E+00
 -0.231109879302E+01  0.304011715078E+01  0.000000000000E+00
 -0.982540609894E+00  0.303165009430E+01  0.000000000000E+00
  0.473414750061E+00  0.289375836669E+01  0.000000000000E+00
  0.162310876250E+01  0.236711812764E+01  0.000000000000E+00
  0.291789773135E+01  0.190094600533E+01  0.000000000000E+00
 -0.722925073567E+01  0.257869313192E+01 -0.104690777645E-01
 -0.600218262982E+01  0.353379678965E+01  0.000000000000E+00
 -0.477097932674E+01  0.411522385721E+01  0.000000000000E+00
 -0.353060163031E+01  0.446874900411E+01  0.000000000000E+00
 -0.227177738396E+01  0.463830838711E+01  0.000000000000E+00
 -0.964514622260E+00  0.462626280483E+01  0.000000000000E+00
  0.453970145680E+00  0.441861727822E+01  0.000000000000E+00
  0.147763802784E+01  0.386426624178E+01  0.000000000000E+00
  0.265038194174E+01  0.341228674775E+01  0.000000000000E+00
 -0.723180123427E+01  0.348073211156E+01 -0.716900934637E-02
 -0.598220541049E+01  0.475070521063E+01  0.000000000000E+00
 -0.471287670116E+01  0.553047267425E+01  0.000000000000E+00
 -0.344434858729E+01  0.600904683217E+01  0.000000000000E+00
 -0.217700767968E+01  0.624471155027E+01  0.000000000000E+00
 -0.897177266078E+00  0.624091753858E+01  0.000000000000E+00
  0.444712469296E+00  0.598509747477E+01  0.000000000000E+00
  0.130511937843E+01  0.538712895377E+01  0.000000000000E+00
  0.232329657228E+01  0.494064479126E+01  0.000000000000E+00
 -0.723630048607E+01  0.438548457070E+01  0.110676636737E-26
 -0.592991546698E+01  0.596493236882E+01  0.356689721247E-26
 -0.461901250169E+01  0.694264201656E+01  0.426140691370E-26
 -0.330835037612E+01  0.754450751615E+01  0.462305969503E-26
 -0.199848622954E+01  0.785046490803E+01  0.475962522497E-26
 -0.695419979464E+00  0.786440809655E+01  0.462866117358E-26
  0.596135196671E+00  0.758900879986E+01  0.321830683295E-26
  0.120515821284E+01  0.698441251989E+01  0.178344676747E-26
  0.195297000000E+01  0.652469000000E+01  0.115498003937E-26
 -0.718851838367E+01 -0.457635689541E+01  0.827993998916E+00
 -0.584955520226E+01 -0.614566353662E+01  0.111827181097E+01
 -0.450416478101E+01 -0.710759885407E+01  0.129581991659E+01
 -0.316404459706E+01 -0.769726210589E+01  0.140544778240E+01
 -0.182472880580E+01 -0.798905672680E+01  0.146130523542E+01
 -0.491353639673E+00 -0.798461189135E+01  0.146922673789E+01
  0.839151355630E+00 -0.769428429103E+01  0.143180957863E+01
  0.165656584177E+01 -0.705947956560E+01  0.125622316849E+01
  0.256440000000E+01 -0.647239000000E+01  0.677093000000E+00
 -0.719715950648E+01 -0.370361153357E+01  0.918971787951E+00
 -0.591246858056E+01 -0.498055723673E+01  0.124501995462E+01
 -0.460949924984E+01 -0.575478636010E+01  0.144263783714E+01
 -0.330652751540E+01 -0.622669574925E+01  0.156566474251E+01
 -0.200860412505E+01 -0.645197672229E+01  0.162865583514E+01
 -0.706503098316E+00 -0.643348134834E+01  0.163473833522E+01
  0.623957414461E+00 -0.617410445788E+01  0.157048604567E+01
  0.159515533609E+01 -0.574298665059E+01  0.135584814477E+01
  0.275963504333E+01 -0.539448049523E+01  0.752430509332E+00
 -0.720438746995E+01 -0.281922068236E+01  0.988244087305E+00
 -0.594796540761E+01 -0.379444286021E+01  0.134352529132E+01
 -0.468466069410E+01 -0.437775874342E+01  0.155789135462E+01
 -0.341337967507E+01 -0.472790463337E+01  0.168891222467E+01
 -0.213241886971E+01 -0.488797122204E+01  0.175345433591E+01
 -0.823485964551E+00 -0.485908185132E+01  0.175159544956E+01
  0.556214130059E+00 -0.463911129385E+01  0.167549831461E+01
  0.164690678382E+01 -0.445224302780E+01  0.144867967573E+01
  0.291933141629E+01 -0.434020617036E+01  0.813208231637E+00
 -0.721045121845E+01 -0.192586452545E+01  0.103418874919E+01
 -0.597346856133E+01 -0.258780771418E+01  0.141056275382E+01
 -0.473594902853E+01 -0.297902516443E+01  0.163522417018E+01
 -0.348419403823E+01 -0.320984514947E+01  0.177158463762E+01
 -0.220865869492E+01 -0.330978105055E+01  0.183620969801E+01
 -0.884865735221E+00 -0.327888599219E+01  0.183096592079E+01
  0.531934478497E+00 -0.311717103208E+01  0.175053127856E+01
  0.171303508843E+01 -0.317278996055E+01  0.151001001424E+01
  0.307557566081E+01 -0.327723498071E+01  0.841726915172E+00
 -0.721604802203E+01 -0.102582332003E+01  0.105596928376E+01
 -0.599190395741E+01 -0.136752121319E+01  0.144330802980E+01
 -0.476957132939E+01 -0.156528884497E+01  0.167287023005E+01
 -0.352880908286E+01 -0.167937136832E+01  0.181154193657E+01
 -0.225460452377E+01 -0.172441386564E+01  0.187587406211E+01
 -0.919432052183E+00 -0.169968389487E+01  0.186906693194E+01
  0.521741261148E+00 -0.160549196011E+01  0.178630968809E+01
  0.177772410917E+01 -0.189573019618E+01  0.153911195398E+01
  0.321172028463E+01 -0.220221596778E+01  0.840815935194E+00
 -0.722113669707E+01 -0.123295273696E+00  0.105292382315E+01
 -0.600347123810E+01 -0.139980540795E+00  0.144011031019E+01
 -0.478987517533E+01 -0.143403520229E+00  0.166941107612E+01
 -0.355593108142E+01 -0.142199343481E+00  0.180723299342E+01
 -0.228405672422E+01 -0.135630940123E+00  0.186998125817E+01
 -0.944383629802E+00 -0.121438140079E+00  0.186073117857E+01
  0.510400512372E+00 -0.102741332844E+00  0.177646152934E+01
  0.184887469348E+01 -0.614250209085E+00  0.151519015977E+01
  0.333333000000E+01 -0.112691000000E+01  0.833333000000E+00
 -0.722407963447E+01  0.779060660294E+00  0.105483513960E+01
 -0.600853017955E+01  0.108877554661E+01  0.144437511353E+01
 -0.479708635369E+01  0.128023732549E+01  0.167427388042E+01
 -0.356666892334E+01  0.139678963829E+01  0.181221391970E+01
 -0.229929846702E+01  0.145467670463E+01  0.187395565580E+01
 -0.963351822012E+00  0.145731858592E+01  0.186166385244E+01
  0.493015679978E+00  0.139895233308E+01  0.176957555977E+01
  0.173598501532E+01  0.885373082659E+00  0.153522898042E+01
  0.313008881440E+01  0.367055956202E+00  0.938134701875E+00
 -0.722612999916E+01  0.167899679357E+01  0.103214505487E+01
 -0.600572728114E+01  0.231253276177E+01  0.141238500426E+01
 -0.478839010116E+01  0.269894966049E+01  0.163774497654E+01
 -0.355544418788E+01  0.293228972325E+01  0.177293962237E+01
 -0.229197961435E+01  0.304382300375E+01  0.183331369481E+01
 -0.965962850241E+00  0.303725025201E+01  0.181962626824E+01
  0.480280610382E+00  0.290347075494E+01  0.172316970621E+01
  0.161776436541E+01  0.237831543833E+01  0.150979473504E+01
  0.290850116535E+01  0.189131482519E+01  0.994705128125E+00
 -0.722844552978E+01  0.257235224698E+01  0.985976277959E+00
 -0.599586402336E+01  0.352446900957E+01  0.134540611800E+01
 -0.475978771032E+01  0.410528465106E+01  0.156075089053E+01
 -0.351430224647E+01  0.445808164473E+01  0.169109567982E+01
 -0.225255165000E+01  0.462801669033E+01  0.175140986600E+01
 -0.946713201527E+00  0.461857473427E+01  0.174002940372E+01
  0.462761689561E+00  0.441728104014E+01  0.164503809049E+01
  0.147464562750E+01  0.386906765714E+01  0.144686633120E+01
  0.264061733351E+01  0.340956197752E+01  0.985681563204E+00
 -0.723166667872E+01  0.345690387483E+01  0.917618409129E+00
 -0.597703215016E+01  0.471683374321E+01  0.124575894763E+01
 -0.470440806287E+01  0.549216028920E+01  0.144476599957E+01
 -0.343162277455E+01  0.596725757728E+01  0.156838598100E+01
 -0.216012214438E+01  0.620171777028E+01  0.162973680902E+01
 -0.877512082010E+00  0.619959330335E+01  0.163006027373E+01
  0.461813886684E+00  0.595195853623E+01  0.154168523705E+01
  0.131100674513E+01  0.536664804587E+01  0.134542060436E+01
  0.231958626213E+01  0.492758499338E+01  0.912472392723E+00
 -0.723592807833E+01  0.432987356278E+01  0.827322704272E+00
 -0.592885605663E+01  0.588994788526E+01  0.111815308950E+01
 -0.461723284336E+01  0.685552399088E+01  0.129721658171E+01
 -0.330534703580E+01  0.744986987711E+01  0.140760655708E+01
 -0.199415643400E+01  0.775166965344E+01  0.146351340748E+01
 -0.689271840123E+00  0.776585899358E+01  0.147057265260E+01
  0.604919418082E+00  0.749415712280E+01  0.142097246553E+01
  0.122288147965E+01  0.690587708901E+01  0.122820068856E+01
  0.196387000000E+01  0.646426000000E+01  0.786055000000E+00
 -0.718895229685E+01 -0.441076564327E+01  0.163575352494E+01
 -0.584827942403E+01 -0.592142319040E+01  0.220819991803E+01
 -0.450128370810E+01 -0.684763199827E+01  0.255908093128E+01
 -0.315818227886E+01 -0.741454812553E+01  0.277534972497E+01
 -0.181532410429E+01 -0.769454394222E+01  0.288559495886E+01
 -0.477783545592E+00 -0.768974561218E+01  0.289976515699E+01
  0.864512912559E+00 -0.740900887574E+01  0.282258011468E+01
  0.170284123322E+01 -0.682550335467E+01  0.246980278913E+01
  0.258678000000E+01 -0.631679000000E+01  0.133751000000E+01
 -0.719616372483E+01 -0.359153245750E+01  0.182236259382E+01
 -0.590261360451E+01 -0.482528971203E+01  0.246680389415E+01
 -0.458977894798E+01 -0.557599667550E+01  0.285834310522E+01
 -0.327635718729E+01 -0.603206502109E+01  0.310137734998E+01
 -0.196634728942E+01 -0.625026466615E+01  0.322561695484E+01
 -0.652264154181E+00 -0.623325101838E+01  0.323733288347E+01
  0.684307428369E+00 -0.598916879203E+01  0.311081473276E+01
  0.163984213835E+01 -0.559842065805E+01  0.269713619134E+01
  0.276764142376E+01 -0.530139522153E+01  0.150032193185E+01
 -0.720188407412E+01 -0.274719878654E+01  0.196605441230E+01
 -0.593350251821E+01 -0.369232535606E+01  0.266937010920E+01
 -0.465536681768E+01 -0.426030390463E+01  0.309375934490E+01
 -0.336826158425E+01 -0.460099734597E+01  0.335396591152E+01
 -0.207314014011E+01 -0.475817270671E+01  0.348277824388E+01
 -0.756637716074E+00 -0.473313514799E+01  0.348130947985E+01
  0.617408663657E+00 -0.452506988974E+01  0.333285617694E+01
  0.168572805551E+01 -0.436293588053E+01  0.289341023917E+01
  0.291668171116E+01 -0.428286883406E+01  0.162767646816E+01
 -0.720759148982E+01 -0.188268305468E+01  0.206443550475E+01
 -0.595729315258E+01 -0.252627749532E+01  0.280857993387E+01
 -0.470196741408E+01 -0.290825921184E+01  0.325404498698E+01
 -0.343270936864E+01 -0.313402863969E+01  0.352594727546E+01
 -0.214362592175E+01 -0.323354013048E+01  0.365590026824E+01
 -0.815185659730E+00 -0.320606603141E+01  0.364802904130E+01
  0.592526194820E+00 -0.305098722014E+01  0.349181004250E+01
  0.174584163049E+01 -0.311995262613E+01  0.302478298049E+01
  0.306460160204E+01 -0.324050800645E+01  0.168949647233E+01
 -0.721469073501E+01 -0.100627534436E+01  0.211507845030E+01
 -0.597491599652E+01 -0.133766611900E+01  0.287885597702E+01
 -0.473421339724E+01 -0.153106409613E+01  0.333545006652E+01
 -0.347584742577E+01 -0.164307253360E+01  0.361261462357E+01
 -0.218879615874E+01 -0.168870686980E+01  0.374244031941E+01
 -0.850016550275E+00 -0.166592160899E+01  0.373109915684E+01
  0.582617212916E+00 -0.157349602960E+01  0.357012766867E+01
  0.181078146040E+01 -0.186968128387E+01  0.308880915305E+01
  0.319963416490E+01 -0.218111039042E+01  0.168991068100E+01
 -0.721991114251E+01 -0.123018272895E+00  0.211275064899E+01
 -0.598727576190E+01 -0.137772022154E+00  0.287835450107E+01
 -0.475494150765E+01 -0.140528208610E+00  0.333482331570E+01
 -0.350398969358E+01 -0.139471528959E+00  0.361114618047E+01
 -0.222079947334E+01 -0.133835152444E+00  0.373835345420E+01
 -0.880053109048E+00 -0.119422050353E+00  0.372235211215E+01
  0.563341293499E+00 -0.985841959703E-01  0.355761910543E+01
  0.187912504246E+01 -0.614626731624E+00  0.304204751921E+01
  0.333333000000E+01 -0.112691000000E+01  0.166667000000E+01
 -0.722340444664E+01  0.760209730710E+00  0.211427676942E+01
 -0.599190239749E+01  0.106315670402E+01  0.288092902449E+01
 -0.476187190248E+01  0.125174578413E+01  0.333822259965E+01
 -0.351463240266E+01  0.136605437417E+01  0.361444200087E+01
 -0.223755288014E+01  0.142315139467E+01  0.374006251346E+01
 -0.904783321357E+00  0.142859651114E+01  0.371955035398E+01
  0.531592463087E+00  0.137779732004E+01  0.354191180074E+01
  0.174622582390E+01  0.864924624426E+00  0.308665623051E+01
  0.311697925650E+01  0.335039083971E+00  0.187869903676E+01
 -0.722425751946E+01  0.163641842085E+01  0.206291905626E+01
 -0.599006125517E+01  0.225469998878E+01  0.281220497950E+01
 -0.475454671875E+01  0.263334968565E+01  0.325912260061E+01
 -0.350536947613E+01  0.286199771575E+01  0.352941142003E+01
 -0.223288980658E+01  0.297272671447E+01  0.365235791808E+01
 -0.912331444156E+00  0.297193820491E+01  0.362964999758E+01
  0.510040615631E+00  0.285181627238E+01  0.344414145334E+01
  0.161674257228E+01  0.233600338142E+01  0.303281197539E+01
  0.288896715941E+01  0.184200396595E+01  0.199064490869E+01
 -0.722663739909E+01  0.250098280407E+01  0.196430508222E+01
 -0.598134364492E+01  0.342525010005E+01  0.267331089072E+01
 -0.473017117804E+01  0.399198590143E+01  0.309954931357E+01
 -0.346947823059E+01  0.433594310184E+01  0.335908706610E+01
 -0.219730572230E+01  0.450386580586E+01  0.348085996396E+01
 -0.893343602329E+00  0.450176234077E+01  0.346260267628E+01
  0.495964558760E+00  0.431993979649E+01  0.327935249506E+01
  0.148160070588E+01  0.379048179122E+01  0.289866641228E+01
  0.262789889117E+01  0.334181068664E+01  0.196851267626E+01
 -0.723053448320E+01  0.334543768301E+01  0.182099235003E+01
 -0.596594665141E+01  0.456384917590E+01  0.246873597357E+01
 -0.468326197036E+01  0.531607715100E+01  0.286272139342E+01
 -0.339958543640E+01  0.577577731535E+01  0.310694192024E+01
 -0.211574627562E+01  0.600413353866E+01  0.322829196671E+01
 -0.823899046755E+00  0.600681438813E+01  0.322994709010E+01
  0.511886386984E+00  0.578033718439E+01  0.306157564868E+01
  0.133767146743E+01  0.522855754530E+01  0.268898755136E+01
  0.232443353046E+01  0.482181870439E+01  0.181664214267E+01
 -0.723474941747E+01  0.416470296908E+01  0.163509851391E+01
 -0.592589924863E+01  0.566676984589E+01  0.220788957787E+01
 -0.461196925829E+01  0.659648280131E+01  0.256198624965E+01
 -0.329667958689E+01  0.716832954111E+01  0.277973986004E+01
 -0.198190471305E+01  0.745821301703E+01  0.289027097223E+01
 -0.670248701360E+00  0.747289856030E+01  0.290316831072E+01
  0.639663856325E+00  0.721117657860E+01  0.280042390568E+01
  0.127961815439E+01  0.666561012032E+01  0.241955244609E+01
  0.199630000000E+01  0.628446000000E+01  0.155276000000E+01
 -0.718963019087E+01 -0.413962247810E+01  0.240272739934E+01
 -0.584681097420E+01 -0.555458529038E+01  0.324334192101E+01
 -0.449670558054E+01 -0.642161016670E+01  0.375869538108E+01
 -0.314905084167E+01 -0.695131190530E+01  0.407574571428E+01
 -0.180048443735E+01 -0.721249463973E+01  0.423709375288E+01
 -0.453551070409E+00 -0.720718387866E+01  0.425611079043E+01
  0.905020872384E+00 -0.694169035283E+01  0.412975107493E+01
  0.177213203744E+01 -0.643997305600E+01  0.360698131919E+01
  0.262348000000E+01 -0.606170000000E+01  0.196500000000E+01
 -0.719388972121E+01 -0.339476703136E+01  0.269228963414E+01
 -0.588848267591E+01 -0.455547642772E+01  0.364267079431E+01
 -0.456069518777E+01 -0.526273551348E+01  0.422072418993E+01
 -0.323127059551E+01 -0.569201938581E+01  0.457840838838E+01
 -0.190363097068E+01 -0.589780990349E+01  0.475992934308E+01
 -0.568870068294E+00 -0.588465776266E+01  0.477551347350E+01
  0.781430266766E+00 -0.565709459737E+01  0.459110557352E+01
  0.172045981436E+01 -0.533520669611E+01  0.400377311819E+01
  0.278965446202E+01 -0.513168947659E+01  0.223240163158E+01
 -0.719798456630E+01 -0.261057991990E+01  0.291931956638E+01
 -0.591414590166E+01 -0.350284885744E+01  0.395818178319E+01
 -0.461075587969E+01 -0.404046239756E+01  0.458598239933E+01
 -0.329837342779E+01 -0.436387605857E+01  0.497205771950E+01
 -0.198097419422E+01 -0.451462608173E+01  0.516353079483E+01
 -0.647675424404E+00 -0.449627297599E+01  0.516508410716E+01
  0.724269962024E+00 -0.430410663012E+01  0.495186704041E+01
  0.176424010193E+01 -0.418695831918E+01  0.432203659990E+01
  0.292827329269E+01 -0.416805394927E+01  0.243576241691E+01
 -0.720545404532E+01 -0.179847249320E+01  0.307981272444E+01
 -0.593390965172E+01 -0.240523869055E+01  0.417818821121E+01
 -0.464828121602E+01 -0.276799921616E+01  0.484039736538E+01
 -0.334969819243E+01 -0.298371122217E+01  0.524598023593E+01
 -0.203742262755E+01 -0.308043219575E+01  0.544161744570E+01
 -0.695876083304E+00 -0.305981720092E+01  0.543483009570E+01
  0.704302110339E+00 -0.291531221501E+01  0.521059734910E+01
  0.182204519991E+01 -0.301006976081E+01  0.453845805307E+01
  0.306666813552E+01 -0.316744988765E+01  0.253868127858E+01
 -0.721201945754E+01 -0.966089604578E+00  0.316454328116E+01
 -0.595001525365E+01 -0.127738696090E+01  0.429655377494E+01
 -0.467646688535E+01 -0.146067108109E+01  0.497712136659E+01
 -0.338739047246E+01 -0.156810934267E+01  0.539268654363E+01
 -0.207808624224E+01 -0.161337501033E+01  0.558923270306E+01
 -0.727184285087E+00 -0.159528330408E+01  0.557698318023E+01
  0.696445012411E+00 -0.150723244602E+01  0.534413646219E+01
  0.188902195663E+01 -0.181566554881E+01  0.464756785541E+01
  0.319990714797E+01 -0.214408702740E+01  0.254354546084E+01
 -0.721745476321E+01 -0.122775658728E+00  0.317230676698E+01
 -0.596201787518E+01 -0.134152836580E+00  0.430908738531E+01
 -0.469626573599E+01 -0.135149801592E+00  0.499179061746E+01
 -0.341468222767E+01 -0.134148221468E+00  0.540785347777E+01
 -0.211066109965E+01 -0.129394660102E+00  0.560198946373E+01
 -0.761765197627E+00 -0.116804417935E+00  0.558391631843E+01
  0.665779728162E+00 -0.917727713742E-01  0.534520235077E+01
  0.194348395267E+01 -0.613005269464E+00  0.458923035941E+01
  0.333333000000E+01 -0.112691000000E+01  0.250000000000E+01
 -0.722126934217E+01  0.720555863020E+00  0.316397382362E+01
 -0.596718959501E+01  0.100993772587E+01  0.429920884577E+01
 -0.470308583139E+01  0.119177102492E+01  0.498107913077E+01
 -0.342512512070E+01  0.130184802596E+01  0.539618981418E+01
 -0.212842797702E+01  0.135701948543E+01  0.558863711235E+01
 -0.791999937297E+00  0.136488242826E+01  0.556673639976E+01
  0.618995875209E+00  0.132693933285E+01  0.531416385846E+01
  0.179259998194E+01  0.817621466339E+00  0.466055570089E+01
  0.310897510967E+01  0.281933348188E+00  0.282159983728E+01
 -0.722329840021E+01  0.155302026566E+01  0.307878796065E+01
 -0.596712201278E+01  0.213966902567E+01  0.418290054735E+01
 -0.469940076304E+01  0.250242161971E+01  0.484767954025E+01
 -0.341996534380E+01  0.272173216848E+01  0.525246364559E+01
 -0.212870465354E+01  0.282948214323E+01  0.544071877479E+01
 -0.806578430755E+00  0.283538701391E+01  0.541722528789E+01
  0.583666009356E+00  0.273722249319E+01  0.515556374988E+01
  0.164816289245E+01  0.223861086299E+01  0.457280347311E+01
  0.287170810128E+01  0.175294049540E+01  0.298734889885E+01
 -0.722375723238E+01  0.236525753999E+01  0.291789652813E+01
 -0.596263959376E+01  0.324003263257E+01  0.396351158483E+01
 -0.468426321370E+01  0.377904801275E+01  0.459452882270E+01
 -0.339736177594E+01  0.410722795777E+01  0.498069744515E+01
 -0.210549226171E+01  0.426941926798E+01  0.516465463911E+01
 -0.796125539796E+00  0.427723410584E+01  0.514691330972E+01
  0.565671055667E+00  0.412411069442E+01  0.488797185521E+01
  0.151476662347E+01  0.363152550992E+01  0.435182564787E+01
  0.261997600907E+01  0.321227609447E+01  0.294408607978E+01
 -0.722801495495E+01  0.314950665630E+01  0.269118231052E+01
 -0.595075017189E+01  0.429683396149E+01  0.364540451682E+01
 -0.465237060109E+01  0.500705975891E+01  0.422753779449E+01
 -0.335173964620E+01  0.544120348759E+01  0.458704061558E+01
 -0.205043026177E+01  0.565833866974E+01  0.476509827753E+01
 -0.740682230930E+00  0.566854321622E+01  0.476898950178E+01
  0.596313410831E+00  0.547077194331E+01  0.453395478441E+01
  0.139777258475E+01  0.497370217846E+01  0.401792228953E+01
  0.234570471815E+01  0.462997104354E+01  0.269940207321E+01
 -0.723279740086E+01  0.389406357034E+01  0.240228094958E+01
 -0.592128955441E+01  0.530104309429E+01  0.324361394204E+01
 -0.460378365162E+01  0.617206632872E+01  0.376297261720E+01
 -0.328333854748E+01  0.670715409086E+01  0.408240987541E+01
 -0.196115177725E+01  0.697808597170E+01  0.424414439454E+01
 -0.637608023284E+00  0.699293369844E+01  0.426179937756E+01
  0.692222208909E+00  0.674890602218E+01  0.409777989725E+01
  0.136135556824E+01  0.626884062163E+01  0.355166199445E+01
  0.204947000000E+01  0.598972000000E+01  0.228122000000E+01
 -0.718942951026E+01 -0.376907195751E+01  0.310906191787E+01
 -0.584545022759E+01 -0.505418087062E+01  0.419849418836E+01
 -0.449111136411E+01 -0.584025695540E+01  0.486463606227E+01
 -0.313773743443E+01 -0.631958064642E+01  0.527458793459E+01
 -0.178103312328E+01 -0.655524159542E+01  0.548216646516E+01
 -0.422582874171E+00 -0.654909861714E+01  0.550247676615E+01
  0.954526302381E+00 -0.630460789608E+01  0.531905769881E+01
  0.185808189183E+01 -0.591742258106E+01  0.464613643851E+01
  0.267357000000E+01 -0.571343000000E+01  0.254410000000E+01
 -0.719103088827E+01 -0.311783353291E+01  0.351504775037E+01
 -0.587067541974E+01 -0.417825669577E+01  0.475201470037E+01
 -0.452361399317E+01 -0.482418689991E+01  0.550530210322E+01
 -0.317616378934E+01 -0.521605211941E+01  0.596996610754E+01
 -0.182686170565E+01 -0.540663346731E+01  0.620397268425E+01
 -0.469811895016E+00 -0.539134311066E+01  0.621945256446E+01
  0.912923560176E+00 -0.519487047298E+01  0.598114691891E+01
  0.184026436983E+01 -0.496499435059E+01  0.524870856056E+01
  0.282131308737E+01 -0.488436338284E+01  0.294060069343E+01
 -0.719655793852E+01 -0.241688839981E+01  0.383994703989E+01
 -0.588739396390E+01 -0.323160363837E+01  0.519231486144E+01
 -0.455092081601E+01 -0.372547996440E+01  0.601573126457E+01
 -0.320932520794E+01 -0.402357080136E+01  0.652192501367E+01
 -0.186246865141E+01 -0.416660833559E+01  0.677282326856E+01
 -0.505684361882E+00 -0.414629929837E+01  0.677780283355E+01
  0.885596132855E+00 -0.399167381486E+01  0.650547655319E+01
  0.188381187366E+01 -0.393586148322E+01  0.572049868533E+01
  0.295315266764E+01 -0.399120166288E+01  0.323127113398E+01
 -0.720214130018E+01 -0.167576043587E+01  0.407099271474E+01
 -0.590155655005E+01 -0.222925001860E+01  0.550747993314E+01
 -0.457414376891E+01 -0.256300159190E+01  0.637966373575E+01
 -0.323812531713E+01 -0.276280903085E+01  0.691616659449E+01
 -0.189442136105E+01 -0.285727956832E+01  0.717610956602E+01
 -0.531444453565E+00 -0.283468160322E+01  0.717244769830E+01
  0.880970316044E+00 -0.272133828183E+01  0.688498135518E+01
  0.194231693234E+01 -0.285280782416E+01  0.604402333063E+01
  0.308498731628E+01 -0.305256443173E+01  0.338661827647E+01
 -0.720715428520E+01 -0.906191711125E+00  0.420287155534E+01
 -0.591354465590E+01 -0.118914111122E+01  0.568813311195E+01
 -0.459337403819E+01 -0.135644670488E+01  0.658891049423E+01
 -0.326346821696E+01 -0.145609429563E+01  0.714144937681E+01
 -0.192154060331E+01 -0.150075174403E+01  0.740642462094E+01
 -0.554990562050E+00 -0.148241160500E+01  0.739395077470E+01
  0.883124898083E+00 -0.141312589190E+01  0.709205191996E+01
  0.201669711439E+01 -0.173551333020E+01  0.621355889297E+01
  0.321402599139E+01 -0.209546217219E+01  0.339943610456E+01
 -0.721219464248E+01 -0.122808157561E+00  0.423145568658E+01
 -0.592361611775E+01 -0.128854049694E+00  0.572933492172E+01
 -0.460947095484E+01 -0.127884392319E+00  0.663658167211E+01
 -0.328500501905E+01 -0.124983051817E+00  0.719306636680E+01
 -0.194848348344E+01 -0.121194097933E+00  0.745728311379E+01
 -0.586059298450E+00 -0.107805193585E+00  0.743940554274E+01
  0.846960293209E+00 -0.900380783582E-01  0.713254474797E+01
  0.205645331093E+01 -0.607085834378E+00  0.616462508134E+01
  0.333333000000E+01 -0.112691000000E+01  0.333333000000E+01
 -0.721640092943E+01  0.660749055344E+00  0.420261340598E+01
 -0.592988359587E+01  0.931627996171E+00  0.569104064681E+01
 -0.461751436130E+01  0.110205702428E+01  0.659326431390E+01
 -0.329594217752E+01  0.120686999035E+01  0.714671750736E+01
 -0.196591079012E+01  0.126113041317E+01  0.740878285554E+01
 -0.616447206975E+00  0.126967238353E+01  0.738943556770E+01
  0.794490418096E+00  0.123904292094E+01  0.707166217979E+01
  0.189162123830E+01  0.749260643607E+00  0.626368656223E+01
  0.311206228805E+01  0.214320763454E+00  0.377075377369E+01
 -0.722007820931E+01  0.143038303133E+01  0.407054043570E+01
 -0.593374149977E+01  0.197303884637E+01  0.551205293904E+01
 -0.462068598518E+01  0.231002902678E+01  0.638837934494E+01
 -0.330101462796E+01  0.251629210208E+01  0.692469645012E+01
 -0.197422780409E+01  0.262104782710E+01  0.718074763412E+01
 -0.639389952389E+00  0.262781072622E+01  0.716230194027E+01
  0.747815970022E+00  0.255490281613E+01  0.683811781445E+01
  0.172431701164E+01  0.209542567947E+01  0.613859038028E+01
  0.287298382092E+01  0.161105417979E+01  0.398347724096E+01
 -0.722231979946E+01  0.217190956819E+01  0.383906163657E+01
 -0.593461305711E+01  0.297641222854E+01  0.519841754434E+01
 -0.462000230775E+01  0.347481503840E+01  0.602571702850E+01
 -0.329919262138E+01  0.377872334303E+01  0.653379903988E+01
 -0.197500797528E+01  0.393404547675E+01  0.677864737971E+01
 -0.645393910914E+00  0.394045297957E+01  0.676737760189E+01
  0.717600383502E+00  0.382928963855E+01  0.644799982109E+01
  0.158789191627E+01  0.339682066354E+01  0.580168510201E+01
  0.262514314706E+01  0.301124466240E+01  0.390812091122E+01
 -0.722410122952E+01  0.287338004534E+01  0.351388849658E+01
 -0.593176561719E+01  0.392423438801E+01  0.475526553096E+01
 -0.461287956833E+01  0.457495364483E+01  0.551400302046E+01
 -0.329273697825E+01  0.497277956443E+01  0.598091153352E+01
 -0.196716790622E+01  0.517596628347E+01  0.621142261985E+01
 -0.637458488075E+00  0.518427628979E+01  0.621639684150E+01
  0.723376689757E+00  0.503121543532E+01  0.592271753187E+01
  0.148421984242E+01  0.462382667522E+01  0.530779126326E+01
  0.238168069984E+01  0.435081098425E+01  0.355133864012E+01
 -0.722951202197E+01  0.352447078265E+01  0.310872082343E+01
 -0.591590395521E+01  0.480238520572E+01  0.419957789324E+01
 -0.459357026826E+01  0.559321395613E+01  0.487079865225E+01
 -0.326645078496E+01  0.607856539849E+01  0.528395770673E+01
 -0.193520303103E+01  0.632394130823E+01  0.549325967460E+01
 -0.598651903539E+00  0.633868646448E+01  0.551022149353E+01
  0.754053792518E+00  0.612075057697E+01  0.529318170737E+01
  0.146990912544E+01  0.573511216436E+01  0.460528337143E+01
  0.212207000000E+01  0.558730000000E+01  0.295352000000E+01
 -0.718880693332E+01 -0.330823088281E+01  0.373881062805E+01
 -0.584434611731E+01 -0.443288706042E+01  0.505016706829E+01
 -0.448572279839E+01 -0.511818374533E+01  0.584967234809E+01
 -0.312554858697E+01 -0.553580732189E+01  0.634151693041E+01
 -0.176113208496E+01 -0.573922134814E+01  0.659055185095E+01
 -0.388346052051E+00 -0.573194583952E+01  0.660580170780E+01
  0.100598425615E+01 -0.551535770466E+01  0.636973857760E+01
  0.195261401607E+01 -0.526990799022E+01  0.556579628719E+01
  0.273585000000E+01 -0.528053000000E+01  0.306056000000E+01
 -0.719162086196E+01 -0.277175209044E+01  0.427957109057E+01
 -0.584365262637E+01 -0.370504200442E+01  0.577661546569E+01
 -0.448079353375E+01 -0.427376384010E+01  0.669098773487E+01
 -0.311576244927E+01 -0.461921658013E+01  0.725211198602E+01
 -0.174293011885E+01 -0.478528029138E+01  0.753395362220E+01
 -0.360113191450E+00 -0.477661311505E+01  0.754432165707E+01
  0.104769525303E+01 -0.459319026831E+01  0.725636120132E+01
  0.205256887589E+01 -0.448560440469E+01  0.637242366827E+01
  0.283639000000E+01 -0.458160000000E+01  0.363581000000E+01
 -0.719432606686E+01 -0.216989649338E+01  0.471423980868E+01
 -0.584395356237E+01 -0.288898481620E+01  0.636193791725E+01
 -0.447886116762E+01 -0.332765628246E+01  0.736681330813E+01
 -0.310769544589E+01 -0.359249830396E+01  0.798574175746E+01
 -0.173108748141E+01 -0.371695615399E+01  0.828986255678E+01
 -0.336516816138E+00 -0.370818299353E+01  0.829636751316E+01
  0.107578998256E+01 -0.355927881782E+01  0.796645150312E+01
  0.214974100737E+01 -0.360500785762E+01  0.700264376057E+01
  0.295176000000E+01 -0.377956000000E+01  0.404840000000E+01
 -0.719640716857E+01 -0.151619113143E+01  0.503254511761E+01
 -0.584675399915E+01 -0.200582968569E+01  0.679002201741E+01
 -0.447872046482E+01 -0.230247685070E+01  0.786305862273E+01
 -0.310609902359E+01 -0.248152083981E+01  0.852181484304E+01
 -0.172315702085E+01 -0.256119912155E+01  0.884375025306E+01
 -0.327914122925E+00 -0.255187751244E+01  0.884278617082E+01
  0.109935316818E+01 -0.244189441194E+01  0.848308042353E+01
  0.223434775066E+01 -0.264457244901E+01  0.744694080380E+01
  0.307680000000E+01 -0.291030000000E+01  0.427989000000E+01
 -0.719932985896E+01 -0.828576751317E+00  0.522639616065E+01
 -0.585084572687E+01 -0.107546222404E+01  0.705228300554E+01
 -0.448338964468E+01 -0.122533091940E+01  0.816571081971E+01
 -0.310837260117E+01 -0.131158942855E+01  0.885132414643E+01
 -0.172620949572E+01 -0.134882017272E+01  0.917927378682E+01
 -0.326010511509E+00 -0.133419111884E+01  0.917877766773E+01
  0.109020304429E+01 -0.126758785587E+01  0.878654977408E+01
  0.231121538682E+01 -0.163293423649E+01  0.768864362295E+01
  0.320592000000E+01 -0.201270000000E+01  0.431991000000E+01
 -0.720327517302E+01 -0.122638959950E+00  0.529178403539E+01
 -0.585734198888E+01 -0.123228732931E+00  0.714092446884E+01
 -0.449146324057E+01 -0.119347927003E+00  0.826936100547E+01
 -0.311791656563E+01 -0.115156986367E+00  0.896323695044E+01
 -0.173618074041E+01 -0.104219658385E+00  0.929492569620E+01
 -0.338720538944E+00 -0.918043958283E-01  0.928826189645E+01
  0.107984143401E+01 -0.598458338864E-01  0.889451956102E+01
  0.233404400680E+01 -0.595094227494E+00  0.768322177426E+01
  0.333333000000E+01 -0.112691000000E+01  0.416667000000E+01
 -0.720801699156E+01  0.582308712457E+00  0.522682878472E+01
 -0.586609679944E+01  0.830524372064E+00  0.705420484478E+01
 -0.450346297971E+01  0.984375572527E+00  0.817049161837E+01
 -0.313398051642E+01  0.108381314530E+01  0.885600824025E+01
 -0.175420427117E+01  0.113542164225E+01  0.918459881918E+01
 -0.361016564210E+00  0.115449915833E+01  0.917721507303E+01
  0.104869477535E+01  0.113530248455E+01  0.877558596619E+01
  0.220861315252E+01  0.660114853920E+00  0.778732350122E+01
  0.311477000000E+01  0.846185000000E-01  0.477384000000E+01
 -0.721340360593E+01  0.127072196145E+01  0.503260435829E+01
 -0.587600393258E+01  0.175944289056E+01  0.679470164031E+01
 -0.452054290260E+01  0.206273475843E+01  0.787020991037E+01
 -0.315407094959E+01  0.225081037459E+01  0.853325391046E+01
 -0.178411252503E+01  0.234750399202E+01  0.884870610784E+01
 -0.391718731031E+00  0.236460472043E+01  0.884749536139E+01
  0.100014778154E+01  0.230352089809E+01  0.844234602354E+01
  0.206749597152E+01  0.188658104696E+01  0.760437291895E+01
  0.287533000000E+01  0.141185000000E+01  0.502046000000E+01
 -0.721847244478E+01  0.192428808387E+01  0.471446962231E+01
 -0.588769332426E+01  0.264274383349E+01  0.636662705226E+01
 -0.453917402488E+01  0.308648276080E+01  0.737745720067E+01
 -0.318353832674E+01  0.336080491529E+01  0.799816684707E+01
 -0.181791370396E+01  0.349830318945E+01  0.829990708038E+01
 -0.439541462336E+00  0.351554648839E+01  0.829775028157E+01
  0.948747927052E+00  0.340915188713E+01  0.791946716767E+01
  0.190186982656E+01  0.305748816625E+01  0.714419084473E+01
  0.263311000000E+01  0.275453000000E+01  0.488788000000E+01
 -0.722192079277E+01  0.252695515815E+01  0.427892873281E+01
 -0.589903267006E+01  0.345825241605E+01  0.578202498055E+01
 -0.456149037723E+01  0.403202907561E+01  0.670103354545E+01
 -0.321479174254E+01  0.438524378796E+01  0.726595397233E+01
 -0.186339801795E+01  0.456086793066E+01  0.754491619888E+01
 -0.494673201561E+00  0.457759180018E+01  0.754695399535E+01
  0.881242249104E+00  0.442554920328E+01  0.721238332053E+01
  0.174260969276E+01  0.412779510714E+01  0.645379189295E+01
  0.240640000000E+01  0.401125000000E+01  0.438612000000E+01
 -0.722450204124E+01  0.306409034966E+01  0.373794185072E+01
 -0.591091776303E+01  0.418748169516E+01  0.504687614648E+01
 -0.458269040127E+01  0.487661149414E+01  0.585410447245E+01
 -0.324942110474E+01  0.530075098323E+01  0.634951585060E+01
 -0.191018055962E+01  0.551373002882E+01  0.659890580824E+01
 -0.560386491150E+00  0.552739605210E+01  0.661152288856E+01
  0.802728567418E+00  0.534103884096E+01  0.633438350525E+01
  0.157831678066E+01  0.506433566630E+01  0.557128184154E+01
  0.221231000000E+01  0.508710000000E+01  0.355309000000E+01
  0.500000000000E+01 -0.169037000000E+01  0.489859000003E-15
  0.527591000000E+01 -0.788220000000E+00  0.391887000001E-15
  0.575887000000E+01 -0.658810000000E+00  0.391887000000E-15
  0.624183000000E+01 -0.529401000000E+00  0.391887000000E-15
  0.672480000000E+01 -0.399991000000E+00  0.391887000000E-15
  0.720776000000E+01 -0.270582000000E+00  0.391887000000E-15
  0.769072000000E+01 -0.141172000000E+00  0.391887000000E-15
  0.817369000000E+01 -0.117629000000E-01  0.391887000000E-15
  0.865665000000E+01  0.117647000000E+00  0.391887000000E-15
  0.913961000000E+01  0.247056000000E+00  0.391887000000E-15
  0.962257000000E+01  0.376466000000E+00  0.391887000000E-15
  0.463213372096E+01 -0.152853973187E+00  0.391887000000E-15
  0.501206468239E+01  0.459056063453E+00  0.313510000000E-15
  0.549482292447E+01  0.578114416669E+00  0.313510000000E-15
  0.597146842958E+01  0.708438547124E+00  0.313510000000E-15
  0.644657118305E+01  0.837703831626E+00  0.313510000000E-15
  0.692101515848E+01  0.966128091889E+00  0.313510000000E-15
  0.739532647136E+01  0.109396017842E+01  0.313510000000E-15
  0.786968125418E+01  0.122150166649E+01  0.313510000000E-15
  0.834413290889E+01  0.134906771586E+01  0.313510000000E-15
  0.881871949049E+01  0.147681102065E+01  0.313510000000E-15
  0.929129000000E+01  0.161285000000E+01  0.313510000001E-15
  0.430877983046E+01  0.138279377888E+01  0.293915000000E-15
  0.475262132870E+01  0.169524535773E+01  0.235132000000E-15
  0.522851474673E+01  0.182826727719E+01  0.235132000000E-15
  0.569440689439E+01  0.196006452155E+01  0.235132000000E-15
  0.615825774510E+01  0.208889098053E+01  0.235132000000E-15
  0.662253047085E+01  0.221545858874E+01  0.235132000000E-15
  0.708759523989E+01  0.234119361777E+01  0.235132000000E-15
  0.755348749376E+01  0.246661085379E+01  0.235132000000E-15
  0.802032364809E+01  0.259195114171E+01  0.235132000000E-15
  0.848847746246E+01  0.271844392332E+01  0.235132000000E-15
  0.896000000000E+01  0.284924000000E+01  0.235132000001E-15
  0.392679924344E+01  0.291076986414E+01  0.195943000000E-15
  0.443874244435E+01  0.292090276061E+01  0.156755000000E-15
  0.490353211098E+01  0.307667462262E+01  0.156755000000E-15
  0.536438021991E+01  0.321177896790E+01  0.156755000000E-15
  0.582638343762E+01  0.333925001512E+01  0.156755000000E-15
  0.628961638395E+01  0.346487725526E+01  0.156755000000E-15
  0.675416246184E+01  0.358980079428E+01  0.156755000000E-15
  0.721979161100E+01  0.371459299317E+01  0.156755000000E-15
  0.768646555935E+01  0.383950421287E+01  0.156755000000E-15
  0.815500156258E+01  0.396376520856E+01  0.156755000000E-15
  0.862871000000E+01  0.408562000000E+01  0.156755000001E-15
  0.343036766416E+01  0.446990695756E+01  0.979717000000E-16
  0.404569214555E+01  0.414660207540E+01  0.783774000000E-16
  0.450226436249E+01  0.431058750853E+01  0.783774000000E-16
  0.497227794146E+01  0.444032232483E+01  0.783774000000E-16
  0.544488685409E+01  0.456870525743E+01  0.783774000000E-16
  0.591894896632E+01  0.469594472625E+01  0.783774000000E-16
  0.639369262978E+01  0.482304501029E+01  0.783774000000E-16
  0.686878597924E+01  0.495013342420E+01  0.783774000000E-16
  0.734413328005E+01  0.507709305999E+01  0.783774000000E-16
  0.781966350739E+01  0.520383842034E+01  0.783774000000E-16
  0.829742000000E+01  0.532201000000E+01  0.783774000005E-16
  0.292945000000E+01  0.603704000000E+01  0.166902573818E-26
  0.361947000000E+01  0.539371000000E+01  0.922762558487E-27
  0.410243000000E+01  0.552311000000E+01  0.275120749646E-27
  0.458539000000E+01  0.565252000000E+01  0.405690435242E-27
  0.506835000000E+01  0.578193000000E+01  0.417808322331E-27
  0.555132000000E+01  0.591134000000E+01  0.417909813837E-27
  0.603428000000E+01  0.604075000000E+01  0.413185348475E-27
  0.651724000000E+01  0.617016000000E+01  0.407400469623E-27
  0.700021000000E+01  0.629957000000E+01  0.400307309365E-27
  0.748317000000E+01  0.642898000000E+01  0.362445055996E-27
  0.796613000000E+01  0.655839000000E+01  0.129169840785E-27
  0.498725000000E+01 -0.164280000000E+01  0.625738000000E+00
  0.526571000000E+01 -0.750165000000E+00  0.500590000000E+00
  0.574867000000E+01 -0.620756000000E+00  0.500590000000E+00
  0.623164000000E+01 -0.491346000000E+00  0.500590000000E+00
  0.671460000000E+01 -0.361937000000E+00  0.500590000000E+00
  0.719756000000E+01 -0.232527000000E+00  0.500590000000E+00
  0.768053000000E+01 -0.103118000000E+00  0.500590000000E+00
  0.816349000000E+01  0.262920000000E-01  0.500590000000E+00
  0.864645000000E+01  0.155702000000E+00  0.500590000000E+00
  0.912941000000E+01  0.285111000000E+00  0.500590000000E+00
  0.961238000000E+01  0.414521000000E+00  0.500590000000E+00
  0.462514666778E+01 -0.147568687788E+00  0.773552933817E+00
  0.500592166272E+01  0.462184410251E+00  0.615727655368E+00
  0.548818803420E+01  0.582050380527E+00  0.620536662552E+00
  0.596537222088E+01  0.712522310422E+00  0.621650045230E+00
  0.644127175027E+01  0.841891020368E+00  0.621869995236E+00
  0.691655839816E+01  0.970477858853E+00  0.621843787738E+00
  0.739167101374E+01  0.109848353438E+01  0.621738458433E+00
  0.786676525925E+01  0.122619166243E+01  0.621605566274E+00
  0.834191996786E+01  0.135389648256E+01  0.621379864829E+00
  0.881709982780E+01  0.148167415570E+01  0.620807392159E+00
  0.929009000000E+01  0.161731000000E+01  0.618286000000E+00
  0.429813163842E+01  0.138068435992E+01  0.839675624560E+00
  0.474455084127E+01  0.169222756065E+01  0.675525456654E+00
  0.522033548279E+01  0.182526429685E+01  0.684288523790E+00
  0.568711314530E+01  0.195704344253E+01  0.687827707884E+00
  0.615230380283E+01  0.208601771562E+01  0.688694906733E+00
  0.661801541166E+01  0.221286819653E+01  0.688446310005E+00
  0.708446293144E+01  0.233892398349E+01  0.687898197437E+00
  0.755163599603E+01  0.246464236355E+01  0.687233655689E+00
  0.801956689636E+01  0.259023915035E+01  0.686198581074E+00
  0.848853225927E+01  0.271686424329E+01  0.684164329302E+00
  0.896044000000E+01  0.284757000000E+01  0.680162000000E+00
  0.391424770462E+01  0.291412525391E+01  0.836009989461E+00
  0.442951588553E+01  0.292200322845E+01  0.675770491961E+00
  0.489447820482E+01  0.307667404817E+01  0.684367042081E+00
  0.535629602649E+01  0.321145380389E+01  0.688483086333E+00
  0.581964884194E+01  0.333906474475E+01  0.689294061316E+00
  0.628435615726E+01  0.346498349333E+01  0.688863696461E+00
  0.675029909037E+01  0.359025459122E+01  0.688157688110E+00
  0.721719960823E+01  0.371538528409E+01  0.687391213952E+00
  0.768496469830E+01  0.384060642505E+01  0.686301501577E+00
  0.815425772090E+01  0.396515477704E+01  0.684233606931E+00
  0.862826000000E+01  0.408729000000E+01  0.680162000000E+00
  0.342298519230E+01  0.446693782989E+01  0.769036518838E+00
  0.404007285441E+01  0.414243345210E+01  0.616569056361E+00
  0.449751280547E+01  0.430433652238E+01  0.622802745430E+00
  0.496862528500E+01  0.443394170048E+01  0.622964949919E+00
  0.544228910914E+01  0.456254022373E+01  0.622417540365E+00
  0.591728124931E+01  0.469001618459E+01  0.621886424519E+00
  0.639285115109E+01  0.481735337148E+01  0.621527639853E+00
  0.686868015841E+01  0.494465639759E+01  0.621297531773E+00
  0.734466994940E+01  0.507182755785E+01  0.621067355124E+00
  0.782069409456E+01  0.519882528904E+01  0.620576675483E+00
  0.829861000000E+01  0.531755000000E+01  0.618286000000E+00
  0.294219000000E+01  0.598947000000E+01  0.625738000000E+00
  0.362966000000E+01  0.535565000000E+01  0.500590000000E+00
  0.411263000000E+01  0.548506000000E+01  0.500590000000E+00
  0.459559000000E+01  0.561447000000E+01  0.500590000000E+00
  0.507855000000E+01  0.574388000000E+01  0.500590000000E+00
  0.556151000000E+01  0.587329000000E+01  0.500590000000E+00
  0.604448000000E+01  0.600270000000E+01  0.500590000000E+00
  0.652744000000E+01  0.613211000000E+01  0.500590000000E+00
  0.701040000000E+01  0.626152000000E+01  0.500590000000E+00
  0.749337000000E+01  0.639093000000E+01  0.500590000000E+00
  0.797633000000E+01  0.652034000000E+01  0.500590000000E+00
  0.494933000000E+01 -0.150127000000E+01  0.123607000000E+01
  0.523537000000E+01 -0.636938000000E+00  0.988854000000E+00
  0.571833000000E+01 -0.507528000000E+00  0.988854000000E+00
  0.620130000000E+01 -0.378118000000E+00  0.988854000000E+00
  0.668426000000E+01 -0.248709000000E+00  0.988854000000E+00
  0.716722000000E+01 -0.119299000000E+00  0.988854000000E+00
  0.765019000000E+01  0.101101000000E-01  0.988854000000E+00
  0.813315000000E+01  0.139520000000E+00  0.988854000000E+00
  0.861611000000E+01  0.268929000000E+00  0.988854000000E+00
  0.909907000000E+01  0.398339000000E+00  0.988854000000E+00
  0.958204000000E+01  0.527748000000E+00  0.988854000000E+00
  0.459582042534E+01 -0.874764642964E-01  0.153423011850E+01
  0.498022518259E+01  0.508197890340E+00  0.122117082934E+01
  0.546145258344E+01  0.630322759774E+00  0.122815953679E+01
  0.594011247389E+01  0.761110749457E+00  0.122964440574E+01
  0.641804654846E+01  0.890843659515E+00  0.122992012919E+01
  0.689536641476E+01  0.101985704807E+01  0.122990270422E+01
  0.737242107906E+01  0.114828103086E+01  0.122975780591E+01
  0.784936165275E+01  0.127637597714E+01  0.122959230558E+01
  0.832618752837E+01  0.140445804424E+01  0.122929490305E+01
  0.880282654081E+01  0.153233514357E+01  0.122848021930E+01
  0.927681000000E+01  0.166687000000E+01  0.122425000000E+01
  0.426427982153E+01  0.139743987584E+01  0.167075809910E+01
  0.471776318253E+01  0.170155033133E+01  0.134038982722E+01
  0.519295443720E+01  0.183491530903E+01  0.135540710717E+01
  0.566219320387E+01  0.196665382499E+01  0.136087441181E+01
  0.613110683197E+01  0.209611503265E+01  0.136196743949E+01
  0.660078042831E+01  0.222380349719E+01  0.136144721578E+01
  0.707103371757E+01  0.235071860136E+01  0.136056368276E+01
  0.754168639673E+01  0.247725445025E+01  0.135957959762E+01
  0.801262507662E+01  0.260356126837E+01  0.135804790903E+01
  0.848386458744E+01  0.273056960310E+01  0.135484905899E+01
  0.895686000000E+01  0.286093000000E+01  0.134800000000E+01
  0.388671135527E+01  0.290184483495E+01  0.166301173404E+01
  0.440893055291E+01  0.290756185829E+01  0.134070614977E+01
  0.487423917601E+01  0.305871109177E+01  0.135588748948E+01
  0.533876569060E+01  0.319250058367E+01  0.136228393885E+01
  0.580596285414E+01  0.332046985479E+01  0.136311588528E+01
  0.627474746257E+01  0.344720829731E+01  0.136221238529E+01
  0.674454726167E+01  0.357342152125E+01  0.136103592336E+01
  0.721493031487E+01  0.369949353319E+01  0.135987330713E+01
  0.768565407987E+01  0.382556180672E+01  0.135824803118E+01
  0.815709242271E+01  0.395091506364E+01  0.135499019761E+01
  0.863184000000E+01  0.407393000000E+01  0.134800000000E+01
  0.341776512562E+01  0.441159325540E+01  0.152675511715E+01
  0.403617315874E+01  0.409406116741E+01  0.122192772011E+01
  0.449625630888E+01  0.425023143411E+01  0.123183966244E+01
  0.497014727767E+01  0.437976537185E+01  0.123174230769E+01
  0.544647520365E+01  0.450885359341E+01  0.123073388744E+01
  0.592379749593E+01  0.463689236781E+01  0.122988931308E+01
  0.640134523640E+01  0.476478308173E+01  0.122936400611E+01
  0.687892292990E+01  0.489262358309E+01  0.122905673362E+01
  0.735645260282E+01  0.502025702838E+01  0.122876099433E+01
  0.783369902890E+01  0.514785624962E+01  0.122808152516E+01
  0.831189000000E+01  0.526799000000E+01  0.122425000000E+01
  0.298012000000E+01  0.584793000000E+01  0.123607000000E+01
  0.366000000000E+01  0.524242000000E+01  0.988854000000E+00
  0.414296000000E+01  0.537183000000E+01  0.988854000000E+00
  0.462593000000E+01  0.550124000000E+01  0.988854000000E+00
  0.510889000000E+01  0.563065000000E+01  0.988854000000E+00
  0.559185000000E+01  0.576006000000E+01  0.988854000000E+00
  0.607482000000E+01  0.588947000000E+01  0.988854000000E+00
  0.655778000000E+01  0.601888000000E+01  0.988854000000E+00
  0.704074000000E+01  0.614829000000E+01  0.988854000000E+00
  0.752371000000E+01  0.627770000000E+01  0.988854000000E+00
  0.800667000000E+01  0.640711000000E+01  0.988854000000E+00
  0.488716000000E+01 -0.126925000000E+01  0.181596000000E+01
  0.518564000000E+01 -0.451325000000E+00  0.145277000000E+01
  0.566860000000E+01 -0.321916000000E+00  0.145277000000E+01
  0.615156000000E+01 -0.192506000000E+00  0.145277000000E+01
  0.663453000000E+01 -0.630967000000E-01  0.145277000000E+01
  0.711749000000E+01  0.663128000000E-01  0.145277000000E+01
  0.760045000000E+01  0.195722000000E+00  0.145277000000E+01
  0.808341000000E+01  0.325132000000E+00  0.145277000000E+01
  0.856638000000E+01  0.454541000000E+00  0.145277000000E+01
  0.904934000000E+01  0.583951000000E+00  0.145277000000E+01
  0.953230000000E+01  0.713360000000E+00  0.145277000000E+01
  0.454732739593E+01  0.257265713740E-01  0.226982752952E+01
  0.493796878398E+01  0.595868416851E+00  0.180472770803E+01
  0.541829535783E+01  0.721938155089E+00  0.181021956582E+01
  0.589939182701E+01  0.853133753392E+00  0.181115389726E+01
  0.637987235917E+01  0.983318765711E+00  0.181143908934E+01
  0.685971234319E+01  0.111272657216E+01  0.181144909468E+01
  0.733922107072E+01  0.124160784203E+01  0.181134562988E+01
  0.781854959012E+01  0.137020953001E+01  0.181121543785E+01
  0.829775798307E+01  0.149868851042E+01  0.181105153070E+01
  0.877636510268E+01  0.162690509879E+01  0.181050273262E+01
  0.925190000000E+01  0.175986000000E+01  0.180586000000E+01
  0.421441002564E+01  0.143201821185E+01  0.248334953747E+01
  0.467585849317E+01  0.172331168969E+01  0.198429933813E+01
  0.515001819102E+01  0.185730244441E+01  0.200039102763E+01
  0.562361505056E+01  0.198907865569E+01  0.200487484108E+01
  0.609828740869E+01  0.211946591742E+01  0.200548765166E+01
  0.657370998982E+01  0.224819733306E+01  0.200484933309E+01
  0.704931998760E+01  0.237625552160E+01  0.200401933081E+01
  0.752488243751E+01  0.250392126463E+01  0.200319305548E+01
  0.800021413907E+01  0.263121324856E+01  0.200200865754E+01
  0.847469093305E+01  0.275887315393E+01  0.199914832834E+01
  0.894940000000E+01  0.288877000000E+01  0.199149000000E+01
  0.384891581959E+01  0.287466073708E+01  0.247249939772E+01
  0.437926404211E+01  0.287822668859E+01  0.198442772345E+01
  0.484517760634E+01  0.302366164457E+01  0.200171050264E+01
  0.531468141658E+01  0.315616043333E+01  0.200684736386E+01
  0.578819975137E+01  0.328492332444E+01  0.200685368211E+01
  0.626307635762E+01  0.341289757593E+01  0.200572165074E+01
  0.673838084382E+01  0.354047920094E+01  0.200456406494E+01
  0.721371244188E+01  0.366789501377E+01  0.200354645765E+01
  0.768877705799E+01  0.379527803056E+01  0.200226767765E+01
  0.816333605388E+01  0.392171985599E+01  0.199934758370E+01
  0.863930000000E+01  0.404608000000E+01  0.199149000000E+01
  0.342217432075E+01  0.430220939426E+01  0.225977185567E+01
  0.403793734911E+01  0.400352793393E+01  0.180423984203E+01
  0.450190475322E+01  0.415131757034E+01  0.181430854292E+01
  0.497968894037E+01  0.428075061468E+01  0.181323057214E+01
  0.545962130658E+01  0.441027766400E+01  0.181206049793E+01
  0.593977410454E+01  0.453902500246E+01  0.181130269413E+01
  0.641975029003E+01  0.466760516136E+01  0.181085802006E+01
  0.689952448767E+01  0.479609768171E+01  0.181061971703E+01
  0.737915587798E+01  0.492451704877E+01  0.181046681742E+01
  0.785813806934E+01  0.505276233363E+01  0.181005321594E+01
  0.833681000000E+01  0.517500000000E+01  0.180586000000E+01
  0.304229000000E+01  0.561592000000E+01  0.181596000000E+01
  0.370974000000E+01  0.505681000000E+01  0.145277000000E+01
  0.419270000000E+01  0.518622000000E+01  0.145277000000E+01
  0.467566000000E+01  0.531563000000E+01  0.145277000000E+01
  0.515863000000E+01  0.544504000000E+01  0.145277000000E+01
  0.564159000000E+01  0.557445000000E+01  0.145277000000E+01
  0.612455000000E+01  0.570386000000E+01  0.145277000000E+01
  0.660751000000E+01  0.583327000000E+01  0.145277000000E+01
  0.709048000000E+01  0.596268000000E+01  0.145277000000E+01
  0.757344000000E+01  0.609209000000E+01  0.145277000000E+01
  0.805640000000E+01  0.622150000000E+01  0.145277000000E+01
  0.480228000000E+01 -0.952469000000E+00  0.235114000000E+01
  0.511773000000E+01 -0.197899000000E+00  0.188091000000E+01
  0.560069000000E+01 -0.684892000000E-01  0.188091000000E+01
  0.608366000000E+01  0.609204000000E-01  0.188091000000E+01
  0.656662000000E+01  0.190330000000E+00  0.188091000000E+01
  0.704958000000E+01  0.319739000000E+00  0.188091000000E+01
  0.753255000000E+01  0.449149000000E+00  0.188091000000E+01
  0.801551000000E+01  0.578558000000E+00  0.188091000000E+01
  0.849847000000E+01  0.707968000000E+00  0.188091000000E+01
  0.898143000000E+01  0.837378000000E+00  0.188091000000E+01
  0.946440000000E+01  0.966787000000E+00  0.188091000000E+01
  0.447904569357E+01  0.182493834875E+00  0.297065364112E+01
  0.487969985664E+01  0.726641061566E+00  0.235348700475E+01
  0.536327746877E+01  0.856108554211E+00  0.235424309459E+01
  0.584696558551E+01  0.987155891452E+00  0.235504619626E+01
  0.632982055290E+01  0.111702189148E+01  0.235514044908E+01
  0.681202288900E+01  0.124648058663E+01  0.235517733453E+01
  0.729388580510E+01  0.137568990701E+01  0.235511866548E+01
  0.777557467127E+01  0.150476733346E+01  0.235507855553E+01
  0.825715656077E+01  0.163394224656E+01  0.235495094991E+01
  0.873887173772E+01  0.176235511893E+01  0.235511134951E+01
  0.921608000000E+01  0.189354000000E+01  0.235170000000E+01
  0.414955223086E+01  0.148697507751E+01  0.327012776345E+01
  0.462117703234E+01  0.175904702480E+01  0.259622517023E+01
  0.509764051171E+01  0.189397878031E+01  0.260559609610E+01
  0.557825711120E+01  0.202599459900E+01  0.260717429745E+01
  0.605969295068E+01  0.215649376164E+01  0.260740101130E+01
  0.654107324907E+01  0.228594968478E+01  0.260704984601E+01
  0.702202450520E+01  0.241501461091E+01  0.260667936935E+01
  0.750257669932E+01  0.254385622358E+01  0.260636141233E+01
  0.798274051244E+01  0.267238562015E+01  0.260583013939E+01
  0.846186149860E+01  0.280079367439E+01  0.260508044622E+01
  0.893831000000E+01  0.293018000000E+01  0.259920000000E+01
  0.379721335407E+01  0.283777328272E+01  0.326254968383E+01
  0.434059618381E+01  0.283388666955E+01  0.259664060577E+01
  0.481106321346E+01  0.297282899341E+01  0.260731488857E+01
  0.528986155657E+01  0.310481623821E+01  0.260847901895E+01
  0.577138500317E+01  0.323467103388E+01  0.260820960862E+01
  0.625277180586E+01  0.336408412002E+01  0.260757302676E+01
  0.673370329218E+01  0.349308531849E+01  0.260702352355E+01
  0.721420324167E+01  0.362185684787E+01  0.260660629640E+01
  0.769419988322E+01  0.375059187007E+01  0.260602410271E+01
  0.817321767228E+01  0.387880149981E+01  0.260526423109E+01
  0.865040000000E+01  0.400468000000E+01  0.259920000000E+01
  0.343179673446E+01  0.414687200304E+01  0.295852578079E+01
  0.404587780319E+01  0.387058942237E+01  0.235249377113E+01
  0.451624142627E+01  0.401022520544E+01  0.235757735920E+01
  0.500010661784E+01  0.413971839116E+01  0.235583837995E+01
  0.548325800929E+01  0.427014800336E+01  0.235531351483E+01
  0.596594844834E+01  0.439965465484E+01  0.235490753783E+01
  0.644814114044E+01  0.452894571642E+01  0.235471431159E+01
  0.693005592944E+01  0.465809625850E+01  0.235463726416E+01
  0.741189620071E+01  0.478703946245E+01  0.235453351148E+01
  0.789346607575E+01  0.491667824888E+01  0.235475085758E+01
  0.837263000000E+01  0.504132000000E+01  0.235170000000E+01
  0.312717000000E+01  0.529913000000E+01  0.235114000000E+01
  0.377764000000E+01  0.480338000000E+01  0.188091000000E+01
  0.426060000000E+01  0.493279000000E+01  0.188091000000E+01
  0.474357000000E+01  0.506220000000E+01  0.188091000000E+01
  0.522653000000E+01  0.519161000000E+01  0.188091000000E+01
  0.570949000000E+01  0.532102000000E+01  0.188091000000E+01
  0.619246000000E+01  0.545043000000E+01  0.188091000000E+01
  0.667542000000E+01  0.557984000000E+01  0.188091000000E+01
  0.715838000000E+01  0.570925000000E+01  0.188091000000E+01
  0.764135000000E+01  0.583866000000E+01  0.188091000000E+01
  0.812431000000E+01  0.596807000000E+01  0.188091000000E+01
  0.469677000000E+01 -0.558718000000E+00  0.282843000000E+01
  0.503333000000E+01  0.117102000000E+00  0.226274000000E+01
  0.551629000000E+01  0.246512000000E+00  0.226274000000E+01
  0.599925000000E+01  0.375921000000E+00  0.226274000000E+01
  0.648222000000E+01  0.505331000000E+00  0.226274000000E+01
  0.696518000000E+01  0.634740000000E+00  0.226274000000E+01
  0.744814000000E+01  0.764150000000E+00  0.226274000000E+01
  0.793110000000E+01  0.893559000000E+00  0.226274000000E+01
  0.841407000000E+01  0.102297000000E+01  0.226274000000E+01
  0.889703000000E+01  0.115238000000E+01  0.226274000000E+01
  0.937999000000E+01  0.128179000000E+01  0.226274000000E+01
  0.443473000000E+01  0.419249000000E+00  0.356403000000E+01
  0.482369000000E+01  0.899475000000E+00  0.285122000000E+01
  0.530665000000E+01  0.102888000000E+01  0.285122000000E+01
  0.578962000000E+01  0.115829000000E+01  0.285122000000E+01
  0.627258000000E+01  0.128770000000E+01  0.285122000000E+01
  0.675554000000E+01  0.141711000000E+01  0.285122000000E+01
  0.723851000000E+01  0.154652000000E+01  0.285122000000E+01
  0.772147000000E+01  0.167593000000E+01  0.285122000000E+01
  0.820443000000E+01  0.180534000000E+01  0.285122000000E+01
  0.868739000000E+01  0.193475000000E+01  0.285122000000E+01
  0.917036000000E+01  0.206416000000E+01  0.285122000000E+01
  0.412668000000E+01  0.156892000000E+01  0.395075000000E+01
  0.457725000000E+01  0.181921000000E+01  0.316060000000E+01
  0.506021000000E+01  0.194862000000E+01  0.316060000000E+01
  0.554317000000E+01  0.207803000000E+01  0.316060000000E+01
  0.602614000000E+01  0.220744000000E+01  0.316060000000E+01
  0.650910000000E+01  0.233685000000E+01  0.316060000000E+01
  0.699206000000E+01  0.246626000000E+01  0.316060000000E+01
  0.747503000000E+01  0.259567000000E+01  0.316060000000E+01
  0.795799000000E+01  0.272508000000E+01  0.316060000000E+01
  0.844095000000E+01  0.285449000000E+01  0.316060000000E+01
  0.892392000000E+01  0.298390000000E+01  0.316060000000E+01
  0.380277000000E+01  0.277775000000E+01  0.395075000000E+01
  0.431812000000E+01  0.278628000000E+01  0.316060000000E+01
  0.480109000000E+01  0.291569000000E+01  0.316060000000E+01
  0.528405000000E+01  0.304509000000E+01  0.316060000000E+01
  0.576701000000E+01  0.317450000000E+01  0.316060000000E+01
  0.624998000000E+01  0.330391000000E+01  0.316060000000E+01
  0.673294000000E+01  0.343332000000E+01  0.316060000000E+01
  0.721590000000E+01  0.356273000000E+01  0.316060000000E+01
  0.769886000000E+01  0.369214000000E+01  0.316060000000E+01
  0.818183000000E+01  0.382155000000E+01  0.316060000000E+01
  0.866479000000E+01  0.395096000000E+01  0.316060000000E+01
  0.349472000000E+01  0.392742000000E+01  0.356403000000E+01
  0.407168000000E+01  0.370601000000E+01  0.285122000000E+01
  0.455465000000E+01  0.383542000000E+01  0.285122000000E+01
  0.503761000000E+01  0.396483000000E+01  0.285122000000E+01
  0.552057000000E+01  0.409424000000E+01  0.285122000000E+01
  0.600353000000E+01  0.422365000000E+01  0.285122000000E+01
  0.648650000000E+01  0.435306000000E+01  0.285122000000E+01
  0.696946000000E+01  0.448247000000E+01  0.285122000000E+01
  0.745242000000E+01  0.461188000000E+01  0.285122000000E+01
  0.793539000000E+01  0.474129000000E+01  0.285122000000E+01
  0.841835000000E+01  0.487070000000E+01  0.285122000000E+01
  0.323267000000E+01  0.490538000000E+01  0.282843000000E+01
  0.386205000000E+01  0.448838000000E+01  0.226274000000E+01
  0.434501000000E+01  0.461779000000E+01  0.226274000000E+01
  0.482797000000E+01  0.474720000000E+01  0.226274000000E+01
  0.531093000000E+01  0.487661000000E+01  0.226274000000E+01
  0.579390000000E+01  0.500602000000E+01  0.226274000000E+01
  0.627686000000E+01  0.513543000000E+01  0.226274000000E+01
  0.675982000000E+01  0.526484000000E+01  0.226274000000E+01
  0.724279000000E+01  0.539425000000E+01  0.226274000000E+01
  0.772575000000E+01  0.552366000000E+01  0.226274000000E+01
  0.820871000000E+01  0.565307000000E+01  0.226274000000E+01
  0.560370000000E+01 -0.185213000000E+01  0.275546000000E-15
  0.620741000000E+01 -0.201389000000E+01  0.275546000000E-15
  0.681111000000E+01 -0.217566000000E+01  0.275546000000E-15
  0.741481000000E+01 -0.233742000000E+01  0.275546000000E-15
  0.801852000000E+01 -0.249918000000E+01  0.275546000000E-15
  0.862222000000E+01 -0.266094000000E+01  0.275546000000E-15
  0.922593000000E+01 -0.282270000000E+01  0.275546000000E-15
  0.982963000000E+01 -0.298447000000E+01  0.275546000000E-15
  0.485066422429E+01 -0.257563905406E+01  0.220436000000E-15
  0.544640975668E+01 -0.273668863734E+01  0.220436000000E-15
  0.603313706170E+01 -0.289529140339E+01  0.220436000000E-15
  0.662172846818E+01 -0.305331358342E+01  0.220436000000E-15
  0.721353789564E+01 -0.321199458092E+01  0.220436000000E-15
  0.780771552623E+01 -0.337121535560E+01  0.220436000000E-15
  0.840335497874E+01 -0.353085494020E+01  0.220436000000E-15
  0.900003313209E+01 -0.369047320962E+01  0.220436000000E-15
  0.959669000000E+01 -0.385380000000E+01  0.220436000000E-15
  0.464082218774E+01 -0.344196378437E+01  0.165327000000E-15
  0.523573936586E+01 -0.361509599881E+01  0.165327000000E-15
  0.581972695981E+01 -0.377453746212E+01  0.165327000000E-15
  0.640449420610E+01 -0.393109251125E+01  0.165327000000E-15
  0.699215569202E+01 -0.408793485819E+01  0.165327000000E-15
  0.758234980500E+01 -0.424552943879E+01  0.165327000000E-15
  0.817428757478E+01 -0.440367464123E+01  0.165327000000E-15
  0.876759334175E+01 -0.456240224973E+01  0.165327000000E-15
  0.936375000000E+01 -0.472313000000E+01  0.165327000000E-15
  0.439943187967E+01 -0.430606576795E+01  0.110218000000E-15
  0.498978453698E+01 -0.448615119694E+01  0.110218000000E-15
  0.557584604160E+01 -0.464646565717E+01  0.110218000000E-15
  0.616354759802E+01 -0.480339697217E+01  0.110218000000E-15
  0.675380202243E+01 -0.496042373816E+01  0.110218000000E-15
  0.734591148591E+01 -0.511812087201E+01  0.110218000000E-15
  0.793914028193E+01 -0.527643997248E+01  0.110218000000E-15
  0.853340107355E+01 -0.543495666096E+01  0.110218000000E-15
  0.913082000000E+01 -0.559247000000E+01  0.110218000000E-15
  0.412348154640E+01 -0.517562494973E+01  0.551091000000E-16
  0.471405281791E+01 -0.534588506413E+01  0.551091000000E-16
  0.530892797216E+01 -0.550676251392E+01  0.551091000000E-16
  0.590587715655E+01 -0.566617185491E+01  0.551091000000E-16
  0.650378063615E+01 -0.582558485455E+01  0.551091000000E-16
  0.710199145649E+01 -0.598527053694E+01  0.551091000000E-16
  0.770030756306E+01 -0.614511211588E+01  0.551091000000E-16
  0.829860200063E+01 -0.630530103463E+01  0.551091000000E-16
  0.889788000000E+01 -0.646180000000E+01  0.551091000004E-16
  0.383531000000E+01 -0.603704000000E+01  0.121486203674E-26
  0.443902000000E+01 -0.619880000000E+01  0.281563615758E-27
  0.504272000000E+01 -0.636056000000E+01  0.335991077459E-27
  0.564643000000E+01 -0.652232000000E+01  0.323105716811E-27
  0.625013000000E+01 -0.668408000000E+01  0.308699644246E-27
  0.685383000000E+01 -0.684585000000E+01  0.294838750382E-27
  0.745754000000E+01 -0.700761000000E+01  0.284727609050E-27
  0.806124000000E+01 -0.716937000000E+01  0.261518155662E-27
  0.866494000000E+01 -0.733113000000E+01  0.945297302292E-28
  0.499283000000E+01 -0.171713000000E+01  0.351978000000E+00
  0.559653000000E+01 -0.187889000000E+01  0.351978000000E+00
  0.620024000000E+01 -0.204065000000E+01  0.351978000000E+00
  0.680394000000E+01 -0.220241000000E+01  0.351978000000E+00
  0.740764000000E+01 -0.236418000000E+01  0.351978000000E+00
  0.801135000000E+01 -0.252594000000E+01  0.351978000000E+00
  0.861505000000E+01 -0.268770000000E+01  0.351978000000E+00
  0.921876000000E+01 -0.284946000000E+01  0.351978000000E+00
  0.982246000000E+01 -0.301122000000E+01  0.351978000000E+00
  0.483908197537E+01 -0.257714843694E+01  0.431143117221E+00
  0.543449610005E+01 -0.273758539282E+01  0.440167479052E+00
  0.602461311006E+01 -0.289724656722E+01  0.440510239994E+00
  0.661609987582E+01 -0.305578344453E+01  0.438946719875E+00
  0.720980169654E+01 -0.321483463089E+01  0.437658714376E+00
  0.780516852497E+01 -0.337426597531E+01  0.436879436625E+00
  0.840162552921E+01 -0.353405581992E+01  0.436440554223E+00
  0.899885948253E+01 -0.369376871990E+01  0.436080964979E+00
  0.959585000000E+01 -0.385693000000E+01  0.434732000000E+00
  0.462925906519E+01 -0.343964352364E+01  0.470899025660E+00
  0.522366449524E+01 -0.361116258789E+01  0.482926405641E+00
  0.581077195389E+01 -0.377102364278E+01  0.485064607462E+00
  0.639863245368E+01 -0.392838053750E+01  0.483970623746E+00
  0.698865304942E+01 -0.408585713265E+01  0.482566629398E+00
  0.758048449695E+01 -0.424387460636E+01  0.481569482575E+00
  0.817353508677E+01 -0.440231266246E+01  0.480884544797E+00
  0.876758668285E+01 -0.456123347640E+01  0.480012464884E+00
  0.936407000000E+01 -0.472196000000E+01  0.478239000000E+00
  0.438829111185E+01 -0.430704947703E+01  0.469229736964E+00
  0.497856198401E+01 -0.448443166683E+01  0.482428559303E+00
  0.556757908423E+01 -0.464488820015E+01  0.484399383331E+00
  0.615797955618E+01 -0.480261297346E+01  0.483220985469E+00
  0.675024382814E+01 -0.496033139940E+01  0.481987827543E+00
  0.734372127119E+01 -0.511852444477E+01  0.481170702940E+00
  0.793793185942E+01 -0.527719429334E+01  0.480624177804E+00
  0.853284150252E+01 -0.543594223858E+01  0.479864150150E+00
  0.913050000000E+01 -0.559364000000E+01  0.478239000000E+00
  0.411738486613E+01 -0.517289937731E+01  0.432100173672E+00
  0.470889404071E+01 -0.534055156671E+01  0.437624722384E+00
  0.530575781724E+01 -0.550174416742E+01  0.437592648211E+00
  0.590410804738E+01 -0.566166746879E+01  0.436850055099E+00
  0.650292981291E+01 -0.582148681066E+01  0.436357862313E+00
  0.710176681246E+01 -0.598146659142E+01  0.436096910756E+00
  0.770058742860E+01 -0.614151935240E+01  0.435962298928E+00
  0.829928554833E+01 -0.630185932776E+01  0.435815868140E+00
  0.889872000000E+01 -0.645867000000E+01  0.434732000000E+00
  0.384248000000E+01 -0.601028000000E+01  0.351978000000E+00
  0.444619000000E+01 -0.617204000000E+01  0.351978000000E+00
  0.504989000000E+01 -0.633380000000E+01  0.351978000000E+00
  0.565359000000E+01 -0.649556000000E+01  0.351978000000E+00
  0.625730000000E+01 -0.665733000000E+01  0.351978000000E+00
  0.686100000000E+01 -0.681909000000E+01  0.351978000000E+00
  0.746471000000E+01 -0.698085000000E+01  0.351978000000E+00
  0.806841000000E+01 -0.714261000000E+01  0.351978000000E+00
  0.867211000000E+01 -0.730437000000E+01  0.351978000000E+00
  0.497150000000E+01 -0.179674000000E+01  0.695288000000E+00
  0.557520000000E+01 -0.195850000000E+01  0.695288000000E+00
  0.617891000000E+01 -0.212026000000E+01  0.695288000000E+00
  0.678261000000E+01 -0.228203000000E+01  0.695288000000E+00
  0.738631000000E+01 -0.244379000000E+01  0.695288000000E+00
  0.799002000000E+01 -0.260555000000E+01  0.695288000000E+00
  0.859372000000E+01 -0.276731000000E+01  0.695288000000E+00
  0.919742000000E+01 -0.292907000000E+01  0.695288000000E+00
  0.980113000000E+01 -0.309084000000E+01  0.695288000000E+00
  0.480587070763E+01 -0.260807233685E+01  0.859579752029E+00
  0.540089170287E+01 -0.276767469674E+01  0.868481464086E+00
  0.599845951842E+01 -0.292938981276E+01  0.868934569670E+00
  0.659623496754E+01 -0.308924486938E+01  0.866885346614E+00
  0.719393537289E+01 -0.324903900721E+01  0.865191118549E+00
  0.779192959981E+01 -0.340893410060E+01  0.864122847518E+00
  0.839020974403E+01 -0.356907684326E+01  0.863528150839E+00
  0.898876806169E+01 -0.372907435352E+01  0.863036137714E+00
  0.958652000000E+01 -0.389178000000E+01  0.860798000000E+00
  0.459876136861E+01 -0.344680785158E+01  0.940084334453E+00
  0.519206266696E+01 -0.361398482668E+01  0.954760812680E+00
  0.578620180915E+01 -0.377474308925E+01  0.957875185488E+00
  0.638128328534E+01 -0.393408578896E+01  0.956252473089E+00
  0.697677821583E+01 -0.409305051865E+01  0.954342277128E+00
  0.757248196805E+01 -0.425210157904E+01  0.952992524032E+00
  0.816828739503E+01 -0.441126806487E+01  0.952079607915E+00
  0.876422535969E+01 -0.457066466603E+01  0.950791801726E+00
  0.936155000000E+01 -0.473135000000E+01  0.947812000000E+00
  0.436592379987E+01 -0.429798864924E+01  0.936223907296E+00
  0.495604982837E+01 -0.446844865980E+01  0.954226545757E+00
  0.555152838202E+01 -0.462896745039E+01  0.956827581548E+00
  0.614810467719E+01 -0.478853687138E+01  0.955137353890E+00
  0.674490555348E+01 -0.494783972605E+01  0.953467942428E+00
  0.734162286271E+01 -0.510720431779E+01  0.952381237948E+00
  0.793818424854E+01 -0.526668254963E+01  0.951669552635E+00
  0.853475607852E+01 -0.542600619617E+01  0.950552010767E+00
  0.913302000000E+01 -0.558424000000E+01  0.947812000000E+00
  0.411124351591E+01 -0.513913129858E+01  0.858764437288E+00
  0.470561298184E+01 -0.530111545256E+01  0.864800647727E+00
  0.530655055175E+01 -0.546300908763E+01  0.864705175384E+00
  0.590785340005E+01 -0.562380833168E+01  0.863827087308E+00
  0.650846749908E+01 -0.578448798943E+01  0.863251051756E+00
  0.710868867554E+01 -0.594507091388E+01  0.862924529212E+00
  0.770864717868E+01 -0.610558046621E+01  0.862773088992E+00
  0.830829827100E+01 -0.626627938683E+01  0.862605010819E+00
  0.890806000000E+01 -0.642382000000E+01  0.860798000000E+00
  0.386382000000E+01 -0.593067000000E+01  0.695288000000E+00
  0.446752000000E+01 -0.609243000000E+01  0.695288000000E+00
  0.507122000000E+01 -0.625419000000E+01  0.695288000000E+00
  0.567493000000E+01 -0.641595000000E+01  0.695288000000E+00
  0.627863000000E+01 -0.657771000000E+01  0.695288000000E+00
  0.688233000000E+01 -0.673948000000E+01  0.695288000000E+00
  0.748604000000E+01 -0.690124000000E+01  0.695288000000E+00
  0.808974000000E+01 -0.706300000000E+01  0.695288000000E+00
  0.869345000000E+01 -0.722476000000E+01  0.695288000000E+00
  0.493653000000E+01 -0.192725000000E+01  0.102148000000E+01
  0.554023000000E+01 -0.208901000000E+01  0.102148000000E+01
  0.614394000000E+01 -0.225077000000E+01  0.102148000000E+01
  0.674764000000E+01 -0.241254000000E+01  0.102148000000E+01
  0.735134000000E+01 -0.257430000000E+01  0.102148000000E+01
  0.795505000000E+01 -0.273606000000E+01  0.102148000000E+01
  0.855875000000E+01 -0.289782000000E+01  0.102148000000E+01
  0.916245000000E+01 -0.305958000000E+01  0.102148000000E+01
  0.976616000000E+01 -0.322134000000E+01  0.102148000000E+01
  0.476431077998E+01 -0.266868474216E+01  0.127592295206E+01
  0.536068045871E+01 -0.282921850961E+01  0.127567214057E+01
  0.596513040004E+01 -0.299201053349E+01  0.127619657793E+01
  0.656761908664E+01 -0.315288022342E+01  0.127497850190E+01
  0.716887438997E+01 -0.331346376716E+01  0.127373546250E+01
  0.776946815580E+01 -0.347394446968E+01  0.127292134561E+01
  0.836991479021E+01 -0.363455060708E+01  0.127247609405E+01
  0.897016759770E+01 -0.379501221488E+01  0.127215683841E+01
  0.956900000000E+01 -0.395716000000E+01  0.126974000000E+01
  0.456253804886E+01 -0.346443789589E+01  0.139961138964E+01
  0.515623938360E+01 -0.362652896413E+01  0.140613782377E+01
  0.575806831414E+01 -0.378832271030E+01  0.140877110450E+01
  0.635994997592E+01 -0.394953327109E+01  0.140753081793E+01
  0.696073863153E+01 -0.410993184297E+01  0.140614277745E+01
  0.756047276696E+01 -0.427011971980E+01  0.140517695362E+01
  0.815952552449E+01 -0.443017202011E+01  0.140456295046E+01
  0.875781430064E+01 -0.459024593971E+01  0.140352942560E+01
  0.935631000000E+01 -0.475093000000E+01  0.140026000000E+01
  0.434334425990E+01 -0.427966128683E+01  0.139363210008E+01
  0.493484367834E+01 -0.444144978371E+01  0.140620758759E+01
  0.553743665468E+01 -0.460232042533E+01  0.140774122240E+01
  0.613973060529E+01 -0.476388003462E+01  0.140657714540E+01
  0.674092623124E+01 -0.492468742078E+01  0.140536072901E+01
  0.734105886801E+01 -0.508521757919E+01  0.140461621743E+01
  0.794045250933E+01 -0.524565534823E+01  0.140416922855E+01
  0.853912978474E+01 -0.540567781045E+01  0.140328846873E+01
  0.913827000000E+01 -0.556467000000E+01  0.140026000000E+01
  0.411286091214E+01 -0.507442213049E+01  0.127078860110E+01
  0.471180180218E+01 -0.523138015898E+01  0.127276542267E+01
  0.531610981748E+01 -0.539360868147E+01  0.127268751559E+01
  0.591909040867E+01 -0.555524476056E+01  0.127235411652E+01
  0.652129484414E+01 -0.571657833522E+01  0.127199741533E+01
  0.712293909821E+01 -0.587772570781E+01  0.127179315501E+01
  0.772433678244E+01 -0.603878823576E+01  0.127172926457E+01
  0.832530574477E+01 -0.619986067363E+01  0.127170626962E+01
  0.892558000000E+01 -0.635843000000E+01  0.126974000000E+01
  0.389879000000E+01 -0.580016000000E+01  0.102148000000E+01
  0.450249000000E+01 -0.596192000000E+01  0.102148000000E+01
  0.510619000000E+01 -0.612368000000E+01  0.102148000000E+01
  0.570990000000E+01 -0.628544000000E+01  0.102148000000E+01
  0.631360000000E+01 -0.644720000000E+01  0.102148000000E+01
  0.691730000000E+01 -0.660897000000E+01  0.102148000000E+01
  0.752101000000E+01 -0.677073000000E+01  0.102148000000E+01
  0.812471000000E+01 -0.693249000000E+01  0.102148000000E+01
  0.872841000000E+01 -0.709425000000E+01  0.102148000000E+01
  0.488878000000E+01 -0.210544000000E+01  0.132252000000E+01
  0.549249000000E+01 -0.226720000000E+01  0.132252000000E+01
  0.609619000000E+01 -0.242896000000E+01  0.132252000000E+01
  0.669989000000E+01 -0.259073000000E+01  0.132252000000E+01
  0.730360000000E+01 -0.275249000000E+01  0.132252000000E+01
  0.790730000000E+01 -0.291425000000E+01  0.132252000000E+01
  0.851100000000E+01 -0.307601000000E+01  0.132252000000E+01
  0.911471000000E+01 -0.323777000000E+01  0.132252000000E+01
  0.971841000000E+01 -0.339954000000E+01  0.132252000000E+01
  0.472286003053E+01 -0.276116131154E+01  0.166493987258E+01
  0.532703501842E+01 -0.292197330338E+01  0.165527288796E+01
  0.593022398831E+01 -0.308310312984E+01  0.165686238319E+01
  0.653362372632E+01 -0.324487213227E+01  0.165627754379E+01
  0.713650870389E+01 -0.340597642585E+01  0.165582814579E+01
  0.773888636604E+01 -0.356713263909E+01  0.165547171368E+01
  0.834113719688E+01 -0.372840488548E+01  0.165524194770E+01
  0.894371170664E+01 -0.388947553974E+01  0.165526629667E+01
  0.954381000000E+01 -0.405116000000E+01  0.165354000000E+01
  0.453063086116E+01 -0.349613369469E+01  0.183455221890E+01
  0.513193670892E+01 -0.365044266147E+01  0.182975261534E+01
  0.573557649713E+01 -0.381339190849E+01  0.183200384371E+01
  0.633998697268E+01 -0.397494603558E+01  0.183125825814E+01
  0.694322307282E+01 -0.413626126761E+01  0.183083088988E+01
  0.754555296383E+01 -0.429733209866E+01  0.183047293644E+01
  0.814743041193E+01 -0.445831590027E+01  0.183022418049E+01
  0.874876000986E+01 -0.461924199673E+01  0.183000667694E+01
  0.934851000000E+01 -0.478004000000E+01  0.182756000000E+01
  0.432801583890E+01 -0.425378647256E+01  0.182906130542E+01
  0.492839319737E+01 -0.440598350026E+01  0.183031726001E+01
  0.553254004362E+01 -0.456880536712E+01  0.183130330994E+01
  0.613686718333E+01 -0.473070103004E+01  0.183078832097E+01
  0.674013426870E+01 -0.489224245306E+01  0.183040224465E+01
  0.734255611290E+01 -0.505348570633E+01  0.183016104597E+01
  0.794452271323E+01 -0.521467420876E+01  0.182999197639E+01
  0.854598848054E+01 -0.537567380021E+01  0.182985525862E+01
  0.914607000000E+01 -0.553555000000E+01  0.182756000000E+01
  0.412659033875E+01 -0.498024765614E+01  0.165645581064E+01
  0.473351702691E+01 -0.513441445904E+01  0.165459793154E+01
  0.533524119436E+01 -0.529730214272E+01  0.165502812513E+01
  0.593848821459E+01 -0.545853114055E+01  0.165492812749E+01
  0.654147223114E+01 -0.562015591029E+01  0.165485280556E+01
  0.714425129071E+01 -0.578161589537E+01  0.165480007737E+01
  0.774698984295E+01 -0.594298170968E+01  0.165477317481E+01
  0.834982909950E+01 -0.610469900554E+01  0.165495704524E+01
  0.895076000000E+01 -0.626444000000E+01  0.165354000000E+01
  0.394653000000E+01 -0.562197000000E+01  0.132252000000E+01
  0.455024000000E+01 -0.578373000000E+01  0.132252000000E+01
  0.515394000000E+01 -0.594549000000E+01  0.132252000000E+01
  0.575764000000E+01 -0.610725000000E+01  0.132252000000E+01
  0.636135000000E+01 -0.626901000000E+01  0.132252000000E+01
  0.696505000000E+01 -0.643078000000E+01  0.132252000000E+01
  0.756875000000E+01 -0.659254000000E+01  0.132252000000E+01
  0.817246000000E+01 -0.675430000000E+01  0.132252000000E+01
  0.877616000000E+01 -0.691606000000E+01  0.132252000000E+01
  0.482944000000E+01 -0.232692000000E+01  0.159099000000E+01
  0.543314000000E+01 -0.248869000000E+01  0.159099000000E+01
  0.603684000000E+01 -0.265045000000E+01  0.159099000000E+01
  0.664055000000E+01 -0.281221000000E+01  0.159099000000E+01
  0.724425000000E+01 -0.297397000000E+01  0.159099000000E+01
  0.784795000000E+01 -0.313573000000E+01  0.159099000000E+01
  0.845166000000E+01 -0.329750000000E+01  0.159099000000E+01
  0.905536000000E+01 -0.345926000000E+01  0.159099000000E+01
  0.965906000000E+01 -0.362102000000E+01  0.159099000000E+01
  0.468204000000E+01 -0.287703000000E+01  0.200476000000E+01
  0.528574000000E+01 -0.303879000000E+01  0.200476000000E+01
  0.588944000000E+01 -0.320055000000E+01  0.200476000000E+01
  0.649315000000E+01 -0.336232000000E+01  0.200476000000E+01
  0.709685000000E+01 -0.352408000000E+01  0.200476000000E+01
  0.770055000000E+01 -0.368584000000E+01  0.200476000000E+01
  0.830426000000E+01 -0.384760000000E+01  0.200476000000E+01
  0.890796000000E+01 -0.400936000000E+01  0.200476000000E+01
  0.951166000000E+01 -0.417113000000E+01  0.200476000000E+01
  0.450876000000E+01 -0.352372000000E+01  0.222230000000E+01
  0.511246000000E+01 -0.368548000000E+01  0.222230000000E+01
  0.571616000000E+01 -0.384724000000E+01  0.222230000000E+01
  0.631987000000E+01 -0.400900000000E+01  0.222230000000E+01
  0.692357000000E+01 -0.417077000000E+01  0.222230000000E+01
  0.752727000000E+01 -0.433253000000E+01  0.222230000000E+01
  0.813098000000E+01 -0.449429000000E+01  0.222230000000E+01
  0.873468000000E+01 -0.465605000000E+01  0.222230000000E+01
  0.933838000000E+01 -0.481781000000E+01  0.222230000000E+01
  0.432656000000E+01 -0.420369000000E+01  0.222230000000E+01
  0.493026000000E+01 -0.436545000000E+01  0.222230000000E+01
  0.553397000000E+01 -0.452721000000E+01  0.222230000000E+01
  0.613767000000E+01 -0.468897000000E+01  0.222230000000E+01
  0.674137000000E+01 -0.485074000000E+01  0.222230000000E+01
  0.734508000000E+01 -0.501250000000E+01  0.222230000000E+01
  0.794878000000E+01 -0.517426000000E+01  0.222230000000E+01
  0.855248000000E+01 -0.533602000000E+01  0.222230000000E+01
  0.915619000000E+01 -0.549778000000E+01  0.222230000000E+01
  0.415328000000E+01 -0.485038000000E+01  0.200476000000E+01
  0.475698000000E+01 -0.501214000000E+01  0.200476000000E+01
  0.536069000000E+01 -0.517390000000E+01  0.200476000000E+01
  0.596439000000E+01 -0.533566000000E+01  0.200476000000E+01
  0.656809000000E+01 -0.549742000000E+01  0.200476000000E+01
  0.717180000000E+01 -0.565919000000E+01  0.200476000000E+01
  0.777550000000E+01 -0.582095000000E+01  0.200476000000E+01
  0.837920000000E+01 -0.598271000000E+01  0.200476000000E+01
  0.898291000000E+01 -0.614447000000E+01  0.200476000000E+01
  0.400588000000E+01 -0.540048000000E+01  0.159099000000E+01
  0.460958000000E+01 -0.556224000000E+01  0.159099000000E+01
  0.521329000000E+01 -0.572401000000E+01  0.159099000000E+01
  0.581699000000E+01 -0.588577000000E+01  0.159099000000E+01
  0.642069000000E+01 -0.604753000000E+01  0.159099000000E+01
  0.702440000000E+01 -0.620929000000E+01  0.159099000000E+01
  0.762810000000E+01 -0.637105000000E+01  0.159099000000E+01
  0.823180000000E+01 -0.653282000000E+01  0.159099000000E+01
  0.883551000000E+01 -0.669458000000E+01  0.159099000000E+01
 -0.818767004391E+01 -0.446996484355E+01  0.000000000000E+00
 -0.716640125379E+01 -0.680362662993E+01  0.000000000000E+00
 -0.582532997337E+01 -0.837724788916E+01  0.000000000000E+00
 -0.449129618924E+01 -0.935465210389E+01  0.000000000000E+00
 -0.315956636251E+01 -0.995708770939E+01  0.000000000000E+00
 -0.182668040388E+01 -0.102604340625E+02  0.000000000000E+00
 -0.497041069309E+00 -0.102835114605E+02  0.000000000000E+00
  0.840809038614E+00 -0.999029459918E+01  0.000000000000E+00
  0.170308609016E+01 -0.945982275667E+01  0.000000000000E+00
  0.264934000000E+01 -0.852255000000E+01  0.000000000000E+00
 -0.818774545510E+01 -0.441621633163E+01  0.798459595700E+00
 -0.716629454477E+01 -0.672184784459E+01  0.122737160320E+01
 -0.582529080370E+01 -0.827511387606E+01  0.151322513351E+01
 -0.449015303073E+01 -0.924032971871E+01  0.169089093191E+01
 -0.315742702462E+01 -0.983475215747E+01  0.180137165409E+01
 -0.182393483199E+01 -0.101342487647E+02  0.185914537739E+01
 -0.492530441618E+00 -0.101568425980E+02  0.187179765498E+01
  0.846702620941E+00 -0.986785381828E+01  0.184107864892E+01
  0.171335339162E+01 -0.935276138607E+01  0.168738760845E+01
  0.265940000000E+01 -0.845929000000E+01  0.114025569375E+01
 -0.818818787493E+01 -0.425690834414E+01  0.157687826799E+01
 -0.716605361506E+01 -0.647734643530E+01  0.242329571338E+01
 -0.582449476220E+01 -0.797166676260E+01  0.298844103745E+01
 -0.448666150943E+01 -0.890028560591E+01  0.333924694476E+01
 -0.315144354833E+01 -0.947129789983E+01  0.355682340650E+01
 -0.181492329812E+01 -0.975866547696E+01  0.367064512481E+01
 -0.479458442502E+00 -0.977961141847E+01  0.369394269207E+01
  0.867055858365E+00 -0.950315687316E+01  0.362967493838E+01
  0.175354359323E+01 -0.903711323151E+01  0.331923240256E+01
  0.268944000000E+01 -0.827083000000E+01  0.223339927975E+01
 -0.818887118169E+01 -0.399568673983E+01  0.231660206943E+01
 -0.716576183766E+01 -0.607551800486E+01  0.355943762574E+01
 -0.582250370494E+01 -0.747465503493E+01  0.438860414282E+01
 -0.448126780262E+01 -0.834354640844E+01  0.490310632852E+01
 -0.314174455694E+01 -0.887636371952E+01  0.522150977592E+01
 -0.179977822315E+01 -0.914346650320E+01  0.538718219959E+01
 -0.455829451613E+00 -0.916127185906E+01  0.541790887416E+01
  0.902282640451E+00 -0.890541409335E+01  0.531335127205E+01
  0.181687645300E+01 -0.852168469952E+01  0.483885961754E+01
  0.273896000000E+01 -0.796106000000E+01  0.324792373366E+01
 -0.818895725739E+01 -0.363846018013E+01  0.299919621343E+01
 -0.716592357139E+01 -0.552674495429E+01  0.460815507864E+01
 -0.582018429275E+01 -0.679678923898E+01  0.567949415916E+01
 -0.447437471906E+01 -0.758421945745E+01  0.634351066913E+01
 -0.312909991995E+01 -0.806511637281E+01  0.675389778520E+01
 -0.177940305513E+01 -0.830538648166E+01  0.696486690503E+01
 -0.425967504707E+00 -0.831866323063E+01  0.700104886461E+01
  0.939810089846E+00 -0.808847379026E+01  0.684770256593E+01
  0.189115759773E+01 -0.781889870112E+01  0.620486084105E+01
  0.280715000000E+01 -0.753640000000E+01  0.415282729130E+01
 -0.818909293040E+01 -0.319536072937E+01  0.360716179343E+01
 -0.716704999623E+01 -0.484664250125E+01  0.554217636273E+01
 -0.581764132061E+01 -0.595456827322E+01  0.682933127826E+01
 -0.446728589233E+01 -0.664148998196E+01  0.762628946738E+01
 -0.311487072435E+01 -0.705905566418E+01  0.811645395946E+01
 -0.175876777123E+01 -0.726627110122E+01  0.836845262717E+01
 -0.395848094351E+00 -0.727439770075E+01  0.840077381501E+01
  0.975799786574E+00 -0.707244481390E+01  0.819899276618E+01
  0.197195721372E+01 -0.695422184452E+01  0.739118241131E+01
  0.289295000000E+01 -0.700555000000E+01  0.493344850356E+01
 -0.819139547174E+01 -0.267804724207E+01  0.412718131430E+01
 -0.716750582747E+01 -0.404943827204E+01  0.633975169626E+01
 -0.581634669257E+01 -0.496967570696E+01  0.781034955102E+01
 -0.446038953271E+01 -0.553888531573E+01  0.871997224462E+01
 -0.310270507739E+01 -0.588375434608E+01  0.927771827853E+01
 -0.173844592297E+01 -0.605326262014E+01  0.956318496929E+01
 -0.366954793877E+00 -0.605444936544E+01  0.958493064406E+01
  0.101368830804E+01 -0.588673480898E+01  0.933738626139E+01
  0.205995486109E+01 -0.590698685716E+01  0.841233373622E+01
  0.303424000000E+01 -0.614055000000E+01  0.578772370896E+01
 -0.819417622307E+01 -0.209590597178E+01  0.454739372063E+01
 -0.716997126630E+01 -0.315583331825E+01  0.698232345523E+01
 -0.581568057157E+01 -0.386532027761E+01  0.859927979314E+01
 -0.445687019235E+01 -0.430438093138E+01  0.959951847143E+01
 -0.309238936563E+01 -0.456780187830E+01  0.102106521375E+02
 -0.172383441607E+01 -0.469597262523E+01  0.105216662585E+02
 -0.340075721457E+00 -0.469167478722E+01  0.105286522991E+02
  0.104306391318E+01 -0.455871211415E+01  0.102456761111E+02
  0.214691767450E+01 -0.473796837230E+01  0.921433350335E+01
  0.320142000000E+01 -0.513372000000E+01  0.639218386383E+01
 -0.819667795477E+01 -0.146651077011E+01  0.485386811527E+01
 -0.717335764122E+01 -0.218646326561E+01  0.745340820187E+01
 -0.581798812986E+01 -0.267034837071E+01  0.917785535533E+01
 -0.445578687218E+01 -0.296665509015E+01  0.102442688441E+02
 -0.308908712153E+01 -0.314487210372E+01  0.108954529536E+02
 -0.171395327655E+01 -0.322700283146E+01  0.112216406025E+02
 -0.327722346321E+00 -0.322015387528E+01  0.112196599948E+02
  0.105787127546E+01 -0.312292435540E+01  0.109058572552E+02
  0.222036360373E+01 -0.347800719351E+01  0.979490650083E+01
  0.339046000000E+01 -0.402099000000E+01  0.674589769964E+01
 -0.819922552549E+01 -0.802145483180E+00  0.504098794505E+01
 -0.717822970965E+01 -0.116845828652E+01  0.774064769258E+01
 -0.582254550066E+01 -0.141135977442E+01  0.953224590604E+01
 -0.446049530455E+01 -0.156106920024E+01  0.106394240340E+02
 -0.309096785314E+01 -0.164668985971E+01  0.113145941546E+02
 -0.171599127498E+01 -0.168566911573E+01  0.116515708924E+02
 -0.324700275130E+00 -0.167185500156E+01  0.116409275641E+02
  0.104229473731E+01 -0.161544413086E+01  0.113177933152E+02
  0.227384616785E+01 -0.215565595207E+01  0.101314040823E+02
  0.359729000000E+01 -0.284101000000E+01  0.686050461049E+01
 -0.820263667568E+01 -0.123310028360E+00  0.510376094097E+01
 -0.718429882234E+01 -0.122455511313E+00  0.783829526294E+01
 -0.583065519076E+01 -0.122603257117E+00  0.965368946272E+01
 -0.446986492485E+01 -0.118123329571E+00  0.107753659056E+02
 -0.310147049627E+01 -0.113799471077E+00  0.114593941162E+02
 -0.172665906150E+01 -0.103140620778E+00  0.117995634655E+02
 -0.338189027536E+00 -0.910863251910E-01  0.117867730133E+02
  0.103634796457E+01 -0.656790344847E-01  0.114570190870E+02
  0.229306922535E+01 -0.799489885760E+00  0.102254614576E+02
  0.381812000000E+01 -0.163350000000E+01  0.669259364534E+01
 -0.820665013481E+01  0.557879558901E+00  0.504099123720E+01
 -0.719174792890E+01  0.921290506347E+00  0.774357909868E+01
 -0.584204452396E+01  0.116835898658E+01  0.953919864809E+01
 -0.448404622152E+01  0.132286283930E+01  0.106487081085E+02
 -0.312002024818E+01  0.142199689908E+01  0.113257922054E+02
 -0.174743232177E+01  0.147505610222E+01  0.116638348931E+02
 -0.362519972680E+00  0.149479949322E+01  0.116495411044E+02
  0.100918129091E+01  0.147266206688E+01  0.113229121111E+02
  0.219143049431E+01  0.848887596611E+00  0.103033334038E+02
  0.346924000000E+01  0.119503000000E+00  0.762224551736E+01
 -0.821071493961E+01  0.122023363721E+01  0.485420465725E+01
 -0.720059506878E+01  0.194156575824E+01  0.745851189062E+01
 -0.585568793231E+01  0.242625443647E+01  0.919085744318E+01
 -0.450376641454E+01  0.273091071130E+01  0.102621870142E+02
 -0.314391209904E+01  0.291804204152E+01  0.109155210546E+02
 -0.178185189697E+01  0.301896703455E+01  0.112473831681E+02
 -0.400065077498E+00  0.303633850568E+01  0.112323720303E+02
  0.966230835829E+00  0.298311195206E+01  0.109189966190E+02
  0.205315848546E+01  0.246205139665E+01  0.100438059811E+02
  0.311159000000E+01  0.194949000000E+01  0.787990943105E+01
 -0.821474126092E+01  0.185113327720E+01  0.454704454871E+01
 -0.720915672435E+01  0.290963161167E+01  0.698964096560E+01
 -0.587273448499E+01  0.362336608941E+01  0.861711068836E+01
 -0.452594511218E+01  0.406822878983E+01  0.962312287404E+01
 -0.317586036849E+01  0.434238084996E+01  0.102392522604E+02
 -0.181960807952E+01  0.448565115052E+01  0.105539472816E+02
 -0.453385932884E+00  0.450531462518E+01  0.105505168638E+02
  0.910884609476E+00  0.441785836631E+01  0.102584323806E+02
  0.188967418527E+01  0.400496868573E+01  0.948438500423E+01
  0.276762000000E+01  0.373421000000E+01  0.763435575875E+01
 -0.821742877217E+01  0.243195777078E+01  0.412764811130E+01
 -0.721860066219E+01  0.380382691246E+01  0.634823988889E+01
 -0.588946945221E+01  0.472805116774E+01  0.782954627887E+01
 -0.455271090302E+01  0.530382997567E+01  0.874636499013E+01
 -0.320954345848E+01  0.565764619695E+01  0.930936614514E+01
 -0.186461197566E+01  0.584102323500E+01  0.960075792292E+01
 -0.506022696617E+00  0.586440787537E+01  0.961332737599E+01
  0.850855215424E+00  0.573948842973E+01  0.936443211198E+01
  0.172978058576E+01  0.543456476763E+01  0.864129541762E+01
  0.245735000000E+01  0.536055000000E+01  0.691835557544E+01
 -0.822132861292E+01  0.294936257524E+01  0.360607422705E+01
 -0.722713669740E+01  0.459959818927E+01  0.555209742340E+01
 -0.590593226112E+01  0.571123972360E+01  0.685352478250E+01
 -0.457898121216E+01  0.640328578111E+01  0.765628979919E+01
 -0.324716250272E+01  0.682922114050E+01  0.815123698876E+01
 -0.190954255185E+01  0.704860379612E+01  0.840575390392E+01
 -0.563624618938E+00  0.707426743307E+01  0.843376412145E+01
  0.789463109417E+00  0.691092350558E+01  0.821869859125E+01
  0.156502254534E+01  0.669281758149E+01  0.748575240904E+01
  0.219858000000E+01  0.672672000000E+01  0.570126513162E+01
 -0.822540452256E+01  0.339112947604E+01  0.299852670401E+01
 -0.723111141403E+01  0.528134765116E+01  0.461482253094E+01
 -0.591546323736E+01  0.655718498010E+01  0.569527171948E+01
 -0.459407840742E+01  0.734790118380E+01  0.636458796979E+01
 -0.326909532665E+01  0.783630890219E+01  0.677856223853E+01
 -0.193753162045E+01  0.808640153868E+01  0.699087631947E+01
 -0.600105552528E+00  0.811679860972E+01  0.702228656453E+01
  0.749796724389E+00  0.791537626699E+01  0.685551839156E+01
  0.146327673983E+01  0.759034531718E+01  0.628739759074E+01
  0.208004000000E+01  0.735507000000E+01  0.478213301870E+01
 -0.822898284290E+01  0.374873431966E+01  0.231569599601E+01
 -0.723580069313E+01  0.583146004093E+01  0.356388108858E+01
 -0.592331309739E+01  0.723485336954E+01  0.440103956067E+01
 -0.460697092959E+01  0.810675916865E+01  0.491926051689E+01
 -0.328844862976E+01  0.864677450990E+01  0.524119279865E+01
 -0.196566131274E+01  0.892450411749E+01  0.540824689050E+01
 -0.637892233746E+00  0.896017478449E+01  0.543465577099E+01
  0.703440541568E+00  0.873144879956E+01  0.533236567812E+01
  0.136062841639E+01  0.834214804653E+01  0.491024409989E+01
  0.198540000000E+01  0.785780000000E+01  0.372597860638E+01
 -0.823087782742E+01  0.400996412170E+01  0.157606295200E+01
 -0.723961443822E+01  0.623370222089E+01  0.242648569079E+01
 -0.592948566019E+01  0.773151837823E+01  0.299689297133E+01
 -0.461677673184E+01  0.866279472031E+01  0.335054163826E+01
 -0.330330740529E+01  0.924102501302E+01  0.357055028901E+01
 -0.198798693011E+01  0.954016411529E+01  0.368583669451E+01
 -0.671813057507E+00  0.957882354941E+01  0.370681656535E+01
  0.656560278124E+00  0.933164950807E+01  0.364916965394E+01
  0.127826218617E+01  0.889321957267E+01  0.337107450941E+01
  0.191647000000E+01  0.822453000000E+01  0.255544718365E+01
 -0.823220587498E+01  0.416923783960E+01  0.798259848758E+00
 -0.724191430145E+01  0.647906309591E+01  0.122912556425E+01
 -0.593345147825E+01  0.803469150386E+01  0.151714758068E+01
 -0.462301551337E+01  0.900240631703E+01  0.169674709508E+01
 -0.331243301102E+01  0.960409116768E+01  0.180854437845E+01
 -0.200075668438E+01  0.991613793576E+01  0.186713084795E+01
 -0.690429790008E+00  0.995766913585E+01  0.187879546027E+01
  0.628544833380E+00  0.969867956760E+01  0.185263101330E+01
  0.122911459760E+01  0.923329257630E+01  0.171411092896E+01
  0.187456000000E+01  0.844766000000E+01  0.129960046348E+01
 -0.823280950473E+01  0.422295964270E+01  0.000000000000E+00
 -0.724262347791E+01  0.656155332551E+01  0.000000000000E+00
 -0.593485747358E+01  0.813660935630E+01  0.000000000000E+00
 -0.462508215535E+01  0.911658418518E+01  0.000000000000E+00
 -0.331558786408E+01  0.972630029506E+01  0.000000000000E+00
 -0.200477854548E+01  0.100423811864E+02  0.000000000000E+00
 -0.696738885990E+00  0.100851306130E+02  0.000000000000E+00
  0.622290497061E+00  0.982317962378E+01  0.000000000000E+00
  0.121676449678E+01  0.935183147897E+01  0.000000000000E+00
  0.186051000000E+01  0.852255000000E+01  0.000000000000E+00
 -0.845341578299E+01 -0.229069770192E+01  0.000000000000E+00
 -0.848179181877E+01 -0.185838957622E+01  0.000000000000E+00
 -0.850337977900E+01 -0.142557901712E+01  0.000000000000E+00
 -0.851882008541E+01 -0.991890967988E+00  0.000000000000E+00
 -0.852875746252E+01 -0.557776460071E+00  0.000000000000E+00
 -0.853340036179E+01 -0.123401652151E+00  0.000000000000E+00
 -0.853264288108E+01  0.310981166162E+00  0.000000000000E+00
 -0.852622694402E+01  0.745097185776E+00  0.000000000000E+00
 -0.851375621553E+01  0.117900654543E+01  0.000000000000E+00
 -0.849477766394E+01  0.161203038032E+01  0.000000000000E+00
 -0.846950270634E+01  0.204497011518E+01  0.000000000000E+00
 -0.845340787538E+01 -0.226401056605E+01  0.397185292450E+00
 -0.848032415954E+01 -0.184668620880E+01  0.440987900140E+00
 -0.850108422259E+01 -0.142238897612E+01  0.474471221935E+00
 -0.851631900072E+01 -0.992570779619E+00  0.496824975121E+00
 -0.852613910409E+01 -0.558739197112E+00  0.507401374247E+00
 -0.853078113391E+01 -0.123317732464E+00  0.505953397273E+00
 -0.852998858623E+01  0.312028763779E+00  0.506721875305E+00
 -0.852371705336E+01  0.745904298267E+00  0.495401636130E+00
 -0.851142423869E+01  0.117587606545E+01  0.472429265104E+00
 -0.849331089801E+01  0.160053891581E+01  0.438944241298E+00
 -0.846930852974E+01  0.201839851541E+01  0.395731659467E+00
 -0.845354056500E+01 -0.218472851249E+01  0.785476496029E+00
 -0.847677535056E+01 -0.179273154317E+01  0.875890771136E+00
 -0.849535885621E+01 -0.138749385713E+01  0.945769205824E+00
 -0.850917899985E+01 -0.971519318204E+00  0.993564368116E+00
 -0.851833731243E+01 -0.549138200424E+00  0.101794125891E+01
 -0.852273719416E+01 -0.123141859148E+00  0.101655689126E+01
 -0.852203481274E+01  0.302860269259E+00  0.101721164090E+01
 -0.851630324055E+01  0.725219549241E+00  0.992029540511E+00
 -0.850542571131E+01  0.114139594333E+01  0.943570828558E+00
 -0.848946809146E+01  0.154700458346E+01  0.873558015426E+00
 -0.846895973730E+01  0.193940387337E+01  0.783463173214E+00
 -0.845379440348E+01 -0.205478321509E+01  0.115461262500E+01
 -0.847130248608E+01 -0.169784325120E+01  0.129509060819E+01
 -0.848576453824E+01 -0.132120958290E+01  0.140543848416E+01
 -0.849741381211E+01 -0.930392640082E+00  0.148322658370E+01
 -0.850508831675E+01 -0.529388083055E+00  0.152394043297E+01
 -0.850922552521E+01 -0.122885444655E+00  0.152743305137E+01
 -0.850857738433E+01  0.283663780758E+00  0.152313669792E+01
 -0.850419644164E+01  0.684775574736E+00  0.148164244501E+01
 -0.849534581190E+01  0.107580702554E+01  0.140303808408E+01
 -0.848338072787E+01  0.145276145341E+01  0.129234868321E+01
 -0.846843638384E+01  0.180983083382E+01  0.115233061756E+01
 -0.845392243189E+01 -0.187686877804E+01  0.149504741660E+01
 -0.846381833776E+01 -0.156419645647E+01  0.169139999449E+01
 -0.847337379784E+01 -0.122714145856E+01  0.184843671036E+01
 -0.848095693305E+01 -0.870548485360E+00  0.196001692241E+01
 -0.848649101225E+01 -0.500128733177E+00  0.202345743040E+01
 -0.848965584663E+01 -0.122641309531E+00  0.203702774955E+01
 -0.848976625524E+01  0.254772577617E+00  0.202264501935E+01
 -0.848731674225E+01  0.625414493244E+00  0.195841433546E+01
 -0.848247493505E+01  0.982291842023E+00  0.184605299497E+01
 -0.847517477897E+01  0.131972344253E+01  0.168839976056E+01
 -0.846745719894E+01  0.163247726428E+01  0.149220715612E+01
 -0.845415424284E+01 -0.165535053605E+01  0.179863377442E+01
 -0.845590607577E+01 -0.139711795355E+01  0.205896116908E+01
 -0.845794480630E+01 -0.110742344822E+01  0.226834057671E+01
 -0.845996319898E+01 -0.793344343813E+00  0.242125438425E+01
 -0.846185911855E+01 -0.461935399488E+00  0.251484255013E+01
 -0.846350940788E+01 -0.122828841622E+00  0.254597698373E+01
 -0.846485564288E+01  0.217238309273E+00  0.251401340691E+01
 -0.846570811923E+01  0.548050995501E+00  0.242012031739E+01
 -0.846629248631E+01  0.862661573860E+00  0.226631236724E+01
 -0.846641195614E+01  0.115262613691E+01  0.205635067668E+01
 -0.846634947881E+01  0.141113466171E+01  0.179566666490E+01
CELLS       1130     10170
8      0      9     10      1     99    108    109    100
8     99    108    109    100    198    207    208    199
8    198    207    208    199    297    306    307    298
8    297    306    307    298    396    405    406    397
8    396    405    406    397    495    504    505    496
8      9     18     19     10    108    117    118    109
8    108    117    118    109    207    216    217    208
8    207    216    217    208    306    315    316    307
8    306    315    316    307    405    414    415    406
8    405    414    415    406    504    513    514    505
8     18     27     28     19    117    126    127    118
8    117    126    127    118    216    225    226    217
8    216    225    226    217    315    324    325    316
8    315    324    325    316    414    423    424    415
8    414    423    424    415    513    522    523    514
8     27     36     37     28    126    135    136    127
8    126    135    136    127    225    234    235    226
8    225    234    235    226    324    333    334    325
8    324    333    334    325    423    432    433    424
8    423    432    433    424    522    531    532    523
8     36     45     46     37    135    144    145    136
8    135    144    145    136    234    243    244    235
8    234    243    244    235    333    342    343    334
8    333    342    343    334    432    441    442    433
8    432    441    442    433    531    540    541    532
8     45     54     55     46    144    153    154    145
8    144    153    154    145    243    252    253    244
8    243    252    253    244    342    351    352    343
8    342    351    352    343    441    450    451    442
8    441    450    451    442    540    549    550    541
8     54     63     64     55    153    162    163    154
8    153    162    163    154    252    261    262    253
8    252    261    262    253    351    360    361    352
8    351    360    361    352    450    459    460    451
8    450    459    460    451    549    558    559    550
8     63     72     73     64    162    171    172    163
8    162    171    172    163    261    270    271    262
8    261    270    271    262    360    369    370    361
8    360    369    370    361    459    468    469    460
8    459    468    469    460    558    567    568    559
8     72     81     82     73    171    180    181    172
8    171    180    181    172    270    279    280    271
8    270    279    280    271    369    378    379    370
8    369    378    379    370    468    477    478    469
8    468    477    478    469    567    576    577    568
8     81     90     91     82    180    189    190    181
8    180    189    190    181    279    288    289    280
8    279    288    289    280    378    387    388    379
8    378    387    388    379    477    486    487    478
8    477    486    487    478    576    585    586    577
8      1     10     11      2    100    109    110    101
8    100    109    110    101    199    208    209    200
8    199    208    209    200    298    307    308    299
8    298    307    308    299    397    406    407    398
8    397    406    407    398    496    505    506    497
8     10     19     20     11    109    118    119    110
8    109    118    119    110    208    217    218    209
8    208    217    218    209    307    316    317    308
8    307    316    317    308    406    415    416    407
8    406    415    416    407    505    514    515    506
8     19     28     29     20    118    127    128    119
8    118    127    128    119    217    226    227    218
8    217    226    227    218    316    325    326    317
8    316    325    326    317    415    424    425    416
8    415    424    425    416    514    523    524    515
8     28     37     38     29    127    136    137    128
8    127    136    137    128    226    235    236    227
8    226    235    236    227    325    334    335    326
8    325    334    335    326    424    433    434    425
8    424    433    434    425    523    532    533    524
8     37     46     47     38    136    145    146    137
8    136    145    146    137    235    244    245    236
8    235    244    245    236    334    343    344    335
8    334    343    344    335    433    442    443    434
8    433    442    443    434    532    541    542    533
8     46     55     56     47    145    154    155    146
8    145    154    155    146    244    253    254    245
8    244    253    254    245    343    352    353    344
8    343    352    353    344    442    451    452    443
8    442    451    452    443    541    550    551    542
8     55     64     65     56    154    163    164    155
8    154    163    164    155    253    262    263    254
8    253    262    263    254    352    361    362    353
8    352    361    362    353    451    460    461    452
8    451    460    461    452    550    559    560    551
8     64     73     74     65    163    172    173    164
8    163    172    173    164    262    271    272    263
8    262    271    272    263    361    370    371    362
8    361    370    371    362    460    469    470    461
8    460    469    470    461    559    568    569    560
8     73     82     83     74    172    181    182    173
8    172    181    182    173    271    280    281    272
8    271    280    281    272    370    379    380    371
8    370    379    380    371    469    478    479    470
8    469    478    479    470    568    577    578    569
8     82     91     92     83    181    190    191    182
8    181    190    191    182    280    289    290    281
8    280    289    290    281    379    388    389    380
8    379    388    389    380    478    487    488    479
8    478    487    488    479    577    586    587    578
8      2     11     12      3    101    110    111    102
8    101    110    111    102    200    209    210    201
8    200    209    210    201    299    308    309    300
8    299    308    309    300    398    407    408    399
8    398    407    408    399    497    506    507    498
8     11     20     21     12    110    119    120    111
8    110    119    120    111    209    218    219    210
8    209    218    219    210    308    317    318    309
8    308    317    318    309    407    416    417    408
8    407    416    417    408    506    515    516    507
8     20     29     30     21    119    128    129    120
8    119    128    129    120    218    227    228    219
8    218    227    228    219    317    326    327    318
8    317    326    327    318    416    425    426    417
8    416    425    426    417    515    524    525    516
8     29     38     39     30    128    137    138    129
8    128    137    138    129    227    236    237    228
8    227    236    237    228    326    335    336    327
8    326    335    336    327    425    434    435    426
8    425    434    435    426    524    533    534    525
8     38     47     48     39    137    146    147    138
8    137    146    147    138    236    245    246    237
8    236    245    246    237    335    344    345    336
8    335    344    345    336    434    443    444    435
8    434    443    444    435    533    542    543    534
8     47     56     57     48    146    155    156    147
8    146    155    156    147    245    254    255    246
8    245    254    255    246    344    353    354    345
8    344    353    354    345    443    452    453    444
8    443    452    453    444    542    551    552    543
8     56     65     66     57    155    164    165    156
8    155    164    165    156    254    263    264    255
8    254    263    264    255    353    362    363    354
8    353    362    363    354    452    461    462    453
8    452    461    462    453    551    560    561    552
8     65     74     75     66    164    173    174    165
8    164    173    174    165    263    272    273    264
8    263    272    273    264    362    371    372    363
8    362    371    372    363    461    470    471    462
8    461    470    471    462    560    569    570    561
8     74     83     84     75    173    182    183    174
8    173    182    183    174    272    281    282    273
8    272    281    282    273    371    380    381    372
8    371    380    381    372    470    479    480    471
8    470    479    480    471    569    578    579    570
8     83     92     93     84    182    191    192    183
8    182    191    192    183    281    290    291    282
8    281    290    291    282    380    389    390    381
8    380    389    390    381    479    488    489    480
8    479    488    489    480    578    587    588    579
8      3     12     13      4    102    111    112    103
8    102    111    112    103    201    210    211    202
8    201    210    211    202    300    309    310    301
8    300    309    310    301    399    408    409    400
8    399    408    409    400    498    507    508    499
8     12     21     22     13    111    120    121    112
8    111    120    121    112    210    219    220    211
8    210    219    220    211    309    318    319    310
8    309    318    319    310    408    417    418    409
8    408    417    418    409    507    516    517    508
8     21     30     31     22    120    129    130    121
8    120    129    130    121    219    228    229    220
8    219    228    229    220    318    327    328    319
8    318    327    328    319    417    426    427    418
8    417    426    427    418    516    525    526    517
8     30     39     40     31    129    138    139    130
8    129    138    139    130    228    237    238    229
8    228    237    238    229    327    336    337    328
8    327    336    337    328    426    435    436    427
8    426    435    436    427    525    534    535    526
8     39     48     49     40    138    147    148    139
8    138    147    148    139    237    246    247    238
8    237    246    247    238    336    345    346    337
8    336    345    346    337    435    444    445    436
8    435    444    445    436    534    543    544    535
8     48     57     58     49    147    156    157    148
8    147    156    157    148    246    255    256    247
8    246    255    256    247    345    354    355    346
8    345    354    355    346    444    453    454    445
8    444    453    454    445    543    552    553    544
8     57     66     67     58    156    165    166    157
8    156    165    166    157    255    264    265    256
8    255    264    265    256    354    363    364    355
8    354    363    364    355    453    462    463    454
8    453    462    463    454    552    561    562    553
8     66     75     76     67    165    174    175    166
8    165    174    175    166    264    273    274    265
8    264    273    274    265    363    372    373    364
8    363    372    373    364    462    471    472    463
8    462    471    472    463    561    570    571    562
8     75     84     85     76    174    183    184    175
8    174    183    184    175    273    282    283    274
8    273    282    283    274    372    381    382    373
8    372    381    382    373    471    480    481    472
8    471    480    481    472    570    579    580    571
8     84     93     94     85    183    192    193    184
8    183    192    193    184    282    291    292    283
8    282    291    292    283    381    390    391    382
8    381    390    391    382    480    489    490    481
8    480    489    490    481    579    588    589    580
8      4     13     14      5    103    112    113    104
8    103    112    113    104    202    211    212    203
8    202    211    212    203    301    310    311    302
8    301    310    311    302    400    409    410    401
8    400    409    410    401    499    508    509    500
8     13     22     23     14    112    121    122    113
8    112    121    122    113    211    220    221    212
8    211    220    221    212    310    319    320    311
8    310    319    320    311    409    418    419    410
8    409    418    419    410    508    517    518    509
8     22     31     32     23    121    130    131    122
8    121    130    131    122    220    229    230    221
8    220    229    230    221    319    328    329    320
8    319    328    329    320    418    427    428    419
8    418    427    428    419    517    526    527    518
8     31     40     41     32    130    139    140    131
8    130    139    140    131    229    238    239    230
8    229    238    239    230    328    337    338    329
8    328    337    338    329    427    436    437    428
8    427    436    437    428    526    535    536    527
8     40     49     50     41    139    148    149    140
8    139    148    149    140    238    247    248    239
8    238    247    248    239    337    346    347    338
8    337    346    347    338    436    445    446    437
8    436    445    446    437    535    544    545    536
8     49     58     59     50    148    157    158    149
8    148    157    158    149    247    256    257    248
8    247    256    257    248    346    355    356    347
8    346    355    356    347    445    454    455    446
8    445    454    455    446    544    553    554    545
8     58     67     68     59    157    166    167    158
8    157    166    167    158    256    265    266    257
8    256    265    266    257    355    364    365    356
8    355    364    365    356    454    463    464    455
8    454    463    464    455    553    562    563    554
8     67     76     77     68    166    175    176    167
8    166    175    176    167    265    274    275    266
8    265    274    275    266    364    373    374    365
8    364    373    374    365    463    472    473    464
8    463    472    473    464    562    571    572    563
8     76     85     86     77    175    184    185    176
8    175    184    185    176    274    283    284    275
8    274    283    284    275    373    382    383    374
8    373    382    383    374    472    481    482    473
8    472    481    482    473    571    580    581    572
8     85     94     95     86    184    193    194    185
8    184    193    194    185    283    292    293    284
8    283    292    293    284    382    391    392    383
8    382    391    392    383    481    490    491    482
8    481    490    491    482    580    589    590    581
8      5     14     15      6    104    113    114    105
8    104    113    114    105    203    212    213    204
8    203    212    213    204    302    311    312    303
8    302    311    312    303    401    410    411    402
8    401    410    411    402    500    509    510    501
8     14     23     24     15    113    122    123    114
8    113    122    123    114    212    221    222    213
8    212    221    222    213    311    320    321    312
8    311    320    321    312    410    419    420    411
8    410    419    420    411    509    518    519    510
8     23     32     33     24    122    131    132    123
8    122    131    132    123    221    230    231    222
8    221    230    231    222    320    329    330    321
8    320    329    330    321    419    428    429    420
8    419    428    429    420    518    527    528    519
8     32     41     42     33    131    140    141    132
8    131    140    141    132    230    239    240    231
8    230    239    240    231    329    338    339    330
8    329    338    339    330    428    437    438    429
8    428    437    438    429    527    536    537    528
8     41     50     51     42    140    149    150    141
8    140    149    150    141    239    248    249    240
8    239    248    249    240    338    347    348    339
8    338    347    348    339    437    446    447    438
8    437    446    447    438    536    545    546    537
8     50     59     60     51    149    158    159    150
8    149    158    159    150    248    257    258    249
8    248    257    258    249    347    356    357    348
8    347    356    357    348    446    455    456    447
8    446    455    456    447    545    554    555    546
8     59     68     69     60    158    167    168    159
8    158    167    168    159    257    266    267    258
8    257    266    267    258    356    365    366    357
8    356    365    366    357    455    464    465    456
8    455    464    465    456    554    563    564    555
8     68     77     78     69    167    176    177    168
8    167    176    177    168    266    275    276    267
8    266    275    276    267    365    374    375    366
8    365    374    375    366    464    473    474    465
8    464    473    474    465    563    572    573    564
8     77     86     87     78    176    185    186    177
8    176    185    186    177    275    284    285    276
8    275    284    285    276    374    383    384    375
8    374    383    384    375    473    482    483    474
8    473    482    483    474    572    581    582    573
8     86     95     96     87    185    194    195    186
8    185    194    195    186    284    293    294    285
8    284    293    294    285    383    392    393    384
8    383    392    393    384    482    491    492    483
8    482    491    492    483    581    590    591    582
8      6     15     16      7    105    114    115    106
8    105    114    115    106    204    213    214    205
8    204    213    214    205    303    312    313    304
8    303    312    313    304    402    411    412    403
8    402    411    412    403    501    510    511    502
8     15     24     25     16    114    123    124    115
8    114    123    124    115    213    222    223    214
8    213    222    223    214    312    321    322    313
8    312    321    322    313    411    420    421    412
8    411    420    421    412    510    519    520    511
8     24     33     34     25    123    132    133    124
8    123    132    133    124    222    231    232    223
8    222    231    232    223    321    330    331    322
8    321    330    331    322    420    429    430    421
8    420    429    430    421    519    528    529    520
8     33     42     43     34    132    141    142    133
8    132    141    142    133    231    240    241    232
8    231    240    241    232    330    339    340    331
8    330    339    340    331    429    438    439    430
8    429    438    439    430    528    537    538    529
8     42     51     52     43    141    150    151    142
8    141    150    151    142    240    249    250    241
8    240    249    250    241    339    348    349    340
8    339    348    349    340    438    447    448    439
8    438    447    448    439    537    546    547    538
8     51     60     61     52    150    159    160    151
8    150    159    160    151    249    258    259    250
8    249    258    259    250    348    357    358    349
8    348    357    358    349    447    456    457    448
8    447    456    457    448    546    555    556    547
8     60     69     70     61    159    168    169    160
8    159    168    169    160    258    267    268    259
8    258    267    268    259    357    366    367    358
8    357    366    367    358    456    465    466    457
8    456    465    466    457    555    564    565    556
8     69     78     79     70    168    177    178    169
8    168    177    178    169    267    276    277    268
8    267    276    277    268    366    375    376    367
8    366    375    376    367    465    474    475    466
8    465    474    475    466    564    573    574    565
8     78     87     88     79    177    186    187    178
8    177    186    187    178    276    285    286    277
8    276    285    286    277    375    384    385    376
8    375    384    385    376    474    483    484    475
8    474    483    484    475    573    582    583    574
8     87     96     97     88    186    195    196    187
8    186    195    196    187    285    294    295    286
8    285    294    295    286    384    393    394    385
8    384    393    394    385    483    492    493    484
8    483    492    493    484    582    591    592    583
8      7     16     17      8    106    115    116    107
8    106    115    116    107    205    214    215    206
8    205    214    215    206    304    313    314    305
8    304    313    314    305    403    412    413    404
8    403    412    413    404    502    511    512    503
8     16     25     26     17    115    124    125    116
8    115    124    125    116    214    223    224    215
8    214    223    224    215    313    322    323    314
8    313    322    323    314    412    421    422    413
8    412    421    422    413    511    520    521    512
8     25     34     35     26    124    133    134    125
8    124    133    134    125    223    232    233    224
8    223    232    233    224    322    331    332    323
8    322    331    332    323    421    430    431    422
8    421    430    431    422    520    529    530    521
8     34     43     44     35    133    142    143    134
8    133    142    143    134    232    241    242    233
8    232    241    242    233    331    340    341    332
8    331    340    341    332    430    439    440    431
8    430    439    440    431    529    538    539    530
8     43     52     53     44    142    151    152    143
8    142    151    152    143    241    250    251    242
8    241    250    251    242    340    349    350    341
8    340    349    350    341    439    448    449    440
8    439    448    449    440    538    547    548    539
8     52     61     62     53    151    160    161    152
8    151    160    161    152    250    259    260    251
8    250    259    260    251    349    358    359    350
8    349    358    359    350    448    457    458    449
8    448    457    458    449    547    556    557    548
8     61     70     71     62    160    169    170    161
8    160    169    170    161    259    268    269    260
8    259    268    269    260    358    367    368    359
8    358    367    368    359    457    466    467    458
8    457    466    467    458    556    565    566    557
8     70     79     80     71    169    178    179    170
8    169    178    179    170    268    277    278    269
8    268    277    278    269    367    376    377    368
8    367    376    377    368    466    475    476    467
8    466    475    476    467    565    574    575    566
8     79     88     89     80    178    187    188    179
8    178    187    188    179    277    286    287    278
8    277    286    287    278    376    385    386    377
8    376    385    386    377    475    484    485    476
8    475    484    485    476    574    583    584    575
8     88     97     98     89    187    196    197    188
8    187    196    197    188    286    295    296    287
8    286    295    296    287    385    394    395    386
8    385    394    395    386    484    493    494    485
8    484    493    494    485    583    592    593    584
8     53     62    605    594    152    161    671    660
8    152    161    671    660    251    260    737    726
8    251    260    737    726    350    359    803    792
8    350    359    803    792    449    458    869    858
8    449    458    869    858    548    557    935    924
8     62     71    616    605    161    170    682    671
8    161    170    682    671    260    269    748    737
8    260    269    748    737    359    368    814    803
8    359    368    814    803    458    467    880    869
8    458    467    880    869    557    566    946    935
8     71     80    627    616    170    179    693    682
8    170    179    693    682    269    278    759    748
8    269    278    759    748    368    377    825    814
8    368    377    825    814    467    476    891    880
8    467    476    891    880    566    575    957    946
8     80     89    638    627    179    188    704    693
8    179    188    704    693    278    287    770    759
8    278    287    770    759    377    386    836    825
8    377    386    836    825    476    485    902    891
8    476    485    902    891    575    584    968    957
8     89     98    649    638    188    197    715    704
8    188    197    715    704    287    296    781    770
8    287    296    781    770    386    395    847    836
8    386    395    847    836    485    494    913    902
8    485    494    913    902    584    593    979    968
8      8     17   1025   1034    107    116   1079   1088
8    107    116   1079   1088    206    215   1133   1142
8    206    215   1133   1142    305    314   1187   1196
8    305    314   1187   1196    404    413   1241   1250
8    404    413   1241   1250    503    512   1295   1304
8     17     26   1016   1025    116    125   1070   1079
8    116    125   1070   1079    215    224   1124   1133
8    215    224   1124   1133    314    323   1178   1187
8    314    323   1178   1187    413    422   1232   1241
8    413    422   1232   1241    512    521   1286   1295
8     26     35   1007   1016    125    134   1061   1070
8    125    134   1061   1070    224    233   1115   1124
8    224    233   1115   1124    323    332   1169   1178
8    323    332   1169   1178    422    431   1223   1232
8    422    431   1223   1232    521    530   1277   1286
8     35     44    998   1007    134    143   1052   1061
8    134    143   1052   1061    233    242   1106   1115
8    233    242   1106   1115    332    341   1160   1169
8    332    341   1160   1169    431    440   1214   1223
8    431    440   1214   1223    530    539   1268   1277
8     44     53    594    998    143    152   1043   1052
8    143    152   1043   1052    242    251   1097   1106
8    242    251   1097   1106    341    350   1151   1160
8    341    350   1151   1160    440    449   1205   1214
8    440    449   1205   1214    539    548   1259   1268
8    594    605    606    595    660    671    672    661
8    660    671    672    661    726    737    738    727
8    726    737    738    727    792    803    804    793
8    792    803    804    793    858    869    870    859
8    858    869    870    859    924    935    936    925
8    605    616    617    606    671    682    683    672
8    671    682    683    672    737    748    749    738
8    737    748    749    738    803    814    815    804
8    803    814    815    804    869    880    881    870
8    869    880    881    870    935    946    947    936
8    616    627    628    617    682    693    694    683
8    682    693    694    683    748    759    760    749
8    748    759    760    749    814    825    826    815
8    814    825    826    815    880    891    892    881
8    880    891    892    881    946    957    958    947
8    627    638    639    628    693    704    705    694
8    693    704    705    694    759    770    771    760
8    759    770    771    760    825    836    837    826
8    825    836    837    826    891    902    903    892
8    891    902    903    892    957    968    969    958
8    638    649    650    639    704    715    716    705
8    704    715    716    705    770    781    782    771
8    770    781    782    771    836    847    848    837
8    836    847    848    837    902    913    914    903
8    902    913    914    903    968    979    980    969
8    595    606    607    596    661    672    673    662
8    661    672    673    662    727    738    739    728
8    727    738    739    728    793    804    805    794
8    793    804    805    794    859    870    871    860
8    859    870    871    860    925    936    937    926
8    606    617    618    607    672    683    684    673
8    672    683    684    673    738    749    750    739
8    738    749    750    739    804    815    816    805
8    804    815    816    805    870    881    882    871
8    870    881    882    871    936    947    948    937
8    617    628    629    618    683    694    695    684
8    683    694    695    684    749    760    761    750
8    749    760    761    750    815    826    827    816
8    815    826    827    816    881    892    893    882
8    881    892    893    882    947    958    959    948
8    628    639    640    629    694    705    706    695
8    694    705    706    695    760    771    772    761
8    760    771    772    761    826    837    838    827
8    826    837    838    827    892    903    904    893
8    892    903    904    893    958    969    970    959
8    639    650    651    640    705    716    717    706
8    705    716    717    706    771    782    783    772
8    771    782    783    772    837    848    849    838
8    837    848    849    838    903    914    915    904
8    903    914    915    904    969    980    981    970
8    596    607    608    597    662    673    674    663
8    662    673    674    663    728    739    740    729
8    728    739    740    729    794    805    806    795
8    794    805    806    795    860    871    872    861
8    860    871    872    861    926    937    938    927
8    607    618    619    608    673    684    685    674
8    673    684    685    674    739    750    751    740
8    739    750    751    740    805    816    817    806
8    805    816    817    806    871    882    883    872
8    871    882    883    872    937    948    949    938
8    618    629    630    619    684    695    696    685
8    684    695    696    685    750    761    762    751
8    750    761    762    751    816    827    828    817
8    816    827    828    817    882    893    894    883
8    882    893    894    883    948    959    960    949
8    629    640    641    630    695    706    707    696
8    695    706    707    696    761    772    773    762
8    761    772    773    762    827    838    839    828
8    827    838    839    828    893    904    905    894
8    893    904    905    894    959    970    971    960
8    640    651    652    641    706    717    718    707
8    706    717    718    707    772    783    784    773
8    772    783    784    773    838    849    850    839
8    838    849    850    839    904    915    916    905
8    904    915    916    905    970    981    982    971
8    597    608    609    598    663    674    675    664
8    663    674    675    664    729    740    741    730
8    729    740    741    730    795    806    807    796
8    795    806    807    796    861    872    873    862
8    861    872    873    862    927    938    939    928
8    608    619    620    609    674    685    686    675
8    674    685    686    675    740    751    752    741
8    740    751    752    741    806    817    818    807
8    806    817    818    807    872    883    884    873
8    872    883    884    873    938    949    950    939
8    619    630    631    620    685    696    697    686
8    685    696    697    686    751    762    763    752
8    751    762    763    752    817    828    829    818
8    817    828    829    818    883    894    895    884
8    883    894    895    884    949    960    961    950
8    630    641    642    631    696    707    708    697
8    696    707    708    697    762    773    774    763
8    762    773    774    763    828    839    840    829
8    828    839    840    829    894    905    906    895
8    894    905    906    895    960    971    972    961
8    641    652    653    642    707    718    719    708
8    707    718    719    708    773    784    785    774
8    773    784    785    774    839    850    851    840
8    839    850    851    840    905    916    917    906
8    905    916    917    906    971    982    983    972
8    598    609    610    599    664    675    676    665
8    664    675    676    665    730    741    742    731
8    730    741    742    731    796    807    808    797
8    796    807    808    797    862    873    874    863
8    862    873    874    863    928    939    940    929
8    609    620    621    610    675    686    687    676
8    675    686    687    676    741    752    753    742
8    741    752    753    742    807    818    819    808
8    807    818    819    808    873    884    885    874
8    873    884    885    874    939    950    951    940
8    620    631    632    621    686    697    698    687
8    686    697    698    687    752    763    764    753
8    752    763    764    753    818    829    830    819
8    818    829    830    819    884    895    896    885
8    884    895    896    885    950    961    962    951
8    631    642    643    632    697    708    709    698
8    697    708    709    698    763    774    775    764
8    763    774    775    764    829    840    841    830
8    829    840    841    830    895    906    907    896
8    895    906    907    896    961    972    973    962
8    642    653    654    643    708    719    720    709
8    708    719    720    709    774    785    786    775
8    774    785    786    775    840    851    852    841
8    840    851    852    841    906    917    918    907
8    906    917    918    907    972    983    984    973
8    599    610    611    600    665    676    677    666
8    665    676    677    666    731    742    743    732
8    731    742    743    732    797    808    809    798
8    797    808    809    798    863    874    875    864
8    863    874    875    864    929    940    941    930
8    610    621    622    611    676    687    688    677
8    676    687    688    677    742    753    754    743
8    742    753    754    743    808    819    820    809
8    808    819    820    809    874    885    886    875
8    874    885    886    875    940    951    952    941
8    621    632    633    622    687    698    699    688
8    687    698    699    688    753    764    765    754
8    753    764    765    754    819    830    831    820
8    819    830    831    820    885    896    897    886
8    885    896    897    886    951    962    963    952
8    632    643    644    633    698    709    710    699
8    698    709    710    699    764    775    776    765
8    764    775    776    765    830    841    842    831
8    830    841    842    831    896    907    908    897
8    896    907    908    897    962    973    974    963
8    643    654    655    644    709    720    721    710
8    709    720    721    710    775    786    787    776
8    775    786    787    776    841    852    853    842
8    841    852    853    842    907    918    919    908
8    907    918    919    908    973    984    985    974
8    600    611    612    601    666    677    678    667
8    666    677    678    667    732    743    744    733
8    732    743    744    733    798    809    810    799
8    798    809    810    799    864    875    876    865
8    864    875    876    865    930    941    942    931
8    611    622    623    612    677    688    689    678
8    677    688    689    678    743    754    755    744
8    743    754    755    744    809    820    821    810
8    809    820    821    810    875    886    887    876
8    875    886    887    876    941    952    953    942
8    622    633    634    623    688    699    700    689
8    688    699    700    689    754    765    766    755
8    754    765    766    755    820    831    832    821
8    820    831    832    821    886    897    898    887
8    886    897    898    887    952    963    964    953
8    633    644    645    634    699    710    711    700
8    699    710    711    700    765    776    777    766
8    765    776    777    766    831    842    843    832
8    831    842    843    832    897    908    909    898
8    897    908    909    898    963    974    975    964
8    644    655    656    645    710    721    722    711
8    710    721    722    711    776    787    788    777
8    776    787    788    777    842    853    854    843
8    842    853    854    843    908    919    920    909
8    908    919    920    909    974    985    986    975
8    601    612    613    602    667    678    679    668
8    667    678    679    668    733    744    745    734
8    733    744    745    734    799    810    811    800
8    799    810    811    800    865    876    877    866
8    865    876    877    866    931    942    943    932
8    612    623    624    613    678    689    690    679
8    678    689    690    679    744    755    756    745
8    744    755    756    745    810    821    822    811
8    810    821    822    811    876    887    888    877
8    876    887    888    877    942    953    954    943
8    623    634    635    624    689    700    701    690
8    689    700    701    690    755    766    767    756
8    755    766    767    756    821    832    833    822
8    821    832    833    822    887    898    899    888
8    887    898    899    888    953    964    965    954
8    634    645    646    635    700    711    712    701
8    700    711    712    701    766    777    778    767
8    766    777    778    767    832    843    844    833
8    832    843    844    833    898    909    910    899
8    898    909    910    899    964    975    976    965
8    645    656    657    646    711    722    723    712
8    711    722    723    712    777    788    789    778
8    777    788    789    778    843    854    855    844
8    843    854    855    844    909    920    921    910
8    909    920    921    910    975    986    987    976
8    602    613    614    603    668    679    680    669
8    668    679    680    669    734    745    746    735
8    734    745    746    735    800    811    812    801
8    800    811    812    801    866    877    878    867
8    866    877    878    867    932    943    944    933
8    613    624    625    614    679    690    691    680
8    679    690    691    680    745    756    757    746
8    745    756    757    746    811    822    823    812
8    811    822    823    812    877    888    889    878
8    877    888    889    878    943    954    955    944
8    624    635    636    625    690    701    702    691
8    690    701    702    691    756    767    768    757
8    756    767    768    757    822    833    834    823
8    822    833    834    823    888    899    900    889
8    888    899    900    889    954    965    966    955
8    635    646    647    636    701    712    713    702
8    701    712    713    702    767    778    779    768
8    767    778    779    768    833    844    845    834
8    833    844    845    834    899    910    911    900
8    899    910    911    900    965    976    977    966
8    646    657    658    647    712    723    724    713
8    712    723    724    713    778    789    790    779
8    778    789    790    779    844    855    856    845
8    844    855    856    845    910    921    922    911
8    910    921    922    911    976    987    988    977
8    603    614    615    604    669    680    681    670
8    669    680    681    670    735    746    747    736
8    735    746    747    736    801    812    813    802
8    801    812    813    802    867    878    879    868
8    867    878    879    868    933    944    945    934
8    614    625    626    615    680    691    692    681
8    680    691    692    681    746    757    758    747
8    746    757    758    747    812    823    824    813
8    812    823    824    813    878    889    890    879
8    878    889    890    879    944    955    956    945
8    625    636    637    626    691    702    703    692
8    691    702    703    692    757    768    769    758
8    757    768    769    758    823    834    835    824
8    823    834    835    824    889    900    901    890
8    889    900    901    890    955    966    967    956
8    636    647    648    637    702    713    714    703
8    702    713    714    703    768    779    780    769
8    768    779    780    769    834    845    846    835
8    834    845    846    835    900    911    912    901
8    900    911    912    901    966    977    978    967
8    647    658    659    648    713    724    725    714
8    713    724    725    714    779    790    791    780
8    779    790    791    780    845    856    857    846
8    845    856    857    846    911    922    923    912
8    911    922    923    912    977    988    989    978
8    998    594    990    999   1052   1043   1044   1053
8   1052   1043   1044   1053   1106   1097   1098   1107
8   1106   1097   1098   1107   1160   1151   1152   1161
8   1160   1151   1152   1161   1214   1205   1206   1215
8   1214   1205   1206   1215   1268   1259   1260   1269
8   1007    998    999   1008   1061   1052   1053   1062
8   1061   1052   1053   1062   1115   1106   1107   1116
8   1115   1106   1107   1116   1169   1160   1161   1170
8   1169   1160   1161   1170   1223   1214   1215   1224
8   1223   1214   1215   1224   1277   1268   1269   1278
8   1016   1007   1008   1017   1070   1061   1062   1071
8   1070   1061   1062   1071   1124   1115   1116   1125
8   1124   1115   1116   1125   1178   1169   1170   1179
8   1178   1169   1170   1179   1232   1223   1224   1233
8   1232   1223   1224   1233   1286   1277   1278   1287
8   1025   1016   1017   1026   1079   1070   1071   1080
8   1079   1070   1071   1080   1133   1124   1125   1134
8   1133   1124   1125   1134   1187   1178   1179   1188
8   1187   1178   1179   1188   1241   1232   1233   1242
8   1241   1232   1233   1242   1295   1286   1287   1296
8   1034   1025   1026   1035   1088   1079   1080   1089
8   1088   1079   1080   1089   1142   1133   1134   1143
8   1142   1133   1134   1143   1196   1187   1188   1197
8   1196   1187   1188   1197   1250   1241   1242   1251
8   1250   1241   1242   1251   1304   1295   1296   1305
8    999    990    991   1000   1053   1044   1045   1054
8   1053   1044   1045   1054   1107   1098   1099   1108
8   1107   1098   1099   1108   1161   1152   1153   1162
8   1161   1152   1153   1162   1215   1206   1207   1216
8   1215   1206   1207   1216   1269   1260   1261   1270
8   1008    999   1000   1009   1062   1053   1054   1063
8   1062   1053   1054   1063   1116   1107   1108   1117
8   1116   1107   1108   1117   1170   1161   1162   1171
8   1170   1161   1162   1171   1224   1215   1216   1225
8   1224   1215   1216   1225   1278   1269   1270   1279
8   1017   1008   1009   1018   1071   1062   1063   1072
8   1071   1062   1063   1072   1125   1116   1117   1126
8   1125   1116   1117   1126   1179   1170   1171   1180
8   1179   1170   1171   1180   1233   1224   1225   1234
8   1233   1224   1225   1234   1287   1278   1279   1288
8   1026   1017   1018   1027   1080   1071   1072   1081
8   1080   1071   1072   1081   1134   1125   1126   1135
8   1134   1125   1126   1135   1188   1179   1180   1189
8   1188   1179   1180   1189   1242   1233   1234   1243
8   1242   1233   1234   1243   1296   1287   1288   1297
8   1035   1026   1027   1036   1089   1080   1081   1090
8   1089   1080   1081   1090   1143   1134   1135   1144
8   1143   1134   1135   1144   1197   1188   1189   1198
8   1197   1188   1189   1198   1251   1242   1243   1252
8   1251   1242   1243   1252   1305   1296   1297   1306
8   1000    991    992   1001   1054   1045   1046   1055
8   1054   1045   1046   1055   1108   1099   1100   1109
8   1108   1099   1100   1109   1162   1153   1154   1163
8   1162   1153   1154   1163   1216   1207   1208   1217
8   1216   1207   1208   1217   1270   1261   1262   1271
8   1009   1000   1001   1010   1063   1054   1055   1064
8   1063   1054   1055   1064   1117   1108   1109   1118
8   1117   1108   1109   1118   1171   1162   1163   1172
8   1171   1162   1163   1172   1225   1216   1217   1226
8   1225   1216   1217   1226   1279   1270   1271   1280
8   1018   1009   1010   1019   1072   1063   1064   1073
8   1072   1063   1064   1073   1126   1117   1118   1127
8   1126   1117   1118   1127   1180   1171   1172   1181
8   1180   1171   1172   1181   1234   1225   1226   1235
8   1234   1225   1226   1235   1288   1279   1280   1289
8   1027   1018   1019   1028   1081   1072   1073   1082
8   1081   1072   1073   1082   1135   1126   1127   1136
8   1135   1126   1127   1136   1189   1180   1181   1190
8   1189   1180   1181   1190   1243   1234   1235   1244
8   1243   1234   1235   1244   1297   1288   1289   1298
8   1036   1027   1028   1037   1090   1081   1082   1091
8   1090   1081   1082   1091   1144   1135   1136   1145
8   1144   1135   1136   1145   1198   1189   1190   1199
8   1198   1189   1190   1199   1252   1243   1244   1253
8   1252   1243   1244   1253   1306   1297   1298   1307
8   1001    992    993   1002   1055   1046   1047   1056
8   1055   1046   1047   1056   1109   1100   1101   1110
8   1109   1100   1101   1110   1163   1154   1155   1164
8   1163   1154   1155   1164   1217   1208   1209   1218
8   1217   1208   1209   1218   1271   1262   1263   1272
8   1010   1001   1002   1011   1064   1055   1056   1065
8   1064   1055   1056   1065   1118   1109   1110   1119
8   1118   1109   1110   1119   1172   1163   1164   1173
8   1172   1163   1164   1173   1226   1217   1218   1227
8   1226   1217   1218   1227   1280   1271   1272   1281
8   1019   1010   1011   1020   1073   1064   1065   1074
8   1073   1064   1065   1074   1127   1118   1119   1128
8   1127   1118   1119   1128   1181   1172   1173   1182
8   1181   1172   1173   1182   1235   1226   1227   1236
8   1235   1226   1227   1236   1289   1280   1281   1290
8   1028   1019   1020   1029   1082   1073   1074   1083
8   1082   1073   1074   1083   1136   1127   1128   1137
8   1136   1127   1128   1137   1190   1181   1182   1191
8   1190   1181   1182   1191   1244   1235   1236   1245
8   1244   1235   1236   1245   1298   1289   1290   1299
8   1037   1028   1029   1038   1091   1082   1083   1092
8   1091   1082   1083   1092   1145   1136   1137   1146
8   1145   1136   1137   1146   1199   1190   1191   1200
8   1199   1190   1191   1200   1253   1244   1245   1254
8   1253   1244   1245   1254   1307   1298   1299   1308
8   1002    993    994   1003   1056   1047   1048   1057
8   1056   1047   1048   1057   1110   1101   1102   1111
8   1110   1101   1102   1111   1164   1155   1156   1165
8   1164   1155   1156   1165   1218   1209   1210   1219
8   1218   1209   1210   1219   1272   1263   1264   1273
8   1011   1002   1003   1012   1065   1056   1057   1066
8   1065   1056   1057   1066   1119   1110   1111   1120
8   1119   1110   1111   1120   1173   1164   1165   1174
8   1173   1164   1165   1174   1227   1218   1219   1228
8   1227   1218   1219   1228   1281   1272   1273   1282
8   1020   1011   1012   1021   1074   1065   1066   1075
8   1074   1065   1066   1075   1128   1119   1120   1129
8   1128   1119   1120   1129   1182   1173   1174   1183
8   1182   1173   1174   1183   1236   1227   1228   1237
8   1236   1227   1228   1237   1290   1281   1282   1291
8   1029   1020   1021   1030   1083   1074   1075   1084
8   1083   1074   1075   1084   1137   1128   1129   1138
8   1137   1128   1129   1138   1191   1182   1183   1192
8   1191   1182   1183   1192   1245   1236   1237   1246
8   1245   1236   1237   1246   1299   1290   1291   1300
8   1038   1029   1030   1039   1092   1083   1084   1093
8   1092   1083   1084   1093   1146   1137   1138   1147
8   1146   1137   1138   1147   1200   1191   1192   1201
8   1200   1191   1192   1201   1254   1245   1246   1255
8   1254   1245   1246   1255   1308   1299   1300   1309
8   1003    994    995   1004   1057   1048   1049   1058
8   1057   1048   1049   1058   1111   1102   1103   1112
8   1111   1102   1103   1112   1165   1156   1157   1166
8   1165   1156   1157   1166   1219   1210   1211   1220
8   1219   1210   1211   1220   1273   1264   1265   1274
8   1012   1003   1004   1013   1066   1057   1058   1067
8   1066   1057   1058   1067   1120   1111   1112   1121
8   1120   1111   1112   1121   1174   1165   1166   1175
8   1174   1165   1166   1175   1228   1219   1220   1229
8   1228   1219   1220   1229   1282   1273   1274   1283
8   1021   1012   1013   1022   1075   1066   1067   1076
8   1075   1066   1067   1076   1129   1120   1121   1130
8   1129   1120   1121   1130   1183   1174   1175   1184
8   1183   1174   1175   1184   1237   1228   1229   1238
8   1237   1228   1229   1238   1291   1282   1283   1292
8   1030   1021   1022   1031   1084   1075   1076   1085
8   1084   1075   1076   1085   1138   1129   1130   1139
8   1138   1129   1130   1139   1192   1183   1184   1193
8   1192   1183   1184   1193   1246   1237   1238   1247
8   1246   1237   1238   1247   1300   1291   1292   1301
8   1039   1030   1031   1040   1093   1084   1085   1094
8   1093   1084   1085   1094   1147   1138   1139   1148
8   1147   1138   1139   1148   1201   1192   1193   1202
8   1201   1192   1193   1202   1255   1246   1247   1256
8   1255   1246   1247   1256   1309   1300   1301   1310
8   1004    995    996   1005   1058   1049   1050   1059
8   1058   1049   1050   1059   1112   1103   1104   1113
8   1112   1103   1104   1113   1166   1157   1158   1167
8   1166   1157   1158   1167   1220   1211   1212   1221
8   1220   1211   1212   1221   1274   1265   1266   1275
8   1013   1004   1005   1014   1067   1058   1059   1068
8   1067   1058   1059   1068   1121   1112   1113   1122
8   1121   1112   1113   1122   1175   1166   1167   1176
8   1175   1166   1167   1176   1229   1220   1221   1230
8   1229   1220   1221   1230   1283   1274   1275   1284
8   1022   1013   1014   1023   1076   1067   1068   1077
8   1076   1067   1068   1077   1130   1121   1122   1131
8   1130   1121   1122   1131   1184   1175   1176   1185
8   1184   1175   1176   1185   1238   1229   1230   1239
8   1238   1229   1230   1239   1292   1283   1284   1293
8   1031   1022   1023   1032   1085   1076   1077   1086
8   1085   1076   1077   1086   1139   1130   1131   1140
8   1139   1130   1131   1140   1193   1184   1185   1194
8   1193   1184   1185   1194   1247   1238   1239   1248
8   1247   1238   1239   1248   1301   1292   1293   1302
8   1040   1031   1032   1041   1094   1085   1086   1095
8   1094   1085   1086   1095   1148   1139   1140   1149
8   1148   1139   1140   1149   1202   1193   1194   1203
8   1202   1193   1194   1203   1256   1247   1248   1257
8   1256   1247   1248   1257   1310   1301   1302   1311
8   1005    996    997   1006   1059   1050   1051   1060
8   1059   1050   1051   1060   1113   1104   1105   1114
8   1113   1104   1105   1114   1167   1158   1159   1168
8   1167   1158   1159   1168   1221   1212   1213   1222
8   1221   1212   1213   1222   1275   1266   1267   1276
8   1014   1005   1006   1015   1068   1059   1060   1069
8   1068   1059   1060   1069   1122   1113   1114   1123
8   1122   1113   1114   1123   1176   1167   1168   1177
8   1176   1167   1168   1177   1230   1221   1222   1231
8   1230   1221   1222   1231   1284   1275   1276   1285
8   1023   1014   1015   1024   1077   1068   1069   1078
8   1077   1068   1069   1078   1131   1122   1123   1132
8   1131   1122   1123   1132   1185   1176   1177   1186
8   1185   1176   1177   1186   1239   1230   1231   1240
8   1239   1230   1231   1240   1293   1284   1285   1294
8   1032   1023   1024   1033   1086   1077   1078   1087
8   1086   1077   1078   1087   1140   1131   1132   1141
8   1140   1131   1132   1141   1194   1185   1186   1195
8   1194   1185   1186   1195   1248   1239   1240   1249
8   1248   1239   1240   1249   1302   1293   1294   1303
8   1041   1032   1033   1042   1095   1086   1087   1096
8   1095   1086   1087   1096   1149   1140   1141   1150
8   1149   1140   1141   1150   1203   1194   1195   1204
8   1203   1194   1195   1204   1257   1248   1249   1258
8   1257   1248   1249   1258   1311   1302   1303   1312
8      0   1314   1324     99      1   1315   1325    100
8     99   1324   1334    198    100   1325   1335    199
8    198   1334   1344    297    199   1335   1345    298
8    297   1344   1354    396    298   1345   1355    397
8    396   1354   1364    495    397   1355   1365    496
8    495   1364   1374    504    496   1365   1375    505
8    504   1374   1384    513    505   1375   1385    514
8    513   1384   1394    522    514   1385   1395    523
8    522   1394   1404    531    523   1395   1405    532
8    531   1404   1414    540    532   1405   1415    541
8    540   1414   1424    549    541   1415   1425    550
8    549   1424   1434    558    550   1425   1435    559
8    558   1434   1444    567    559   1435   1445    568
8    567   1444   1454    576    568   1445   1455    577
8    576   1454   1464    585    577   1455   1465    586
8     90    189   1504   1514     91    190   1505   1515
8    189    288   1494   1504    190    289   1495   1505
8    288    387   1484   1494    289    388   1485   1495
8    387    486   1474   1484    388    487   1475   1485
8    486    585   1464   1474    487    586   1465   1475
8      1   1315   1325    100      2   1316   1326    101
8    100   1325   1335    199    101   1326   1336    200
8    199   1335   1345    298    200   1336   1346    299
8    298   1345   1355    397    299   1346   1356    398
8    397   1355   1365    496    398   1356   1366    497
8    496   1365   1375    505    497   1366   1376    506
8    505   1375   1385    514    506   1376   1386    515
8    514   1385   1395    523    515   1386   1396    524
8    523   1395   1405    532    524   1396   1406    533
8    532   1405   1415    541    533   1406   1416    542
8    541   1415   1425    550    542   1416   1426    551
8    550   1425   1435    559    551   1426   1436    560
8    559   1435   1445    568    560   1436   1446    569
8    568   1445   1455    577    569   1446   1456    578
8    577   1455   1465    586    578   1456   1466    587
8     91    190   1505   1515     92    191   1506   1516
8    190    289   1495   1505    191    290   1496   1506
8    289    388   1485   1495    290    389   1486   1496
8    388    487   1475   1485    389    488   1476   1486
8    487    586   1465   1475    488    587   1466   1476
8      2   1316   1326    101      3   1317   1327    102
8    101   1326   1336    200    102   1327   1337    201
8    200   1336   1346    299    201   1337   1347    300
8    299   1346   1356    398    300   1347   1357    399
8    398   1356   1366    497    399   1357   1367    498
8    497   1366   1376    506    498   1367   1377    507
8    506   1376   1386    515    507   1377   1387    516
8    515   1386   1396    524    516   1387   1397    525
8    524   1396   1406    533    525   1397   1407    534
8    533   1406   1416    542    534   1407   1417    543
8    542   1416   1426    551    543   1417   1427    552
8    551   1426   1436    560    552   1427   1437    561
8    560   1436   1446    569    561   1437   1447    570
8    569   1446   1456    578    570   1447   1457    579
8    578   1456   1466    587    579   1457   1467    588
8     92    191   1506   1516     93    192   1507   1517
8    191    290   1496   1506    192    291   1497   1507
8    290    389   1486   1496    291    390   1487   1497
8    389    488   1476   1486    390    489   1477   1487
8    488    587   1466   1476    489    588   1467   1477
8      3   1317   1327    102      4   1318   1328    103
8    102   1327   1337    201    103   1328   1338    202
8    201   1337   1347    300    202   1338   1348    301
8    300   1347   1357    399    301   1348   1358    400
8    399   1357   1367    498    400   1358   1368    499
8    498   1367   1377    507    499   1368   1378    508
8    507   1377   1387    516    508   1378   1388    517
8    516   1387   1397    525    517   1388   1398    526
8    525   1397   1407    534    526   1398   1408    535
8    534   1407   1417    543    535   1408   1418    544
8    543   1417   1427    552    544   1418   1428    553
8    552   1427   1437    561    553   1428   1438    562
8    561   1437   1447    570    562   1438   1448    571
8    570   1447   1457    579    571   1448   1458    580
8    579   1457   1467    588    580   1458   1468    589
8     93    192   1507   1517     94    193   1508   1518
8    192    291   1497   1507    193    292   1498   1508
8    291    390   1487   1497    292    391   1488   1498
8    390    489   1477   1487    391    490   1478   1488
8    489    588   1467   1477    490    589   1468   1478
8      4   1318   1328    103      5   1319   1329    104
8    103   1328   1338    202    104   1329   1339    203
8    202   1338   1348    301    203   1339   1349    302
8    301   1348   1358    400    302   1349   1359    401
8    400   1358   1368    499    401   1359   1369    500
8    499   1368   1378    508    500   1369   1379    509
8    508   1378   1388    517    509   1379   1389    518
8    517   1388   1398    526    518   1389   1399    527
8    526   1398   1408    535    527   1399   1409    536
8    535   1408   1418    544    536   1409   1419    545
8    544   1418   1428    553    545   1419   1429    554
8    553   1428   1438    562    554   1429   1439    563
8    562   1438   1448    571    563   1439   1449    572
8    571   1448   1458    580    572   1449   1459    581
8    580   1458   1468    589    581   1459   1469    590
8     94    193   1508   1518     95    194   1509   1519
8    193    292   1498   1508    194    293   1499   1509
8    292    391   1488   1498    293    392   1489   1499
8    391    490   1478   1488    392    491   1479   1489
8    490    589   1468   1478    491    590   1469   1479
8      5   1319   1329    104      6   1320   1330    105
8    104   1329   1339    203    105   1330   1340    204
8    203   1339   1349    302    204   1340   1350    303
8    302   1349   1359    401    303   1350   1360    402
8    401   1359   1369    500    402   1360   1370    501
8    500   1369   1379    509    501   1370   1380    510
8    509   1379   1389    518    510   1380   1390    519
8    518   1389   1399    527    519   1390   1400    528
8    527   1399   1409    536    528   1400   1410    537
8    536   1409   1419    545    537   1410   1420    546
8    545   1419   1429    554    546   1420   1430    555
8    554   1429   1439    563    555   1430   1440    564
8    563   1439   1449    572    564   1440   1450    573
8    572   1449   1459    581    573   1450   1460    582
8    581   1459   1469    590    582   1460   1470    591
8     95    194   1509   1519     96    195   1510   1520
8    194    293   1499   1509    195    294   1500   1510
8    293    392   1489   1499    294    393   1490   1500
8    392    491   1479   1489    393    492   1480   1490
8    491    590   1469   1479    492    591   1470   1480
8      6   1320   1330    105      7   1321   1331    106
8    105   1330   1340    204    106   1331   1341    205
8    204   1340   1350    303    205   1341   1351    304
8    303   1350   1360    402    304   1351   1361    403
8    402   1360   1370    501    403   1361   1371    502
8    501   1370   1380    510    502   1371   1381    511
8    510   1380   1390    519    511   1381   1391    520
8    519   1390   1400    528    520   1391   1401    529
8    528   1400   1410    537    529   1401   1411    538
8    537   1410   1420    546    538   1411   1421    547
8    546   1420   1430    555    547   1421   1431    556
8    555   1430   1440    564    556   1431   1441    565
8    564   1440   1450    573    565   1441   1451    574
8    573   1450   1460    582    574   1451   1461    583
8    582   1460   1470    591    583   1461   1471    592
8     96    195   1510   1520     97    196   1511   1521
8    195    294   1500   1510    196    295   1501   1511
8    294    393   1490   1500    295    394   1491   1501
8    393    492   1480   1490    394    493   1481   1491
8    492    591   1470   1480    493    592   1471   1481
8      7   1321   1331    106      8   1322   1332    107
8    106   1331   1341    205    107   1332   1342    206
8    205   1341   1351    304    206   1342   1352    305
8    304   1351   1361    403    305   1352   1362    404
8    403   1361   1371    502    404   1362   1372    503
8    502   1371   1381    511    503   1372   1382    512
8    511   1381   1391    520    512   1382   1392    521
8    520   1391   1401    529    521   1392   1402    530
8    529   1401   1411    538    530   1402   1412    539
8    538   1411   1421    547    539   1412   1422    548
8    547   1421   1431    556    548   1422   1432    557
8    556   1431   1441    565    557   1432   1442    566
8    565   1441   1451    574    566   1442   1452    575
8    574   1451   1461    583    575   1452   1462    584
8    583   1461   1471    592    584   1462   1472    593
8     97    196   1511   1521     98    197   1512   1522
8    196    295   1501   1511    197    296   1502   1512
8    295    394   1491   1501    296    395   1492   1502
8    394    493   1481   1491    395    494   1482   1492
8    493    592   1471   1481    494    593   1472   1482
8   1523   1524      9      0   1534   1535    108     99
8   1534   1535    108     99   1545   1546    207    198
8   1545   1546    207    198   1556   1557    306    297
8   1556   1557    306    297   1567   1568    405    396
8   1567   1568    405    396   1578   1579    504    495
8   1524   1525     18      9   1535   1536    117    108
8   1535   1536    117    108   1546   1547    216    207
8   1546   1547    216    207   1557   1558    315    306
8   1557   1558    315    306   1568   1569    414    405
8   1568   1569    414    405   1579   1580    513    504
8   1525   1526     27     18   1536   1537    126    117
8   1536   1537    126    117   1547   1548    225    216
8   1547   1548    225    216   1558   1559    324    315
8   1558   1559    324    315   1569   1570    423    414
8   1569   1570    423    414   1580   1581    522    513
8   1526   1527     36     27   1537   1538    135    126
8   1537   1538    135    126   1548   1549    234    225
8   1548   1549    234    225   1559   1560    333    324
8   1559   1560    333    324   1570   1571    432    423
8   1570   1571    432    423   1581   1582    531    522
8   1527   1528     45     36   1538   1539    144    135
8   1538   1539    144    135   1549   1550    243    234
8   1549   1550    243    234   1560   1561    342    333
8   1560   1561    342    333   1571   1572    441    432
8   1571   1572    441    432   1582   1583    540    531
8   1528   1529     54     45   1539   1540    153    144
8   1539   1540    153    144   1550   1551    252    243
8   1550   1551    252    243   1561   1562    351    342
8   1561   1562    351    342   1572   1573    450    441
8   1572   1573    450    441   1583   1584    549    540
8   1529   1530     63     54   1540   1541    162    153
8   1540   1541    162    153   1551   1552    261    252
8   1551   1552    261    252   1562   1563    360    351
8   1562   1563    360    351   1573   1574    459    450
8   1573   1574    459    450   1584   1585    558    549
8   1530   1531     72     63   1541   1542    171    162
8   1541   1542    171    162   1552   1553    270    261
8   1552   1553    270    261   1563   1564    369    360
8   1563   1564    369    360   1574   1575    468    459
8   1574   1575    468    459   1585   1586    567    558
8   1531   1532     81     72   1542   1543    180    171
8   1542   1543    180    171   1553   1554    279    270
8   1553   1554    279    270   1564   1565    378    369
8   1564   1565    378    369   1575   1576    477    468
8   1575   1576    477    468   1586   1587    576    567
8   1532   1533     90     81   1543   1544    189    180
8   1543   1544    189    180   1554   1555    288    279
8   1554   1555    288    279   1565   1566    387    378
8   1565   1566    387    378   1576   1577    486    477
8   1576   1577    486    477   1587   1588    585    576
8   1523   1313   1323   1534      0   1314   1324     99
8   1534   1323   1333   1545     99   1324   1334    198
8   1545   1333   1343   1556    198   1334   1344    297
8   1556   1343   1353   1567    297   1344   1354    396
8   1567   1353   1363   1578    396   1354   1364    495
8   1578   1363   1373   1579    495   1364   1374    504
8   1579   1373   1383   1580    504   1374   1384    513
8   1580   1383   1393   1581    513   1384   1394    522
8   1581   1393   1403   1582    522   1394   1404    531
8   1582   1403   1413   1583    531   1404   1414    540
8   1583   1413   1423   1584    540   1414   1424    549
8   1584   1423   1433   1585    549   1424   1434    558
8   1585   1433   1443   1586    558   1434   1444    567
8   1586   1443   1453   1587    567   1444   1454    576
8   1587   1453   1463   1588    576   1454   1464    585
8   1533   1544   1503   1513     90    189   1504   1514
8   1544   1555   1493   1503    189    288   1494   1504
8   1555   1566   1483   1493    288    387   1484   1494
8   1566   1577   1473   1483    387    486   1474   1484
8   1577   1588   1463   1473    486    585   1464   1474
CELL_TYPES  1130
12
12
12
12
12
12
12
12
12
12
12
12
12
12
12
12
12
12
12
12
12
12
12
12
12
12
12
12
12
12
12
12
12
12
12
12
12
12
12
12
12
12
12
12
12
12
12
12
12
12
12
12
12
12
12
12
12
12
12
12
12
12
12
12
12
12
12
12
12
12
12
12
12
12
12
12
12
12
12
12
12
12
12
12
12
12
12
12
12
12
12
12
12
12
12
12
12
12
12
12
12
12
12
12
12
12
12
12
12
12
12
12
12
12
12
12
12
12
12
12
12
12
12
12
12
12
12
12
12
12
12
12
12
12
12
12
12
12
12
12
12
12
12
12
12
12
12
12
12
12
12
12
12
12
12
12
12
12
12
12
12
12
12
12
12
12
12
12
12
12
12
12
12
12
12
12
12
12
12
12
12
12
12
12
12
12
12
12
12
12
12
12
12
12
12
12
12
12
12
12
12
12
12
12
12
12
12
12
12
12
12
12
12
12
12
12
12
12
12
12
12
12
12
12
12
12
12
12
12
12
12
12
12
12
12
12
12
12
12
12
12
12
12
12
12
12
12
12
12
12
12
12
12
12
12
12
12
12
12
12
12
12
12
12
12
12
12
12
12
12
12
12
12
12
12
12
12
12
12
12
12
12
12
12
12
12
12
12
12
12
12
12
12
12
12
12
12
12
12
12
12
12
12
12
12
12
12
12
12
12
12
12
12
12
12
12
12
12
12
12
12
12
12
12
12
12
12
12
12
12
12
12
12
12
12
12
12
12
12
12
12
12
12
12
12
12
12
12
12
12
12
12
12
12
12
12
12
12
12
12
12
12
12
12
12
12
12
12
12
12
12
12
12
12
12
12
12
12
12
12
12
12
12
12
12
12
12
12
12
12
12
12
12
12
12
12
12
12
12
12
12
12
12
12
12
12
12
12
12
12
12
12
12
12
12
12
12
12
12
12
12
12
12
12
12
12
12
12
12
12
12
12
12
12
12
12
12
12
12
12
12
12
12
12
12
12
12
12
12
12
12
12
12
12
12
12
12
12
12
12
12
12
12
12
12
12
12
12
12
12
12
12
12
12
12
12
12
12
12
12
12
12
12
12
12
12
12
12
12
12
12
12
12
12
12
12
12
12
12
12
12
12
12
12
12
12
12
12
12
12
12
12
12
12
12
12
12
12
12
12
12
12
12
12
12
12
12
12
12
12
12
12
12
12
12
12
12
12
12
12
12
12
12
12
12
12
12
12
12
12
12
12
12
12
12
12
12
12
12
12
12
12
12
12
12
12
12
12
12
12
12
12
12
12
12
12
12
12
12
12
12
12
12
12
12
12
12
12
12
12
12
12
12
12
12
12
12
12
12
12
12
12
12
12
12
12
12
12
12
12
12
12
12
12
12
12
12
12
12
12
12
12
12
12
12
12
12
12
12
12
12
12
12
12
12
12
12
12
12
12
12
12
12
12
12
12
12
12
12
12
12
12
12
12
12
12
12
12
12
12
12
12
12
12
12
12
12
12
12
12
12
12
12
12
12
12
12
12
12
12
12
12
12
12
12
12
12
12
12
12
12
12
12
12
12
12
12
12
12
12
12
12
12
12
12
12
12
12
12
12
12
12
12
12
12
12
12
12
12
12
12
12
12
12
12
12
12
12
12
12
12
12
12
12
12
12
12
12
12
12
12
12
12
12
12
12
12
12
12
12
12
12
12
12
12
12
12
12
12
12
12
12
12
12
12
12
12
12
12
12
12
12
12
12
12
12
12
12
12
12
12
12
12
12
12
12
12
12
12
12
12
12
12
12
12
12
12
12
12
12
12
12
12
12
12
12
12
12
12
12
12
12
12
12
12
12
12
12
12
12
12
12
12
12
12
12
12
12
12
12
12
12
12
12
12
12
12
12
12
12
12
12
12
12
12
12
12
12
12
12
12
12
12
12
12
12
12
12
12
12
12
12
12
12
12
12
12
12
12
12
12
12
12
12
12
12
12
12
12
12
12
12
12
12
12
12
12
12
12
12
12
12
12
12
12
12
12
12
12
12
12
12
12
12
12
12
12
12
12
12
12
12
12
12
12
12
12
12
12
12
12
12
12
12
12
12
12
12
12
12
12
12
12
12
12
12
12
12
12
12
12
12
12
12
12
12
12
12
12
12
12
12
12
12
12
12
12
12
12
12
12
12
12
12
12
12
12
12
12
12
12
12
12
12
12
12
12
12
12
12
12
12
12
12
12
12
12
12
12
12
12
12
12
12
12
12
12
12
12
12
12
12
12
12
12
12
12
12
12
12
12
12
12
12
12
12
12
12
12
12
12
12
12
12
12
12
12
12
12
12
12
12
12
12
12
12
12
12
12
12
12
12
12
12
12
12
12
12
12
12
12
12
12
12
12
12
12
12
12
12
12
12
12
12
12
12
12
12
12
12
12
12
12
12
12
12
12
12
12
12
12
12
12
12
12
12
12
12
12
12
12
12
12
12
12
12
12
12
12
12
12
12
12
12
12
12
12
12
12
12
12
12
12
12
12
12
12
12
12
12
12
12
12
12
12
12
12
12
12
12
POINT_DATA      1589
VECTORS Velocities float 
     0.00000000     0.00000000     0.00000000
     0.00000000     0.00000000     0.00000000
     0.00000000     0.00000000     0.00000000
     0.00000000     0.00000000     0.00000000
     0.00000000     0.00000000     0.00000000
     0.00000000     0.00000000     0.00000000
     0.00000000     0.00000000     0.00000000
     0.00000000     0.00000000     0.00000000
     0.00000000     0.00000000     0.00000000
     0.00000000     0.00000000     0.00000000
   -80.51633525    77.41077864     0.00000000
   -84.28300677    13.11668453     0.00000000
  -123.06464792    39.88754724     0.00000000
  -196.06828436     6.67960173     0.00000000
  -233.52701364     7.33259168     0.00000000
  -275.77028463   -45.10611107     0.00000000
  -327.75373490   -36.51809231     0.00000000
  -418.54786460   -89.12784018     0.00000000
     0.00000000     0.00000000     0.00000000
  -142.59336482    42.54167634     0.00000000
  -104.66447071    38.46765341     0.00000000
  -108.18888028    23.76486363     0.00000000
  -185.16165480    16.47909425     0.00000000
  -175.89525902    14.62518216     0.00000000
  -194.83315418    58.90505136     0.00000000
   -56.21112770    34.01501639     0.00000000
   149.60059438   119.48575189     0.00000000
     0.00000000     0.00000000     0.00000000
  -122.29497928   -48.49069225     0.00000000
   -78.99738180    77.79197784     0.00000000
   -37.12900890    34.21374347     0.00000000
   -44.23388944   -29.09411813     0.00000000
   -38.45853487   -16.02548561     0.00000000
    42.17329920    -9.29840549     0.00000000
    91.92581048    69.83652477     0.00000000
    97.28966589   110.35967227     0.00000000
     0.00000000     0.00000000     0.00000000
   -78.04277403   -97.21636981     0.00000000
   -24.57242830    88.18330647     0.00000000
    52.71556850    62.62136217     0.00000000
    -5.50111279    18.83291377     0.00000000
   -33.63545689  -104.89726963     0.00000000
   -22.94833240   -77.82989010     0.00000000
    61.62671437   116.68766404     0.00000000
   256.42806655    17.02368205     0.00000000
     0.00000000     0.00000000     0.00000000
   -95.03330411  -102.09586577     0.00000000
    -1.20221947    30.28707804     0.00000000
    22.88486689    89.68187812     0.00000000
    29.69787305    55.85317586     0.00000000
   -77.84503649   -19.16054801     0.00000000
  -114.19812057   -54.01564611     0.00000000
    26.26943036   119.40050384     0.00000000
     0.00000000     0.00000000     0.00000000
     0.00000000     0.00000000     0.00000000
   -70.55944232  -105.65814826     0.00000000
   -43.08681757   -30.77008816     0.00000000
    57.20252760    68.37246296     0.00000000
   -18.18881343    38.23393851     0.00000000
    49.52589971    17.49611949     0.00000000
   -76.53422949    54.87468164     0.00000000
    86.35932073  -224.42564173     0.00000000
   149.72479383   183.87487567     0.00000000
     0.00000000     0.00000000     0.00000000
  -124.30277898  -102.97427512     0.00000000
   -85.14635624   -66.30559548     0.00000000
   -35.97011522   -11.81982402     0.00000000
   -35.18278270    28.21924072     0.00000000
    -8.11290069   -50.12079629     0.00000000
    84.05191275    93.35607389     0.00000000
   -26.87246139  -212.29631244     0.00000000
   -27.32708238   179.29592570     0.00000000
     0.00000000     0.00000000     0.00000000
  -108.83313420   -87.62918044     0.00000000
  -130.46453260   -82.22529864     0.00000000
  -140.40182987   -56.55659393     0.00000000
  -144.62366079   -33.01644931     0.00000000
   -80.73440933   -16.77457108     0.00000000
   -27.17215054   -13.34097900     0.00000000
    41.78752348     3.23073712     0.00000000
     9.71223932    53.60275058     0.00000000
     0.00000000     0.00000000     0.00000000
   -55.49382006   -71.58464806     0.00000000
  -102.64104522   -37.71662970     0.00000000
  -147.89280792   -49.84900388     0.00000000
  -212.55918606   -27.33057478     0.00000000
  -246.38840439   -15.88381365     0.00000000
  -271.44278514    40.86020439     0.00000000
  -295.71259638   108.25857614     0.00000000
  -230.58726153   205.68724981     0.00000000
     0.00000000     0.00000000     0.00000000
     0.00000000     0.00000000     0.00000000
     0.00000000     0.00000000     0.00000000
     0.00000000     0.00000000     0.00000000
     0.00000000     0.00000000     0.00000000
     0.00000000     0.00000000     0.00000000
     0.00000000     0.00000000     0.00000000
     0.00000000     0.00000000     0.00000000
     0.00000000     0.00000000     0.00000000
     0.00000000     0.00000000     0.00000000
     0.00000000     0.00000000     0.00000000
     0.00000000     0.00000000     0.00000000
     0.00000000     0.00000000     0.00000000
     0.00000000     0.00000000     0.00000000
     0.00000000     0.00000000     0.00000000
     0.00000000     0.00000000     0.00000000
     0.00000000     0.00000000     0.00000000
     0.00000000     0.00000000     0.00000000
     0.00000000     0.00000000     0.00000000
   -25.19302375     2.17560034    43.48397127
   -82.61116089    37.69271384   -20.20881712
  -114.41080634    22.92168416    60.85114752
  -138.25488767     7.03819618     8.54007798
  -175.77509384    17.31601763    29.62635457
  -209.34525156    -8.70322478   -12.27888906
  -277.99516935   -45.93988387   -14.94364071
  -426.72336223  -103.98050391   -39.63326635
     0.00000000     0.00000000     0.00000000
   -14.97236940    41.02951076   110.19238237
   -92.39402176    34.39597159   -64.28086903
   -96.23129344    21.45765081    69.94429173
  -109.61397215     9.64234953   -11.29941588
   -87.42278159   -33.75562845    29.86248226
   -69.05897784    14.84724077   -55.61622552
  -108.34628283    39.66606971  -103.06410139
   126.72385810   -27.70751174  -122.26465242
     0.00000000     0.00000000     0.00000000
    36.76162312    25.70034037   103.91006015
    69.20514082   -70.16644676   -45.95006011
     3.66222718    64.21184553    21.65004748
     0.69139169   -28.46048523    -5.43566852
   -24.25725343    10.38269473    41.72674180
    54.97590066   -86.34668243    42.26097851
   133.14504430   112.19490137   -62.82080496
    23.97954350   -41.98915455   -43.08115875
     0.00000000     0.00000000     0.00000000
    80.21581627   -49.91068433    65.11584286
    58.04033084   -99.22667282   -41.56309823
   102.50290739    21.88353184    11.71813291
    70.40250715    15.31204475   -41.08805157
    65.11933054    20.18795719    35.60269359
    53.44139951  -100.66501235   -78.94490109
    77.79918396    79.94941840    -2.67553260
   223.51002419   -24.34170978   -69.06801959
     0.00000000     0.00000000     0.00000000
    20.20597925   -89.09672630    43.86787645
    41.88347838   -85.64233467   -46.08042746
     9.33415075    33.41034884    10.07105940
    63.18890756    22.85747110   -38.58257558
    58.97030740    35.64843842    10.53460103
   -27.93947853   -52.23059481   -61.65142452
    -2.20656584    49.78517885   -29.89277641
     0.00000000     0.00000000     0.00000000
     0.00000000     0.00000000     0.00000000
    21.55157026  -104.58218742    52.82799448
    -3.63937342   -75.58167619   -41.78051422
    15.48888012    74.52143471    28.89272467
    15.22050590    34.52621775    -3.02715365
    42.63855707    14.99684888    37.31346423
   -14.07640578   102.32896605   -37.44477135
    76.03989639  -169.47128343    12.78417284
   101.66455945   185.18050945   -68.33149459
     0.00000000     0.00000000     0.00000000
   -31.11173559  -109.76925847    40.76571349
   -71.88508001   -70.89812240   -33.77406012
   -45.61638300     3.16784368    70.45328707
    68.91968288    51.85349112    13.69406135
   -37.76516581   -16.73398984    31.46305782
    77.95178428   146.42944591   -42.41664270
    42.68341145  -211.97881550   -37.05446528
     5.17188548   182.21622147   -86.74335165
     0.00000000     0.00000000     0.00000000
   -30.20252406   -64.39843120    56.14103434
  -124.07140539   -83.04066027   -31.78521154
  -132.13613810   -42.27386936    31.25281005
  -113.36987985   -32.23435151   -18.09031887
   -68.01901040    24.71390059     6.99319476
   -27.29039747    24.28856233   -63.35127053
    34.79777982   -29.92366319    59.55419940
    34.75008908    68.98665235  -166.75730655
     0.00000000     0.00000000     0.00000000
   -35.45228165   -16.22337787    13.97012019
  -100.69950975   -52.74997210    -2.73518375
  -158.16287303   -49.31186039    16.78235583
  -187.43340233   -27.30574297    -1.18834577
  -236.57019692   -16.26481703     9.63196293
  -227.30338835    43.25585654    -4.07901215
  -260.60151646   130.09218781   -10.19169394
  -226.97069317   200.03589281    -9.58780786
     0.00000000     0.00000000     0.00000000
     0.00000000     0.00000000     0.00000000
     0.00000000     0.00000000     0.00000000
     0.00000000     0.00000000     0.00000000
     0.00000000     0.00000000     0.00000000
     0.00000000     0.00000000     0.00000000
     0.00000000     0.00000000     0.00000000
     0.00000000     0.00000000     0.00000000
     0.00000000     0.00000000     0.00000000
     0.00000000     0.00000000     0.00000000
     0.00000000     0.00000000     0.00000000
     0.00000000     0.00000000     0.00000000
     0.00000000     0.00000000     0.00000000
     0.00000000     0.00000000     0.00000000
     0.00000000     0.00000000     0.00000000
     0.00000000     0.00000000     0.00000000
     0.00000000     0.00000000     0.00000000
     0.00000000     0.00000000     0.00000000
     0.00000000     0.00000000     0.00000000
     3.14994531    31.30709609    67.58051636
   -38.41347886    22.71108120     9.99055582
   -52.78413105    29.23800268    56.30587967
   -41.53434231    21.70296866    34.03180917
     5.71713296   -16.21395877    -3.74215482
    -3.62222229    20.07089414    -2.33807220
  -131.90958214   -38.09576568     2.71453137
  -465.15989333   -69.95047500   -19.23483752
     0.00000000     0.00000000     0.00000000
     4.74800221    39.40032439    73.17903477
     0.06387253     0.61227002    17.52445129
   -31.17790655    36.78437328    37.14585334
   -26.39995286    11.07096382    24.65280024
     6.46893141     5.14358696    -0.76136060
    83.00939897   -32.71796993    16.01893310
   -92.91120494    94.59627055   -58.07160132
   -12.22175859   -68.39655714  -147.64196571
     0.00000000     0.00000000     0.00000000
    35.08978821    32.49625032   107.34802500
    93.86916635   -69.23423845    32.64545306
    92.71844314    42.77641786    32.82607689
    79.23298904   -36.63722229    11.45539449
    88.14437008    48.46098827    -5.46338637
    69.12121793   -77.21481078     8.96179582
   123.70954420   153.05844723   -87.68246743
   -18.26157327  -116.87636630   -98.00996889
     0.00000000     0.00000000     0.00000000
    68.20313098   -24.01377187    63.37796362
    86.84113164   -83.53058817    -4.36950983
    89.15623276    15.65802124    14.31317344
   107.44584550   -42.74609542   -24.32480402
    87.05296801    55.73725832    27.80593216
   122.85344774   -68.51140557   -73.83045565
   121.81672977    95.33416436    26.63331923
   205.12485902   -40.91581094  -105.94384533
     0.00000000     0.00000000     0.00000000
    22.62700370   -68.42458737    44.88065777
    45.02342550   -80.74594630   -27.07467351
    27.36839905   -14.14964120   -33.56392462
    32.95757004   -38.57019263   -38.99132311
    73.61418197    46.72910053   -23.40031479
    32.87215887   -40.27219055   -46.93405966
    69.98235978    59.34735583   -92.48733922
     0.00000000     0.00000000     0.00000000
     0.00000000     0.00000000     0.00000000
    16.87025755   -83.11064808    41.17406163
   -13.33510384   -84.86371903   -23.84617224
    14.96125627   -35.83470545    10.13611395
   -15.18267542     8.41418890   -48.07260469
    68.86092112   -24.01772186    34.82724519
    -0.49266916   121.88589721   -62.42582959
    81.27133436  -137.01335736   -33.46490433
    74.56857929   186.76652807   -80.65852511
     0.00000000     0.00000000     0.00000000
   -34.62017000   -83.68629229    44.74953571
   -59.19006920   -80.93971323    -3.95235871
   -42.54932286   -41.92709352    34.10044191
    45.19432304    26.55218975    25.72034907
    23.54080716   -16.86424566    72.67122350
    32.06926073    89.12955328   -52.80675040
   102.28031239  -163.51787561   -64.90541780
    46.13820279   209.17838404  -136.24767583
     0.00000000     0.00000000     0.00000000
   -29.76848440   -55.17612249    34.96179615
   -98.61293916   -74.32760009     6.12264459
  -103.22501689   -42.21132232    10.95797235
  -102.91480206   -27.70159524    21.37330112
   -58.31707591    22.30964626     1.24024372
  -107.85840534    13.32164655   -36.18593834
   -49.48163644    10.20938611   -84.61851745
    22.32306720   145.79179247  -176.39145577
     0.00000000     0.00000000     0.00000000
   -27.24344646   -43.52503546    38.40793194
   -85.55338149   -36.34782870    12.43235983
  -125.21983054   -52.09589422     9.42476094
  -175.71529265   -20.40057419    16.13264995
  -215.69378176   -16.25788320     8.68273188
  -240.19185008    61.66744731    24.51171386
  -275.67390645   133.64535633    16.37970158
  -260.20570469   180.79969871    17.34615765
     0.00000000     0.00000000     0.00000000
     0.00000000     0.00000000     0.00000000
     0.00000000     0.00000000     0.00000000
     0.00000000     0.00000000     0.00000000
     0.00000000     0.00000000     0.00000000
     0.00000000     0.00000000     0.00000000
     0.00000000     0.00000000     0.00000000
     0.00000000     0.00000000     0.00000000
     0.00000000     0.00000000     0.00000000
     0.00000000     0.00000000     0.00000000
     0.00000000     0.00000000     0.00000000
     0.00000000     0.00000000     0.00000000
     0.00000000     0.00000000     0.00000000
     0.00000000     0.00000000     0.00000000
     0.00000000     0.00000000     0.00000000
     0.00000000     0.00000000     0.00000000
     0.00000000     0.00000000     0.00000000
     0.00000000     0.00000000     0.00000000
     0.00000000     0.00000000     0.00000000
    -1.67284162    28.09414502    41.86794286
     7.14511826     8.69580543    34.23185991
    39.34441198     4.74044722    30.83291763
    55.97097934    24.32964816    30.74520217
    51.54054111   -14.38092966   -22.54471999
    71.73377277    14.96894994    -1.42038768
   145.84723437   -10.29766474   -23.52620451
  -381.40634996    -3.09373809    -3.13535016
     0.00000000     0.00000000     0.00000000
    13.08029620    46.46392947    63.81443498
    49.90427205   -15.82480174    45.32272447
    54.83984921    26.84087893    42.05185985
   102.06859467    -6.80603608    22.47983280
    53.45560578    29.38002865    -9.22944123
   130.12511645   -34.97823163   -12.63910610
    51.73941921    51.18218419    27.15074302
   -20.62958822    78.65670012  -130.12514206
     0.00000000     0.00000000     0.00000000
    27.02263331    46.99415255    77.02595444
    83.47179439   -49.90515332    47.91707955
   106.75005052    46.91201175    37.41217231
   111.11214592   -42.57459063    24.77799730
   120.64236203    61.92450038    -5.73476905
    99.68656360   -75.13192529   -13.89931687
    72.76238780   160.15389918   -80.84105942
   -22.72028733   -36.73665991  -120.10870956
     0.00000000     0.00000000     0.00000000
    69.90573341     3.14300564    78.19371832
    84.87584608   -55.02345964     9.40989006
   102.64199424    13.25284816    33.17109716
   112.22454337   -32.15346727   -20.32317538
   117.90920161    39.97695196    17.95936059
    96.65096412   -54.04641254   -44.88963450
   185.17553920   100.34304475    10.12807143
   215.04399800   -48.67548622   -48.96789268
     0.00000000     0.00000000     0.00000000
    40.89941154   -40.65294512    38.34682275
    62.02214659   -51.60725171     3.82819073
    65.01586072   -47.02810515     0.27021869
    78.75862219   -30.45595252   -35.32326266
    85.67040990    19.23070059   -21.48448907
    20.97788628   -20.41459428   -44.16103319
    25.34094998   112.51270507  -141.82325301
     0.00000000     0.00000000     0.00000000
     0.00000000     0.00000000     0.00000000
     7.04831162   -64.76891845    45.62113634
    12.45578619   -63.58103591    -1.05559769
    18.76505476   -82.32426459    -6.76011478
    27.31372051   -24.64742631   -56.00241176
    50.44282867   -32.62417510    -5.14916856
    32.79364477    86.96115829   -45.57385531
    26.57755838   -39.63509140     6.09286646
    48.70826028   221.06125357   -76.76399630
     0.00000000     0.00000000     0.00000000
    -8.56979478   -65.42747807    38.34797656
    -9.00770496   -72.71214230     8.93279356
   -44.00045288   -73.51395542     1.83187561
     7.32402074   -41.47598530    -8.09375628
    -6.40200801    -2.98520007    58.99727792
    58.07445580    88.59837725   -29.22859148
    12.25819243  -133.11216142   -43.70285594
    20.89756186   253.48303509  -193.04379408
     0.00000000     0.00000000     0.00000000
    -4.80779480   -49.50835323    51.24936610
   -43.44380179   -63.25700978    14.42548919
   -73.96644758   -52.48436207    18.94224405
   -73.06451924   -52.94535559    21.24462967
   -31.72111741    28.71244013    25.12978262
    44.14949318     9.20499899   -48.88544652
  -100.68922755   -11.84608747   -51.44435109
   -86.53473258   156.33269623  -154.03741027
     0.00000000     0.00000000     0.00000000
   -16.36407224   -34.07957005    37.08082257
   -27.21735824   -31.26348021    27.29602511
   -86.97643567   -41.74970857    13.63687808
  -107.10266345   -24.19727871    21.48415115
  -156.89765834   -19.61980536    31.28825982
  -159.20284651     2.29111709    36.27241892
  -237.99135642   100.72044202    77.81095104
  -321.70255065   152.37654829    34.84216898
     0.00000000     0.00000000     0.00000000
     0.00000000     0.00000000     0.00000000
     0.00000000     0.00000000     0.00000000
     0.00000000     0.00000000     0.00000000
     0.00000000     0.00000000     0.00000000
     0.00000000     0.00000000     0.00000000
     0.00000000     0.00000000     0.00000000
     0.00000000     0.00000000     0.00000000
     0.00000000     0.00000000     0.00000000
     0.00000000     0.00000000     0.00000000
     0.00000000     0.00000000     0.00000000
     0.00000000     0.00000000     0.00000000
     0.00000000     0.00000000     0.00000000
     0.00000000     0.00000000     0.00000000
     0.00000000     0.00000000     0.00000000
     0.00000000     0.00000000     0.00000000
     0.00000000     0.00000000     0.00000000
     0.00000000     0.00000000     0.00000000
     0.00000000     0.00000000     0.00000000
     2.17895842    21.86035700    24.77774980
    44.10950961    -7.05319397    26.52759949
    76.77587259    -0.56771314    20.43480454
    71.10760447    -2.46401040     8.48933566
    71.71847023    -9.76455206   -12.79115118
    29.17240584    12.61067386    -2.24417432
   133.90958808    -5.53792756   -42.21105941
  -161.67616107    21.84649292    39.50353222
     0.00000000     0.00000000     0.00000000
    13.57095302    29.50549372    32.27752292
    70.06284515   -20.26028402    34.68066937
    85.71333859    21.02178626    31.24661913
   102.79996716   -14.16137385    12.87299111
    86.37733972    25.79581604    12.20402173
    84.99024409   -34.41830479   -48.77921635
    86.79797230    46.87193707    28.38415038
    24.04606028   136.70237835   -63.78092174
     0.00000000     0.00000000     0.00000000
    25.42245688    40.67648047    50.65152251
    77.59598577   -30.36867054    31.47209996
   102.61091981    34.10477407    31.83943698
   101.51867629   -20.59856150    10.79959975
   116.36402858    43.36573484     6.96800903
    64.71853529   -29.11770848    -9.14450892
    33.19773533    60.21337672   -47.45927494
    16.85807510    39.64214095  -103.67965791
     0.00000000     0.00000000     0.00000000
    56.78892862    27.76360105    54.51911592
    85.78522634   -21.68120502    23.92577846
    98.04161314    20.61667102    31.56141553
   116.25357191   -11.01772629     2.37069294
    79.52660584    40.82258703     1.76532638
   142.76325510   -28.31517923   -15.35057041
    49.46137864   140.80565861    -6.73609121
   295.66729306   -35.11784580  -136.67276179
     0.00000000     0.00000000     0.00000000
    70.00891647   -13.37856726    49.93585301
   101.22278312     3.09533861    25.04104748
   109.66825054   -12.97767147    27.90992479
    92.46851567     6.46560058   -16.15686997
    96.40434521    14.21934987    -3.36862426
    -9.14828504     8.89553917   -15.09051909
   -27.04883594   162.23862558   -99.48766779
     0.00000000     0.00000000     0.00000000
     0.00000000     0.00000000     0.00000000
    21.77434085   -38.26079675    36.73342092
    55.88025302     5.32656359    14.08707827
    71.98822463   -40.59772631    13.94275374
    45.86086722     5.58725708   -37.66630271
    56.58817350   -37.93673850    17.05624231
     7.56844952   112.07264543   -62.39842883
   100.11567730  -104.80337879    71.68593043
   -16.35833051   169.81897113  -138.00819035
     0.00000000     0.00000000     0.00000000
    24.82341659   -33.09115330    37.72492660
    46.52339769   -11.05732719    10.98348219
    40.10798025   -51.75737183    18.51943019
     6.76819350   -23.49300934   -24.81760288
    16.82240889   -52.47743347    39.44110740
    23.15546558   118.53973945   -59.54314680
    27.94934222   -92.71431660    33.43982401
   -19.96475679   143.13015602  -195.51027860
     0.00000000     0.00000000     0.00000000
     6.70960752   -30.77644223    31.32714572
    23.56923679   -25.00032939    21.41585978
     6.33606214   -42.57673463    26.58523459
   -18.06587202   -51.07794582     9.19626729
    -2.86720236   -33.31658259    47.38571480
    61.98597212    60.84060406   -62.07986976
    96.47946028   -71.24882268     9.11345009
  -144.04314194    24.18440331   -77.13036820
     0.00000000     0.00000000     0.00000000
    25.38732401    -8.65412941    39.06592880
    19.48692775   -19.05019429    18.86222282
    15.66854678   -16.56242852    32.24734551
   -43.59205644   -40.12979474    11.09399941
   -32.87837737   -13.59006915    41.36121941
     3.56135074     3.10308176   -21.34170838
    47.11165213   -15.41407504    15.34123325
  -289.11622426   131.53232868    60.99303252
     0.00000000     0.00000000     0.00000000
     0.00000000     0.00000000     0.00000000
     0.00000000     0.00000000     0.00000000
     0.00000000     0.00000000     0.00000000
     0.00000000     0.00000000     0.00000000
     0.00000000     0.00000000     0.00000000
     0.00000000     0.00000000     0.00000000
     0.00000000     0.00000000     0.00000000
     0.00000000     0.00000000     0.00000000
     0.00000000     0.00000000     0.00000000
     0.00000000     0.00000000     0.00000000
     0.00000000     0.00000000     0.00000000
     0.00000000     0.00000000     0.00000000
     0.00000000     0.00000000     0.00000000
     0.00000000     0.00000000     0.00000000
     0.00000000     0.00000000     0.00000000
     0.00000000     0.00000000     0.00000000
     0.00000000     0.00000000     0.00000000
     0.00000000     0.00000000     0.00000000
     0.00000000     0.00000000     0.00000000
     0.00000000     0.00000000     0.00000000
     0.00000000     0.00000000     0.00000000
     0.00000000     0.00000000     0.00000000
     0.00000000     0.00000000     0.00000000
     0.00000000     0.00000000     0.00000000
     0.00000000     0.00000000     0.00000000
     0.00000000     0.00000000     0.00000000
     0.00000000     0.00000000     0.00000000
     0.00000000     0.00000000     0.00000000
     0.00000000     0.00000000     0.00000000
     0.00000000     0.00000000     0.00000000
     0.00000000     0.00000000     0.00000000
     0.00000000     0.00000000     0.00000000
     0.00000000     0.00000000     0.00000000
     0.00000000     0.00000000     0.00000000
     0.00000000     0.00000000     0.00000000
     0.00000000     0.00000000     0.00000000
     0.00000000     0.00000000     0.00000000
     0.00000000     0.00000000     0.00000000
     0.00000000     0.00000000     0.00000000
     0.00000000     0.00000000     0.00000000
     0.00000000     0.00000000     0.00000000
     0.00000000     0.00000000     0.00000000
     0.00000000     0.00000000     0.00000000
     0.00000000     0.00000000     0.00000000
     0.00000000     0.00000000     0.00000000
     0.00000000     0.00000000     0.00000000
     0.00000000     0.00000000     0.00000000
     0.00000000     0.00000000     0.00000000
     0.00000000     0.00000000     0.00000000
     0.00000000     0.00000000     0.00000000
     0.00000000     0.00000000     0.00000000
     0.00000000     0.00000000     0.00000000
     0.00000000     0.00000000     0.00000000
     0.00000000     0.00000000     0.00000000
     0.00000000     0.00000000     0.00000000
     0.00000000     0.00000000     0.00000000
     0.00000000     0.00000000     0.00000000
     0.00000000     0.00000000     0.00000000
     0.00000000     0.00000000     0.00000000
     0.00000000     0.00000000     0.00000000
     0.00000000     0.00000000     0.00000000
     0.00000000     0.00000000     0.00000000
     0.00000000     0.00000000     0.00000000
     0.00000000     0.00000000     0.00000000
     0.00000000     0.00000000     0.00000000
     0.00000000     0.00000000     0.00000000
     0.00000000     0.00000000     0.00000000
     0.00000000     0.00000000     0.00000000
     0.00000000     0.00000000     0.00000000
     0.00000000     0.00000000     0.00000000
     0.00000000     0.00000000     0.00000000
     0.00000000     0.00000000     0.00000000
     0.00000000     0.00000000     0.00000000
     0.00000000     0.00000000     0.00000000
     0.00000000     0.00000000     0.00000000
     0.00000000     0.00000000     0.00000000
     0.00000000     0.00000000     0.00000000
     0.00000000     0.00000000     0.00000000
     0.00000000     0.00000000     0.00000000
     0.00000000     0.00000000     0.00000000
     0.00000000     0.00000000     0.00000000
     0.00000000     0.00000000     0.00000000
     0.00000000     0.00000000     0.00000000
     0.00000000     0.00000000     0.00000000
     0.00000000     0.00000000     0.00000000
     0.00000000     0.00000000     0.00000000
     0.00000000     0.00000000     0.00000000
     0.00000000     0.00000000     0.00000000
     0.00000000     0.00000000     0.00000000
     0.00000000     0.00000000     0.00000000
     0.00000000     0.00000000     0.00000000
     0.00000000     0.00000000     0.00000000
     0.00000000     0.00000000     0.00000000
     0.00000000     0.00000000     0.00000000
     0.00000000     0.00000000     0.00000000
     0.00000000     0.00000000     0.00000000
     0.00000000     0.00000000     0.00000000
     0.00000000     0.00000000     0.00000000
     0.00000000     0.00000000     0.00000000
     0.00000000     0.00000000     0.00000000
     0.00000000     0.00000000     0.00000000
     0.00000000     0.00000000     0.00000000
     0.00000000     0.00000000     0.00000000
     0.00000000     0.00000000     0.00000000
     0.00000000     0.00000000     0.00000000
     0.00000000     0.00000000     0.00000000
     0.00000000     0.00000000     0.00000000
     0.00000000     0.00000000     0.00000000
     0.00000000     0.00000000     0.00000000
     0.00000000     0.00000000     0.00000000
     0.00000000     0.00000000     0.00000000
     0.00000000     0.00000000     0.00000000
     0.00000000     0.00000000     0.00000000
     0.00000000     0.00000000     0.00000000
     0.00000000     0.00000000     0.00000000
     0.00000000     0.00000000     0.00000000
     0.00000000     0.00000000     0.00000000
     0.00000000     0.00000000     0.00000000
    15.90157069   -42.44953749     0.00000000
   -69.43347358    28.62575402     0.00000000
   -95.47959610    -3.74849144     0.00000000
   -90.75737751   -33.91429491     0.00000000
  -101.82388304   -24.73887968     0.00000000
   -66.43852020   -71.06666649     0.00000000
   -70.65420711   -16.06170723     0.00000000
   -42.13322828   -52.06787234     0.00000000
   -38.89438296    -7.79898860     0.00000000
   -23.19984471   -24.61710341     0.00000000
   -18.54579000    -4.96932000     0.00000000
   -44.41791621   260.80780408     0.00000000
   -82.37405341    46.44490952     0.00000000
   -67.88906902    -4.92467614     0.00000000
   -67.16020195   -16.26988855     0.00000000
   -82.80210381   -30.68962801     0.00000000
   -67.96631464   -79.38622636     0.00000000
   -58.98340227   -90.40515183     0.00000000
   -18.74317322   -93.13521759     0.00000000
   -24.09436582   -52.84953493     0.00000000
    -9.78600104   -34.40402545     0.00000000
   -27.81867000    -7.45398000     0.00000000
    81.50008413   321.73463626     0.00000000
    61.14156725   283.62494031     0.00000000
   -63.50734676    76.72302914     0.00000000
   -95.74430576    62.03380733     0.00000000
   -58.85045618   -61.41102041     0.00000000
     7.53266890   -46.35891961     0.00000000
    29.62238425  -119.17306923     0.00000000
    26.01897808   -89.65572407     0.00000000
     8.55002499   -85.24839988     0.00000000
   -13.84057207   -27.52276880     0.00000000
   -27.81867000    -7.45398000     0.00000000
   -81.43786299   182.21309016     0.00000000
    33.81283068   197.18526724     0.00000000
   121.58723616   154.41416106     0.00000000
   193.54185815   114.51711334     0.00000000
   189.76743067    20.60494772     0.00000000
   169.35843891     6.22149996     0.00000000
   115.97083259   -22.33803258     0.00000000
    79.23978855   -24.09431465     0.00000000
    23.90408548   -34.73140702     0.00000000
    -1.30690857    -9.50936795     0.00000000
   -18.54579000    -4.96932000     0.00000000
     0.00000000     0.00000000     0.00000000
     0.00000000     0.00000000     0.00000000
     0.00000000     0.00000000     0.00000000
     0.00000000     0.00000000     0.00000000
     0.00000000     0.00000000     0.00000000
     0.00000000     0.00000000     0.00000000
     0.00000000     0.00000000     0.00000000
     0.00000000     0.00000000     0.00000000
     0.00000000     0.00000000     0.00000000
     0.00000000     0.00000000     0.00000000
     0.00000000     0.00000000     0.00000000
     0.00000000     0.00000000     0.00000000
     0.00000000     0.00000000     0.00000000
     0.00000000     0.00000000     0.00000000
     0.00000000     0.00000000     0.00000000
     0.00000000     0.00000000     0.00000000
     0.00000000     0.00000000     0.00000000
     0.00000000     0.00000000     0.00000000
     0.00000000     0.00000000     0.00000000
     0.00000000     0.00000000     0.00000000
     0.00000000     0.00000000     0.00000000
     0.00000000     0.00000000     0.00000000
    26.08794704   -57.00531850    55.19956134
   -61.18734978    24.13410140    33.82272186
   -91.47876165    -8.38914565    -4.99390311
   -93.79474804   -41.99970487    24.78101319
   -99.09799356   -27.48868395    -7.03839250
   -70.22880664   -69.06008385    17.55302329
   -68.58333673   -19.57560963   -10.09917506
   -42.13152490   -51.37367652     9.60555578
   -38.96504493   -12.39841063   -10.00939735
   -20.08468019   -24.08816588    -2.39089311
   -17.51406000    -4.69287000     0.00000000
   -77.55536648   231.84350485    99.90342032
  -103.30115455     5.33938542    13.26609854
   -76.08075369    18.29432118    11.71580103
   -78.82826794   -21.42423900    -0.03504646
   -78.24030500   -20.25590916     3.16874087
   -72.34119940   -89.12697028    -9.69058993
   -46.01574749   -82.04040657    11.08250274
   -24.22672031   -98.86557426     6.41626092
   -11.21274371   -50.74097775    13.64078779
   -18.21615867   -36.21364604     7.40675422
   -26.50323000    -7.10151000     0.00000000
    45.22157718   328.57571228    15.07535135
    16.41867664   249.06637215    32.19698522
   -53.66077907    65.63514767     6.81390298
   -97.67833974    65.27489150   -61.31837406
   -11.82638252   -53.99328712   -30.88491915
     3.54694060   -49.97235243   -22.69425596
    48.25377579  -114.25314747   -13.58428377
    25.20776392   -86.82930078     3.79978662
    17.94037568   -82.60902906    11.96325221
   -18.25434731   -23.56577225    11.24533010
   -26.50323000    -7.10151000     0.00000000
   -86.87872206   169.96984493    48.30034232
    18.55058680   169.44090230    40.65340176
   140.65657368   138.32444764    12.00453527
   179.03575196    84.26492741    22.03071249
   201.85882283    17.37816156     0.17454004
   156.22426970    -1.94159771    15.54308416
   125.60444946   -20.49967996     5.02311356
    69.08477082   -27.74484346    13.76085001
    35.81125780   -31.65387066    11.67507392
   -12.99103151   -10.61047575    13.91275013
   -17.51406000    -4.69287000     0.00000000
     0.00000000     0.00000000     0.00000000
     0.00000000     0.00000000     0.00000000
     0.00000000     0.00000000     0.00000000
     0.00000000     0.00000000     0.00000000
     0.00000000     0.00000000     0.00000000
     0.00000000     0.00000000     0.00000000
     0.00000000     0.00000000     0.00000000
     0.00000000     0.00000000     0.00000000
     0.00000000     0.00000000     0.00000000
     0.00000000     0.00000000     0.00000000
     0.00000000     0.00000000     0.00000000
     0.00000000     0.00000000     0.00000000
     0.00000000     0.00000000     0.00000000
     0.00000000     0.00000000     0.00000000
     0.00000000     0.00000000     0.00000000
     0.00000000     0.00000000     0.00000000
     0.00000000     0.00000000     0.00000000
     0.00000000     0.00000000     0.00000000
     0.00000000     0.00000000     0.00000000
     0.00000000     0.00000000     0.00000000
     0.00000000     0.00000000     0.00000000
     0.00000000     0.00000000     0.00000000
    -7.32989072   -97.53232421    92.86083243
   -54.65482275    12.51574777    64.24687572
   -91.94801892   -11.99985272     9.57797863
   -91.16516650   -42.23983418    47.09499880
  -104.98402508   -23.28260902    -8.61278539
   -70.37155652   -61.08319126    28.82179553
   -68.00006336   -22.16373221   -13.77781165
   -40.46622692   -50.22908121    16.09855138
   -32.83075341   -16.93542704   -12.78998350
   -21.13889180   -26.38084797    -5.94134528
   -14.90328000    -3.99333000     0.00000000
   -97.48620388   216.72769723   160.96586303
  -122.91390073   -22.02571286   -18.81358921
  -111.64812806    21.18358447     8.24379842
   -93.32964678   -29.05509429   -25.08502233
   -95.36788460   -30.77672321    -0.15652279
   -63.30259442   -85.29313240   -23.61131870
   -54.96594838   -81.02044481    22.60805739
   -15.77921939   -88.53963106     5.06117588
   -19.47997622   -49.97000813    23.45341968
    -5.99738693   -33.06161258    11.43852957
   -22.71996000    -6.08781000     0.00000000
    21.89378999   337.77548688    42.70111385
    14.24765547   232.87910354    78.37997577
   -59.82570813    38.83145048   -20.17911950
   -35.35011788    47.48227110   -95.55668718
    -9.40533233   -69.63421657   -32.60082947
    37.44605722   -57.60476239   -42.41323206
    45.41189897  -110.28509591    -7.15107346
    32.20538696   -84.82616718    12.63703674
    10.24204179   -74.69999642    29.41555533
   -12.53813298   -19.57833167    18.46736112
   -22.71996000    -6.08781000     0.00000000
  -116.98426629   175.83192199    80.45243182
    24.06130724   142.67337865    65.14171483
   128.19005486    82.53092467    -5.07684516
   210.65775507    59.38473156    23.82605525
   191.95039251     4.30916918     3.68399590
   170.34839016    -8.42384780    16.16487373
   120.84220965   -26.44281542     9.07554470
    84.29330850   -27.27779858    22.88247036
    21.17792971   -32.90491080    34.13714298
    -5.61240646    -8.34182006    22.23084043
   -14.90328000    -3.99333000     0.00000000
     0.00000000     0.00000000     0.00000000
     0.00000000     0.00000000     0.00000000
     0.00000000     0.00000000     0.00000000
     0.00000000     0.00000000     0.00000000
     0.00000000     0.00000000     0.00000000
     0.00000000     0.00000000     0.00000000
     0.00000000     0.00000000     0.00000000
     0.00000000     0.00000000     0.00000000
     0.00000000     0.00000000     0.00000000
     0.00000000     0.00000000     0.00000000
     0.00000000     0.00000000     0.00000000
     0.00000000     0.00000000     0.00000000
     0.00000000     0.00000000     0.00000000
     0.00000000     0.00000000     0.00000000
     0.00000000     0.00000000     0.00000000
     0.00000000     0.00000000     0.00000000
     0.00000000     0.00000000     0.00000000
     0.00000000     0.00000000     0.00000000
     0.00000000     0.00000000     0.00000000
     0.00000000     0.00000000     0.00000000
     0.00000000     0.00000000     0.00000000
     0.00000000     0.00000000     0.00000000
   -13.60941878  -121.91882080   165.00987525
   -92.36010328    15.70244211    34.29160080
   -89.16134101    -2.40670355    62.09031963
  -109.48384085    -5.36582372    38.90465607
   -92.11224374   -18.08287890     1.51640930
   -78.60099208   -33.70048274    27.97987804
   -62.35088580   -20.87643426   -10.53625514
   -40.29958095   -33.53761327    17.09906527
   -26.76671354   -14.44505912    -9.78399115
   -12.79575706   -23.18606149    -6.88264295
   -10.90554000    -2.92212000     0.00000000
   -91.02603174   143.84403839   222.47872814
  -141.27536921   -55.00411409   -89.16055071
  -121.73390004    14.57691597    43.73807644
  -133.52184513   -59.66418629   -60.23545609
   -98.99271346   -27.99097166    -0.36866673
   -89.85073398   -85.69869382   -21.34071775
   -58.72040356   -59.92085507    16.72478478
   -34.76381044   -72.61539395     4.91932342
   -15.59895092   -35.94351758    16.32291995
   -10.48935985   -30.30031622    12.09662190
   -16.73892000    -4.48518000     0.00000000
    25.60047666   314.30672431   120.18507433
     9.68712679   152.99606752    53.68857596
     9.55249788    25.83634477   -48.33636749
   -53.49588075    -1.45031653   -62.63153422
    -6.24998574   -83.00685810   -57.40323841
    -4.45871224   -78.72005209   -15.96745081
     6.51807136  -108.86760486    -0.71075169
    -9.54772855   -73.47168442    32.01833222
    -3.72720886   -60.24232183    27.55114235
   -15.30144594   -11.64284712    17.65669092
   -16.73892000    -4.48518000     0.00000000
  -122.65861417   158.15110120    89.08087964
    59.84982401    91.43530668    28.63097811
   202.10829127    94.70350808   -28.64385519
   200.98776637    42.90806977    31.87452390
   201.54786145     3.24170508   -11.06305087
   149.37909688   -18.97850760    22.60065797
   102.10610299   -27.52102427     5.56796136
    31.84586585   -37.51043636    47.45560252
     0.94427950   -36.47639420    40.19633240
   -17.58743831    -9.84174873    21.99636029
   -10.90554000    -2.92212000     0.00000000
     0.00000000     0.00000000     0.00000000
     0.00000000     0.00000000     0.00000000
     0.00000000     0.00000000     0.00000000
     0.00000000     0.00000000     0.00000000
     0.00000000     0.00000000     0.00000000
     0.00000000     0.00000000     0.00000000
     0.00000000     0.00000000     0.00000000
     0.00000000     0.00000000     0.00000000
     0.00000000     0.00000000     0.00000000
     0.00000000     0.00000000     0.00000000
     0.00000000     0.00000000     0.00000000
     0.00000000     0.00000000     0.00000000
     0.00000000     0.00000000     0.00000000
     0.00000000     0.00000000     0.00000000
     0.00000000     0.00000000     0.00000000
     0.00000000     0.00000000     0.00000000
     0.00000000     0.00000000     0.00000000
     0.00000000     0.00000000     0.00000000
     0.00000000     0.00000000     0.00000000
     0.00000000     0.00000000     0.00000000
     0.00000000     0.00000000     0.00000000
     0.00000000     0.00000000     0.00000000
   -25.01460885   -23.16902496   269.84303671
  -119.98812161   -30.52789202    -7.99453835
  -123.05191961    31.32406846    71.40761441
   -74.71148223   -11.71305600     5.30016944
   -87.64743646    -2.07442325    14.61644402
   -65.81876255   -17.69873303    10.53138470
   -54.54263351   -12.43625961    -2.71035766
   -35.76606621   -15.46649970     7.36280070
   -14.86998441    -9.60172232    -6.49971630
   -11.20043696   -10.74414913    -3.05812589
    -5.81406000    -1.55787000     0.00000000
   -54.62194441   194.25946032   223.08583575
  -127.66170073   -68.78665548   -90.65594515
  -122.73058004    18.37302085    68.75069150
  -108.40927958   -27.90521324   -63.29084105
  -113.62935684   -24.67820949    24.99667820
   -89.79033089   -46.02470074   -27.21682097
   -71.30365806   -41.79394611    15.77996645
   -38.03507503   -39.16259490    -8.34938277
   -28.02050590   -26.55630643     8.37643322
    -7.81848176   -15.33306581     3.29976478
    -8.98422000    -2.40732000     0.00000000
   -96.49424366   339.65331715   170.29843839
    30.97320978    15.00255747   -61.27442549
   -24.69621831    21.87921894    36.24541213
   -48.22887480   -29.03084688   -70.56667180
   -74.06583138   -77.52282528    -0.03871269
   -70.61718425   -76.29954054   -19.17041166
   -56.46196058   -78.95191649    19.05820366
   -41.72752152   -51.71489209    10.17055902
   -19.62806800   -40.99006682    15.78360995
   -11.75209081   -16.59286542     5.63750698
    -8.98422000    -2.40732000     0.00000000
  -185.04024578   137.61201525    87.06610621
    84.87516570    63.43372424   -52.23197568
   132.66958714    43.31316322    22.32229811
   158.94827354    18.05883168     2.49823302
   107.92790938    -5.16114853    19.63222038
    39.46155136   -28.58653220     7.53455258
   -21.40925454   -34.69790122    19.99534576
   -28.00145695   -43.92548399    29.78103416
   -19.84022719   -31.03210991    26.58284996
    -7.38839228   -15.38691592    13.26951401
    -5.81406000    -1.55787000     0.00000000
     0.00000000     0.00000000     0.00000000
     0.00000000     0.00000000     0.00000000
     0.00000000     0.00000000     0.00000000
     0.00000000     0.00000000     0.00000000
     0.00000000     0.00000000     0.00000000
     0.00000000     0.00000000     0.00000000
     0.00000000     0.00000000     0.00000000
     0.00000000     0.00000000     0.00000000
     0.00000000     0.00000000     0.00000000
     0.00000000     0.00000000     0.00000000
     0.00000000     0.00000000     0.00000000
     0.00000000     0.00000000     0.00000000
     0.00000000     0.00000000     0.00000000
     0.00000000     0.00000000     0.00000000
     0.00000000     0.00000000     0.00000000
     0.00000000     0.00000000     0.00000000
     0.00000000     0.00000000     0.00000000
     0.00000000     0.00000000     0.00000000
     0.00000000     0.00000000     0.00000000
     0.00000000     0.00000000     0.00000000
     0.00000000     0.00000000     0.00000000
     0.00000000     0.00000000     0.00000000
     0.00000000     0.00000000     0.00000000
     0.00000000     0.00000000     0.00000000
     0.00000000     0.00000000     0.00000000
     0.00000000     0.00000000     0.00000000
     0.00000000     0.00000000     0.00000000
     0.00000000     0.00000000     0.00000000
     0.00000000     0.00000000     0.00000000
     0.00000000     0.00000000     0.00000000
     0.00000000     0.00000000     0.00000000
     0.00000000     0.00000000     0.00000000
     0.00000000     0.00000000     0.00000000
     0.00000000     0.00000000     0.00000000
     0.00000000     0.00000000     0.00000000
     0.00000000     0.00000000     0.00000000
     0.00000000     0.00000000     0.00000000
     0.00000000     0.00000000     0.00000000
     0.00000000     0.00000000     0.00000000
     0.00000000     0.00000000     0.00000000
     0.00000000     0.00000000     0.00000000
     0.00000000     0.00000000     0.00000000
     0.00000000     0.00000000     0.00000000
     0.00000000     0.00000000     0.00000000
     0.00000000     0.00000000     0.00000000
     0.00000000     0.00000000     0.00000000
     0.00000000     0.00000000     0.00000000
     0.00000000     0.00000000     0.00000000
     0.00000000     0.00000000     0.00000000
     0.00000000     0.00000000     0.00000000
     0.00000000     0.00000000     0.00000000
     0.00000000     0.00000000     0.00000000
     0.00000000     0.00000000     0.00000000
     0.00000000     0.00000000     0.00000000
     0.00000000     0.00000000     0.00000000
     0.00000000     0.00000000     0.00000000
     0.00000000     0.00000000     0.00000000
     0.00000000     0.00000000     0.00000000
     0.00000000     0.00000000     0.00000000
     0.00000000     0.00000000     0.00000000
     0.00000000     0.00000000     0.00000000
     0.00000000     0.00000000     0.00000000
     0.00000000     0.00000000     0.00000000
     0.00000000     0.00000000     0.00000000
     0.00000000     0.00000000     0.00000000
     0.00000000     0.00000000     0.00000000
     0.00000000     0.00000000     0.00000000
     0.00000000     0.00000000     0.00000000
     0.00000000     0.00000000     0.00000000
     0.00000000     0.00000000     0.00000000
     0.00000000     0.00000000     0.00000000
     0.00000000     0.00000000     0.00000000
     0.00000000     0.00000000     0.00000000
     0.00000000     0.00000000     0.00000000
     0.00000000     0.00000000     0.00000000
     0.00000000     0.00000000     0.00000000
     0.00000000     0.00000000     0.00000000
     0.00000000     0.00000000     0.00000000
     0.00000000     0.00000000     0.00000000
     0.00000000     0.00000000     0.00000000
     0.00000000     0.00000000     0.00000000
     0.00000000     0.00000000     0.00000000
     0.00000000     0.00000000     0.00000000
     0.00000000     0.00000000     0.00000000
     0.00000000     0.00000000     0.00000000
     9.05733928  -221.09165079     0.00000000
  -152.95788665     7.39229982     0.00000000
  -220.05959402    79.50228930     0.00000000
  -203.92274470    68.51182941     0.00000000
  -184.81548594    97.14712072     0.00000000
  -128.80990855    99.28865831     0.00000000
   -74.12393827    88.51904745     0.00000000
    -8.79672758    73.25421478     0.00000000
     0.00000000     0.00000000     0.00000000
    30.56008752  -411.15570338     0.00000000
    28.66453747  -170.53045905     0.00000000
  -118.84651406   -26.39903565     0.00000000
  -144.38268862    21.11144176     0.00000000
   -46.12951607    97.04357052     0.00000000
    53.83625368   111.84578377     0.00000000
    81.07149907   107.05942564     0.00000000
    66.85366303   114.86489404     0.00000000
     0.00000000     0.00000000     0.00000000
    69.07948987  -533.08439112     0.00000000
   -83.75796590  -264.09269782     0.00000000
  -152.15166548   -79.67874373     0.00000000
   -77.36706128    39.11706231     0.00000000
    58.07879946    84.95498851     0.00000000
   119.76314843    93.02781633     0.00000000
   141.63292359    76.09852592     0.00000000
    73.46650954    78.04009465     0.00000000
     0.00000000     0.00000000     0.00000000
    19.38669669  -284.07669420     0.00000000
   353.05481082  -272.75213805     0.00000000
   443.96569190  -146.73541220     0.00000000
   422.39499300   -79.55114961     0.00000000
   322.63555719   -17.41475691     0.00000000
   248.82609759   -15.49562798     0.00000000
   148.09736099    14.45706885     0.00000000
    73.64332441     9.22792459     0.00000000
     0.00000000     0.00000000     0.00000000
     0.00000000     0.00000000     0.00000000
     0.00000000     0.00000000     0.00000000
     0.00000000     0.00000000     0.00000000
     0.00000000     0.00000000     0.00000000
     0.00000000     0.00000000     0.00000000
     0.00000000     0.00000000     0.00000000
     0.00000000     0.00000000     0.00000000
     0.00000000     0.00000000     0.00000000
     0.00000000     0.00000000     0.00000000
     0.00000000     0.00000000     0.00000000
     0.00000000     0.00000000     0.00000000
     0.00000000     0.00000000     0.00000000
     0.00000000     0.00000000     0.00000000
     0.00000000     0.00000000     0.00000000
     0.00000000     0.00000000     0.00000000
     0.00000000     0.00000000     0.00000000
     0.00000000     0.00000000     0.00000000
     0.00000000     0.00000000     0.00000000
   -29.49268456  -208.87741294     4.43541377
  -171.74111468    48.08467234   124.84495413
  -219.62144093    67.17062199   -40.21792159
  -201.78327697    70.18061490    46.09487303
  -197.84915195    72.60368438   -10.20677426
  -131.32007250   106.16284048    34.11770738
   -80.87783227    77.65448451     7.19872295
   -14.85349338    65.22556317    19.89875878
     0.00000000     0.00000000     0.00000000
   -52.52176250  -422.55174000   -23.17213957
   -15.72266058  -100.29838562    44.39057378
  -160.03039791   -62.52101651   -25.04806022
  -128.81146588    80.47043221   -57.29694579
   -22.01496072    74.83294272   -62.19167111
    56.33231528   131.51147500   -24.19828540
    81.95177633   102.04011401    -6.06838796
    56.70974098   113.80535075    43.40285717
     0.00000000     0.00000000     0.00000000
     4.45587268  -556.90190405    24.95108594
  -129.82582258  -232.56265862   102.20850149
  -113.47544675   -69.84338289    21.56040792
    46.64853610    47.40401955   -31.41867497
   126.33734211    89.05974654   -41.40947485
   166.03090955    78.75841441   -24.73571639
   142.27057263    83.24496957    -9.15484614
    81.31376447    72.09037966    45.28005453
     0.00000000     0.00000000     0.00000000
    16.10217302  -332.57984989   -13.62299154
   346.26530323  -232.21417730    17.71728536
   453.46177929  -119.91316970    19.74328128
   393.81404353   -63.66157096    20.60151762
   322.42962332   -21.17100219     5.28999246
   213.89288503    -2.31008586     6.58285597
   154.53246906     7.91448087     6.88144090
    40.70819812    18.59893026    39.40400965
     0.00000000     0.00000000     0.00000000
     0.00000000     0.00000000     0.00000000
     0.00000000     0.00000000     0.00000000
     0.00000000     0.00000000     0.00000000
     0.00000000     0.00000000     0.00000000
     0.00000000     0.00000000     0.00000000
     0.00000000     0.00000000     0.00000000
     0.00000000     0.00000000     0.00000000
     0.00000000     0.00000000     0.00000000
     0.00000000     0.00000000     0.00000000
     0.00000000     0.00000000     0.00000000
     0.00000000     0.00000000     0.00000000
     0.00000000     0.00000000     0.00000000
     0.00000000     0.00000000     0.00000000
     0.00000000     0.00000000     0.00000000
     0.00000000     0.00000000     0.00000000
     0.00000000     0.00000000     0.00000000
     0.00000000     0.00000000     0.00000000
     0.00000000     0.00000000     0.00000000
  -198.73787997  -182.12856899    61.87237735
  -161.81909927   128.89803122   157.61386788
  -238.53472697    -7.42847830   -30.34416644
  -194.79731316   105.50145305    46.87653043
  -223.23699981    10.70881897     6.61630396
  -143.99338674   126.52322131    34.67660204
   -91.22679639    30.46227154    31.24667027
   -39.86701563    63.30231007    21.54705958
     0.00000000     0.00000000     0.00000000
  -209.52406752  -394.33867630    30.91690964
  -110.38241497    93.53461948   -10.68618510
  -243.49398375  -134.46178537   -64.09357488
  -113.13345576   181.19338770   -94.02042676
   -60.99430852    51.96059039   -64.74942106
    23.13507164   151.19485072   -36.39844084
    17.92994832    94.48738799     9.68994090
    46.24002868    92.10478226    75.13685733
     0.00000000     0.00000000     0.00000000
   -65.89066227  -593.92603029    87.44539826
  -190.29663576   -65.29130408   165.90240389
   -14.23752015   -40.13368252   -15.84085157
   182.52067970    83.32790421   -75.33235970
   189.49573521    92.24166142   -56.46295577
   159.21702401    79.51284651   -31.44197149
   118.53477004    94.83717515    -3.49984378
    34.11011286    72.89101483    69.66292445
     0.00000000     0.00000000     0.00000000
   -24.75402879  -381.80939617    -8.93637282
   390.01021447  -161.17717014     2.50017307
   441.41474357   -37.05047329    28.89734819
   375.04766721   -55.64204122    33.66579619
   276.28907770    -4.72279489     9.98169329
   202.07975131     2.51753860     8.39379524
    94.48748761    13.95001736    20.40939944
    48.44143871    23.59520982    63.30537123
     0.00000000     0.00000000     0.00000000
     0.00000000     0.00000000     0.00000000
     0.00000000     0.00000000     0.00000000
     0.00000000     0.00000000     0.00000000
     0.00000000     0.00000000     0.00000000
     0.00000000     0.00000000     0.00000000
     0.00000000     0.00000000     0.00000000
     0.00000000     0.00000000     0.00000000
     0.00000000     0.00000000     0.00000000
     0.00000000     0.00000000     0.00000000
     0.00000000     0.00000000     0.00000000
     0.00000000     0.00000000     0.00000000
     0.00000000     0.00000000     0.00000000
     0.00000000     0.00000000     0.00000000
     0.00000000     0.00000000     0.00000000
     0.00000000     0.00000000     0.00000000
     0.00000000     0.00000000     0.00000000
     0.00000000     0.00000000     0.00000000
     0.00000000     0.00000000     0.00000000
  -320.68708713  -157.15822789    81.45318258
  -154.03868829   166.77014898   121.72932348
  -233.68731024  -121.41441152    -1.37746777
  -198.88288834   144.28764220    37.92983756
  -228.66565204   -29.94773055     4.73648811
  -147.92407186   111.03008897    35.65855308
  -125.38298963   -21.33221679    36.74038877
   -37.94676087    61.32305774    14.16965920
     0.00000000     0.00000000     0.00000000
  -230.34329736  -418.29235523   107.72535123
  -147.80204237   266.93692223   -93.25435627
  -281.32168605  -131.01425167   -57.02369664
  -146.34528146   226.38292641   -95.98887830
  -160.83863246     6.19782643   -13.01175989
   -82.88872858   160.22551697   -47.16226700
   -66.00478866    26.80134345    42.05426612
     8.32837434    76.22868050    63.29826604
     0.00000000     0.00000000     0.00000000
  -138.82218314  -599.07079473   109.36019609
   -79.73934594    38.04875394   110.41564774
   104.83627031    62.00074910   -67.95872578
   157.13321601    63.87564269   -63.45354171
    68.19029646   111.45113756   -42.55887514
    25.88618069    79.75650286   -12.39049729
   -20.52782767   102.42107341    -2.43785535
    -7.11491541    50.26427623    55.22048255
     0.00000000     0.00000000     0.00000000
   -52.47544847  -392.39678171    -8.30751802
   410.98147861  -116.76528877   -48.71747766
   427.97381271   -32.88935250    30.75662470
   309.46983856   -20.42981993    31.72288855
   243.84011091     1.38325400    11.90607580
   111.71825328    16.73554497    16.05634492
    49.27694607    30.14770193    32.37034158
    -3.21603758    40.52293142    59.98009133
     0.00000000     0.00000000     0.00000000
     0.00000000     0.00000000     0.00000000
     0.00000000     0.00000000     0.00000000
     0.00000000     0.00000000     0.00000000
     0.00000000     0.00000000     0.00000000
     0.00000000     0.00000000     0.00000000
     0.00000000     0.00000000     0.00000000
     0.00000000     0.00000000     0.00000000
     0.00000000     0.00000000     0.00000000
     0.00000000     0.00000000     0.00000000
     0.00000000     0.00000000     0.00000000
     0.00000000     0.00000000     0.00000000
     0.00000000     0.00000000     0.00000000
     0.00000000     0.00000000     0.00000000
     0.00000000     0.00000000     0.00000000
     0.00000000     0.00000000     0.00000000
     0.00000000     0.00000000     0.00000000
     0.00000000     0.00000000     0.00000000
     0.00000000     0.00000000     0.00000000
  -315.75891337  -168.37617488   129.76114482
  -144.28783882   168.73471199    -7.56971857
  -170.68000427  -121.54227184    53.84177500
  -186.18891103   134.42035779    -9.95319710
  -174.11441700   -27.26523688    17.24421466
  -157.34966931    75.79302500    11.64147474
   -94.21579451   -22.97543845    23.69005552
   -66.90310161    34.99424317     4.65140903
     0.00000000     0.00000000     0.00000000
  -127.31556291  -403.67658706    86.54533372
  -132.96424239   189.62650892   -43.84463770
  -250.54776553   -44.70827169   -28.19342699
  -130.81820180   148.15760509   -39.73526600
  -192.38302665    10.09340598     2.43300046
  -110.89484461    87.31936125   -23.29351099
  -135.00214699   -12.26548944    30.85952588
     0.26433472    26.52877326    22.05094573
     0.00000000     0.00000000     0.00000000
  -118.18506693  -497.86395907    10.30261078
    75.02327405     0.29030322    13.01990947
    63.74646559    79.71782667   -33.67462237
   -65.21620462    72.52460247   -16.31181036
   -72.03735116   101.26640187    -9.33075545
  -111.08824905    60.54487298    -0.00419878
   -69.53252545    49.05867566    -7.94202221
   -41.28264305    26.13783372    17.64423889
     0.00000000     0.00000000     0.00000000
   -58.97751965  -259.70194843   -63.74943574
   423.62079907   -91.63079368   -40.73533544
   264.69633527   -52.20396214    31.29016345
   200.41991330     4.58151477    13.14669638
    68.37759762     7.35336375    21.97681307
     4.80937827    32.31000525     9.58758075
   -46.43689441    42.75408443    29.22112710
   -13.12733317    28.94150803    26.10198990
     0.00000000     0.00000000     0.00000000
     0.00000000     0.00000000     0.00000000
     0.00000000     0.00000000     0.00000000
     0.00000000     0.00000000     0.00000000
     0.00000000     0.00000000     0.00000000
     0.00000000     0.00000000     0.00000000
     0.00000000     0.00000000     0.00000000
     0.00000000     0.00000000     0.00000000
     0.00000000     0.00000000     0.00000000
     0.00000000     0.00000000     0.00000000
     0.00000000     0.00000000     0.00000000
     0.00000000     0.00000000     0.00000000
     0.00000000     0.00000000     0.00000000
     0.00000000     0.00000000     0.00000000
     0.00000000     0.00000000     0.00000000
     0.00000000     0.00000000     0.00000000
     0.00000000     0.00000000     0.00000000
     0.00000000     0.00000000     0.00000000
     0.00000000     0.00000000     0.00000000
     0.00000000     0.00000000     0.00000000
     0.00000000     0.00000000     0.00000000
     0.00000000     0.00000000     0.00000000
     0.00000000     0.00000000     0.00000000
     0.00000000     0.00000000     0.00000000
     0.00000000     0.00000000     0.00000000
     0.00000000     0.00000000     0.00000000
     0.00000000     0.00000000     0.00000000
     0.00000000     0.00000000     0.00000000
     0.00000000     0.00000000     0.00000000
     0.00000000     0.00000000     0.00000000
     0.00000000     0.00000000     0.00000000
     0.00000000     0.00000000     0.00000000
     0.00000000     0.00000000     0.00000000
     0.00000000     0.00000000     0.00000000
     0.00000000     0.00000000     0.00000000
     0.00000000     0.00000000     0.00000000
     0.00000000     0.00000000     0.00000000
     0.00000000     0.00000000     0.00000000
     0.00000000     0.00000000     0.00000000
     0.00000000     0.00000000     0.00000000
     0.00000000     0.00000000     0.00000000
     0.00000000     0.00000000     0.00000000
     0.00000000     0.00000000     0.00000000
     0.00000000     0.00000000     0.00000000
     0.00000000     0.00000000     0.00000000
     0.00000000     0.00000000     0.00000000
     0.00000000     0.00000000     0.00000000
     0.00000000     0.00000000     0.00000000
     0.00000000     0.00000000     0.00000000
     0.00000000     0.00000000     0.00000000
     0.00000000     0.00000000     0.00000000
     0.00000000     0.00000000     0.00000000
     0.00000000     0.00000000     0.00000000
     0.00000000     0.00000000     0.00000000
     0.00000000     0.00000000     0.00000000
     0.00000000     0.00000000     0.00000000
     0.00000000     0.00000000     0.00000000
     0.00000000     0.00000000     0.00000000
     0.00000000     0.00000000     0.00000000
     0.00000000     0.00000000     0.00000000
     0.00000000     0.00000000     0.00000000
     0.00000000     0.00000000     0.00000000
     0.00000000     0.00000000     0.00000000
     0.00000000     0.00000000     0.00000000
     0.00000000     0.00000000     0.00000000
     0.00000000     0.00000000     0.00000000
     0.00000000     0.00000000     0.00000000
     0.00000000     0.00000000     0.00000000
     0.00000000     0.00000000     0.00000000
     0.00000000     0.00000000     0.00000000
     0.00000000     0.00000000     0.00000000
     0.00000000     0.00000000     0.00000000
     0.00000000     0.00000000     0.00000000
     0.00000000     0.00000000     0.00000000
     0.00000000     0.00000000     0.00000000
     0.00000000     0.00000000     0.00000000
     0.00000000     0.00000000     0.00000000
     0.00000000     0.00000000     0.00000000
     0.00000000     0.00000000     0.00000000
     0.00000000     0.00000000     0.00000000
     0.00000000     0.00000000     0.00000000
     0.00000000     0.00000000     0.00000000
     0.00000000     0.00000000     0.00000000
     0.00000000     0.00000000     0.00000000
     0.00000000     0.00000000     0.00000000
     0.00000000     0.00000000     0.00000000
     0.00000000     0.00000000     0.00000000
     0.00000000     0.00000000     0.00000000
     0.00000000     0.00000000     0.00000000
     0.00000000     0.00000000     0.00000000
     0.00000000     0.00000000     0.00000000
     0.00000000     0.00000000     0.00000000
     0.00000000     0.00000000     0.00000000
     0.00000000     0.00000000     0.00000000
     0.00000000     0.00000000     0.00000000
     0.00000000     0.00000000     0.00000000
     0.00000000     0.00000000     0.00000000
     0.00000000     0.00000000     0.00000000
     0.00000000     0.00000000     0.00000000
     0.00000000     0.00000000     0.00000000
     0.00000000     0.00000000     0.00000000
     0.00000000     0.00000000     0.00000000
     0.00000000     0.00000000     0.00000000
     0.00000000     0.00000000     0.00000000
     0.00000000     0.00000000     0.00000000
     0.00000000     0.00000000     0.00000000
     0.00000000     0.00000000     0.00000000
     0.00000000     0.00000000     0.00000000
     0.00000000     0.00000000     0.00000000
     0.00000000     0.00000000     0.00000000
     0.00000000     0.00000000     0.00000000
     0.00000000     0.00000000     0.00000000
     0.00000000     0.00000000     0.00000000
     0.00000000     0.00000000     0.00000000
     0.00000000     0.00000000     0.00000000
     0.00000000     0.00000000     0.00000000
     0.00000000     0.00000000     0.00000000
     0.00000000     0.00000000     0.00000000
     0.00000000     0.00000000     0.00000000
     0.00000000     0.00000000     0.00000000
     0.00000000     0.00000000     0.00000000
     0.00000000     0.00000000     0.00000000
     0.00000000     0.00000000     0.00000000
     0.00000000     0.00000000     0.00000000
     0.00000000     0.00000000     0.00000000
     0.00000000     0.00000000     0.00000000
     0.00000000     0.00000000     0.00000000
     0.00000000     0.00000000     0.00000000
     0.00000000     0.00000000     0.00000000
     0.00000000     0.00000000     0.00000000
     0.00000000     0.00000000     0.00000000
     0.00000000     0.00000000     0.00000000
     0.00000000     0.00000000     0.00000000
     0.00000000     0.00000000     0.00000000
     0.00000000     0.00000000     0.00000000
     0.00000000     0.00000000     0.00000000
     0.00000000     0.00000000     0.00000000
     0.00000000     0.00000000     0.00000000
     0.00000000     0.00000000     0.00000000
     0.00000000     0.00000000     0.00000000
     0.00000000     0.00000000     0.00000000
     0.00000000     0.00000000     0.00000000
     0.00000000     0.00000000     0.00000000
     0.00000000     0.00000000     0.00000000
     0.00000000     0.00000000     0.00000000
     0.00000000     0.00000000     0.00000000
     0.00000000     0.00000000     0.00000000
     0.00000000     0.00000000     0.00000000
     0.00000000     0.00000000     0.00000000
     0.00000000     0.00000000     0.00000000
     0.00000000     0.00000000     0.00000000
     0.00000000     0.00000000     0.00000000
     0.00000000     0.00000000     0.00000000
     0.00000000     0.00000000     0.00000000
     0.00000000     0.00000000     0.00000000
     0.00000000     0.00000000     0.00000000
     0.00000000     0.00000000     0.00000000
     0.00000000     0.00000000     0.00000000
     0.00000000     0.00000000     0.00000000
     0.00000000     0.00000000     0.00000000
     0.00000000     0.00000000     0.00000000
     0.00000000     0.00000000     0.00000000
     0.00000000     0.00000000     0.00000000
     0.00000000     0.00000000     0.00000000
     0.00000000     0.00000000     0.00000000
     0.00000000     0.00000000     0.00000000
     0.00000000     0.00000000     0.00000000
     0.00000000     0.00000000     0.00000000
     0.00000000     0.00000000     0.00000000
     0.00000000     0.00000000     0.00000000
     0.00000000     0.00000000     0.00000000
     0.00000000     0.00000000     0.00000000
     0.00000000     0.00000000     0.00000000
     0.00000000     0.00000000     0.00000000
     0.00000000     0.00000000     0.00000000
     0.00000000     0.00000000     0.00000000
     0.00000000     0.00000000     0.00000000
     0.00000000     0.00000000     0.00000000
     0.00000000     0.00000000     0.00000000
     0.00000000     0.00000000     0.00000000
     0.00000000     0.00000000     0.00000000
     0.00000000     0.00000000     0.00000000
     0.00000000     0.00000000     0.00000000
     0.00000000     0.00000000     0.00000000
     0.00000000     0.00000000     0.00000000
     0.00000000     0.00000000     0.00000000
     0.00000000     0.00000000     0.00000000
     0.00000000     0.00000000     0.00000000
     0.00000000     0.00000000     0.00000000
     0.00000000     0.00000000     0.00000000
     0.00000000     0.00000000     0.00000000
     0.00000000     0.00000000     0.00000000
     0.00000000     0.00000000     0.00000000
     0.00000000     0.00000000     0.00000000
     0.00000000     0.00000000     0.00000000
     0.00000000     0.00000000     0.00000000
     0.00000000     0.00000000     0.00000000
     0.00000000     0.00000000     0.00000000
     0.00000000     0.00000000     0.00000000
     0.00000000     0.00000000     0.00000000
     0.00000000     0.00000000     0.00000000
     0.00000000     0.00000000     0.00000000
     0.00000000     0.00000000     0.00000000
     0.00000000     0.00000000     0.00000000
     0.00000000     0.00000000     0.00000000
     0.00000000     0.00000000     0.00000000
     0.00000000     0.00000000     0.00000000
     0.00000000     0.00000000     0.00000000
     0.00000000     0.00000000     0.00000000
     0.00000000     0.00000000     0.00000000
     0.00000000     0.00000000     0.00000000
     0.00000000     0.00000000     0.00000000
     0.00000000     0.00000000     0.00000000
     0.00000000     0.00000000     0.00000000
     0.00000000     0.00000000     0.00000000
     0.00000000     0.00000000     0.00000000
     0.00000000     0.00000000     0.00000000
     0.00000000     0.00000000     0.00000000
     0.00000000     0.00000000     0.00000000
     0.00000000     0.00000000     0.00000000
     0.00000000     0.00000000     0.00000000
     0.00000000     0.00000000     0.00000000
     0.00000000     0.00000000     0.00000000
     0.00000000     0.00000000     0.00000000
     0.00000000     0.00000000     0.00000000
     0.00000000     0.00000000     0.00000000
     0.00000000     0.00000000     0.00000000
     0.00000000     0.00000000     0.00000000
     0.00000000     0.00000000     0.00000000
     0.00000000     0.00000000     0.00000000
     0.00000000     0.00000000     0.00000000
     0.00000000     0.00000000     0.00000000
     0.00000000     0.00000000     0.00000000
     0.00000000     0.00000000     0.00000000
     0.00000000     0.00000000     0.00000000
     0.00000000     0.00000000     0.00000000
     0.00000000     0.00000000     0.00000000
     0.00000000     0.00000000     0.00000000
     0.00000000     0.00000000     0.00000000
     0.00000000     0.00000000     0.00000000
     0.00000000     0.00000000     0.00000000
     0.00000000     0.00000000     0.00000000
     0.00000000     0.00000000     0.00000000
     0.00000000     0.00000000     0.00000000
     0.00000000     0.00000000     0.00000000
     0.00000000     0.00000000     0.00000000
     0.00000000     0.00000000     0.00000000
     0.00000000     0.00000000     0.00000000
     0.00000000     0.00000000     0.00000000
     0.00000000     0.00000000     0.00000000
     0.00000000     0.00000000     0.00000000
     0.00000000     0.00000000     0.00000000
     0.00000000     0.00000000     0.00000000
     0.00000000     0.00000000     0.00000000
     0.00000000     0.00000000     0.00000000
     0.00000000     0.00000000     0.00000000
     0.00000000     0.00000000     0.00000000
     0.00000000     0.00000000     0.00000000
     0.00000000     0.00000000     0.00000000
     0.00000000     0.00000000     0.00000000
     0.00000000     0.00000000     0.00000000
     0.00000000     0.00000000     0.00000000
     0.00000000     0.00000000     0.00000000
     0.00000000     0.00000000     0.00000000
     0.00000000     0.00000000     0.00000000
     0.00000000     0.00000000     0.00000000
     0.00000000     0.00000000     0.00000000
     0.00000000     0.00000000     0.00000000
     0.00000000     0.00000000     0.00000000
     0.00000000     0.00000000     0.00000000
     0.00000000     0.00000000     0.00000000
     0.00000000     0.00000000     0.00000000
     0.00000000     0.00000000     0.00000000
     0.00000000     0.00000000     0.00000000
     0.00000000     0.00000000     0.00000000
     0.00000000     0.00000000     0.00000000
     0.00000000     0.00000000     0.00000000
     0.00000000     0.00000000     0.00000000
     0.00000000     0.00000000     0.00000000
     0.00000000     0.00000000     0.00000000
     0.00000000     0.00000000     0.00000000
     0.00000000     0.00000000     0.00000000
     0.00000000     0.00000000     0.00000000
     0.00000000     0.00000000     0.00000000
     0.00000000     0.00000000     0.00000000
     0.00000000     0.00000000     0.00000000
     0.00000000     0.00000000     0.00000000
     0.00000000     0.00000000     0.00000000
     0.00000000     0.00000000     0.00000000
     0.00000000     0.00000000     0.00000000
     0.00000000     0.00000000     0.00000000
     0.00000000     0.00000000     0.00000000
     0.00000000     0.00000000     0.00000000
     0.00000000     0.00000000     0.00000000
     0.00000000     0.00000000     0.00000000
     0.00000000     0.00000000     0.00000000
     0.00000000     0.00000000     0.00000000
     0.00000000     0.00000000     0.00000000
     0.00000000     0.00000000     0.00000000
     0.00000000     0.00000000     0.00000000
     0.00000000     0.00000000     0.00000000
     0.00000000     0.00000000     0.00000000
     0.00000000     0.00000000     0.00000000
     0.00000000     0.00000000     0.00000000
     0.00000000     0.00000000     0.00000000
     0.00000000     0.00000000     0.00000000
     0.00000000     0.00000000     0.00000000
     0.00000000     0.00000000     0.00000000
     0.00000000     0.00000000     0.00000000
     0.00000000     0.00000000     0.00000000
     0.00000000     0.00000000     0.00000000
     0.00000000     0.00000000     0.00000000
     0.00000000     0.00000000     0.00000000
     0.00000000     0.00000000     0.00000000
     0.00000000     0.00000000     0.00000000
     0.00000000     0.00000000     0.00000000
     0.00000000     0.00000000     0.00000000
     0.00000000     0.00000000     0.00000000
     0.00000000     0.00000000     0.00000000
     0.00000000     0.00000000     0.00000000
     0.00000000     0.00000000     0.00000000
     0.00000000     0.00000000     0.00000000
     0.00000000     0.00000000     0.00000000
     0.00000000     0.00000000     0.00000000
     0.00000000     0.00000000     0.00000000
     0.00000000     0.00000000     0.00000000
     0.00000000     0.00000000     0.00000000
     0.00000000     0.00000000     0.00000000
     0.00000000     0.00000000     0.00000000
     0.00000000     0.00000000     0.00000000
     0.00000000     0.00000000     0.00000000
     0.00000000     0.00000000     0.00000000
     0.00000000     0.00000000     0.00000000
     0.00000000     0.00000000     0.00000000
     0.00000000     0.00000000     0.00000000
     0.00000000     0.00000000     0.00000000
     0.00000000     0.00000000     0.00000000
     0.00000000     0.00000000     0.00000000
     0.00000000     0.00000000     0.00000000
     0.00000000     0.00000000     0.00000000
SCALARS Temperatures float
LOOKUP_TABLE default
     0.00000000
     0.00000000
     0.00000000
     0.00000000
     0.00000000
     0.00000000
     0.00000000
     0.00000000
     0.00000000
     0.00000000
     0.00000000
     0.00000000
     0.00000000
     0.00000000
     0.00000000
     0.00000000
     0.00000000
     0.00000000
     0.00000000
     0.00000000
     0.00000000
     0.00000000
     0.00000000
     0.00000000
     0.00000000
     0.00000000
     0.00000000
     0.00000000
     0.00000000
     0.00000000
     0.00000000
     0.00000000
     0.00000000
     0.00000000
     0.00000000
     0.00000000
     0.00000000
     0.00000000
     0.00000000
     0.00000000
     0.00000000
     0.00000000
     0.00000000
     0.00000000
     0.00000000
     0.00000000
     0.00000000
     0.00000000
     0.00000000
     0.00000000
     0.00000000
     0.00000000
     0.00000000
     0.00000000
     0.00000000
     0.00000000
     0.00000000
     0.00000000
     0.00000000
     0.00000000
     0.00000000
     0.00000000
     0.00000000
     0.00000000
     0.00000000
     0.00000000
     0.00000000
     0.00000000
     0.00000000
     0.00000000
     0.00000000
     0.00000000
     0.00000000
     0.00000000
     0.00000000
     0.00000000
     0.00000000
     0.00000000
     0.00000000
     0.00000000
     0.00000000
     0.00000000
     0.00000000
     0.00000000
     0.00000000
     0.00000000
     0.00000000
     0.00000000
     0.00000000
     0.00000000
     0.00000000
     0.00000000
     0.00000000
     0.00000000
     0.00000000
     0.00000000
     0.00000000
     0.00000000
     0.00000000
     0.00000000
     0.00000000
     0.00000000
     0.00000000
     0.00000000
     0.00000000
     0.00000000
     0.00000000
     0.00000000
     0.00000000
     0.00000000
     0.00000000
     0.00000000
     0.00000000
     0.00000000
     0.00000000
     0.00000000
     0.00000000
     0.00000000
     0.00000000
     0.00000000
     0.00000000
     0.00000000
     0.00000000
     0.00000000
     0.00000000
     0.00000000
     0.00000000
     0.00000000
     0.00000000
     0.00000000
     0.00000000
     0.00000000
     0.00000000
     0.00000000
     0.00000000
     0.00000000
     0.00000000
     0.00000000
     0.00000000
     0.00000000
     0.00000000
     0.00000000
     0.00000000
     0.00000000
     0.00000000
     0.00000000
     0.00000000
     0.00000000
     0.00000000
     0.00000000
     0.00000000
     0.00000000
     0.00000000
     0.00000000
     0.00000000
     0.00000000
     0.00000000
     0.00000000
     0.00000000
     0.00000000
     0.00000000
     0.00000000
     0.00000000
     0.00000000
     0.00000000
     0.00000000
     0.00000000
     0.00000000
     0.00000000
     0.00000000
     0.00000000
     0.00000000
     0.00000000
     0.00000000
     0.00000000
     0.00000000
     0.00000000
     0.00000000
     0.00000000
     0.00000000
     0.00000000
     0.00000000
     0.00000000
     0.00000000
     0.00000000
     0.00000000
     0.00000000
     0.00000000
     0.00000000
     0.00000000
     0.00000000
     0.00000000
     0.00000000
     0.00000000
     0.00000000
     0.00000000
     0.00000000
     0.00000000
     0.00000000
     0.00000000
     0.00000000
     0.00000000
     0.00000000
     0.00000000
     0.00000000
     0.00000000
     0.00000000
     0.00000000
     0.00000000
     0.00000000
     0.00000000
     0.00000000
     0.00000000
     0.00000000
     0.00000000
     0.00000000
     0.00000000
     0.00000000
     0.00000000
     0.00000000
     0.00000000
     0.00000000
     0.00000000
     0.00000000
     0.00000000
     0.00000000
     0.00000000
     0.00000000
     0.00000000
     0.00000000
     0.00000000
     0.00000000
     0.00000000
     0.00000000
     0.00000000
     0.00000000
     0.00000000
     0.00000000
     0.00000000
     0.00000000
     0.00000000
     0.00000000
     0.00000000
     0.00000000
     0.00000000
     0.00000000
     0.00000000
     0.00000000
     0.00000000
     0.00000000
     0.00000000
     0.00000000
     0.00000000
     0.00000000
     0.00000000
     0.00000000
     0.00000000
     0.00000000
     0.00000000
     0.00000000
     0.00000000
     0.00000000
     0.00000000
     0.00000000
     0.00000000
     0.00000000
     0.00000000
     0.00000000
     0.00000000
     0.00000000
     0.00000000
     0.00000000
     0.00000000
     0.00000000
     0.00000000
     0.00000000
     0.00000000
     0.00000000
     0.00000000
     0.00000000
     0.00000000
     0.00000000
     0.00000000
     0.00000000
     0.00000000
     0.00000000
     0.00000000
     0.00000000
     0.00000000
     0.00000000
     0.00000000
     0.00000000
     0.00000000
     0.00000000
     0.00000000
     0.00000000
     0.00000000
     0.00000000
     0.00000000
     0.00000000
     0.00000000
     0.00000000
     0.00000000
     0.00000000
     0.00000000
     0.00000000
     0.00000000
     0.00000000
     0.00000000
     0.00000000
     0.00000000
     0.00000000
     0.00000000
     0.00000000
     0.00000000
     0.00000000
     0.00000000
     0.00000000
     0.00000000
     0.00000000
     0.00000000
     0.00000000
     0.00000000
     0.00000000
     0.00000000
     0.00000000
     0.00000000
     0.00000000
     0.00000000
     0.00000000
     0.00000000
     0.00000000
     0.00000000
     0.00000000
     0.00000000
     0.00000000
     0.00000000
     0.00000000
     0.00000000
     0.00000000
     0.00000000
     0.00000000
     0.00000000
     0.00000000
     0.00000000
     0.00000000
     0.00000000
     0.00000000
     0.00000000
     0.00000000
     0.00000000
     0.00000000
     0.00000000
     0.00000000
     0.00000000
     0.00000000
     0.00000000
     0.00000000
     0.00000000
     0.00000000
     0.00000000
     0.00000000
     0.00000000
     0.00000000
     0.00000000
     0.00000000
     0.00000000
     0.00000000
     0.00000000
     0.00000000
     0.00000000
     0.00000000
     0.00000000
     0.00000000
     0.00000000
     0.00000000
     0.00000000
     0.00000000
     0.00000000
     0.00000000
     0.00000000
     0.00000000
     0.00000000
     0.00000000
     0.00000000
     0.00000000
     0.00000000
     0.00000000
     0.00000000
     0.00000000
     0.00000000
     0.00000000
     0.00000000
     0.00000000
     0.00000000
     0.00000000
     0.00000000
     0.00000000
     0.00000000
     0.00000000
     0.00000000
     0.00000000
     0.00000000
     0.00000000
     0.00000000
     0.00000000
     0.00000000
     0.00000000
     0.00000000
     0.00000000
     0.00000000
     0.00000000
     0.00000000
     0.00000000
     0.00000000
     0.00000000
     0.00000000
     0.00000000
     0.00000000
     0.00000000
     0.00000000
     0.00000000
     0.00000000
     0.00000000
     0.00000000
     0.00000000
     0.00000000
     0.00000000
     0.00000000
     0.00000000
     0.00000000
     0.00000000
     0.00000000
     0.00000000
     0.00000000
     0.00000000
     0.00000000
     0.00000000
     0.00000000
     0.00000000
     0.00000000
     0.00000000
     0.00000000
     0.00000000
     0.00000000
     0.00000000
     0.00000000
     0.00000000
     0.00000000
     0.00000000
     0.00000000
     0.00000000
     0.00000000
     0.00000000
     0.00000000
     0.00000000
     0.00000000
     0.00000000
     0.00000000
     0.00000000
     0.00000000
     0.00000000
     0.00000000
     0.00000000
     0.00000000
     0.00000000
     0.00000000
     0.00000000
     0.00000000
     0.00000000
     0.00000000
     0.00000000
     0.00000000
     0.00000000
     0.00000000
     0.00000000
     0.00000000
     0.00000000
     0.00000000
     0.00000000
     0.00000000
     0.00000000
     0.00000000
     0.00000000
     0.00000000
     0.00000000
     0.00000000
     0.00000000
     0.00000000
     0.00000000
     0.00000000
     0.00000000
     0.00000000
     0.00000000
     0.00000000
     0.00000000
     0.00000000
     0.00000000
     0.00000000
     0.00000000
     0.00000000
     0.00000000
     0.00000000
     0.00000000
     0.00000000
     0.00000000
     0.00000000
     0.00000000
     0.00000000
     0.00000000
     0.00000000
     0.00000000
     0.00000000
     0.00000000
     0.00000000
     0.00000000
     0.00000000
     0.00000000
     0.00000000
     0.00000000
     0.00000000
     0.00000000
     0.00000000
     0.00000000
     0.00000000
     0.00000000
     0.00000000
     0.00000000
     0.00000000
     0.00000000
     0.00000000
     0.00000000
     0.00000000
     0.00000000
     0.00000000
     0.00000000
     0.00000000
     0.00000000
     0.00000000
     0.00000000
     0.00000000
     0.00000000
     0.00000000
     0.00000000
     0.00000000
     0.00000000
     0.00000000
     0.00000000
     0.00000000
     0.00000000
     0.00000000
     0.00000000
     0.00000000
     0.00000000
     0.00000000
     0.00000000
     0.00000000
     0.00000000
     0.00000000
     0.00000000
     0.00000000
     0.00000000
     0.00000000
     0.00000000
     0.00000000
     0.00000000
     0.00000000
     0.00000000
     0.00000000
     0.00000000
     0.00000000
     0.00000000
     0.00000000
     0.00000000
     0.00000000
     0.00000000
     0.00000000
     0.00000000
     0.00000000
     0.00000000
     0.00000000
     0.00000000
     0.00000000
     0.00000000
     0.00000000
     0.00000000
     0.00000000
     0.00000000
     0.00000000
     0.00000000
     0.00000000
     0.00000000
     0.00000000
     0.00000000
     0.00000000
     0.00000000
     0.00000000
     0.00000000
     0.00000000
     0.00000000
     0.00000000
     0.00000000
     0.00000000
     0.00000000
     0.00000000
     0.00000000
     0.00000000
     0.00000000
     0.00000000
     0.00000000
     0.00000000
     0.00000000
     0.00000000
     0.00000000
     0.00000000
     0.00000000
     0.00000000
     0.00000000
     0.00000000
     0.00000000
     0.00000000
     0.00000000
     0.00000000
     0.00000000
     0.00000000
     0.00000000
     0.00000000
     0.00000000
     0.00000000
     0.00000000
     0.00000000
     0.00000000
     0.00000000
     0.00000000
     0.00000000
     0.00000000
     0.00000000
     0.00000000
     0.00000000
     0.00000000
     0.00000000
     0.00000000
     0.00000000
     0.00000000
     0.00000000
     0.00000000
     0.00000000
     0.00000000
     0.00000000
     0.00000000
     0.00000000
     0.00000000
     0.00000000
     0.00000000
     0.00000000
     0.00000000
     0.00000000
     0.00000000
     0.00000000
     0.00000000
     0.00000000
     0.00000000
     0.00000000
     0.00000000
     0.00000000
     0.00000000
     0.00000000
     0.00000000
     0.00000000
     0.00000000
     0.00000000
     0.00000000
     0.00000000
     0.00000000
     0.00000000
     0.00000000
     0.00000000
     0.00000000
     0.00000000
     0.00000000
     0.00000000
     0.00000000
     0.00000000
     0.00000000
     0.00000000
     0.00000000
     0.00000000
     0.00000000
     0.00000000
     0.00000000
     0.00000000
     0.00000000
     0.00000000
     0.00000000
     0.00000000
     0.00000000
     0.00000000
     0.00000000
     0.00000000
     0.00000000
     0.00000000
     0.00000000
     0.00000000
     0.00000000
     0.00000000
     0.00000000
     0.00000000
     0.00000000
     0.00000000
     0.00000000
     0.00000000
     0.00000000
     0.00000000
     0.00000000
     0.00000000
     0.00000000
     0.00000000
     0.00000000
     0.00000000
     0.00000000
     0.00000000
     0.00000000
     0.00000000
     0.00000000
     0.00000000
     0.00000000
     0.00000000
     0.00000000
     0.00000000
     0.00000000
     0.00000000
     0.00000000
     0.00000000
     0.00000000
     0.00000000
     0.00000000
     0.00000000
     0.00000000
     0.00000000
     0.00000000
     0.00000000
     0.00000000
     0.00000000
     0.00000000
     0.00000000
     0.00000000
     0.00000000
     0.00000000
     0.00000000
     0.00000000
     0.00000000
     0.00000000
     0.00000000
     0.00000000
     0.00000000
     0.00000000
     0.00000000
     0.00000000
     0.00000000
     0.00000000
     0.00000000
     0.00000000
     0.00000000
     0.00000000
     0.00000000
     0.00000000
     0.00000000
     0.00000000
     0.00000000
     0.00000000
     0.00000000
     0.00000000
     0.00000000
     0.00000000
     0.00000000
     0.00000000
     0.00000000
     0.00000000
     0.00000000
     0.00000000
     0.00000000
     0.00000000
     0.00000000
     0.00000000
     0.00000000
     0.00000000
     0.00000000
     0.00000000
     0.00000000
     0.00000000
     0.00000000
     0.00000000
     0.00000000
     0.00000000
     0.00000000
     0.00000000
     0.00000000
     0.00000000
     0.00000000
     0.00000000
     0.00000000
     0.00000000
     0.00000000
     0.00000000
     0.00000000
     0.00000000
     0.00000000
     0.00000000
     0.00000000
     0.00000000
     0.00000000
     0.00000000
     0.00000000
     0.00000000
     0.00000000
     0.00000000
     0.00000000
     0.00000000
     0.00000000
     0.00000000
     0.00000000
     0.00000000
     0.00000000
     0.00000000
     0.00000000
     0.00000000
     0.00000000
     0.00000000
     0.00000000
     0.00000000
     0.00000000
     0.00000000
     0.00000000
     0.00000000
     0.00000000
     0.00000000
     0.00000000
     0.00000000
     0.00000000
     0.00000000
     0.00000000
     0.00000000
     0.00000000
     0.00000000
     0.00000000
     0.00000000
     0.00000000
     0.00000000
     0.00000000
     0.00000000
     0.00000000
     0.00000000
     0.00000000
     0.00000000
     0.00000000
     0.00000000
     0.00000000
     0.00000000
     0.00000000
     0.00000000
     0.00000000
     0.00000000
     0.00000000
     0.00000000
     0.00000000
     0.00000000
     0.00000000
     0.00000000
     0.00000000
     0.00000000
     0.00000000
     0.00000000
     0.00000000
     0.00000000
     0.00000000
     0.00000000
     0.00000000
     0.00000000
     0.00000000
     0.00000000
     0.00000000
     0.00000000
     0.00000000
     0.00000000
     0.00000000
     0.00000000
     0.00000000
     0.00000000
     0.00000000
     0.00000000
     0.00000000
     0.00000000
     0.00000000
     0.00000000
     0.00000000
     0.00000000
     0.00000000
     0.00000000
     0.00000000
     0.00000000
     0.00000000
     0.00000000
     0.00000000
     0.00000000
     0.00000000
     0.00000000
     0.00000000
     0.00000000
     0.00000000
     0.00000000
     0.00000000
     0.00000000
     0.00000000
     0.00000000
     0.00000000
     0.00000000
     0.00000000
     0.00000000
     0.00000000
     0.00000000
     0.00000000
     0.00000000
     0.00000000
     0.00000000
     0.00000000
     0.00000000
     0.00000000
     0.00000000
     0.00000000
     0.00000000
     0.00000000
     0.00000000
     0.00000000
     0.00000000
     0.00000000
     0.00000000
     0.00000000
     0.00000000
     0.00000000
     0.00000000
     0.00000000
     0.00000000
     0.00000000
     0.00000000
     0.00000000
     0.00000000
     0.00000000
     0.00000000
     0.00000000
     0.00000000
     0.00000000
     0.00000000
     0.00000000
     0.00000000
     0.00000000
     0.00000000
     0.00000000
     0.00000000
     0.00000000
     0.00000000
     0.00000000
     0.00000000
     0.00000000
     0.00000000
     0.00000000
     0.00000000
     0.00000000
     0.00000000
     0.00000000
     0.00000000
     0.00000000
     0.00000000
     0.00000000
     0.00000000
     0.00000000
     0.00000000
     0.00000000
     0.00000000
     0.00000000
     0.00000000
     0.00000000
     0.00000000
     0.00000000
     0.00000000
     0.00000000
     0.00000000
     0.00000000
     0.00000000
     0.00000000
     0.00000000
     0.00000000
     0.00000000
     0.00000000
     0.00000000
     0.00000000
     0.00000000
     0.00000000
     0.00000000
     0.00000000
     0.00000000
     0.00000000
     0.00000000
     0.00000000
     0.00000000
     0.00000000
     0.00000000
     0.00000000
     0.00000000
     0.00000000
     0.00000000
     0.00000000
     0.00000000
     0.00000000
     0.00000000
     0.00000000
     0.00000000
     0.00000000
     0.00000000
     0.00000000
     0.00000000
     0.00000000
     0.00000000
     0.00000000
     0.00000000
     0.00000000
     0.00000000
     0.00000000
     0.00000000
     0.00000000
     0.00000000
     0.00000000
     0.00000000
     0.00000000
     0.00000000
     0.00000000
     0.00000000
     0.00000000
     0.00000000
     0.00000000
     0.00000000
     0.00000000
     0.00000000
     0.00000000
     0.00000000
     0.00000000
     0.00000000
     0.00000000
     0.00000000
     0.00000000
     0.00000000
     0.00000000
     0.00000000
     0.00000000
     0.00000000
     0.00000000
     0.00000000
     0.00000000
     0.00000000
     0.00000000
     0.00000000
     0.00000000
     0.00000000
     0.00000000
     0.00000000
     0.00000000
     0.00000000
     0.00000000
     0.00000000
     0.00000000
     0.00000000
     0.00000000
     0.00000000
     0.00000000
     0.00000000
     0.00000000
     0.00000000
     0.00000000
     0.00000000
     0.00000000
     0.00000000
     0.00000000
     0.00000000
     0.00000000
     0.00000000
     0.00000000
     0.00000000
     0.00000000
     0.00000000
     0.00000000
     0.00000000
     0.00000000
     0.00000000
     0.00000000
     0.00000000
     0.00000000
     0.00000000
     0.00000000
     0.00000000
     0.00000000
     0.00000000
     0.00000000
     0.00000000
     0.00000000
     0.00000000
     0.00000000
     0.00000000
     0.00000000
     0.00000000
     0.00000000
     0.00000000
     0.00000000
     0.00000000
     0.00000000
     0.00000000
     0.00000000
     0.00000000
     0.00000000
     0.00000000
     0.00000000
     0.00000000
     0.00000000
     0.00000000
     0.00000000
     0.00000000
     0.00000000
     0.00000000
     0.00000000
     0.00000000
     0.00000000
     0.00000000
     0.00000000
     0.00000000
     0.00000000
     0.00000000
     0.00000000
     0.00000000
     0.00000000
     0.00000000
     0.00000000
     0.00000000
     0.00000000
     0.00000000
     0.00000000
     0.00000000
     0.00000000
     0.00000000
     0.00000000
     0.00000000
     0.00000000
     0.00000000
     0.00000000
     0.00000000
     0.00000000
     0.00000000
     0.00000000
     0.00000000
     0.00000000
     0.00000000
     0.00000000
     0.00000000
     0.00000000
     0.00000000
     0.00000000
     0.00000000
     0.00000000
     0.00000000
     0.00000000
     0.00000000
     0.00000000
     0.00000000
     0.00000000
     0.00000000
     0.00000000
     0.00000000
     0.00000000
     0.00000000
     0.00000000
     0.00000000
     0.00000000
     0.00000000
     0.00000000
     0.00000000
     0.00000000
     0.00000000
     0.00000000
     0.00000000
     0.00000000
     0.00000000
     0.00000000
     0.00000000
     0.00000000
     0.00000000
     0.00000000
     0.00000000
     0.00000000
     0.00000000
     0.00000000
     0.00000000
     0.00000000
     0.00000000
     0.00000000
     0.00000000
     0.00000000
     0.00000000
     0.00000000
     0.00000000
     0.00000000
     0.00000000
     0.00000000
     0.00000000
     0.00000000
     0.00000000
     0.00000000
     0.00000000
     0.00000000
     0.00000000
     0.00000000
     0.00000000
     0.00000000
     0.00000000
     0.00000000
     0.00000000
     0.00000000
     0.00000000
     0.00000000
     0.00000000
     0.00000000
     0.00000000
     0.00000000
     0.00000000
     0.00000000
     0.00000000
     0.00000000
     0.00000000
     0.00000000
     0.00000000
     0.00000000
     0.00000000
     0.00000000
     0.00000000
     0.00000000
     0.00000000
     0.00000000
     0.00000000
     0.00000000
     0.00000000
     0.00000000
     0.00000000
     0.00000000
     0.00000000
     0.00000000
     0.00000000
     0.00000000
     0.00000000
     0.00000000
     0.00000000
     0.00000000
     0.00000000
     0.00000000
     0.00000000
     0.00000000
     0.00000000
     0.00000000
     0.00000000
     0.00000000
     0.00000000
     0.00000000
     0.00000000
     0.00000000
     0.00000000
     0.00000000
     0.00000000
     0.00000000
     0.00000000
     0.00000000
     0.00000000
     0.00000000
     0.00000000
     0.00000000
     0.00000000
     0.00000000
     0.00000000
     0.00000000
     0.00000000
     0.00000000
     0.00000000
     0.00000000
     0.00000000
     0.00000000
     0.00000000
     0.00000000
     0.00000000
     0.00000000
     0.00000000
     0.00000000
     0.00000000
     0.00000000
     0.00000000
     0.00000000
     0.00000000
     0.00000000
     0.00000000
     0.00000000
     0.00000000
     0.00000000
     0.00000000
     0.00000000
     0.00000000
     0.00000000
     0.00000000
     0.00000000
     0.00000000
     0.00000000
     0.00000000
     0.00000000
     0.00000000
     0.00000000
     0.00000000
     0.00000000
     0.00000000
     0.00000000
     0.00000000
     0.00000000
     0.00000000
     0.00000000
     0.00000000
     0.00000000
     0.00000000
     0.00000000
     0.00000000
     0.00000000
     0.00000000
     0.00000000
     0.00000000
     0.00000000
     0.00000000
     0.00000000
     0.00000000
     0.00000000
     0.00000000
     0.00000000
     0.00000000
     0.00000000
     0.00000000
     0.00000000
     0.00000000
     0.00000000
     0.00000000
     0.00000000
     0.00000000
     0.00000000
     0.00000000
     0.00000000
     0.00000000
     0.00000000
     0.00000000
     0.00000000
     0.00000000
     0.00000000
     0.00000000
     0.00000000
     0.00000000
     0.00000000
     0.00000000
     0.00000000
     0.00000000
     0.00000000
     0.00000000
     0.00000000
     0.00000000
     0.00000000
     0.00000000
     0.00000000
     0.00000000
     0.00000000
     0.00000000
     0.00000000
     0.00000000
     0.00000000
     0.00000000
     0.00000000
     0.00000000
     0.00000000
     0.00000000
     0.00000000
     0.00000000
     0.00000000
     0.00000000
     0.00000000
     0.00000000
     0.00000000
     0.00000000
     0.00000000
     0.00000000
     0.00000000
     0.00000000
     0.00000000
     0.00000000
     0.00000000
     0.00000000
     0.00000000
     0.00000000
     0.00000000
     0.00000000
     0.00000000
     0.00000000
     0.00000000
     0.00000000
     0.00000000
     0.00000000
     0.00000000
     0.00000000
     0.00000000
     0.00000000
     0.00000000
     0.00000000
     0.00000000
     0.00000000
     0.00000000
     0.00000000
     0.00000000
     0.00000000
     0.00000000
     0.00000000
     0.00000000
     0.00000000
     0.00000000
     0.00000000
     0.00000000
     0.00000000
     0.00000000
     0.00000000
     0.00000000
     0.00000000
     0.00000000
     0.00000000
     0.00000000
     0.00000000
     0.00000000
     0.00000000
     0.00000000
     0.00000000
     0.00000000
     0.00000000
     0.00000000
     0.00000000
     0.00000000
     0.00000000
     0.00000000
     0.00000000
     0.00000000
     0.00000000
     0.00000000
     0.00000000
     0.00000000
     0.00000000
     0.00000000
     0.00000000
     0.00000000
     0.00000000
     0.00000000
     0.00000000
     0.00000000
     0.00000000
     0.00000000
     0.00000000
     0.00000000
     0.00000000
     0.00000000
     0.00000000
     0.00000000
     0.00000000
     0.00000000
     0.00000000
     0.00000000
     0.00000000
     0.00000000
     0.00000000
     0.00000000
     0.00000000
     0.00000000
     0.00000000
     0.00000000
     0.00000000
     0.00000000
     0.00000000
     0.00000000
     0.00000000
     0.00000000
     0.00000000
     0.00000000
     0.00000000
     0.00000000
     0.00000000
     0.00000000
     0.00000000
     0.00000000
     0.00000000
     0.00000000
     0.00000000
     0.00000000
     0.00000000
     0.00000000
     0.00000000
     0.00000000
     0.00000000
     0.00000000
     0.00000000
     0.00000000
     0.00000000
     0.00000000
     0.00000000
     0.00000000
     0.00000000
     0.00000000
     0.00000000
     0.00000000
     0.00000000
     0.00000000
     0.00000000
     0.00000000
     0.00000000
     0.00000000
     0.00000000
     0.00000000
     0.00000000
     0.00000000
     0.00000000
     0.00000000
     0.00000000
     0.00000000
     0.00000000
     0.00000000
     0.00000000
     0.00000000
     0.00000000
     0.00000000
     0.00000000
     0.00000000
     0.00000000
     0.00000000
     0.00000000
     0.00000000
     0.00000000
     0.00000000
     0.00000000
     0.00000000
     0.00000000
     0.00000000
     0.00000000
     0.00000000
     0.00000000
     0.00000000
     0.00000000
     0.00000000
     0.00000000
     0.00000000
     0.00000000
     0.00000000
     0.00000000
     0.00000000
     0.00000000
     0.00000000
     0.00000000
     0.00000000
     0.00000000
     0.00000000
     0.00000000
     0.00000000
     0.00000000
     0.00000000
     0.00000000
     0.00000000
     0.00000000
     0.00000000
     0.00000000
     0.00000000
     0.00000000
     0.00000000
     0.00000000
     0.00000000
     0.00000000
     0.00000000
     0.00000000
     0.00000000
     0.00000000
     0.00000000
     0.00000000
     0.00000000
VECTORS ShearStress float 
    -0.00747139     0.00825852     0.00128618
    -0.06659186     0.04238660     0.00739524
    -0.06500929     0.02497269    -0.00109153
    -0.08535601     0.01971975     0.00691367
    -0.11450473     0.01102153     0.00166423
    -0.13600716    -0.00329312     0.00349207
    -0.16315181    -0.03555486    -0.00007091
    -0.21911070    -0.09107450     0.00136508
    -0.51024536    -0.22087741    -0.00658430
    -0.00016430     0.02482121     0.00435476
     0.00000000     0.00000000     0.00000000
     0.00000000     0.00000000     0.00000000
     0.00000000     0.00000000     0.00000000
     0.00000000     0.00000000     0.00000000
     0.00000000     0.00000000     0.00000000
     0.00000000     0.00000000     0.00000000
     0.00000000     0.00000000     0.00000000
     0.00000000     0.00000000     0.00000000
    -0.00004991     0.01667712     0.00977561
     0.00000000     0.00000000     0.00000000
     0.00000000     0.00000000     0.00000000
     0.00000000     0.00000000     0.00000000
     0.00000000     0.00000000     0.00000000
     0.00000000     0.00000000     0.00000000
     0.00000000     0.00000000     0.00000000
     0.00000000     0.00000000     0.00000000
     0.00000000     0.00000000     0.00000000
     0.00002047    -0.01409093     0.00954729
     0.00000000     0.00000000     0.00000000
     0.00000000     0.00000000     0.00000000
     0.00000000     0.00000000     0.00000000
     0.00000000     0.00000000     0.00000000
     0.00000000     0.00000000     0.00000000
     0.00000000     0.00000000     0.00000000
     0.00000000     0.00000000     0.00000000
     0.00000000     0.00000000     0.00000000
    -0.00000807    -0.03769876     0.00638725
     0.00000000     0.00000000     0.00000000
     0.00000000     0.00000000     0.00000000
     0.00000000     0.00000000     0.00000000
     0.00000000     0.00000000     0.00000000
     0.00000000     0.00000000     0.00000000
     0.00000000     0.00000000     0.00000000
     0.00000000     0.00000000     0.00000000
     0.00000000     0.00000000     0.00000000
    -0.00010785    -0.04487717     0.00446162
     0.00000000     0.00000000     0.00000000
     0.00000000     0.00000000     0.00000000
     0.00000000     0.00000000     0.00000000
     0.00000000     0.00000000     0.00000000
     0.00000000     0.00000000     0.00000000
     0.00000000     0.00000000     0.00000000
     0.00000000     0.00000000     0.00000000
     0.41066992    -0.13965718    -0.02985102
    -0.00022106    -0.04747604     0.00480378
     0.00000000     0.00000000     0.00000000
     0.00000000     0.00000000     0.00000000
     0.00000000     0.00000000     0.00000000
     0.00000000     0.00000000     0.00000000
     0.00000000     0.00000000     0.00000000
     0.00000000     0.00000000     0.00000000
     0.00000000     0.00000000     0.00000000
     0.00000000     0.00000000     0.00000000
    -0.00030565    -0.04642209     0.00411961
     0.00000000     0.00000000     0.00000000
     0.00000000     0.00000000     0.00000000
     0.00000000     0.00000000     0.00000000
     0.00000000     0.00000000     0.00000000
     0.00000000     0.00000000     0.00000000
     0.00000000     0.00000000     0.00000000
     0.00000000     0.00000000     0.00000000
     0.00000000     0.00000000     0.00000000
    -0.00032033    -0.03751445     0.00474210
     0.00000000     0.00000000     0.00000000
     0.00000000     0.00000000     0.00000000
     0.00000000     0.00000000     0.00000000
     0.00000000     0.00000000     0.00000000
     0.00000000     0.00000000     0.00000000
     0.00000000     0.00000000     0.00000000
     0.00000000     0.00000000     0.00000000
     0.00000000     0.00000000     0.00000000
    -0.00032025    -0.02559088     0.00159217
     0.00000000     0.00000000     0.00000000
     0.00000000     0.00000000     0.00000000
     0.00000000     0.00000000     0.00000000
     0.00000000     0.00000000     0.00000000
     0.00000000     0.00000000     0.00000000
     0.00000000     0.00000000     0.00000000
     0.00000000     0.00000000     0.00000000
     0.00000000     0.00000000     0.00000000
    -0.00613798    -0.00677420     0.00049854
    -0.05655932    -0.03394401     0.00333045
    -0.07712918    -0.02888138     0.00046701
    -0.10083094    -0.02264944     0.00239825
    -0.12689001    -0.01245045     0.00064797
    -0.14638451     0.00248277     0.00161126
    -0.15999477     0.03942430     0.00048489
    -0.18291529     0.08906731    -0.00053297
    -0.28771573     0.15228221    -0.00558098
    -0.00223356     0.00303196     0.00576172
    -0.02667243     0.02143729     0.03159257
    -0.06348871     0.02465960    -0.00031682
    -0.07745157     0.02277880     0.02969167
    -0.08957400     0.01045884     0.00984942
    -0.10573157    -0.00067468     0.01298890
    -0.12898081    -0.02858394    -0.00149903
    -0.20204089    -0.08766277    -0.00388647
    -0.54905427    -0.25304410    -0.03554529
    -0.00000446     0.00707695     0.01934201
     0.00000000     0.00000000     0.00000000
     0.00000000     0.00000000     0.00000000
     0.00000000     0.00000000     0.00000000
     0.00000000     0.00000000     0.00000000
     0.00000000     0.00000000     0.00000000
     0.00000000     0.00000000     0.00000000
     0.00000000     0.00000000     0.00000000
     0.00000000     0.00000000     0.00000000
    -0.00001307     0.01647191     0.04017455
     0.00000000     0.00000000     0.00000000
     0.00000000     0.00000000     0.00000000
     0.00000000     0.00000000     0.00000000
     0.00000000     0.00000000     0.00000000
     0.00000000     0.00000000     0.00000000
     0.00000000     0.00000000     0.00000000
     0.00000000     0.00000000     0.00000000
     0.00000000     0.00000000     0.00000000
     0.00001282     0.00609726     0.04045162
     0.00000000     0.00000000     0.00000000
     0.00000000     0.00000000     0.00000000
     0.00000000     0.00000000     0.00000000
     0.00000000     0.00000000     0.00000000
     0.00000000     0.00000000     0.00000000
     0.00000000     0.00000000     0.00000000
     0.00000000     0.00000000     0.00000000
     0.00000000     0.00000000     0.00000000
    -0.00000029    -0.02205540     0.02700028
     0.00000000     0.00000000     0.00000000
     0.00000000     0.00000000     0.00000000
     0.00000000     0.00000000     0.00000000
     0.00000000     0.00000000     0.00000000
     0.00000000     0.00000000     0.00000000
     0.00000000     0.00000000     0.00000000
     0.00000000     0.00000000     0.00000000
     0.00000000     0.00000000     0.00000000
    -0.00009633    -0.03890538     0.01886501
     0.00000000     0.00000000     0.00000000
     0.00000000     0.00000000     0.00000000
     0.00000000     0.00000000     0.00000000
     0.00000000     0.00000000     0.00000000
     0.00000000     0.00000000     0.00000000
     0.00000000     0.00000000     0.00000000
     0.00000000     0.00000000     0.00000000
     0.35143996    -0.12418710    -0.13463116
    -0.00021713    -0.04578363     0.01994212
     0.00000000     0.00000000     0.00000000
     0.00000000     0.00000000     0.00000000
     0.00000000     0.00000000     0.00000000
     0.00000000     0.00000000     0.00000000
     0.00000000     0.00000000     0.00000000
     0.00000000     0.00000000     0.00000000
     0.00000000     0.00000000     0.00000000
     0.00000000     0.00000000     0.00000000
    -0.00029388    -0.04592012     0.01750824
     0.00000000     0.00000000     0.00000000
     0.00000000     0.00000000     0.00000000
     0.00000000     0.00000000     0.00000000
     0.00000000     0.00000000     0.00000000
     0.00000000     0.00000000     0.00000000
     0.00000000     0.00000000     0.00000000
     0.00000000     0.00000000     0.00000000
     0.00000000     0.00000000     0.00000000
    -0.00023384    -0.02982164     0.01947466
     0.00000000     0.00000000     0.00000000
     0.00000000     0.00000000     0.00000000
     0.00000000     0.00000000     0.00000000
     0.00000000     0.00000000     0.00000000
     0.00000000     0.00000000     0.00000000
     0.00000000     0.00000000     0.00000000
     0.00000000     0.00000000     0.00000000
     0.00000000     0.00000000     0.00000000
    -0.00013703    -0.01227533     0.00763272
     0.00000000     0.00000000     0.00000000
     0.00000000     0.00000000     0.00000000
     0.00000000     0.00000000     0.00000000
     0.00000000     0.00000000     0.00000000
     0.00000000     0.00000000     0.00000000
     0.00000000     0.00000000     0.00000000
     0.00000000     0.00000000     0.00000000
     0.00000000     0.00000000     0.00000000
    -0.00358787    -0.00390225     0.00205613
    -0.03839113    -0.02457975     0.01194434
    -0.07958096    -0.03053525     0.00292320
    -0.10698172    -0.02573826     0.00894081
    -0.12448895    -0.01290047     0.00282161
    -0.14727254     0.00163622     0.00565372
    -0.15413718     0.03839308     0.00077568
    -0.18470293     0.09272937    -0.00378840
    -0.30121706     0.16425311    -0.00890547
    -0.00050396     0.00405233     0.01024493
    -0.00814338     0.02550708     0.06275121
    -0.03566154     0.02139079     0.02092902
    -0.03949475     0.02219368     0.03908032
    -0.02959833     0.01103237     0.02336151
    -0.00852038    -0.00057226    -0.00054165
    -0.01755780    -0.00444723     0.00096041
    -0.12279898    -0.05962375     0.00380311
    -0.63393806    -0.31860634     0.01010450
    -0.00000263     0.01212306     0.02618029
     0.00000000     0.00000000     0.00000000
     0.00000000     0.00000000     0.00000000
     0.00000000     0.00000000     0.00000000
     0.00000000     0.00000000     0.00000000
     0.00000000     0.00000000     0.00000000
     0.00000000     0.00000000     0.00000000
     0.00000000     0.00000000     0.00000000
     0.00000000     0.00000000     0.00000000
     0.00000764     0.01768180     0.03529647
     0.00000000     0.00000000     0.00000000
     0.00000000     0.00000000     0.00000000
     0.00000000     0.00000000     0.00000000
     0.00000000     0.00000000     0.00000000
     0.00000000     0.00000000     0.00000000
     0.00000000     0.00000000     0.00000000
     0.00000000     0.00000000     0.00000000
     0.00000000     0.00000000     0.00000000
     0.00001945     0.01293340     0.04401032
     0.00000000     0.00000000     0.00000000
     0.00000000     0.00000000     0.00000000
     0.00000000     0.00000000     0.00000000
     0.00000000     0.00000000     0.00000000
     0.00000000     0.00000000     0.00000000
     0.00000000     0.00000000     0.00000000
     0.00000000     0.00000000     0.00000000
     0.00000000     0.00000000     0.00000000
     0.00000859    -0.01005858     0.03020420
     0.00000000     0.00000000     0.00000000
     0.00000000     0.00000000     0.00000000
     0.00000000     0.00000000     0.00000000
     0.00000000     0.00000000     0.00000000
     0.00000000     0.00000000     0.00000000
     0.00000000     0.00000000     0.00000000
     0.00000000     0.00000000     0.00000000
     0.00000000     0.00000000     0.00000000
    -0.00007653    -0.02913325     0.02066333
     0.00000000     0.00000000     0.00000000
     0.00000000     0.00000000     0.00000000
     0.00000000     0.00000000     0.00000000
     0.00000000     0.00000000     0.00000000
     0.00000000     0.00000000     0.00000000
     0.00000000     0.00000000     0.00000000
     0.00000000     0.00000000     0.00000000
     0.27506839    -0.10879856    -0.16234375
    -0.00019043    -0.03687448     0.01932035
     0.00000000     0.00000000     0.00000000
     0.00000000     0.00000000     0.00000000
     0.00000000     0.00000000     0.00000000
     0.00000000     0.00000000     0.00000000
     0.00000000     0.00000000     0.00000000
     0.00000000     0.00000000     0.00000000
     0.00000000     0.00000000     0.00000000
     0.00000000     0.00000000     0.00000000
    -0.00025009    -0.03675819     0.01932878
     0.00000000     0.00000000     0.00000000
     0.00000000     0.00000000     0.00000000
     0.00000000     0.00000000     0.00000000
     0.00000000     0.00000000     0.00000000
     0.00000000     0.00000000     0.00000000
     0.00000000     0.00000000     0.00000000
     0.00000000     0.00000000     0.00000000
     0.00000000     0.00000000     0.00000000
    -0.00020366    -0.02579507     0.01756375
     0.00000000     0.00000000     0.00000000
     0.00000000     0.00000000     0.00000000
     0.00000000     0.00000000     0.00000000
     0.00000000     0.00000000     0.00000000
     0.00000000     0.00000000     0.00000000
     0.00000000     0.00000000     0.00000000
     0.00000000     0.00000000     0.00000000
     0.00000000     0.00000000     0.00000000
    -0.00016596    -0.01696712     0.01455350
     0.00000000     0.00000000     0.00000000
     0.00000000     0.00000000     0.00000000
     0.00000000     0.00000000     0.00000000
     0.00000000     0.00000000     0.00000000
     0.00000000     0.00000000     0.00000000
     0.00000000     0.00000000     0.00000000
     0.00000000     0.00000000     0.00000000
     0.00000000     0.00000000     0.00000000
    -0.00368316    -0.00583592     0.00579948
    -0.03760390    -0.03528754     0.03672099
    -0.07376335    -0.03366593     0.01452118
    -0.10342684    -0.02828530     0.01219617
    -0.12915938    -0.01699301     0.01119057
    -0.15631274    -0.00093696     0.01167830
    -0.17880156     0.04171003     0.01663618
    -0.22089191     0.11203968     0.01890384
    -0.37448410     0.21002527     0.02396995
    -0.00054087     0.00522699     0.00894431
    -0.00269812     0.03342463     0.06146592
     0.01163556     0.01608604     0.04055565
     0.03638389     0.00891960     0.03571768
     0.04775407     0.00857167     0.02730945
     0.05072454    -0.00580244    -0.01377630
     0.06712333     0.01291836    -0.00748176
     0.06541933     0.01045510    -0.03544127
    -0.60689326    -0.32599129     0.08405639
    -0.00001913     0.01227613     0.01862859
     0.00000000     0.00000000     0.00000000
     0.00000000     0.00000000     0.00000000
     0.00000000     0.00000000     0.00000000
     0.00000000     0.00000000     0.00000000
     0.00000000     0.00000000     0.00000000
     0.00000000     0.00000000     0.00000000
     0.00000000     0.00000000     0.00000000
     0.00000000     0.00000000     0.00000000
    -0.00001303     0.01954651     0.02815963
     0.00000000     0.00000000     0.00000000
     0.00000000     0.00000000     0.00000000
     0.00000000     0.00000000     0.00000000
     0.00000000     0.00000000     0.00000000
     0.00000000     0.00000000     0.00000000
     0.00000000     0.00000000     0.00000000
     0.00000000     0.00000000     0.00000000
     0.00000000     0.00000000     0.00000000
     0.00000232     0.01868453     0.03467559
     0.00000000     0.00000000     0.00000000
     0.00000000     0.00000000     0.00000000
     0.00000000     0.00000000     0.00000000
     0.00000000     0.00000000     0.00000000
     0.00000000     0.00000000     0.00000000
     0.00000000     0.00000000     0.00000000
     0.00000000     0.00000000     0.00000000
     0.00000000     0.00000000     0.00000000
     0.00003344     0.00149884     0.03218158
     0.00000000     0.00000000     0.00000000
     0.00000000     0.00000000     0.00000000
     0.00000000     0.00000000     0.00000000
     0.00000000     0.00000000     0.00000000
     0.00000000     0.00000000     0.00000000
     0.00000000     0.00000000     0.00000000
     0.00000000     0.00000000     0.00000000
     0.00000000     0.00000000     0.00000000
    -0.00002892    -0.01717233     0.01979052
     0.00000000     0.00000000     0.00000000
     0.00000000     0.00000000     0.00000000
     0.00000000     0.00000000     0.00000000
     0.00000000     0.00000000     0.00000000
     0.00000000     0.00000000     0.00000000
     0.00000000     0.00000000     0.00000000
     0.00000000     0.00000000     0.00000000
     0.25927187    -0.12531658    -0.09029925
    -0.00014341    -0.02756979     0.01943617
     0.00000000     0.00000000     0.00000000
     0.00000000     0.00000000     0.00000000
     0.00000000     0.00000000     0.00000000
     0.00000000     0.00000000     0.00000000
     0.00000000     0.00000000     0.00000000
     0.00000000     0.00000000     0.00000000
     0.00000000     0.00000000     0.00000000
     0.00000000     0.00000000     0.00000000
    -0.00020414    -0.02806248     0.01814668
     0.00000000     0.00000000     0.00000000
     0.00000000     0.00000000     0.00000000
     0.00000000     0.00000000     0.00000000
     0.00000000     0.00000000     0.00000000
     0.00000000     0.00000000     0.00000000
     0.00000000     0.00000000     0.00000000
     0.00000000     0.00000000     0.00000000
     0.00000000     0.00000000     0.00000000
    -0.00017478    -0.02175058     0.02047579
     0.00000000     0.00000000     0.00000000
     0.00000000     0.00000000     0.00000000
     0.00000000     0.00000000     0.00000000
     0.00000000     0.00000000     0.00000000
     0.00000000     0.00000000     0.00000000
     0.00000000     0.00000000     0.00000000
     0.00000000     0.00000000     0.00000000
     0.00000000     0.00000000     0.00000000
    -0.00012412    -0.01393811     0.01560607
     0.00000000     0.00000000     0.00000000
     0.00000000     0.00000000     0.00000000
     0.00000000     0.00000000     0.00000000
     0.00000000     0.00000000     0.00000000
     0.00000000     0.00000000     0.00000000
     0.00000000     0.00000000     0.00000000
     0.00000000     0.00000000     0.00000000
     0.00000000     0.00000000     0.00000000
    -0.00221780    -0.00620090     0.00754183
    -0.02172432    -0.04099465     0.05212418
    -0.04021286    -0.03395053     0.03408130
    -0.08517112    -0.03281050     0.02253906
    -0.11115725    -0.02389766     0.02277140
    -0.14470594    -0.01303538     0.03092522
    -0.15735302     0.02477917     0.03923291
    -0.23762293     0.10970944     0.07016859
    -0.52197398     0.29549717     0.09416565
     0.00000967     0.00612733     0.00829825
     0.01046039     0.03982561     0.06320060
     0.07954620    -0.00035362     0.05036015
     0.11840043    -0.00455606     0.03940148
     0.11270796    -0.00319027     0.01526610
     0.10376786    -0.00960487    -0.01634933
     0.07906604     0.01335842    -0.01203285
     0.15763589     0.03497893    -0.08351398
    -0.44346367    -0.21707120     0.17488254
    -0.00001733     0.00875415     0.01042139
     0.00000000     0.00000000     0.00000000
     0.00000000     0.00000000     0.00000000
     0.00000000     0.00000000     0.00000000
     0.00000000     0.00000000     0.00000000
     0.00000000     0.00000000     0.00000000
     0.00000000     0.00000000     0.00000000
     0.00000000     0.00000000     0.00000000
     0.00000000     0.00000000     0.00000000
    -0.00001181     0.01308092     0.01534412
     0.00000000     0.00000000     0.00000000
     0.00000000     0.00000000     0.00000000
     0.00000000     0.00000000     0.00000000
     0.00000000     0.00000000     0.00000000
     0.00000000     0.00000000     0.00000000
     0.00000000     0.00000000     0.00000000
     0.00000000     0.00000000     0.00000000
     0.00000000     0.00000000     0.00000000
     0.00001749     0.01624208     0.02167842
     0.00000000     0.00000000     0.00000000
     0.00000000     0.00000000     0.00000000
     0.00000000     0.00000000     0.00000000
     0.00000000     0.00000000     0.00000000
     0.00000000     0.00000000     0.00000000
     0.00000000     0.00000000     0.00000000
     0.00000000     0.00000000     0.00000000
     0.00000000     0.00000000     0.00000000
     0.00007907     0.00958886     0.02298425
     0.00000000     0.00000000     0.00000000
     0.00000000     0.00000000     0.00000000
     0.00000000     0.00000000     0.00000000
     0.00000000     0.00000000     0.00000000
     0.00000000     0.00000000     0.00000000
     0.00000000     0.00000000     0.00000000
     0.00000000     0.00000000     0.00000000
     0.00000000     0.00000000     0.00000000
     0.00006641    -0.00565039     0.01958908
     0.00000000     0.00000000     0.00000000
     0.00000000     0.00000000     0.00000000
     0.00000000     0.00000000     0.00000000
     0.00000000     0.00000000     0.00000000
     0.00000000     0.00000000     0.00000000
     0.00000000     0.00000000     0.00000000
     0.00000000     0.00000000     0.00000000
     0.29041919    -0.18803217    -0.19621341
    -0.00003659    -0.01536735     0.01572995
     0.00000000     0.00000000     0.00000000
     0.00000000     0.00000000     0.00000000
     0.00000000     0.00000000     0.00000000
     0.00000000     0.00000000     0.00000000
     0.00000000     0.00000000     0.00000000
     0.00000000     0.00000000     0.00000000
     0.00000000     0.00000000     0.00000000
     0.00000000     0.00000000     0.00000000
    -0.00008123    -0.01486866     0.01507898
     0.00000000     0.00000000     0.00000000
     0.00000000     0.00000000     0.00000000
     0.00000000     0.00000000     0.00000000
     0.00000000     0.00000000     0.00000000
     0.00000000     0.00000000     0.00000000
     0.00000000     0.00000000     0.00000000
     0.00000000     0.00000000     0.00000000
     0.00000000     0.00000000     0.00000000
    -0.00008884    -0.01257325     0.01402291
     0.00000000     0.00000000     0.00000000
     0.00000000     0.00000000     0.00000000
     0.00000000     0.00000000     0.00000000
     0.00000000     0.00000000     0.00000000
     0.00000000     0.00000000     0.00000000
     0.00000000     0.00000000     0.00000000
     0.00000000     0.00000000     0.00000000
     0.00000000     0.00000000     0.00000000
    -0.00003499    -0.00508532     0.01388769
     0.00000000     0.00000000     0.00000000
     0.00000000     0.00000000     0.00000000
     0.00000000     0.00000000     0.00000000
     0.00000000     0.00000000     0.00000000
     0.00000000     0.00000000     0.00000000
     0.00000000     0.00000000     0.00000000
     0.00000000     0.00000000     0.00000000
     0.00000000     0.00000000     0.00000000
     0.00526951    -0.00287025     0.01148414
     0.04522642    -0.02533582     0.08239483
     0.02433796    -0.02648508     0.05297893
     0.00214796    -0.03413252     0.04919937
    -0.07186888    -0.03793346     0.04033280
    -0.06581737    -0.03131001     0.04442041
    -0.01611415     0.00702173    -0.00603581
    -0.03615394     0.01183561     0.03272154
    -0.66561111     0.37607726     0.18785135
     0.00040066     0.00364884     0.00416022
     0.00801653     0.02175538     0.02809832
     0.04347392    -0.00039866     0.02282330
     0.06204528    -0.00186547     0.01809244
     0.05752632    -0.00233614     0.00585247
     0.05278393    -0.00566000    -0.00694944
     0.03729103     0.00616723    -0.00577770
     0.08017785     0.01589006    -0.04591340
    -0.20092437    -0.10122129     0.11308973
     0.00146259     0.00710079     0.00705673
     0.02260215     0.04807282     0.05190994
     0.09251409    -0.00044152     0.04320720
     0.12734751     0.00036113     0.03596039
     0.11994785    -0.00445363     0.01174042
     0.10880560    -0.00959245    -0.00969404
     0.08042272     0.00854221    -0.01561146
     0.15750366     0.03784111    -0.08978530
    -0.35315490    -0.17530549     0.24718911
     0.00268363     0.00630919     0.00632753
     0.03179793     0.03863008     0.04107146
     0.08384776    -0.00716467     0.03228701
     0.09469829     0.01367470     0.03098560
     0.10009248    -0.00364772     0.00945115
     0.08840707     0.01329626     0.00501736
     0.08243264    -0.01740839    -0.02899806
     0.08617969     0.08091125    -0.02423910
     0.09782281     0.10880469    -0.06757958
     0.00415797     0.00660021     0.00695432
     0.04157842     0.03799079     0.03910172
     0.07247035    -0.01127227     0.02525532
     0.08133369     0.01637837     0.02464939
     0.08066909    -0.00461385     0.00708519
     0.07974099     0.02010986     0.00532699
     0.05762820    -0.00827409    -0.01579925
     0.05862343     0.05928135    -0.03583100
     0.12992256    -0.02950129    -0.18680635
     0.00610995     0.00378841     0.00727743
     0.05693485     0.02071297     0.03908113
     0.06744644    -0.00854535     0.02445409
     0.07133011     0.00867116     0.01778684
     0.07185847    -0.00172500     0.00715949
     0.05994348     0.01706333     0.00191044
     0.07020627     0.00075391    -0.01668673
     0.05834565     0.10580720    -0.04237386
     0.25987584    -0.06130279    -0.39796456
     0.00626659    -0.00145893     0.00669667
     0.05861303    -0.00816380     0.03638541
     0.06807338    -0.00106328     0.02568655
     0.06847147    -0.00589089     0.01576997
     0.05679163     0.00247221     0.00577919
     0.05051360     0.00700853    -0.00011503
     0.01405832     0.01850720    -0.00350208
     0.02829777     0.10525494    -0.03006937
     0.06194667     0.03775757    -0.07449950
     0.00337126    -0.00501319     0.00467509
     0.03190455    -0.02902855     0.02481437
     0.04452075    -0.00336245     0.01761662
     0.04714396    -0.02011905     0.01433204
     0.03141659    -0.00062709     0.00344077
     0.03268976    -0.01052487     0.00176134
     0.01656588     0.04908082    -0.01318988
     0.02705511    -0.03480511    -0.01555175
     0.08146231     0.23605236    -0.07741909
     0.00313392    -0.00540574     0.00532836
     0.02933837    -0.03417621     0.03063303
     0.03705949    -0.01436205     0.01996984
     0.02886787    -0.03309879     0.01838968
     0.00769430    -0.01731355     0.00702823
     0.01357773    -0.02497172     0.00842619
     0.02242596     0.05960471    -0.02623554
     0.02731166    -0.04943164    -0.00826973
     0.06811890     0.26083104    -0.12172737
     0.00232924    -0.00601558     0.00587070
     0.02151777    -0.04239927     0.03753030
     0.02708669    -0.03119073     0.02872571
     0.01020452    -0.04333362     0.02619679
    -0.01578068    -0.04239260     0.02109980
    -0.00038597    -0.03247331     0.01696959
     0.05239216     0.04036937    -0.03734618
     0.06197563    -0.05896766    -0.01454742
    -0.15167738     0.21464955     0.04043406
     0.00683582    -0.00365686     0.01036316
     0.05800948    -0.03263841     0.07101362
     0.03785478    -0.03507652     0.04584538
     0.01913297    -0.04372831     0.04031238
    -0.05651708    -0.05290137     0.03385304
    -0.04366234    -0.03958152     0.03094726
     0.01795769     0.01012919    -0.01598637
     0.00948451    -0.01091422     0.01914599
    -0.71587913     0.50178371     0.30871732
     0.00420463    -0.00154731     0.00632750
     0.03063736    -0.01355940     0.04147559
     0.01857912    -0.01503409     0.02607478
     0.00957644    -0.01926279     0.02377369
    -0.03110621    -0.02306700     0.01959412
    -0.02495519    -0.01857552     0.01959046
     0.00504258     0.00258819    -0.00643161
     0.00004161    -0.00204395     0.01150455
    -0.34477191     0.21626452     0.12330991
     0.12400791    -0.07311703     0.03923819
    -0.09354112    -0.02889566     0.03427458
    -0.24417451    -0.06497273     0.00557034
    -0.26664771    -0.07067562     0.00947643
    -0.27726102    -0.07443638    -0.00177582
    -0.23096367    -0.06201946    -0.00162872
    -0.19592709    -0.05289068    -0.00481593
    -0.14965750    -0.04038865    -0.00353628
    -0.11015685    -0.02995057    -0.00532597
    -0.07809798    -0.02132229    -0.00485920
    -0.02560927    -0.02111240    -0.00096591
     0.00000000     0.00000000     0.00000000
     0.00000000     0.00000000     0.00000000
     0.00000000     0.00000000     0.00000000
     0.00000000     0.00000000     0.00000000
     0.00000000     0.00000000     0.00000000
     0.00000000     0.00000000     0.00000000
     0.00000000     0.00000000     0.00000000
     0.00000000     0.00000000     0.00000000
     0.00000000     0.00000000     0.00000000
     0.00000000     0.00000000     0.00000000
     0.03161245    -0.11797991    -0.00164187
     0.00000000     0.00000000     0.00000000
     0.00000000     0.00000000     0.00000000
     0.00000000     0.00000000     0.00000000
     0.00000000     0.00000000     0.00000000
     0.00000000     0.00000000     0.00000000
     0.00000000     0.00000000     0.00000000
     0.00000000     0.00000000     0.00000000
     0.00000000     0.00000000     0.00000000
     0.00000000     0.00000000     0.00000000
     0.00000000     0.00000000     0.00000000
     0.05116081    -0.19093434     0.01000845
     0.00000000     0.00000000     0.00000000
     0.00000000     0.00000000     0.00000000
     0.00000000     0.00000000     0.00000000
     0.00000000     0.00000000     0.00000000
     0.00000000     0.00000000     0.00000000
     0.00000000     0.00000000     0.00000000
     0.00000000     0.00000000     0.00000000
     0.00000000     0.00000000     0.00000000
     0.00000000     0.00000000     0.00000000
     0.00000000     0.00000000     0.00000000
     0.03868488    -0.14437361     0.01642911
     0.00000000     0.00000000     0.00000000
     0.00000000     0.00000000     0.00000000
     0.00000000     0.00000000     0.00000000
     0.00000000     0.00000000     0.00000000
     0.00000000     0.00000000     0.00000000
     0.00000000     0.00000000     0.00000000
     0.00000000     0.00000000     0.00000000
     0.00000000     0.00000000     0.00000000
     0.00000000     0.00000000     0.00000000
     0.00000000     0.00000000     0.00000000
     0.01638643    -0.06115525     0.01820762
    -0.48657403     0.34800917     0.01305432
    -0.05646174     0.22203969    -0.00184547
     0.43730760     0.11847515    -0.01597252
     0.56179026     0.15057212    -0.00048376
     0.52146491     0.13912369     0.00739733
     0.43735230     0.11585716     0.01633726
     0.30116784     0.07946081     0.01518930
     0.18377810     0.04782811     0.01737119
     0.05446641     0.01333534     0.01545243
    -0.01386505    -0.00450854     0.00973830
    -0.02099993    -0.01242641     0.00336179
     0.02206893    -0.08839556     0.14145049
    -0.10480550    -0.02919931     0.14001683
    -0.25384912    -0.06435713     0.01764268
    -0.28943212    -0.06890484     0.04792509
    -0.29161117    -0.07907219    -0.00510231
    -0.24799921    -0.06392288     0.01640537
    -0.20447573    -0.05817415    -0.01823167
    -0.15688662    -0.04218763     0.00122815
    -0.11521039    -0.03507175    -0.02287129
    -0.07695412    -0.02363746    -0.01548614
    -0.02523506    -0.02163168    -0.00362847
     0.00000000     0.00000000     0.00000000
     0.00000000     0.00000000     0.00000000
     0.00000000     0.00000000     0.00000000
     0.00000000     0.00000000     0.00000000
     0.00000000     0.00000000     0.00000000
     0.00000000     0.00000000     0.00000000
     0.00000000     0.00000000     0.00000000
     0.00000000     0.00000000     0.00000000
     0.00000000     0.00000000     0.00000000
     0.00000000     0.00000000     0.00000000
     0.03218887    -0.12012959    -0.00873991
     0.00000000     0.00000000     0.00000000
     0.00000000     0.00000000     0.00000000
     0.00000000     0.00000000     0.00000000
     0.00000000     0.00000000     0.00000000
     0.00000000     0.00000000     0.00000000
     0.00000000     0.00000000     0.00000000
     0.00000000     0.00000000     0.00000000
     0.00000000     0.00000000     0.00000000
     0.00000000     0.00000000     0.00000000
     0.00000000     0.00000000     0.00000000
     0.05021815    -0.18741717     0.04506611
     0.00000000     0.00000000     0.00000000
     0.00000000     0.00000000     0.00000000
     0.00000000     0.00000000     0.00000000
     0.00000000     0.00000000     0.00000000
     0.00000000     0.00000000     0.00000000
     0.00000000     0.00000000     0.00000000
     0.00000000     0.00000000     0.00000000
     0.00000000     0.00000000     0.00000000
     0.00000000     0.00000000     0.00000000
     0.00000000     0.00000000     0.00000000
     0.03322019    -0.12397983     0.07480440
     0.00000000     0.00000000     0.00000000
     0.00000000     0.00000000     0.00000000
     0.00000000     0.00000000     0.00000000
     0.00000000     0.00000000     0.00000000
     0.00000000     0.00000000     0.00000000
     0.00000000     0.00000000     0.00000000
     0.00000000     0.00000000     0.00000000
     0.00000000     0.00000000     0.00000000
     0.00000000     0.00000000     0.00000000
     0.00000000     0.00000000     0.00000000
     0.01371892    -0.05120042     0.08261950
    -0.52041668     0.36237396     0.11672893
    -0.06959272     0.21621494     0.08550871
     0.46782650     0.12745348    -0.00388398
     0.56894006     0.14671915     0.03431079
     0.55774883     0.14439161     0.02550765
     0.44658458     0.10948457     0.05387210
     0.32848958     0.07955270     0.04324113
     0.18683804     0.03916793     0.05687853
     0.07135562     0.00855896     0.05458533
    -0.02691346    -0.01441199     0.03910305
    -0.02334086    -0.01269505     0.01478305
    -0.05783808    -0.15702738     0.28486502
    -0.16054459    -0.04710992     0.28187842
    -0.30120493    -0.05172498     0.07938614
    -0.34070433    -0.05606528     0.10161019
    -0.34261196    -0.09016455     0.00376615
    -0.28633258    -0.06646785     0.03071217
    -0.23231615    -0.07213997    -0.02855217
    -0.17433605    -0.04723367    -0.00025590
    -0.11899175    -0.04525260    -0.03846226
    -0.08421703    -0.03488130    -0.03469740
    -0.02558524    -0.02401548    -0.00842788
     0.00000000     0.00000000     0.00000000
     0.00000000     0.00000000     0.00000000
     0.00000000     0.00000000     0.00000000
     0.00000000     0.00000000     0.00000000
     0.00000000     0.00000000     0.00000000
     0.00000000     0.00000000     0.00000000
     0.00000000     0.00000000     0.00000000
     0.00000000     0.00000000     0.00000000
     0.00000000     0.00000000     0.00000000
     0.00000000     0.00000000     0.00000000
     0.03433946    -0.12815554    -0.02343239
     0.00000000     0.00000000     0.00000000
     0.00000000     0.00000000     0.00000000
     0.00000000     0.00000000     0.00000000
     0.00000000     0.00000000     0.00000000
     0.00000000     0.00000000     0.00000000
     0.00000000     0.00000000     0.00000000
     0.00000000     0.00000000     0.00000000
     0.00000000     0.00000000     0.00000000
     0.00000000     0.00000000     0.00000000
     0.00000000     0.00000000     0.00000000
     0.04954870    -0.18491786     0.07032223
     0.00000000     0.00000000     0.00000000
     0.00000000     0.00000000     0.00000000
     0.00000000     0.00000000     0.00000000
     0.00000000     0.00000000     0.00000000
     0.00000000     0.00000000     0.00000000
     0.00000000     0.00000000     0.00000000
     0.00000000     0.00000000     0.00000000
     0.00000000     0.00000000     0.00000000
     0.00000000     0.00000000     0.00000000
     0.00000000     0.00000000     0.00000000
     0.02844850    -0.10617185     0.12162794
     0.00000000     0.00000000     0.00000000
     0.00000000     0.00000000     0.00000000
     0.00000000     0.00000000     0.00000000
     0.00000000     0.00000000     0.00000000
     0.00000000     0.00000000     0.00000000
     0.00000000     0.00000000     0.00000000
     0.00000000     0.00000000     0.00000000
     0.00000000     0.00000000     0.00000000
     0.00000000     0.00000000     0.00000000
     0.00000000     0.00000000     0.00000000
     0.01223723    -0.04566896     0.13269634
    -0.67736923     0.45049247     0.23081283
    -0.06588697     0.21784576     0.13391382
     0.51274302     0.15321114    -0.04144939
     0.69459695     0.16698913     0.05514410
     0.63483891     0.14904622     0.05917997
     0.53158742     0.10794915     0.09699293
     0.37342817     0.06814522     0.08947195
     0.22929775     0.01800915     0.12177741
     0.06067195    -0.02972210     0.13046099
    -0.02102863    -0.03071834     0.07235577
    -0.02201827    -0.01374089     0.02426937
    -0.19660894    -0.20528555     0.59618553
    -0.30421373    -0.10231076     0.36638304
    -0.43081541     0.01317506     0.23438166
    -0.45981525    -0.03974903     0.15542928
    -0.41631683    -0.08827324     0.04144910
    -0.36702259    -0.07030738     0.05257261
    -0.28264751    -0.08808180    -0.02350065
    -0.20715440    -0.05331418     0.00472754
    -0.12464022    -0.05555717    -0.04128407
    -0.07683026    -0.04691096    -0.04873386
    -0.02398864    -0.02396937    -0.01086708
     0.00000000     0.00000000     0.00000000
     0.00000000     0.00000000     0.00000000
     0.00000000     0.00000000     0.00000000
     0.00000000     0.00000000     0.00000000
     0.00000000     0.00000000     0.00000000
     0.00000000     0.00000000     0.00000000
     0.00000000     0.00000000     0.00000000
     0.00000000     0.00000000     0.00000000
     0.00000000     0.00000000     0.00000000
     0.00000000     0.00000000     0.00000000
     0.03107899    -0.11598779    -0.02754208
     0.00000000     0.00000000     0.00000000
     0.00000000     0.00000000     0.00000000
     0.00000000     0.00000000     0.00000000
     0.00000000     0.00000000     0.00000000
     0.00000000     0.00000000     0.00000000
     0.00000000     0.00000000     0.00000000
     0.00000000     0.00000000     0.00000000
     0.00000000     0.00000000     0.00000000
     0.00000000     0.00000000     0.00000000
     0.00000000     0.00000000     0.00000000
     0.04189635    -0.15635588     0.06946949
     0.00000000     0.00000000     0.00000000
     0.00000000     0.00000000     0.00000000
     0.00000000     0.00000000     0.00000000
     0.00000000     0.00000000     0.00000000
     0.00000000     0.00000000     0.00000000
     0.00000000     0.00000000     0.00000000
     0.00000000     0.00000000     0.00000000
     0.00000000     0.00000000     0.00000000
     0.00000000     0.00000000     0.00000000
     0.00000000     0.00000000     0.00000000
     0.01868679    -0.06973889     0.11579037
     0.00000000     0.00000000     0.00000000
     0.00000000     0.00000000     0.00000000
     0.00000000     0.00000000     0.00000000
     0.00000000     0.00000000     0.00000000
     0.00000000     0.00000000     0.00000000
     0.00000000     0.00000000     0.00000000
     0.00000000     0.00000000     0.00000000
     0.00000000     0.00000000     0.00000000
     0.00000000     0.00000000     0.00000000
     0.00000000     0.00000000     0.00000000
     0.01038298    -0.03874836     0.13105090
    -0.90846959     0.59088953     0.32901301
     0.08036221     0.24441445     0.01091144
     0.82915985     0.27807139    -0.10406724
     0.88702761     0.19121106     0.08613762
     0.79967504     0.16909586     0.08103002
     0.58797540     0.07318987     0.15478504
     0.35990582     0.02156174     0.13673825
     0.12730177    -0.08408094     0.21787135
    -0.00452417    -0.10408062     0.19072380
    -0.05805909    -0.06347362     0.08934342
    -0.02537679    -0.01653405     0.02555327
    -0.45104061    -0.01023970     1.27445206
    -0.57976183    -0.28948644     0.45240921
    -0.75612116     0.09612509     0.38827196
    -0.54850372    -0.05933016     0.11629046
    -0.55558896    -0.06744595     0.10498563
    -0.45940018    -0.08504579     0.05027501
    -0.36189527    -0.09745942    -0.00133961
    -0.25144998    -0.06398153     0.00474739
    -0.12031672    -0.06256731    -0.03982805
    -0.08078657    -0.05019357    -0.03775215
    -0.02406614    -0.01614259    -0.00688872
     0.00000000     0.00000000     0.00000000
     0.00000000     0.00000000     0.00000000
     0.00000000     0.00000000     0.00000000
     0.00000000     0.00000000     0.00000000
     0.00000000     0.00000000     0.00000000
     0.00000000     0.00000000     0.00000000
     0.00000000     0.00000000     0.00000000
     0.00000000     0.00000000     0.00000000
     0.00000000     0.00000000     0.00000000
     0.00000000     0.00000000     0.00000000
     0.01410837    -0.05265315    -0.01482848
     0.00000000     0.00000000     0.00000000
     0.00000000     0.00000000     0.00000000
     0.00000000     0.00000000     0.00000000
     0.00000000     0.00000000     0.00000000
     0.00000000     0.00000000     0.00000000
     0.00000000     0.00000000     0.00000000
     0.00000000     0.00000000     0.00000000
     0.00000000     0.00000000     0.00000000
     0.00000000     0.00000000     0.00000000
     0.00000000     0.00000000     0.00000000
     0.02241680    -0.08365925     0.02427844
     0.00000000     0.00000000     0.00000000
     0.00000000     0.00000000     0.00000000
     0.00000000     0.00000000     0.00000000
     0.00000000     0.00000000     0.00000000
     0.00000000     0.00000000     0.00000000
     0.00000000     0.00000000     0.00000000
     0.00000000     0.00000000     0.00000000
     0.00000000     0.00000000     0.00000000
     0.00000000     0.00000000     0.00000000
     0.00000000     0.00000000     0.00000000
     0.02060824    -0.07691007     0.04801991
     0.00000000     0.00000000     0.00000000
     0.00000000     0.00000000     0.00000000
     0.00000000     0.00000000     0.00000000
     0.00000000     0.00000000     0.00000000
     0.00000000     0.00000000     0.00000000
     0.00000000     0.00000000     0.00000000
     0.00000000     0.00000000     0.00000000
     0.00000000     0.00000000     0.00000000
     0.00000000     0.00000000     0.00000000
     0.00000000     0.00000000     0.00000000
     0.01788571    -0.06674967     0.07716433
    -1.44231684     0.97126485     0.50676430
     0.23559671     0.41168125    -0.33285330
     0.92352046     0.23987143     0.00715169
     1.01668455     0.19736675     0.09763201
     0.73421557     0.06695656     0.16743807
     0.30151296    -0.04631725     0.16585312
    -0.05267615    -0.15289635     0.18081881
    -0.15109533    -0.22032676     0.23572527
    -0.12218191    -0.18152972     0.19539467
    -0.06312203    -0.09298055     0.09954818
    -0.02083990    -0.02231351     0.02052672
    -0.35204584    -0.00548589     0.72237239
    -0.36443883    -0.15898308     0.27452664
    -0.45883580     0.09849117     0.18578769
    -0.31256650    -0.02410406     0.04989138
    -0.32258349    -0.02207490     0.05374615
    -0.26159830    -0.04637428     0.02020771
    -0.20673185    -0.05342856     0.00158732
    -0.14150049    -0.03956998    -0.00094015
    -0.06462395    -0.03915771    -0.01825338
    -0.04378536    -0.03240727    -0.01716612
    -0.01808946    -0.00894829    -0.00303187
    -1.04399250     0.13541719     1.68026786
    -0.90865376    -0.32506658     0.60014761
    -1.13724172     0.26800584     0.30732376
    -0.78806101    -0.06900582     0.07925060
    -0.81405790    -0.05289327     0.08941284
    -0.65548985    -0.14487574     0.02271595
    -0.51940695    -0.14877181    -0.00175802
    -0.34605026    -0.12932782    -0.01332716
    -0.16581035    -0.11226913    -0.03402856
    -0.10435951    -0.09080388    -0.03200385
    -0.03304501    -0.02220328    -0.00544367
    -0.85384139     1.15609782     0.89838488
    -0.51206409    -0.13205452     0.15640878
    -0.76419502     0.07829396     0.05512101
    -0.67061357    -0.17577456    -0.00089145
    -0.69800744    -0.18719122     0.00928563
    -0.57364297    -0.29932682    -0.01862572
    -0.45167934    -0.27075965    -0.01606617
    -0.27086072    -0.24419030    -0.02360147
    -0.17283964    -0.16734181    -0.01557412
    -0.07230855    -0.09459523    -0.01074765
    -0.02762463    -0.02572740     0.00096979
    -1.21605468     1.80465677     0.54637072
    -0.02660646     0.42540577    -0.12029107
    -0.09186022     0.09972513    -0.01422765
    -0.22930693    -0.10867034     0.00391753
    -0.37460335    -0.38469680     0.04821818
    -0.40462895    -0.42988024     0.05155852
    -0.35785908    -0.45450660     0.06024835
    -0.26381814    -0.34326017     0.04656017
    -0.14355923    -0.25810038     0.03826080
    -0.07828095    -0.11981831     0.01705396
    -0.02887883    -0.02824446     0.00652642
    -1.86199520     1.60573057     0.77663040
     0.37206351     0.74431411    -0.42499975
     1.11255927     0.31753939    -0.00438053
     1.23316913     0.16762998     0.08759967
     0.83774064    -0.08798914     0.16049886
     0.27025735    -0.24534942     0.16105229
    -0.18168132    -0.36763929     0.16219091
    -0.25433589    -0.42720603     0.18862651
    -0.17463666    -0.33235202     0.15047701
    -0.07885366    -0.16693936     0.07741681
    -0.02829902    -0.03256727     0.01691499
    -0.81628535     0.60217565     0.30774534
     0.14712437     0.28354822    -0.20903637
     0.51164136     0.13081943     0.00618265
     0.57424721     0.09305939     0.05026252
     0.40203643     0.00219655     0.08768836
     0.14401077    -0.06332401     0.08418187
    -0.06386383    -0.12282318     0.08810564
    -0.10261931    -0.15791137     0.10903970
    -0.07311068    -0.12481055     0.08819576
    -0.03208607    -0.06332545     0.04587241
    -0.01548693    -0.01343166     0.00799775
    -0.55642463     0.14149429     0.09322967
    -0.87263893     0.23510354    -0.01568467
    -0.84758343     0.22539118     0.02116152
    -0.78930885     0.21250711    -0.01244329
    -0.59530013     0.15924893     0.00317754
    -0.37085326     0.10025820    -0.01091787
    -0.12702222     0.03443542    -0.00490793
    -0.00128453     0.04251664     0.00209365
     0.00000000     0.00000000     0.00000000
     0.00000000     0.00000000     0.00000000
     0.00000000     0.00000000     0.00000000
     0.00000000     0.00000000     0.00000000
     0.00000000     0.00000000     0.00000000
     0.00000000     0.00000000     0.00000000
     0.00000000     0.00000000     0.00000000
     0.00000000     0.00000000     0.00000000
     0.09641905     0.35983679     0.02400210
     0.00000000     0.00000000     0.00000000
     0.00000000     0.00000000     0.00000000
     0.00000000     0.00000000     0.00000000
     0.00000000     0.00000000     0.00000000
     0.00000000     0.00000000     0.00000000
     0.00000000     0.00000000     0.00000000
     0.00000000     0.00000000     0.00000000
     0.00000000     0.00000000     0.00000000
     0.17083720     0.63757727     0.04837850
     0.00000000     0.00000000     0.00000000
     0.00000000     0.00000000     0.00000000
     0.00000000     0.00000000     0.00000000
     0.00000000     0.00000000     0.00000000
     0.00000000     0.00000000     0.00000000
     0.00000000     0.00000000     0.00000000
     0.00000000     0.00000000     0.00000000
     0.00000000     0.00000000     0.00000000
     0.13159038     0.49110902     0.05225197
     0.00000000     0.00000000     0.00000000
     0.00000000     0.00000000     0.00000000
     0.00000000     0.00000000     0.00000000
     0.00000000     0.00000000     0.00000000
     0.00000000     0.00000000     0.00000000
     0.00000000     0.00000000     0.00000000
     0.00000000     0.00000000     0.00000000
     0.00000000     0.00000000     0.00000000
     0.04709455     0.17575708     0.04242813
     0.00963967    -0.21566597    -0.08315315
     1.49924274    -0.40488951    -0.03895085
     1.78627890    -0.47804018     0.00719076
     1.62731568    -0.43390207     0.02617195
     1.25049156    -0.33299616     0.02552690
     0.91941731    -0.24454539     0.02227380
     0.55653324    -0.14712698     0.02446319
     0.24664440    -0.06319542     0.03549539
     0.02999517     0.01020718     0.00952693
     0.06809798    -0.06079183     0.13786218
    -0.68762911     0.11785368     0.37283459
    -0.91742922     0.25342055    -0.04664909
    -0.89505246     0.22165963     0.10537112
    -0.85017516     0.22824593    -0.00452659
    -0.64818344     0.16439609     0.05967245
    -0.40303973     0.10545318     0.01601890
    -0.15288527     0.03692231     0.02807731
    -0.00549441     0.03855287     0.01462135
     0.00000000     0.00000000     0.00000000
     0.00000000     0.00000000     0.00000000
     0.00000000     0.00000000     0.00000000
     0.00000000     0.00000000     0.00000000
     0.00000000     0.00000000     0.00000000
     0.00000000     0.00000000     0.00000000
     0.00000000     0.00000000     0.00000000
     0.00000000     0.00000000     0.00000000
     0.08752638     0.32664942     0.10442690
     0.00000000     0.00000000     0.00000000
     0.00000000     0.00000000     0.00000000
     0.00000000     0.00000000     0.00000000
     0.00000000     0.00000000     0.00000000
     0.00000000     0.00000000     0.00000000
     0.00000000     0.00000000     0.00000000
     0.00000000     0.00000000     0.00000000
     0.00000000     0.00000000     0.00000000
     0.16389983     0.61168137     0.22174852
     0.00000000     0.00000000     0.00000000
     0.00000000     0.00000000     0.00000000
     0.00000000     0.00000000     0.00000000
     0.00000000     0.00000000     0.00000000
     0.00000000     0.00000000     0.00000000
     0.00000000     0.00000000     0.00000000
     0.00000000     0.00000000     0.00000000
     0.00000000     0.00000000     0.00000000
     0.12708085     0.47427513     0.23666394
     0.00000000     0.00000000     0.00000000
     0.00000000     0.00000000     0.00000000
     0.00000000     0.00000000     0.00000000
     0.00000000     0.00000000     0.00000000
     0.00000000     0.00000000     0.00000000
     0.00000000     0.00000000     0.00000000
     0.00000000     0.00000000     0.00000000
     0.00000000     0.00000000     0.00000000
     0.04790720     0.17879000     0.19274399
    -0.03425669    -0.28270036    -0.21594012
     1.54934082    -0.42442162    -0.03723492
     1.86477812    -0.48555996     0.07662456
     1.63895030    -0.41996939     0.10189319
     1.28434966    -0.33053628     0.06923690
     0.88405361    -0.22471868     0.06207369
     0.56739367    -0.13749959     0.07503584
     0.19350951    -0.02528393     0.14411467
     0.02254914     0.01598173     0.04151942
    -0.44931672     0.00372294     0.42283820
    -0.93802949     0.08561489     0.49206346
    -1.05762735     0.25826087     0.06076100
    -1.05162885     0.24677630     0.10700883
    -1.02647501     0.24283390     0.08804144
    -0.80867505     0.20119595     0.05010881
    -0.49430389     0.09524589     0.10492796
    -0.24924768     0.05958837     0.02483454
    -0.01860572     0.03760424     0.01397103
     0.00000000     0.00000000     0.00000000
     0.00000000     0.00000000     0.00000000
     0.00000000     0.00000000     0.00000000
     0.00000000     0.00000000     0.00000000
     0.00000000     0.00000000     0.00000000
     0.00000000     0.00000000     0.00000000
     0.00000000     0.00000000     0.00000000
     0.00000000     0.00000000     0.00000000
     0.07589134     0.28322199     0.13299507
     0.00000000     0.00000000     0.00000000
     0.00000000     0.00000000     0.00000000
     0.00000000     0.00000000     0.00000000
     0.00000000     0.00000000     0.00000000
     0.00000000     0.00000000     0.00000000
     0.00000000     0.00000000     0.00000000
     0.00000000     0.00000000     0.00000000
     0.00000000     0.00000000     0.00000000
     0.13684605     0.51070432     0.36535201
     0.00000000     0.00000000     0.00000000
     0.00000000     0.00000000     0.00000000
     0.00000000     0.00000000     0.00000000
     0.00000000     0.00000000     0.00000000
     0.00000000     0.00000000     0.00000000
     0.00000000     0.00000000     0.00000000
     0.00000000     0.00000000     0.00000000
     0.00000000     0.00000000     0.00000000
     0.11059849     0.41275361     0.37017854
     0.00000000     0.00000000     0.00000000
     0.00000000     0.00000000     0.00000000
     0.00000000     0.00000000     0.00000000
     0.00000000     0.00000000     0.00000000
     0.00000000     0.00000000     0.00000000
     0.00000000     0.00000000     0.00000000
     0.00000000     0.00000000     0.00000000
     0.00000000     0.00000000     0.00000000
     0.05283134     0.19716952     0.30946516
    -0.20569005    -0.48844087    -0.43693231
     1.82909340    -0.52948635    -0.10561702
     2.06428010    -0.48370557     0.19515062
     1.77408943    -0.40355399     0.20381039
     1.31581017    -0.30053445     0.14563133
     0.89954437    -0.19632594     0.12489563
     0.46454564    -0.06622074     0.16435618
     0.19835942     0.03961899     0.26682189
     0.02612699     0.02711753     0.07095396
    -1.02646574     0.02208547     0.74704672
    -1.28528295     0.16109462     0.36001562
    -1.26979900     0.13098595     0.37247484
    -1.39198005     0.35856759     0.03491505
    -1.32550627     0.24977932     0.19092508
    -1.07281753     0.26044761     0.05346288
    -0.73002094     0.06976784     0.23096996
    -0.34630063     0.09914657    -0.00905601
    -0.02899693     0.04068216     0.00283409
     0.00000000     0.00000000     0.00000000
     0.00000000     0.00000000     0.00000000
     0.00000000     0.00000000     0.00000000
     0.00000000     0.00000000     0.00000000
     0.00000000     0.00000000     0.00000000
     0.00000000     0.00000000     0.00000000
     0.00000000     0.00000000     0.00000000
     0.00000000     0.00000000     0.00000000
     0.06593283     0.24606784     0.09777254
     0.00000000     0.00000000     0.00000000
     0.00000000     0.00000000     0.00000000
     0.00000000     0.00000000     0.00000000
     0.00000000     0.00000000     0.00000000
     0.00000000     0.00000000     0.00000000
     0.00000000     0.00000000     0.00000000
     0.00000000     0.00000000     0.00000000
     0.00000000     0.00000000     0.00000000
     0.10024589     0.37411502     0.31120596
     0.00000000     0.00000000     0.00000000
     0.00000000     0.00000000     0.00000000
     0.00000000     0.00000000     0.00000000
     0.00000000     0.00000000     0.00000000
     0.00000000     0.00000000     0.00000000
     0.00000000     0.00000000     0.00000000
     0.00000000     0.00000000     0.00000000
     0.00000000     0.00000000     0.00000000
     0.07201067     0.26874257     0.30871276
     0.00000000     0.00000000     0.00000000
     0.00000000     0.00000000     0.00000000
     0.00000000     0.00000000     0.00000000
     0.00000000     0.00000000     0.00000000
     0.00000000     0.00000000     0.00000000
     0.00000000     0.00000000     0.00000000
     0.00000000     0.00000000     0.00000000
     0.00000000     0.00000000     0.00000000
     0.05028263     0.18766058     0.28847890
    -0.37861344    -0.88321774    -0.76327726
     2.38916083    -0.78380424    -0.26371298
     2.52764830    -0.52688255     0.27738143
     1.93927813    -0.35613067     0.30105477
     1.38902746    -0.24740461     0.22839118
     0.69969962    -0.07635700     0.20392078
     0.26786535     0.07565445     0.27154724
     0.02354546     0.17112251     0.33146892
     0.00544233     0.04392542     0.07608726
    -1.42270729    -0.27532364     1.15718892
    -1.69085520     0.54581189    -0.10554556
    -1.53138934    -0.13917759     0.70959687
    -1.83152976     0.61678008    -0.15816400
    -1.64033880     0.21908046     0.28545476
    -1.49871387     0.38362401     0.02554608
    -0.92767761     0.03900163     0.27366750
    -0.60605732     0.16687820    -0.00561024
    -0.06662670     0.03434311    -0.00292061
     0.00000000     0.00000000     0.00000000
     0.00000000     0.00000000     0.00000000
     0.00000000     0.00000000     0.00000000
     0.00000000     0.00000000     0.00000000
     0.00000000     0.00000000     0.00000000
     0.00000000     0.00000000     0.00000000
     0.00000000     0.00000000     0.00000000
     0.00000000     0.00000000     0.00000000
     0.02641008     0.09856758     0.03717911
     0.00000000     0.00000000     0.00000000
     0.00000000     0.00000000     0.00000000
     0.00000000     0.00000000     0.00000000
     0.00000000     0.00000000     0.00000000
     0.00000000     0.00000000     0.00000000
     0.00000000     0.00000000     0.00000000
     0.00000000     0.00000000     0.00000000
     0.00000000     0.00000000     0.00000000
     0.03923209     0.14642134     0.12468275
     0.00000000     0.00000000     0.00000000
     0.00000000     0.00000000     0.00000000
     0.00000000     0.00000000     0.00000000
     0.00000000     0.00000000     0.00000000
     0.00000000     0.00000000     0.00000000
     0.00000000     0.00000000     0.00000000
     0.00000000     0.00000000     0.00000000
     0.00000000     0.00000000     0.00000000
     0.02776602     0.10362514     0.12139615
     0.00000000     0.00000000     0.00000000
     0.00000000     0.00000000     0.00000000
     0.00000000     0.00000000     0.00000000
     0.00000000     0.00000000     0.00000000
     0.00000000     0.00000000     0.00000000
     0.00000000     0.00000000     0.00000000
     0.00000000     0.00000000     0.00000000
     0.00000000     0.00000000     0.00000000
     0.03036692     0.11333080     0.13516847
    -0.40043582    -1.41584768    -1.15947119
     3.36872152    -1.11125666    -0.27565123
     2.72579672    -0.54102396     0.24995071
     1.89661630    -0.25348343     0.33209313
     0.84142192    -0.02601531     0.26092316
     0.12368036     0.14453350     0.23180270
    -0.29267282     0.31450693     0.30910943
    -0.13579977     0.24045023     0.26986097
    -0.00938842     0.04171714     0.04867287
    -0.86683710    -0.40887498     0.60822539
    -0.95025902     0.39798000    -0.11554185
    -0.89326920    -0.21287545     0.37469738
    -1.03264372     0.40454956    -0.10453845
    -0.93997619     0.07036159     0.15005531
    -0.85778189     0.23545001    -0.00292711
    -0.53440679    -0.01453126     0.13139658
    -0.35515941     0.10603325    -0.00815743
    -0.05390934     0.02202396    -0.00448401
    -2.45602170    -1.84936725     1.54865888
    -2.24820421     1.13751867    -0.25967629
    -2.29352677    -0.63783787     0.66275001
    -2.44771347     1.12045035    -0.22494057
    -2.32534649     0.11848337     0.26762531
    -2.04654333     0.64923350    -0.03841994
    -1.34913071    -0.08311926     0.23266657
    -0.80427051     0.27467800    -0.02678599
    -0.08821089     0.05102335    -0.00473692
    -1.26886525    -3.12174888     0.54751874
    -1.22899601     0.83917601    -0.09900693
    -1.82860113     0.05485771     0.09427881
    -1.38951995     1.03812488    -0.10888307
    -1.61314193     0.35136338     0.03082033
    -1.20098165     0.64697512    -0.05026836
    -1.08682131     0.03728199     0.05539470
    -0.22324766     0.17377790    -0.01276631
    -0.00912151     0.03931548     0.00928216
    -1.03426187    -3.77235355    -0.46499838
     0.64970453    -0.35191403    -0.03967546
     0.45106210     0.41954935     0.09428312
    -0.34675860     0.64394098     0.08153167
    -0.67805981     0.72582794     0.09239331
    -0.90282694     0.57497211     0.05260366
    -0.70328075     0.40488014     0.04400788
    -0.33280734     0.26369147     0.03252338
    -0.03220271     0.04033694     0.01563172
    -0.53799598    -3.17005997    -1.19735540
     4.36750082    -1.48196599    -0.17045336
     3.41973994    -0.51478199     0.20181279
     2.28291765    -0.00551339     0.31187345
     0.83781616     0.23070771     0.23021351
    -0.06210057     0.42360602     0.21066979
    -0.53539167     0.59499168     0.24118673
    -0.22233404     0.41911216     0.19331492
    -0.01773772     0.06052856     0.03673335
    -0.22760772    -1.04648925    -0.60708809
     1.94055042    -0.65053676    -0.11107135
     1.51556244    -0.27530664     0.10954413
     1.04922964    -0.07860126     0.16753741
     0.41508476     0.03714775     0.12367650
     0.02295389     0.13251612     0.11495959
    -0.20513665     0.22556790     0.14276048
    -0.08134082     0.16052286     0.11629439
    -0.00928381     0.02630605     0.02038020
     0.00000000     0.00000000     0.00000000
     0.00000000     0.00000000     0.00000000
     0.00000000     0.00000000     0.00000000
     0.00000000     0.00000000     0.00000000
     0.00000000     0.00000000     0.00000000
     0.00000000     0.00000000     0.00000000
     0.00000000     0.00000000     0.00000000
     0.00000000     0.00000000     0.00000000
     0.00000000     0.00000000     0.00000000
     0.00000000     0.00000000     0.00000000
     0.00000000     0.00000000     0.00000000
     0.00000000     0.00000000     0.00000000
     0.00000000     0.00000000     0.00000000
     0.00000000     0.00000000     0.00000000
     0.00000000     0.00000000     0.00000000
     0.00000000     0.00000000     0.00000000
     0.00000000     0.00000000     0.00000000
     0.00000000     0.00000000     0.00000000
     0.00000000     0.00000000     0.00000000
     0.00000000     0.00000000     0.00000000
     0.00000000     0.00000000     0.00000000
     0.00000000     0.00000000     0.00000000
     0.00000000     0.00000000     0.00000000
     0.00000000     0.00000000     0.00000000
     0.00000000     0.00000000     0.00000000
     0.00000000     0.00000000     0.00000000
     0.00000000     0.00000000     0.00000000
     0.00000000     0.00000000     0.00000000
     0.00000000     0.00000000     0.00000000
     0.00000000     0.00000000     0.00000000
     0.00000000     0.00000000     0.00000000
     0.00000000     0.00000000     0.00000000
     0.00000000     0.00000000     0.00000000
     0.00000000     0.00000000     0.00000000
     0.00000000     0.00000000     0.00000000
     0.00000000     0.00000000     0.00000000
     0.00000000     0.00000000     0.00000000
     0.00000000     0.00000000     0.00000000
     0.00000000     0.00000000     0.00000000
     0.00000000     0.00000000     0.00000000
     0.00000000     0.00000000     0.00000000
     0.00000000     0.00000000     0.00000000
     0.00000000     0.00000000     0.00000000
     0.00000000     0.00000000     0.00000000
     0.00000000     0.00000000     0.00000000
     0.00000000     0.00000000     0.00000000
     0.00000000     0.00000000     0.00000000
     0.00000000     0.00000000     0.00000000
     0.00000000     0.00000000     0.00000000
     0.00000000     0.00000000     0.00000000
     0.00000000     0.00000000     0.00000000
     0.00000000     0.00000000     0.00000000
     0.00000000     0.00000000     0.00000000
     0.00000000     0.00000000     0.00000000
     0.00000000     0.00000000     0.00000000
     0.00000000     0.00000000     0.00000000
     0.00000000     0.00000000     0.00000000
     0.00000000     0.00000000     0.00000000
     0.00000000     0.00000000     0.00000000
     0.00000000     0.00000000     0.00000000
     0.00000000     0.00000000     0.00000000
     0.00000000     0.00000000     0.00000000
     0.00000000     0.00000000     0.00000000
     0.00000000     0.00000000     0.00000000
     0.00000000     0.00000000     0.00000000
     0.00000000     0.00000000     0.00000000
     0.00000000     0.00000000     0.00000000
     0.00000000     0.00000000     0.00000000
     0.00000000     0.00000000     0.00000000
     0.00000000     0.00000000     0.00000000
     0.00000000     0.00000000     0.00000000
     0.00000000     0.00000000     0.00000000
     0.00000000     0.00000000     0.00000000
     0.00000000     0.00000000     0.00000000
     0.00000000     0.00000000     0.00000000
     0.00000000     0.00000000     0.00000000
     0.00000000     0.00000000     0.00000000
     0.00000000     0.00000000     0.00000000
     0.00000000     0.00000000     0.00000000
     0.00000000     0.00000000     0.00000000
     0.00000000     0.00000000     0.00000000
     0.00000000     0.00000000     0.00000000
     0.00000000     0.00000000     0.00000000
     0.00000000     0.00000000     0.00000000
     0.00000000     0.00000000     0.00000000
     0.00000000     0.00000000     0.00000000
     0.00000000     0.00000000     0.00000000
     0.00000000     0.00000000     0.00000000
     0.00000000     0.00000000     0.00000000
     0.00000000     0.00000000     0.00000000
     0.00000000     0.00000000     0.00000000
     0.00000000     0.00000000     0.00000000
     0.00000000     0.00000000     0.00000000
     0.00000000     0.00000000     0.00000000
     0.00000000     0.00000000     0.00000000
     0.00000000     0.00000000     0.00000000
     0.00000000     0.00000000     0.00000000
     0.00000000     0.00000000     0.00000000
     0.00000000     0.00000000     0.00000000
     0.00000000     0.00000000     0.00000000
     0.00000000     0.00000000     0.00000000
     0.00000000     0.00000000     0.00000000
     0.00000000     0.00000000     0.00000000
     0.00000000     0.00000000     0.00000000
     0.00000000     0.00000000     0.00000000
     0.00000000     0.00000000     0.00000000
     0.00000000     0.00000000     0.00000000
     0.00000000     0.00000000     0.00000000
     0.00000000     0.00000000     0.00000000
     0.00000000     0.00000000     0.00000000
     0.00000000     0.00000000     0.00000000
     0.00000000     0.00000000     0.00000000
     0.00000000     0.00000000     0.00000000
     0.00000000     0.00000000     0.00000000
     0.00000000     0.00000000     0.00000000
     0.00000000     0.00000000     0.00000000
     0.00000000     0.00000000     0.00000000
     0.00000000     0.00000000     0.00000000
     0.00000000     0.00000000     0.00000000
     0.00000000     0.00000000     0.00000000
     0.00000000     0.00000000     0.00000000
     0.00000000     0.00000000     0.00000000
     0.00000000     0.00000000     0.00000000
     0.00000000     0.00000000     0.00000000
     0.00000000     0.00000000     0.00000000
     0.00000000     0.00000000     0.00000000
     0.00000000     0.00000000     0.00000000
     0.00000000     0.00000000     0.00000000
     0.00000000     0.00000000     0.00000000
     0.00000000     0.00000000     0.00000000
     0.00000000     0.00000000     0.00000000
     0.00000000     0.00000000     0.00000000
     0.00000000     0.00000000     0.00000000
     0.00000000     0.00000000     0.00000000
     0.00000000     0.00000000     0.00000000
     0.00000000     0.00000000     0.00000000
     0.00000000     0.00000000     0.00000000
     0.00000000     0.00000000     0.00000000
     0.00000000     0.00000000     0.00000000
     0.00000000     0.00000000     0.00000000
     0.00000000     0.00000000     0.00000000
     0.00000000     0.00000000     0.00000000
     0.00000000     0.00000000     0.00000000
     0.00000000     0.00000000     0.00000000
     0.00000000     0.00000000     0.00000000
     0.00000000     0.00000000     0.00000000
     0.00000000     0.00000000     0.00000000
     0.00000000     0.00000000     0.00000000
     0.00000000     0.00000000     0.00000000
     0.00000000     0.00000000     0.00000000
     0.00000000     0.00000000     0.00000000
     0.00000000     0.00000000     0.00000000
     0.00000000     0.00000000     0.00000000
     0.00000000     0.00000000     0.00000000
     0.00000000     0.00000000     0.00000000
     0.00000000     0.00000000     0.00000000
     0.00000000     0.00000000     0.00000000
     0.00000000     0.00000000     0.00000000
     0.00000000     0.00000000     0.00000000
     0.00000000     0.00000000     0.00000000
     0.00000000     0.00000000     0.00000000
     0.00000000     0.00000000     0.00000000
     0.00000000     0.00000000     0.00000000
     0.00000000     0.00000000     0.00000000
     0.00000000     0.00000000     0.00000000
     0.00000000     0.00000000     0.00000000
     0.00000000     0.00000000     0.00000000
     0.00000000     0.00000000     0.00000000
     0.00000000     0.00000000     0.00000000
     0.00000000     0.00000000     0.00000000
     0.00000000     0.00000000     0.00000000
     0.00000000     0.00000000     0.00000000
     0.00000000     0.00000000     0.00000000
     0.00000000     0.00000000     0.00000000
     0.00000000     0.00000000     0.00000000
     0.00000000     0.00000000     0.00000000
     0.00000000     0.00000000     0.00000000
     0.00000000     0.00000000     0.00000000
     0.00000000     0.00000000     0.00000000
     0.00000000     0.00000000     0.00000000
     0.00000000     0.00000000     0.00000000
     0.00000000     0.00000000     0.00000000
     0.00000000     0.00000000     0.00000000
     0.00000000     0.00000000     0.00000000
     0.00000000     0.00000000     0.00000000
     0.00000000     0.00000000     0.00000000
     0.00000000     0.00000000     0.00000000
     0.00000000     0.00000000     0.00000000
     0.00000000     0.00000000     0.00000000
     0.00000000     0.00000000     0.00000000
     0.00000000     0.00000000     0.00000000
     0.00000000     0.00000000     0.00000000
     0.00000000     0.00000000     0.00000000
     0.00000000     0.00000000     0.00000000
     0.00000000     0.00000000     0.00000000
     0.00000000     0.00000000     0.00000000
     0.00000000     0.00000000     0.00000000
     0.00000000     0.00000000     0.00000000
     0.00000000     0.00000000     0.00000000
     0.00000000     0.00000000     0.00000000
     0.00000000     0.00000000     0.00000000
     0.00000000     0.00000000     0.00000000
     0.00000000     0.00000000     0.00000000
     0.00000000     0.00000000     0.00000000
     0.00000000     0.00000000     0.00000000
     0.00000000     0.00000000     0.00000000
     0.00000000     0.00000000     0.00000000
     0.00000000     0.00000000     0.00000000
     0.00000000     0.00000000     0.00000000
     0.00000000     0.00000000     0.00000000
     0.00000000     0.00000000     0.00000000
     0.00000000     0.00000000     0.00000000
     0.00000000     0.00000000     0.00000000
     0.00000000     0.00000000     0.00000000
     0.00000000     0.00000000     0.00000000
     0.00000000     0.00000000     0.00000000
     0.00000000     0.00000000     0.00000000
     0.00000000     0.00000000     0.00000000
     0.00000000     0.00000000     0.00000000
     0.00000000     0.00000000     0.00000000
     0.00000000     0.00000000     0.00000000
     0.00000000     0.00000000     0.00000000
     0.00000000     0.00000000     0.00000000
     0.00000000     0.00000000     0.00000000
     0.00000000     0.00000000     0.00000000
     0.00000000     0.00000000     0.00000000
     0.00000000     0.00000000     0.00000000
     0.00000000     0.00000000     0.00000000
     0.00000000     0.00000000     0.00000000
     0.00000000     0.00000000     0.00000000
     0.00000000     0.00000000     0.00000000
     0.00000000     0.00000000     0.00000000
     0.00000000     0.00000000     0.00000000
     0.00000000     0.00000000     0.00000000
     0.00000000     0.00000000     0.00000000
     0.00000000     0.00000000     0.00000000
     0.00000000     0.00000000     0.00000000
     0.00000000     0.00000000     0.00000000
     0.00000000     0.00000000     0.00000000
     0.00000000     0.00000000     0.00000000
     0.00000000     0.00000000     0.00000000
     0.00000000     0.00000000     0.00000000
     0.00000000     0.00000000     0.00000000
     0.00000000     0.00000000     0.00000000
     0.00000000     0.00000000     0.00000000
     0.00000000     0.00000000     0.00000000
     0.00000000     0.00000000     0.00000000
     0.00000000     0.00000000     0.00000000
     0.00000000     0.00000000     0.00000000
     0.00000000     0.00000000     0.00000000
     0.00000000     0.00000000     0.00000000
     0.00000000     0.00000000     0.00000000
     0.00000000     0.00000000     0.00000000
     0.00000000     0.00000000     0.00000000
     0.00000000     0.00000000     0.00000000
     0.00000000     0.00000000     0.00000000
     0.00000000     0.00000000     0.00000000
     0.00000000     0.00000000     0.00000000
     0.00000000     0.00000000     0.00000000
     0.00000000     0.00000000     0.00000000
     0.00000000     0.00000000     0.00000000
     0.00000000     0.00000000     0.00000000
     0.00000000     0.00000000     0.00000000
     0.00000000     0.00000000     0.00000000
     0.00000000     0.00000000     0.00000000
     0.00000000     0.00000000     0.00000000
     0.00000000     0.00000000     0.00000000
     0.00000000     0.00000000     0.00000000
     0.00000000     0.00000000     0.00000000
     0.00000000     0.00000000     0.00000000
     0.00000000     0.00000000     0.00000000
     0.00000000     0.00000000     0.00000000
     0.00000000     0.00000000     0.00000000
     0.00000000     0.00000000     0.00000000
     0.00000000     0.00000000     0.00000000
     0.00000000     0.00000000     0.00000000
SCALARS Pressures float
LOOKUP_TABLE default
  2380.55818987
  4742.47040749
  4716.53061819
  4713.32809216
  4707.67987829
  4701.20887280
  4693.97457170
  4712.70956039
  6376.56241353
  4781.93157148
  9498.47840032
  9431.96459886
  9426.35674351
  9414.44497064
  9398.71818921
  9393.27672434
  9415.78408337
  9455.30770111
  4792.85357141
  9507.50506720
  9430.11397621
  9424.19123507
  9410.85610756
  9396.60731909
  9391.91767502
  9399.19291115
  9332.62370968
  4789.07839060
  9503.25324702
  9427.75839186
  9419.64222306
  9407.62625796
  9399.43029273
  9392.91070938
  9397.68461132
  9360.52476215
  4788.30375004
  9503.21347475
  9425.71386456
  9414.78696305
  9405.84109420
  9401.56830490
  9404.06273508
  9431.95518494
  9408.75858116
  4788.68080187
  9505.09782791
  9425.16631532
  9412.43785620
  9404.61251521
  9402.04419637
  9411.46108174
  9455.31370735
  9427.65281081
  4789.31584823
  9506.43208098
  9426.32741117
  9412.13971293
  9405.31513453
  9399.74362755
  9396.63283539
  9401.42295599
  9419.57134986
  4788.93443096
  9507.62160027
  9428.48154068
  9413.77166033
  9404.99622083
  9398.38309073
  9382.13882804
  9365.22381544
  9385.79875183
  4789.52531505
  9508.90310878
  9432.94217592
  9419.22141218
  9408.75279272
  9404.07603168
  9391.86103964
  9381.43985653
  9388.85192299
  4777.24791694
  9498.76995295
  9437.04382128
  9425.80406988
  9418.12207162
  9420.90610552
  9420.81415462
  9419.77971935
  9451.81786728
  2385.31643724
  4744.69688928
  4718.78662193
  4714.34513760
  4711.35702896
  4716.27771854
  4722.15264130
  4727.06546783
  6331.83269246
  2381.49962759
  4744.37306112
  4717.46028513
  4712.72152752
  4706.58868736
  4698.03216791
  4693.38836572
  4710.89941785
  6377.50842031
  4775.26404643
  9494.66912042
  9434.27285103
  9425.14378762
  9412.39745800
  9394.03502928
  9388.98970792
  9411.32844350
  9454.45169449
  4780.33082056
  9498.92384605
  9433.38069461
  9423.24015921
  9409.76861344
  9394.44602998
  9388.86113068
  9394.16838074
  9326.50230217
  4780.01312649
  9498.07814360
  9431.22671169
  9419.22932288
  9407.74461392
  9397.75577244
  9390.57457539
  9391.62231064
  9356.40289116
  4780.43708646
  9498.66013098
  9428.37521964
  9414.43420562
  9406.44670752
  9399.65035880
  9400.54145312
  9427.98226786
  9413.10926056
  4780.62085211
  9500.19753492
  9426.94904387
  9411.61885905
  9404.58146095
  9400.48733819
  9408.80388880
  9451.75679255
  9427.54072583
  4780.08966178
  9500.71497798
  9428.09797773
  9411.07141814
  9404.36177295
  9398.40720828
  9394.34328623
  9399.51586008
  9417.38482201
  4778.75922990
  9501.68656182
  9431.21536210
  9413.07683364
  9404.19571066
  9397.26079519
  9382.40978713
  9362.72838259
  9382.04628754
  4778.58032560
  9502.18793514
  9435.62079874
  9418.24380982
  9407.98340607
  9402.10235858
  9391.13683796
  9375.72654152
  9378.96449757
  4772.26832309
  9496.55876061
  9438.42742109
  9424.55504978
  9416.94107610
  9417.65408862
  9416.07208538
  9410.94444084
  9442.87543583
  2385.98805603
  4746.33017009
  4719.15641394
  4713.91273266
  4710.71113229
  4714.55490017
  4718.57897091
  4720.08790207
  6325.63311640
  2381.05732724
  4743.84471282
  4718.69446576
  4712.01255509
  4704.79430553
  4694.87181497
  4691.54200956
  4700.63507840
  6374.10244083
  4766.81989190
  9489.32448158
  9437.59622684
  9423.85730135
  9409.13611528
  9390.88798553
  9387.21945611
  9405.20856282
  9454.25112319
  4767.48539233
  9490.65660363
  9437.79123238
  9422.24954370
  9408.36983258
  9393.69549313
  9390.38974395
  9399.85665512
  9328.79947281
  4768.87761676
  9492.07421023
  9435.61744711
  9418.73449144
  9407.95678717
  9396.31858441
  9390.31781861
  9390.47643185
  9360.98536777
  4771.23870504
  9493.79169405
  9432.26718041
  9414.72053847
  9406.83928835
  9399.07605481
  9397.53245139
  9420.10045123
  9427.12072849
  4771.71136057
  9494.28321898
  9430.43050706
  9411.91519570
  9404.53130656
  9400.44514400
  9405.05349863
  9441.55721569
  9430.21654582
  4771.26503772
  9493.96587139
  9431.11089167
  9410.95832235
  9402.87815413
  9397.43859662
  9393.31876554
  9398.70718479
  9412.20284343
  4769.77437198
  9493.98596430
  9433.78680435
  9413.13046581
  9402.36056945
  9394.99573787
  9383.88357057
  9359.34287047
  9373.06837940
  4769.45819485
  9494.13032383
  9437.11521238
  9417.79197198
  9406.02843708
  9397.66899097
  9388.42164433
  9363.20360136
  9358.91055775
  4767.60361353
  9492.48517406
  9438.75864545
  9422.83964247
  9413.67304310
  9410.05144963
  9403.98964906
  9392.01317644
  9425.05452347
  2384.28219756
  4745.76384342
  4719.21064821
  4712.74416518
  4708.74780390
  4709.94795093
  4709.25937819
  4706.09528637
  6314.62067540
  2377.42931566
  4741.96888152
  4719.54103214
  4711.78845777
  4704.11702921
  4696.94689238
  4692.22962832
  4696.05241823
  6357.87153721
  4763.65747145
  9487.52109012
  9438.95092705
  9423.51480900
  9408.73327222
  9395.55868945
  9390.93269238
  9405.93299866
  9459.08474422
  4765.68605512
  9490.19484276
  9438.67482677
  9421.84598258
  9409.14615560
  9397.68175837
  9395.40345153
  9416.29028201
  9355.72939849
  4767.10434097
  9491.28220999
  9436.17357403
  9418.88867563
  9408.57694161
  9398.51434118
  9396.89687896
  9403.84332299
  9378.86476207
  4770.03459269
  9492.78131294
  9433.66129911
  9416.22118664
  9407.41820002
  9401.22925037
  9402.21623027
  9417.98516214
  9439.48356056
  4769.61265749
  9492.63455099
  9432.81647921
  9414.16052091
  9405.41489118
  9403.04846305
  9404.54944253
  9433.08834851
  9429.84325552
  4768.80499548
  9491.52218157
  9432.78699338
  9412.96940044
  9403.54571113
  9399.36383688
  9393.59593183
  9397.12957811
  9406.44584465
  4767.58084261
  9490.81491101
  9433.65639567
  9414.36493745
  9402.56656078
  9394.80389041
  9384.49048597
  9360.71556973
  9370.73123455
  4767.50986385
  9490.72061419
  9435.32757151
  9417.85723710
  9405.14545739
  9394.69019735
  9385.43037856
  9356.21496439
  9354.10973191
  4764.95338267
  9488.71630615
  9436.79279818
  9421.05273111
  9410.65267928
  9401.43485437
  9390.46670911
  9369.01570249
  9412.41511416
  2383.44387239
  4743.78123528
  4718.39845122
  4711.29940958
  4706.57179172
  4703.44830309
  4698.46058843
  4688.92353749
  6302.35589600
  2377.12661252
  4741.75476373
  4719.96403393
  4711.45111241
  4704.97138355
  4699.63322844
  4695.26572545
  4698.80522306
  6332.37659454
  4761.85452636
  9485.74012415
  9439.04177722
  9422.75026926
  9410.49119661
  9400.46397226
  9394.57088815
  9408.63477142
  9457.31798172
  4763.83186076
  9487.58034418
  9437.51692665
  9421.36160046
  9410.62688643
  9401.98505297
  9399.71899632
  9420.06968164
  9389.66015196
  4765.79321146
  9488.73583528
  9435.08004738
  9419.40902506
  9409.99768203
  9402.09287727
  9405.93993044
  9419.46856308
  9397.92381835
  4767.16550849
  9489.06038368
  9433.29909898
  9417.55076717
  9409.43752444
  9403.03502207
  9408.89968865
  9430.79946721
  9446.78037429
  4766.33307395
  9488.47175185
  9432.46761268
  9415.97668335
  9407.85453531
  9404.31481098
  9404.72829615
  9427.66772485
  9434.28055048
  4766.03298265
  9487.72804368
  9432.17335303
  9415.03901599
  9406.32271935
  9402.05650865
  9393.30473870
  9393.96033871
  9413.19633460
  4765.13658980
  9486.97401896
  9432.66652059
  9415.39286315
  9405.52029644
  9397.87821899
  9383.09005737
  9364.11931086
  9393.05053210
  4764.49161712
  9486.43279929
  9433.65596113
  9417.03969879
  9406.05239272
  9395.73567146
  9380.86096507
  9351.11339164
  9378.60458708
  4763.06248168
  9484.85118586
  9434.82440116
  9418.61915450
  9408.79298918
  9396.40910901
  9379.83774784
  9346.61084080
  9407.87291574
  2383.53130170
  4742.21658155
  4717.47098531
  4709.70580049
  4705.24579309
  4698.71350493
  4690.11680576
  4671.75310874
  6283.89587275
  1586.04545527
  3160.65698354
  3146.56332203
  3140.82363772
  3137.19988221
  3133.50722602
  3130.90270243
  3131.79099411
  4739.07042694
  2380.71868612
  4742.11359535
  4719.39652541
  4711.12734574
  4705.71906700
  4701.11733367
  4698.50630613
  4704.47393377
  6300.91535568
  2381.72716311
  4742.87079260
  4718.30962574
  4710.62061989
  4705.51000375
  4701.85641730
  4701.80299556
  4709.06412959
  6270.05303860
  2382.09255606
  4743.07631543
  4717.17640470
  4709.84662952
  4705.44604266
  4701.85649443
  4705.24164939
  4713.32166696
  6271.87188530
  2382.08440939
  4743.01737119
  4716.38669293
  4709.00939490
  4705.33245236
  4702.01562016
  4705.70582418
  4720.91008091
  6300.91676299
  2382.15132586
  4742.47179887
  4715.71575433
  4708.33142719
  4704.69574735
  4702.24625193
  4702.15900432
  4712.03665316
  6294.58602715
  2383.06128722
  4742.67279601
  4715.56297918
  4708.02637623
  4703.95095666
  4701.59587388
  4697.00070387
  4696.73356330
  6281.80558173
  2383.03810474
  4742.26931056
  4715.82233750
  4707.96738803
  4703.61670487
  4700.00081663
  4691.14276886
  4682.63013673
  6274.98768711
  2382.62228004
  4742.10612817
  4716.29389123
  4708.34132994
  4703.32836270
  4698.65012234
  4688.64591271
  4673.09541535
  6265.15583579
  2382.06834791
  4741.44626964
  4716.88473797
  4708.75305101
  4703.93331271
  4697.82466841
  4687.69567972
  4668.55373359
  6271.39443048
  1588.05305261
  3160.28995231
  3144.69343909
  3139.21385630
  3136.51891661
  3131.72948249
  3124.55059369
  3109.82625262
  4704.66582298
  9331.89086676
  9369.05258894
  9320.44266129
  9311.22268295
  9326.06229401
  9311.07876968
  9326.67775154
  9318.73757362
  9329.25891685
  9321.59514809
  9116.91549683
  9475.07943678
  9405.55878520
  9306.27748775
  9307.95189571
  9309.30562401
  9311.26683712
  9315.83954716
  9319.01367760
  9322.45914173
  9320.55564642
  9305.61961269
  9455.78299332
  9395.81624889
  9284.65671825
  9278.73719501
  9279.62652779
  9287.74707127
  9300.18779182
  9311.84813833
  9317.15213299
  9320.30154276
  9324.78727531
  9434.29661369
  9378.69643831
  9268.84207582
  9248.09949875
  9252.56835175
  9275.22814369
  9298.45116425
  9316.14974356
  9323.73312140
  9327.32452965
  9331.79972839
  9526.69816446
  9449.23472309
  9321.80391169
  9296.72935867
  9287.74991608
  9300.11067772
  9318.56031322
  9331.11579895
  9338.05345831
  9336.27244435
  9320.76644611
  9626.36457539
  9490.64408588
  9383.12479401
  9350.05300140
  9337.06723022
  9313.80430603
  9335.59253883
  9334.33860588
  9347.28557320
  9338.98277016
  9133.18425751
  9466.53574538
  9362.48029566
  9319.92043018
  9308.46210098
  9323.10566044
  9310.83452797
  9325.43348503
  9318.41465187
  9328.09889650
  9320.99905825
  9122.67754173
  9467.38915336
  9400.11279845
  9305.21394968
  9306.07233715
  9307.90465355
  9310.27294588
  9315.24786043
  9318.36182952
  9321.76841617
  9319.95502114
  9303.63791037
  9451.96153736
  9391.70408010
  9281.22066307
  9276.78137875
  9278.53963089
  9287.50505400
  9300.28568649
  9311.60214019
  9316.82533777
  9319.80048597
  9324.86817503
  9428.51397324
  9375.09497762
  9264.02554917
  9246.64166641
  9253.64686060
  9276.08834743
  9298.99953938
  9315.76381493
  9323.05866110
  9326.31909049
  9331.37706852
  9522.63941169
  9446.63954639
  9318.52164960
  9294.37460899
  9287.12824535
  9299.62474823
  9318.06787348
  9329.86334765
  9336.61451213
  9334.70522027
  9318.21556187
  9623.93139029
  9488.75199652
  9380.92605782
  9345.34606934
  9331.33838463
  9312.37154579
  9333.64580536
  9333.09433866
  9345.32444177
  9337.46224747
  9138.81505775
  9435.85517144
  9346.05433536
  9315.71145916
  9303.25872040
  9317.91850758
  9310.54486370
  9322.79691410
  9317.64506817
  9325.50779104
  9319.71107149
  9145.45033073
  9449.77242291
  9384.32405984
  9300.69808769
  9301.07431173
  9304.70697212
  9308.50626659
  9314.05015755
  9317.31211758
  9320.36776471
  9318.81679225
  9300.28772068
  9440.57224131
  9377.99651289
  9273.78325701
  9272.49298573
  9276.83568525
  9287.85508156
  9300.62553263
  9311.29676723
  9316.08987379
  9318.63595748
  9323.57874441
  9418.65810633
  9366.28385639
  9256.79408407
  9245.94027472
  9256.49033260
  9279.14370775
  9299.60202122
  9314.61314392
  9321.01616335
  9323.83547115
  9328.78980923
  9518.20229292
  9442.89523125
  9311.43489981
  9287.98218918
  9285.55528736
  9299.50878382
  9316.09351534
  9326.61822635
  9332.63440990
  9331.17448556
  9311.89708567
  9616.54318142
  9486.62199116
  9371.16342926
  9330.17989731
  9320.30584335
  9309.97264576
  9328.93065250
  9329.62453234
  9340.18850231
  9334.02743077
  9158.24693108
  9406.85905170
  9330.93519402
  9304.04997826
  9301.48884964
  9312.09940147
  9310.93678951
  9319.32977390
  9317.84891081
  9322.73335099
  9318.69043875
  9209.80249166
  9425.62367296
  9359.73041248
  9289.35969734
  9294.74567318
  9301.49928665
  9306.73172617
  9312.86033511
  9316.58433557
  9319.24530125
  9317.82471442
  9302.44609594
  9424.77390003
  9360.08725929
  9264.92942953
  9269.02647734
  9277.97162104
  9289.67249727
  9301.85138261
  9311.28571284
  9315.76615584
  9317.46988475
  9321.15110683
  9422.63392138
  9368.10782957
  9255.04850483
  9249.61390543
  9263.57681894
  9283.61572552
  9300.89942276
  9313.19548786
  9319.09237123
  9321.17374384
  9324.99128652
  9523.09815192
  9443.26925325
  9300.68481398
  9280.25183153
  9285.72861147
  9298.87431389
  9313.25178468
  9322.28139538
  9328.26228070
  9327.46021962
  9312.34492040
  9606.08796692
  9481.97173500
  9346.46206093
  9311.32631016
  9309.34765530
  9307.33550847
  9322.01659274
  9325.42348039
  9334.11487913
  9330.55373096
  9221.91978121
  9390.10574818
  9311.00709164
  9289.58539975
  9297.18479872
  9306.38814068
  9309.49064064
  9316.03933215
  9317.86954904
  9320.69334424
  9317.89914656
  9259.23111606
  9413.70560360
  9330.06058341
  9276.15047103
  9289.30134225
  9297.38585591
  9304.23902929
  9311.05145180
  9315.62538570
  9318.26520023
  9317.50129333
  9304.83054543
  9435.91639471
  9347.44257522
  9257.64817524
  9268.24426961
  9278.66250598
  9291.08887625
  9302.77291119
  9310.93518460
  9315.46908408
  9317.50491783
  9319.69267327
  9463.45648932
  9376.57194138
  9251.92614579
  9256.38369679
  9269.82009709
  9287.79349768
  9302.24894977
  9312.27718979
  9317.81644973
  9320.16042048
  9322.52515274
  9539.73977351
  9429.70815277
  9281.45268011
  9275.32066482
  9283.01919845
  9297.74642149
  9310.12987566
  9319.20562965
  9324.99452806
  9325.02571777
  9311.14155227
  9587.09389877
  9452.04349804
  9311.63387680
  9292.94458950
  9295.33964354
  9303.09618217
  9315.24410272
  9322.34602654
  9329.45726860
  9327.63699013
  9266.18817079
  9385.28660583
  9296.34446359
  9283.09556222
  9292.20781994
  9304.26546669
  9307.60714340
  9314.82372618
  9317.23968267
  9319.99669242
  9317.43659019
  9261.31832361
  9416.00983715
  9314.64164984
  9270.82731116
  9287.06718302
  9294.68339968
  9302.74808478
  9309.82637477
  9314.99635398
  9317.69763678
  9317.63234645
  9303.68813229
  9455.28939056
  9343.11174631
  9255.21939754
  9268.59599352
  9277.60040641
  9291.27988434
  9302.71054125
  9310.53633595
  9315.08706152
  9318.04255193
  9319.29154694
  9496.23001575
  9378.00241947
  9248.13442755
  9260.23629808
  9270.74185205
  9289.69440866
  9302.35518193
  9312.01180542
  9317.09628290
  9320.33064425
  9321.69294226
  9551.10717010
  9414.62389183
  9269.16614437
  9274.08218563
  9279.18517405
  9297.62296408
  9308.36777890
  9318.47402489
  9323.55774856
  9324.34197122
  9305.72275746
  9573.60002136
  9426.52760124
  9293.94316864
  9282.95721602
  9286.98612416
  9300.52785337
  9312.61725307
  9321.24408555
  9327.69847322
  9326.27965510
  9260.58478332
  8800.95978546
  8754.69061279
  8746.48386383
  8812.84579468
  8861.75088882
  8917.88544846
  8931.41917944
  8655.11478710
  9094.43006134
  8773.65117264
  8723.60456848
  8728.54764557
  8778.33583069
  8842.54048729
  8898.04840660
  8923.62111735
  8910.19530630
  9021.17121124
  8699.81814575
  8647.02172947
  8651.39141750
  8723.84551239
  8807.76557922
  8871.23704147
  8910.49723053
  8928.17003250
  9025.07529449
  8706.86742783
  8583.96183872
  8599.28951550
  8713.17292786
  8811.05237007
  8870.88019848
  8909.75850677
  8929.49213600
  9322.31212997
  8971.39941025
  8716.54179382
  8675.32518005
  8756.95070648
  8835.88081932
  8888.18143177
  8915.05300474
  8902.52100468
  9631.58334351
  9182.35769653
  8866.68484497
  8744.24273682
  8791.42071533
  8841.85797119
  8898.86518478
  8915.76040173
  8637.12197685
  9151.52994156
  8763.98570633
  8741.46792603
  8742.96690369
  8808.52089310
  8862.63480949
  8913.28366375
  8931.61117625
  8704.04942274
  9081.15464973
  8745.26790428
  8713.24430466
  8724.61456871
  8774.36394119
  8839.41824436
  8895.42335606
  8922.32395637
  8911.24237227
  9009.14408875
  8678.09006667
  8630.41451073
  8645.15750241
  8723.09702682
  8803.99406433
  8868.10437727
  8906.64780140
  8924.81160069
  9005.60637283
  8680.64562201
  8574.87723732
  8603.19619298
  8717.51673889
  8810.16097164
  8866.71162486
  8903.71857476
  8922.14906597
  9320.77483368
  8964.03820610
  8713.04106903
  8680.10369492
  8760.62505341
  8835.74831676
  8884.69495368
  8910.07913303
  8902.06563616
  9637.84574127
  9196.41519928
  8852.13600159
  8737.86777496
  8792.20369339
  8842.96113968
  8894.61236382
  8912.97998285
  8691.02101994
  9091.67772865
  8697.24071598
  8725.67344761
  8738.88210297
  8795.46549988
  8861.25568676
  8903.51350784
  8931.09014893
  8812.64481926
  9058.10027218
  8685.61327410
  8690.39898348
  8716.04153061
  8765.55715847
  8833.10892534
  8888.91148186
  8919.63511419
  8917.48112679
  8988.48787498
  8627.65433478
  8597.26566839
  8638.98109984
  8726.57874012
  8798.67549801
  8861.53551340
  8899.07270122
  8913.33431292
  8973.46999359
  8628.50774932
  8563.70751333
  8623.08401084
  8730.30828476
  8810.02482128
  8858.41367173
  8891.79056787
  8907.77012873
  9318.85168839
  8940.65863609
  8701.73514938
  8691.66680336
  8769.87204361
  8835.03653908
  8876.84393167
  8899.55951595
  8890.72632694
  9643.21632385
  9205.62461090
  8815.46208954
  8721.92682648
  8796.63618088
  8842.41226768
  8885.62209082
  8905.50321913
  8770.26358795
  9100.92088509
  8655.67211628
  8721.54941273
  8734.08753014
  8777.88538170
  8851.34621811
  8894.80494118
  8928.69952106
  8766.36366081
  9046.47522640
  8631.10665751
  8668.46078157
  8704.71862507
  8757.92556667
  8827.34973907
  8881.78706694
  8916.68147850
  8899.60965824
  8965.79088211
  8579.81316185
  8584.10897350
  8651.23066616
  8737.66873169
  8802.07845688
  8859.92697144
  8895.23399860
  8911.89734519
  8965.01311874
  8601.85318756
  8576.72194767
  8657.00712490
  8748.37348175
  8814.41324615
  8856.54666853
  8885.46190685
  8901.41454113
  9311.24108315
  8899.65822029
  8679.19923019
  8703.66685104
  8777.87681818
  8833.21347475
  8870.30075336
  8890.90379047
  8875.31194353
  9632.00812531
  9148.69519043
  8757.80036163
  8720.43106461
  8796.37838459
  8838.40411091
  8878.59291983
  8896.68832850
  8738.73383951
  9092.71981049
  8626.37836075
  8689.73538589
  8712.16737688
  8763.14634645
  8836.31672722
  8885.41739327
  8923.09019977
  8772.84725440
  9028.93986130
  8598.61922359
  8645.50784397
  8693.09366196
  8753.38666695
  8823.58045557
  8876.99509171
  8913.77368227
  8898.74822838
  8963.33070183
  8557.62437534
  8590.66350198
  8671.12824368
  8747.69180447
  8811.20264536
  8865.65463209
  8896.47135347
  8908.22873294
  8997.42646217
  8608.01763153
  8596.45220876
  8682.34004998
  8761.06591469
  8819.83218986
  8862.09169364
  8886.98640877
  8900.99628747
  9299.37113190
  8841.09402084
  8647.26813889
  8709.38229088
  8777.67487912
  8831.49205756
  8866.79788999
  8887.55843752
  8848.20399978
  9565.39083099
  9010.54144287
  8681.67856216
  8722.32102212
  8784.97455034
  8834.88084221
  8872.14886674
  8889.62959968
  8686.22368816
  9047.52079773
  8608.88229370
  8659.47360229
  8694.47395587
  8757.25693774
  8828.93366158
  8879.57004082
  8919.15848220
  8885.27276732
  9013.25057602
  8589.36704445
  8632.00805092
  8688.15164316
  8751.64446580
  8822.38328224
  8875.44070774
  8912.42784054
  8920.94995559
  8974.93842316
  8554.56910896
  8593.83310175
  8678.83376741
  8750.85508454
  8815.37682354
  8869.55463505
  8897.82173991
  8897.87823248
  9025.62922287
  8614.92057037
  8601.08291292
  8689.73100138
  8764.14088547
  8821.61795676
  8865.37434244
  8888.95149684
  8899.89775419
  9294.72593689
  8807.51187134
  8630.06777191
  8709.88227662
  8775.04080877
  8831.01442957
  8865.47366104
  8887.32306467
  8825.62649874
  9509.08992004
  8924.46902466
  8641.09342194
  8716.14075488
  8777.47802180
  8833.71368980
  8867.99653262
  8886.68941663
  8690.58681019
     0.00000000
     0.00000000
     0.00000000
     0.00000000
     0.00000000
     0.00000000
     0.00000000
     0.00000000
     0.00000000
     0.00000000
     0.00000000
     0.00000000
     0.00000000
     0.00000000
     0.00000000
     0.00000000
     0.00000000
     0.00000000
     0.00000000
     0.00000000
     0.00000000
     0.00000000
     0.00000000
     0.00000000
     0.00000000
     0.00000000
     0.00000000
     0.00000000
     0.00000000
     0.00000000
     0.00000000
     0.00000000
     0.00000000
     0.00000000
     0.00000000
     0.00000000
     0.00000000
     0.00000000
     0.00000000
     0.00000000
     0.00000000
     0.00000000
     0.00000000
     0.00000000
     0.00000000
     0.00000000
     0.00000000
     0.00000000
     0.00000000
     0.00000000
     0.00000000
     0.00000000
     0.00000000
     0.00000000
     0.00000000
     0.00000000
     0.00000000
     0.00000000
     0.00000000
     0.00000000
     0.00000000
     0.00000000
     0.00000000
     0.00000000
     0.00000000
     0.00000000
     0.00000000
     0.00000000
     0.00000000
     0.00000000
     0.00000000
     0.00000000
     0.00000000
     0.00000000
     0.00000000
     0.00000000
     0.00000000
     0.00000000
     0.00000000
     0.00000000
     0.00000000
     0.00000000
     0.00000000
     0.00000000
     0.00000000
     0.00000000
     0.00000000
     0.00000000
     0.00000000
     0.00000000
     0.00000000
     0.00000000
     0.00000000
     0.00000000
     0.00000000
     0.00000000
     0.00000000
     0.00000000
     0.00000000
     0.00000000
     0.00000000
     0.00000000
     0.00000000
     0.00000000
     0.00000000
     0.00000000
     0.00000000
     0.00000000
     0.00000000
     0.00000000
     0.00000000
     0.00000000
     0.00000000
     0.00000000
     0.00000000
     0.00000000
     0.00000000
     0.00000000
     0.00000000
     0.00000000
     0.00000000
     0.00000000
     0.00000000
     0.00000000
     0.00000000
     0.00000000
     0.00000000
     0.00000000
     0.00000000
     0.00000000
     0.00000000
     0.00000000
     0.00000000
     0.00000000
     0.00000000
     0.00000000
     0.00000000
     0.00000000
     0.00000000
     0.00000000
     0.00000000
     0.00000000
     0.00000000
     0.00000000
     0.00000000
     0.00000000
     0.00000000
     0.00000000
     0.00000000
     0.00000000
     0.00000000
     0.00000000
     0.00000000
     0.00000000
     0.00000000
     0.00000000
     0.00000000
     0.00000000
     0.00000000
     0.00000000
     0.00000000
     0.00000000
     0.00000000
     0.00000000
     0.00000000
     0.00000000
     0.00000000
     0.00000000
     0.00000000
     0.00000000
     0.00000000
     0.00000000
     0.00000000
     0.00000000
     0.00000000
     0.00000000
     0.00000000
     0.00000000
     0.00000000
     0.00000000
     0.00000000
     0.00000000
     0.00000000
     0.00000000
     0.00000000
     0.00000000
     0.00000000
     0.00000000
     0.00000000
     0.00000000
     0.00000000
     0.00000000
     0.00000000
     0.00000000
     0.00000000
     0.00000000
     0.00000000
     0.00000000
     0.00000000
     0.00000000
     0.00000000
     0.00000000
     0.00000000
     0.00000000
     0.00000000
     0.00000000
     0.00000000
     0.00000000
     0.00000000
     0.00000000
     0.00000000
     0.00000000
     0.00000000
     0.00000000
     0.00000000
     0.00000000
     0.00000000
     0.00000000
     0.00000000
     0.00000000
     0.00000000
     0.00000000
     0.00000000
     0.00000000
     0.00000000
     0.00000000
     0.00000000
     0.00000000
     0.00000000
     0.00000000
     0.00000000
     0.00000000
     0.00000000
     0.00000000
     0.00000000
     0.00000000
     0.00000000
     0.00000000
     0.00000000
     0.00000000
     0.00000000
     0.00000000
     0.00000000
     0.00000000
     0.00000000
     0.00000000
     0.00000000
     0.00000000
     0.00000000
     0.00000000
     0.00000000
     0.00000000
     0.00000000
     0.00000000
     0.00000000
     0.00000000
     0.00000000
     0.00000000
     0.00000000
     0.00000000
     0.00000000
     0.00000000
     0.00000000
     0.00000000
     0.00000000
     0.00000000
     0.00000000
     0.00000000
     0.00000000
     0.00000000
     0.00000000
     0.00000000
     0.00000000
     0.00000000
     0.00000000
     0.00000000
VECTORS Displacements float 
     4.81155259    -0.48645227     0.00000000
     4.14966944    -0.63118872     0.00000000
     3.49500177    -0.69976985     0.00000000
     2.83380479    -0.72122188     0.00000000
     2.17227616    -0.69306174     0.00000000
     1.50346766    -0.58383230     0.00000000
     0.83253633    -0.39517963     0.00000000
     0.36521291    -0.12528517     0.00000000
     0.00000000     0.00000000     0.00000000
     4.80252775    -0.41122474    -0.00285847
     4.08301800    -0.54363258     0.00000000
     3.38215761    -0.59800590     0.00000000
     2.68111209    -0.61290419     0.00000000
     1.97468322    -0.58038117     0.00000000
     1.27314674    -0.47756439     0.00000000
     0.60205394    -0.29679235     0.00000000
     0.22447874    -0.04814984     0.00000000
     0.04799655     0.03736319     0.00000000
     4.79466569    -0.33818571    -0.00592936
     4.04576842    -0.45118238     0.00000000
     3.30388638    -0.49208592     0.00000000
     2.56950615    -0.49768309     0.00000000
     1.84597387    -0.46314543     0.00000000
     1.15302210    -0.36996766     0.00000000
     0.53643359    -0.20923345     0.00000000
     0.20375260    -0.02306354     0.00000000
     0.05821319     0.02702108     0.00000000
     4.78840000    -0.26602297    -0.00909315
     4.01937343    -0.35149681     0.00000000
     3.25161784    -0.37995431     0.00000000
     2.49750588    -0.38019661     0.00000000
     1.76892226    -0.34983708     0.00000000
     1.09197181    -0.27587459     0.00000000
     0.51382737    -0.15484373     0.00000000
     0.19548887    -0.02544898     0.00000000
     0.06181344     0.01182004     0.00000000
     4.78301183    -0.19458347    -0.01156608
     4.00165198    -0.24744708     0.00000000
     3.21818605    -0.26347609     0.00000000
     2.45322200    -0.26198670     0.00000000
     1.72361420    -0.24163122     0.00000000
     1.05804416    -0.19550606     0.00000000
     0.50362509    -0.12260828     0.00000000
     0.18205701    -0.03927321     0.00000000
     0.04203225     0.00340507     0.00000000
     4.77858060    -0.12346422    -0.01329962
     3.98983098    -0.14078472     0.00000000
     3.19840770    -0.14425298     0.00000000
     2.42693288    -0.14301304     0.00000000
     1.69555835    -0.13624501     0.00000000
     1.03508473    -0.12226061     0.00000000
     0.49430444    -0.10460130     0.00000000
     0.17317915    -0.05068896     0.00000000
     0.00000000     0.00000000     0.00000000
     4.77527813    -0.05235517    -0.01354375
     3.98530117    -0.03294207     0.00000000
     3.19109245    -0.02329348     0.00000000
     2.41628578    -0.02232017     0.00000000
     1.68108647    -0.02953235     0.00000000
     1.01864233    -0.04878755     0.00000000
     0.48313496    -0.08851053     0.00000000
     0.20816944    -0.07328612     0.00000000
     0.07839571    -0.02169158     0.00000000
     4.77310775     0.01891787    -0.01282307
     3.98730412     0.07465679     0.00000000
     3.19978856     0.09817632     0.00000000
     2.42761104     0.10081758     0.00000000
     1.68890121     0.08207715     0.00000000
     1.01745939     0.03165009     0.00000000
     0.47341475    -0.06428163     0.00000000
     0.23251876    -0.09974187     0.00000000
     0.13670773    -0.03278399     0.00000000
     4.77074926     0.09122313    -0.01046908
     3.99781737     0.17969679     0.00000000
     3.22902067     0.21811386     0.00000000
     2.46939837     0.22610900     0.00000000
     1.72822262     0.20124839     0.00000000
     1.03548538     0.12626280     0.00000000
     0.45397015    -0.01844272     0.00000000
     0.22507803    -0.11775376     0.00000000
     0.14527194    -0.05176325     0.00000000
     4.76819877     0.16411211    -0.00716901
     4.01779459     0.27856521     0.00000000
     3.28712330     0.33432267     0.00000000
     2.55565141     0.35219683     0.00000000
     1.82299232     0.32863155     0.00000000
     1.10282273     0.24091754     0.00000000
     0.44471247     0.06901747     0.00000000
     0.19059938    -0.11006105     0.00000000
     0.09425657    -0.05372521     0.00000000
     4.76369951     0.23970457     0.00000000
     4.07008453     0.37476237     0.00000000
     3.38098750     0.44745202     0.00000000
     2.69164962     0.47343752     0.00000000
     2.00151377     0.45536491     0.00000000
     1.30458002     0.36440810     0.00000000
     0.59613520     0.19390880     0.00000000
     0.22867521    -0.02793748     0.00000000
     0.00000000     0.00000000     0.00000000
     4.81148162    -0.48161690     0.17945100
     4.15044480    -0.62431354     0.24377681
     3.49583522    -0.69237885     0.27974992
     2.83595540    -0.71325211     0.29928778
     2.17527119    -0.68500673     0.30445524
     1.50864636    -0.57695189     0.29596674
     0.83915136    -0.39023429     0.27495958
     0.37346584    -0.12456957     0.21299317
     0.00000000     0.00000000     0.00000000
     4.80284049    -0.40949153     0.19837779
     4.08753142    -0.53877724     0.27337095
     3.39050075    -0.59389636     0.31368784
     2.69347248    -0.60823575     0.33661474
     1.99139587    -0.57604672     0.34328584
     1.29349690    -0.47420135     0.33113834
     0.62395741    -0.29817446     0.28511605
     0.23708534    -0.05336665     0.19275814
     0.04524504     0.03517950    -0.02671549
     4.79561253    -0.33773068     0.21211609
     4.05203459    -0.44840286     0.29699529
     3.31533931    -0.49000874     0.34193135
     2.58662032    -0.49545463     0.36514222
     1.86758113    -0.46157122     0.36902434
     1.17651404    -0.36989185     0.34752545
     0.55621413    -0.21271129     0.29106831
     0.21271678    -0.02716303     0.19414968
     0.05197142     0.02609383    -0.03546077
     4.78954878    -0.26626453     0.22071775
     4.02653144    -0.35000771     0.31368275
     3.26405097    -0.37893516     0.36076417
     2.51580596    -0.37922515     0.38412464
     1.79134131    -0.34945105     0.38516970
     1.11513426    -0.27655599     0.35934592
     0.53193448    -0.15684103     0.29949128
     0.20183509    -0.02693996     0.19537001
     0.05332566     0.01225502    -0.04024308
     4.78395198    -0.19442732     0.22457328
     4.00809604    -0.24647121     0.32225803
     3.23042867    -0.26273884     0.37032023
     2.47119092    -0.26134137     0.39351194
     1.74539548    -0.24139387     0.39285406
     1.08056795    -0.19563389     0.36501693
     0.52174126    -0.12247196     0.30328969
     0.18892411    -0.03882020     0.19779195
     0.03376028     0.00480403    -0.03616106
     4.77886330    -0.12329527     0.22376782
     3.99652876    -0.13998054     0.32208031
     3.21012482    -0.14340352     0.37037108
     2.44406892    -0.14219934     0.39302299
     1.71594328    -0.13563094     0.39096126
     1.05561637    -0.12143814     0.36073118
     0.51040051    -0.10274133     0.29744153
     0.18220469    -0.05079321     0.18186016
     0.00000000     0.00000000     0.00000000
     4.77592037    -0.05233534     0.22343914
     3.99146982    -0.03227445     0.32332511
     3.20291365    -0.02231267     0.37172388
     2.43333108    -0.02124036     0.39418392
     1.70070153    -0.02834330     0.39093566
     1.03664818    -0.04673141     0.35761385
     0.49301568    -0.08406767     0.28655556
     0.20771502    -0.07028292     0.17003898
     0.06951881    -0.01801204    -0.03172130
     4.77387000     0.01939679     0.21867405
     3.99427272     0.07473276     0.31550500
     3.21160990     0.09885966     0.36328498
     2.44455581     0.10166972     0.38547962
     1.70802039     0.08349300     0.38227369
     1.03403715     0.03492025     0.34800627
     0.48028061    -0.05685925     0.27212971
     0.22770437    -0.09438456     0.15862474
     0.12487117    -0.02887517    -0.03956487
     4.77155447     0.09086225     0.20984828
     4.00413598     0.17842901     0.29887612
     3.24021229     0.21753465     0.34479089
     2.48569775     0.22563164     0.36732568
     1.74744835     0.20161669     0.36697987
     1.05328680     0.12938473     0.33595940
     0.46276169    -0.00911896     0.26060809
     0.22184563    -0.11030234     0.15441633
     0.13448733    -0.04883802    -0.03715844
     4.76833332     0.16278387     0.19702441
     4.02296785     0.27505374     0.27410995
     3.29559194     0.33127029     0.31581600
     2.56837723     0.34879758     0.33933598
     1.83987786     0.32578777     0.34436681
     1.12248792     0.24031330     0.32646027
     0.46181389     0.07602854     0.25631524
     0.19380675    -0.10108195     0.15370060
     0.08784626    -0.05183501    -0.02510261
     4.76407192     0.23513356     0.17877970
     4.07114394     0.36859789     0.24365809
     3.38276716     0.44030399     0.28114658
     2.69465296     0.46585988     0.30144656
     2.00584357     0.44761965     0.30666341
     1.31072816     0.35819899     0.29731265
     0.60491942     0.19010712     0.26412247
     0.23893748    -0.02457291     0.17510069
     0.00000000     0.00000000     0.00000000
     4.81104770    -0.46789564     0.35463352
     4.15172058    -0.60485319     0.48073992
     3.49871629    -0.67034200     0.55196093
     2.84181772    -0.68955813     0.59026972
     2.18467590    -0.66138394     0.60038496
     1.52221645    -0.55682561     0.58213516
     0.86451291    -0.37584888     0.53737011
     0.40587123    -0.12099335     0.40903279
     0.00000000     0.00000000     0.00000000
     4.80383628    -0.40058246     0.39395259
     4.09738640    -0.52261971     0.54073389
     3.41022105    -0.57674668     0.62045311
     2.72364281    -0.58956502     0.66506735
     2.03365271    -0.55836467     0.67766695
     1.34773585    -0.46061102     0.65323288
     0.68430743    -0.29726879     0.56286473
     0.27242214    -0.06411066     0.39151619
     0.03913142     0.03013478    -0.04462807
     4.79811593    -0.33217879     0.42338441
     4.06649748    -0.43591536     0.58923011
     3.34463318    -0.47669390     0.67684934
     2.63173842    -0.48192735     0.72276591
     1.92685986    -0.45034271     0.73100824
     1.24336228    -0.36420515     0.69050948
     0.61740866    -0.21723989     0.58108618
     0.24554806    -0.03734588     0.39976024
     0.04051171     0.02216117    -0.05965353
     4.79240851    -0.26213305     0.44388550
     4.04270685    -0.34112750     0.62342993
     3.29803259    -0.36933921     0.71512499
     2.56729063    -0.36999864     0.76191728
     1.85637408    -0.34285013     0.76521027
     1.18481434    -0.27437603     0.71633904
     0.59252619    -0.16029722     0.60112004
     0.23112163    -0.03244263     0.40577298
     0.03690160     0.01113199    -0.06777353
     4.78530926    -0.19280434     0.45547845
     4.02508400    -0.24078612     0.64105598
     3.26578660    -0.25660410     0.73536007
     2.52415257    -0.25561253     0.78199462
     1.81120384    -0.23766687     0.78211032
     1.14998345    -0.19430161     0.72876916
     0.58261721    -0.12245603     0.60979767
     0.22036146    -0.03970128     0.41130915
     0.01877416     0.00579961    -0.06070932
     4.78008886    -0.12301827     0.45444065
     4.01272424    -0.13777202     0.64228450
     3.24505849    -0.14052821     0.73674332
     2.49601031    -0.13947153     0.78271618
     1.77920053    -0.13383515     0.78031345
     1.11994689    -0.11942205     0.72235211
     0.56334129    -0.09858420     0.59957911
     0.21245504    -0.05116973     0.37537752
     0.00000000     0.00000000     0.00000000
     4.77659555    -0.05326127     0.45467677
     4.00809760    -0.03372330     0.64312902
     3.23812810    -0.02271422     0.73813260
     2.48536760    -0.02140563     0.78382200
     1.76244712    -0.02788861     0.77973251
     1.09521668    -0.04302349     0.71722035
     0.53159246    -0.07324268     0.58158180
     0.21536582    -0.06232738     0.36146623
     0.04879926    -0.00781492    -0.05714096
     4.77574248     0.01586842     0.44236906
     4.00993874     0.06954999     0.62705498
     3.24545328     0.09442969     0.72020260
     2.49463052     0.09796772     0.76538142
     1.76711019     0.08203671     0.76166792
     1.08766856     0.04024820     0.69796000
     0.51004062    -0.03887373     0.55345145
     0.22131257    -0.07781662     0.34084198
     0.09427716    -0.01689603    -0.07014509
     4.77336260     0.08596280     0.42163508
     4.01865636     0.16884010     0.59317089
     3.26982882     0.20837590     0.68263931
     2.53052177     0.21687310     0.72788707
     1.80269428     0.19603581     0.72908996
     1.10665640     0.13283234     0.67180268
     0.49596456     0.01210980     0.52758250
     0.21972071    -0.08916821     0.32932641
     0.10782889    -0.03931931    -0.06554732
     4.76946552     0.15448768     0.39258235
     4.03405335     0.26117918     0.54266597
     3.31673803     0.31682715     0.62483139
     2.60041456     0.33327732     0.67063192
     1.88425372     0.31223354     0.68034197
     1.17610095     0.23417439     0.64584709
     0.51188639     0.08843718     0.51362565
     0.20599147    -0.08029245     0.32629755
     0.07277353    -0.04715130    -0.04302786
     4.76525058     0.22183297     0.35397851
     4.07410075     0.35019985     0.48042958
     3.38803074     0.41919280     0.55486625
     2.70332041     0.44333954     0.59465986
     2.01809529     0.42505302     0.60506097
     1.32975130     0.33997856     0.58553831
     0.63966386     0.17801658     0.51521391
     0.27347815    -0.02115988     0.33928245
     0.00000000     0.00000000     0.00000000
     4.81036981    -0.44570248     0.52057740
     4.15318903    -0.57370529     0.70546192
     3.50329442    -0.63435017     0.80994538
     2.85094916    -0.65094191     0.86554571
     2.19951556    -0.62341464     0.87978375
     1.54644893    -0.52463388     0.85118079
     0.90502087    -0.35261035     0.77244107
     0.45242204    -0.11316306     0.57941132
     0.00000000     0.00000000     0.00000000
     4.80611028    -0.38465703     0.58128963
     4.11151732    -0.49664643     0.79620079
     3.43930481    -0.54680551     0.91343419
     2.76872940    -0.55795939     0.97787839
     2.09636903    -0.52848990     0.99440934
     1.43112993    -0.43916776     0.95657347
     0.78143027    -0.28777460     0.82558557
     0.33659981    -0.07404670     0.59621312
     0.03558446     0.02213052    -0.05201837
     4.80201543    -0.32028992     0.62902957
     4.08585410    -0.41461886     0.86995178
     3.38924412    -0.45226240     0.99778240
     2.70162657    -0.45753606     1.06571772
     2.01902581    -0.42927608     1.07818079
     1.35232458    -0.35297298     1.02178411
     0.72426996    -0.21875663     0.86651704
     0.31275010    -0.04923832     0.61971660
     0.03470329     0.01601605    -0.07047758
     4.79454595    -0.25580249     0.66479272
     4.06609035    -0.32509869     0.92177821
     3.35171878    -0.35108922     1.05678737
     2.65030181    -0.35251122     1.12691024
     1.96257737    -0.32866220     1.13378745
     1.30412392    -0.26901720     1.06590010
     0.70430211    -0.16354222     0.90276735
     0.30026520    -0.03982976     0.63537805
     0.02779814     0.00654011    -0.08071872
     4.78798054    -0.18996160     0.68305328
     4.04998475    -0.23085696     0.95051377
     3.32353311    -0.24471108     1.08937137
     2.61260953    -0.24433934     1.16023654
     1.92191376    -0.22894501     1.16283270
     1.27281571    -0.19121330     1.08779318
     0.69644501    -0.12280245     0.91773646
     0.29521196    -0.04206555     0.64403786
     0.01329715     0.00282297    -0.07413454
     4.78254524    -0.12277566     0.68483677
     4.03798212    -0.13415284     0.95498739
     3.30373426    -0.13514980     1.09468062
     2.58531777    -0.13414822     1.16521348
     1.88933890    -0.12939466     1.16492946
     1.23823480    -0.11680442     1.08391632
     0.66577973    -0.09177277     0.90814235
     0.27681395    -0.04954827     0.58923036
     0.00000000     0.00000000     0.00000000
     4.77873066    -0.05557214     0.68248382
     4.03281040    -0.03659227     0.95316885
     3.29691417    -0.02418898     1.09332913
     2.57487488    -0.02192197     1.16373981
     1.87157202    -0.02741051     1.16223711
     1.20800006    -0.03918757     1.07754640
     0.61899588    -0.05749067     0.88776386
     0.25631998    -0.05007053     0.58560570
     0.02902511     0.00428135    -0.07258016
     4.77670160     0.01035027     0.66376796
     4.03287799     0.05952903     0.92649055
     3.30059924     0.08551162     1.06406954
     2.58003466     0.09053217     1.13339365
     1.87129535     0.07771214     1.13288877
     1.19342157     0.04458701     1.04829529
     0.58366601    -0.01454751     0.84773375
     0.24169289    -0.05401914     0.56052347
     0.05766810     0.00130050    -0.08467110
     4.77624277     0.07496754     0.62760653
     4.03736041     0.15180263     0.87528158
     3.31573679     0.19084801     1.00632882
     2.60263822     0.20088796     1.07435745
     1.89450774     0.18406927     1.07930464
     1.20387446     0.13393411     1.00361331
     0.56567106     0.03876069     0.80262186
     0.23528662    -0.05493449     0.53632565
     0.07352601    -0.02261391    -0.07826392
     4.77198505     0.13939666     0.58018231
     4.04924983     0.23800396     0.79893452
     3.34762940     0.29112976     0.92024779
     2.64826035     0.30714349     0.98651062
     1.94956974     0.28901867     0.99957828
     1.25931777     0.22305322     0.95004950
     0.59631341     0.10145194     0.76843478
     0.24026258    -0.05163782     0.52523229
     0.05753472    -0.03659896    -0.05176793
     4.76720260     0.20014357     0.52013095
     4.07871045     0.32016309     0.70573394
     3.39621635     0.38480633     0.81422262
     2.71666145     0.40678409     0.87220988
     2.03884822     0.38900597     0.88683439
     1.36239198     0.31038370     0.85686938
     0.69222221     0.15982602     0.74046990
     0.31881557    -0.01846938     0.49545199
     0.00000000     0.00000000     0.00000000
     4.81057049    -0.41506196     0.67223192
     4.15454977    -0.53164087     0.91267419
     3.50888864    -0.58553696     1.04685606
     2.86226257    -0.59897065     1.11831793
     2.21896688    -0.57248160     1.13543647
     1.57741713    -0.48146862     1.09408677
     0.95452630    -0.32184790     0.97232770
     0.50733189    -0.10630258     0.72631644
     0.00000000     0.00000000     0.00000000
     4.80896911    -0.36133353     0.75854775
     4.12932458    -0.46138670     1.03514470
     3.47638601    -0.50557690     1.18669210
     2.82383621    -0.51454212     1.26845611
     2.17313829    -0.48968347     1.28702268
     1.53018810    -0.40464311     1.23275256
     0.91292356    -0.27792047     1.06419692
     0.43331437    -0.08737435     0.79883856
     0.03095309     0.01719662    -0.04456931
     4.80344206    -0.30588840     0.82983704
     4.11260604    -0.38513364     1.13348486
     3.44907918    -0.41818996     1.29980126
     2.79067479    -0.42304080     1.38786501
     2.13753135    -0.40108834     1.40350327
     1.49431564    -0.32735930     1.33231283
     0.88559613    -0.22615381     1.13615655
     0.41602187    -0.06880148     0.85422869
     0.03414267     0.01599834    -0.06483887
     4.79785870    -0.24735044     0.88004271
     4.09844345    -0.30318002     1.20480993
     3.42585623    -0.32511159     1.38041374
     2.76187468    -0.32649903     1.47366659
     2.10557864    -0.30932957     1.48420957
     1.46855555    -0.25058160     1.39980770
     0.88097032    -0.17338828     1.19308136
     0.41015693    -0.05502782     0.88669333
     0.02958732     0.00650557    -0.07555172
     4.79284571    -0.18559771     0.90875156
     4.08645534    -0.21749211     1.24635311
     3.40662596    -0.22749670     1.42802049
     2.73653178    -0.22704430     1.52298938
     2.07845940    -0.21538174     1.53049462
     1.44500944    -0.17881160     1.43467077
     0.88312490    -0.12775589     1.21612192
     0.41782711    -0.04589333     0.89889889
     0.01897599    -0.00720217    -0.07562390
     4.78780536    -0.12280816     0.91483569
     4.07638388    -0.12885405     1.25719492
     3.39052905    -0.12788439     1.44043167
     2.71499498    -0.12498305     1.53621637
     2.05151652    -0.12119410     1.54120311
     1.41394070    -0.10780519     1.43940554
     0.84696029    -0.09003808     1.21646475
     0.38978331    -0.04362883     0.83129508
     0.00000000     0.00000000     0.00000000
     4.78359907    -0.05984494     0.90849341
     4.07011640    -0.04002100     1.24926065
     3.38248564    -0.02689298     1.43237431
     2.70405782    -0.02218001     1.52825751
     2.03408921    -0.02423959     1.53285286
     1.38355279    -0.03392762     1.43015557
     0.79449042    -0.04632708     1.19573218
     0.34725124    -0.02968336     0.85402656
     0.01647229     0.02340776    -0.07052623
     4.77992179     0.00197303     0.87959044
     4.06625850     0.04696885     1.20938294
     3.37931401     0.07213903     1.38912934
     2.69898537     0.07998210     1.48219645
     2.02577220     0.07309783     1.48884763
     1.36061005     0.04371073     1.38966194
     0.74781597     0.00695282     1.14621781
     0.30148701    -0.01763432     0.83610038
     0.03182382     0.00975418    -0.07730276
     4.77768020     0.06090957     0.82895164
     4.06538694     0.12994223     1.13958754
     3.37999769     0.16752504     1.30978703
     2.70080738     0.17819334     1.39973904
     2.02499202     0.16852548     1.40932738
     1.35460609     0.12151298     1.32188760
     0.71760038     0.06376964     1.07867982
     0.28283192    -0.00888934     0.78517510
     0.04065315    -0.01279534    -0.06880909
     4.77589877     0.11688005     0.75738850
     4.06823438     0.20736439     1.03839553
     3.38712043     0.25634364     1.19539302
     2.70726302     0.27126956     1.27940153
     2.03283209     0.25901628     1.29447262
     1.36254151     0.19757629     1.22969684
     0.72337669     0.11426544     1.00576753
     0.29024984    -0.00125332     0.74531126
     0.04145070    -0.02720902    -0.04640136
     4.77048798     0.17046078     0.67189082
     4.08409604     0.27984521     0.91375789
     3.40642973     0.33849396     1.05301865
     2.73354922     0.35795540     1.12768771
     2.06479697     0.34118131     1.14652967
     1.40134810     0.27105646     1.10183149
     0.75405379     0.13799058     0.94645171
     0.37768913    -0.00679784     0.64838337
     0.00000000     0.00000000     0.00000000
     4.81119307    -0.37672088     0.80730063
     4.15565388    -0.48003706     1.09731707
     3.51427720    -0.52539375     1.25688235
     2.87445141    -0.53580732     1.34151693
     2.23886792    -0.51009135     1.36142185
     1.61165395    -0.42864584     1.30250171
     1.00598426    -0.28622770     1.14060858
     0.56327402    -0.09976799     0.85023629
     0.00000000     0.00000000     0.00000000
     4.80837914    -0.33492209     0.92556109
     4.15634737    -0.41922200     1.25407547
     3.51920647    -0.45598384     1.43626773
     2.88423755    -0.46294658     1.53150199
     2.25706988    -0.43855029     1.55119362
     1.63988681    -0.36822312     1.47669166
     1.04769525    -0.24646027     1.27360120
     0.61649888    -0.09176440     0.95747367
     0.00000000     0.00000000     0.00000000
     4.80567393    -0.28774649     1.02031981
     4.15604644    -0.35110482     1.38105792
     3.52113883    -0.37890628     1.57955331
     2.89230455    -0.38229830     1.68537176
     2.26891252    -0.35964615     1.70078256
     1.66348318    -0.30325299     1.61381751
     1.07578998    -0.20196882     1.37737150
     0.66113101    -0.08377786     1.03034376
     0.00000000     0.00000000     0.00000000
     4.80359283    -0.23507113     1.08967512
     4.15324600    -0.27836969     1.47345202
     3.52127954    -0.29535685     1.68576862
     2.89390098    -0.29644084     1.79682484
     2.27684298    -0.27598912     1.81059025
     1.67208588    -0.23424751     1.70986617
     1.09935317    -0.15668441     1.44992042
     0.68878775    -0.06937245     1.07396080
     0.00000000     0.00000000     0.00000000
     4.80067014    -0.18003375     1.13165616
     4.14915427    -0.20096722     1.53093301
     3.51661036    -0.20926092     1.75049082
     2.89162740    -0.20542943     1.86731415
     2.27379050    -0.19197017     1.87522379
     1.67398949    -0.16093112     1.77111767
     1.09020304    -0.11073786     1.48249977
     0.70578539    -0.05235424     1.08217362
     0.00000000     0.00000000     0.00000000
     4.79672483    -0.12263896     1.14600404
     4.14265801    -0.12322873     1.55075447
     3.50853676    -0.11934793     1.77417101
     2.88208343    -0.11515699     1.89216695
     2.26381926    -0.10421966     1.89982570
     1.66127946    -0.09180440     1.78826190
     1.07984143    -0.05984583     1.49941956
     0.66737401    -0.03163723     1.01655177
     0.00000000     0.00000000     0.00000000
     4.79198301    -0.06623429     1.13208878
     4.13390320    -0.04397063     1.53285484
     3.49653702    -0.03169443     1.75527162
     2.86601948    -0.02234685     1.87199824
     2.24579573    -0.02142836     1.88054882
     1.63898344    -0.01876084     1.76955507
     1.04869478    -0.02154752     1.47153597
     0.65374315    -0.00357715     1.06244350
     0.00000000     0.00000000     0.00000000
     4.78659639    -0.01039804     1.08973436
     4.12399607     0.03198289     1.47813164
     3.47945710     0.05561476     1.69291991
     2.84592905     0.06573037     1.80826391
     2.21588747     0.06229399     1.81554611
     1.60828127     0.04697472     1.71457536
     1.00014778     0.01831090     1.40918602
     0.62348597     0.00609105     1.05064292
     0.00000000     0.00000000     0.00000000
     4.78152756     0.04213808     1.02054962
     4.11230668     0.10486383     1.38574705
     3.46082598     0.13773276     1.59019720
     2.81646167     0.15060492     1.69779685
     2.18208630     0.14099319     1.71082708
     1.56045854     0.11061649     1.61520028
     0.94874793     0.05184189     1.33038717
     0.56398983     0.01204817     0.98513084
     0.00000000     0.00000000     0.00000000
     4.77807921     0.09012516     0.92491873
     4.10096733     0.17243242     1.25948498
     3.43850962     0.21424908     1.44631355
     2.78520826     0.22897379     1.54534397
     2.13660198     0.21413793     1.56215620
     1.50532680     0.16920180     1.47932400
     0.88124225     0.07881920     1.22962332
     0.50251969     0.00898511     0.89946189
     0.00000000     0.00000000     0.00000000
     4.77549796     0.13258035     0.80643185
     4.08908224     0.23463170     1.09402615
     3.41730960     0.28382149     1.26131447
     2.75057890     0.30075098     1.34951585
     2.08981944     0.28460003     1.36977581
     1.43961351     0.22409605     1.30822289
     0.80272857     0.11190884     1.10525351
     0.42433678     0.00034567     0.81112184
     0.00000000     0.00000000     0.00000000
     0.00000000     0.00000000     0.00000000
     0.00000000     0.00000000     0.00000000
     0.00000000     0.00000000     0.00000000
     0.00000000     0.00000000     0.00000000
     0.00000000     0.00000000     0.00000000
     0.00000000     0.00000000     0.00000000
     0.00000000     0.00000000     0.00000000
     0.00000000     0.00000000     0.00000000
     0.00000000     0.00000000     0.00000000
     0.00000000     0.00000000     0.00000000
     0.00000000     0.00000000     0.00000000
     0.04624372    -0.00796497     0.00000000
     0.06744468     0.01089106     0.00000000
     0.06724292     0.00053942     0.00000000
     0.06091843     0.00145455     0.00000000
     0.05306118     0.00130983     0.00000000
     0.04454516     0.00032509     0.00000000
     0.03589647    -0.00124982     0.00000000
     0.02728125    -0.00311833     0.00000000
     0.01877291    -0.00496228     0.00000000
     0.01039949    -0.00662898     0.00000000
     0.00000000     0.00000000     0.00000000
     0.13699983    -0.01779622     0.00000000
     0.13929133     0.01069536     0.00000000
     0.13222475     0.01430728     0.00000000
     0.11514689     0.01669452     0.00000000
     0.09603775     0.01611098     0.00000000
     0.07735047     0.01326859     0.00000000
     0.05944524     0.00959362     0.00000000
     0.04237749     0.00560085     0.00000000
     0.02625365     0.00153114     0.00000000
     0.01144746    -0.00138608     0.00000000
     0.00000000     0.00000000     0.00000000
     0.16912924    -0.03530014     0.00000000
     0.15670244    -0.00003724     0.00000000
     0.13852211     0.02633462     0.00000000
     0.11641022     0.03202897     0.00000000
     0.09545344     0.03009002     0.00000000
     0.07572638     0.02630726     0.00000000
     0.05730246     0.02182079     0.00000000
     0.03997161     0.01720299     0.00000000
     0.02368556     0.01270421     0.00000000
     0.00925156     0.00755521     0.00000000
     0.00000000     0.00000000     0.00000000
     0.08680766    -0.02165304     0.00000000
     0.09494215    -0.01071792     0.00000000
     0.06854436     0.02385751     0.00000000
     0.05559794     0.02418232     0.00000000
     0.04524685     0.02315526     0.00000000
     0.03633897     0.02098473     0.00000000
     0.02812263     0.01867501     0.00000000
     0.02025598     0.01635342     0.00000000
     0.01264328     0.01390306     0.00000000
     0.00520351     0.01123842     0.00000000
     0.00000000     0.00000000     0.00000000
     0.00000000     0.00000000     0.00000000
     0.00000000     0.00000000     0.00000000
     0.00000000     0.00000000     0.00000000
     0.00000000     0.00000000     0.00000000
     0.00000000     0.00000000     0.00000000
     0.00000000     0.00000000     0.00000000
     0.00000000     0.00000000     0.00000000
     0.00000000     0.00000000     0.00000000
     0.00000000     0.00000000     0.00000000
     0.00000000     0.00000000     0.00000000
     0.00000000     0.00000000     0.00000000
     0.00000000     0.00000000     0.00000000
     0.00000000     0.00000000     0.00000000
     0.00000000     0.00000000     0.00000000
     0.00000000     0.00000000     0.00000000
     0.00000000     0.00000000     0.00000000
     0.00000000     0.00000000     0.00000000
     0.00000000     0.00000000     0.00000000
     0.00000000     0.00000000     0.00000000
     0.00000000     0.00000000     0.00000000
     0.00000000     0.00000000     0.00000000
     0.00000000     0.00000000     0.00000000
     0.04074667    -0.00824969     0.00069493
     0.06249166     0.00956341    -0.00255834
     0.06179803     0.00001938     0.00225066
     0.05602222     0.00108231     0.00336405
     0.04896175     0.00104102     0.00358400
     0.04127840     0.00021886     0.00355779
     0.03343101    -0.00118647     0.00345246
     0.02556526    -0.00288834     0.00331957
     0.01774997    -0.00459352     0.00309386
     0.00996983    -0.00622584     0.00252139
     0.00000000     0.00000000     0.00000000
     0.12579164    -0.01781564    -0.01052738
     0.13077084     0.00934756    -0.00463654
     0.12359548     0.01297430     0.00412652
     0.10741315     0.01534344     0.00766571
     0.08963380     0.01490772     0.00853291
     0.07238541     0.01234820     0.00828431
     0.05587293     0.00899398     0.00773620
     0.04007600     0.00530236     0.00707166
     0.02504690     0.00148915     0.00603658
     0.01105226    -0.00129576     0.00400233
     0.00000000     0.00000000     0.00000000
     0.15713770    -0.03403475    -0.01419301
     0.14791589    -0.00060677    -0.00439151
     0.12991820     0.02466405     0.00420504
     0.10877603     0.03003380     0.00832109
     0.08916884     0.02823474     0.00913206
     0.07090616     0.02474349     0.00870170
     0.05388909     0.02060459     0.00799569
     0.03782961     0.01632528     0.00722921
     0.02262470     0.01213643     0.00613950
     0.00895772     0.00727478     0.00407161
     0.00000000     0.00000000     0.00000000
     0.07793519    -0.01904217    -0.00382148
     0.08812285    -0.01042655    -0.00171694
     0.06260281     0.02206652     0.00451675
     0.05075528     0.02226170     0.00467895
     0.04144911     0.02145022     0.00413154
     0.03348125     0.01951618     0.00360042
     0.02609115     0.01744337     0.00324164
     0.01895016     0.01533640     0.00301153
     0.01197995     0.01309756     0.00278136
     0.00504409     0.01068529     0.00229068
     0.00000000     0.00000000     0.00000000
     0.00000000     0.00000000     0.00000000
     0.00000000     0.00000000     0.00000000
     0.00000000     0.00000000     0.00000000
     0.00000000     0.00000000     0.00000000
     0.00000000     0.00000000     0.00000000
     0.00000000     0.00000000     0.00000000
     0.00000000     0.00000000     0.00000000
     0.00000000     0.00000000     0.00000000
     0.00000000     0.00000000     0.00000000
     0.00000000     0.00000000     0.00000000
     0.00000000     0.00000000     0.00000000
     0.00000000     0.00000000     0.00000000
     0.00000000     0.00000000     0.00000000
     0.00000000     0.00000000     0.00000000
     0.00000000     0.00000000     0.00000000
     0.00000000     0.00000000     0.00000000
     0.00000000     0.00000000     0.00000000
     0.00000000     0.00000000     0.00000000
     0.00000000     0.00000000     0.00000000
     0.00000000     0.00000000     0.00000000
     0.00000000     0.00000000     0.00000000
     0.00000000     0.00000000     0.00000000
     0.02802043    -0.01010776     0.00392012
     0.05007518     0.00601689    -0.00307917
     0.04834258    -0.00126824     0.00390954
     0.04404247     0.00011075     0.00539441
     0.03901655     0.00043366     0.00567013
     0.03336641     0.00003705     0.00565270
     0.02746108    -0.00094897     0.00550781
     0.02144165    -0.00226402     0.00534231
     0.01529753    -0.00359196     0.00504490
     0.00897654    -0.00512486     0.00423022
     0.00000000     0.00000000     0.00000000
     0.09641982    -0.01777012    -0.01424190
     0.10756318     0.00531033    -0.00761017
     0.09979444     0.00926531     0.00740711
     0.08607320     0.01159382     0.01287441
     0.07201683     0.01164503     0.01396744
     0.05873043     0.00992350     0.01344722
     0.04602372     0.00742860     0.01256368
     0.03371640     0.00455445     0.01157960
     0.02168508     0.00145127     0.01004791
     0.00996459    -0.00095040     0.00684906
     0.00000000     0.00000000     0.00000000
     0.12512136    -0.02961517    -0.02198827
     0.12375055    -0.00167814    -0.00729385
     0.10609918     0.02006109     0.00788749
     0.08766569     0.02444058     0.01428394
     0.07190285     0.02299985     0.01511589
     0.05771746     0.02032830     0.01421239
     0.04455726     0.01713152     0.01303592
     0.03198031     0.01379353     0.01187331
     0.01973408     0.01045181     0.01024803
     0.00821242     0.00639506     0.00699020
     0.00000000     0.00000000     0.00000000
     0.05611513    -0.01243674    -0.00355488
     0.07094316    -0.00923883    -0.00232228
     0.04806631     0.01752143     0.00758966
     0.03899728     0.01764537     0.00749231
     0.03235520     0.01732359     0.00648389
     0.02671750     0.01595237     0.00563931
     0.02130524     0.01443308     0.00511401
     0.01591293     0.01286358     0.00480673
     0.01048260     0.01108703     0.00451099
     0.00476903     0.00927625     0.00383153
     0.00000000     0.00000000     0.00000000
     0.00000000     0.00000000     0.00000000
     0.00000000     0.00000000     0.00000000
     0.00000000     0.00000000     0.00000000
     0.00000000     0.00000000     0.00000000
     0.00000000     0.00000000     0.00000000
     0.00000000     0.00000000     0.00000000
     0.00000000     0.00000000     0.00000000
     0.00000000     0.00000000     0.00000000
     0.00000000     0.00000000     0.00000000
     0.00000000     0.00000000     0.00000000
     0.00000000     0.00000000     0.00000000
     0.00000000     0.00000000     0.00000000
     0.00000000     0.00000000     0.00000000
     0.00000000     0.00000000     0.00000000
     0.00000000     0.00000000     0.00000000
     0.00000000     0.00000000     0.00000000
     0.00000000     0.00000000     0.00000000
     0.00000000     0.00000000     0.00000000
     0.00000000     0.00000000     0.00000000
     0.00000000     0.00000000     0.00000000
     0.00000000     0.00000000     0.00000000
     0.00000000     0.00000000     0.00000000
     0.01067740    -0.01314313     0.01250753
     0.03273878     0.00069642    -0.00113229
     0.03010536    -0.00264284     0.00435957
     0.02824183    -0.00085725     0.00529390
     0.02575236    -0.00008123     0.00557909
     0.02263234    -0.00008343     0.00558909
     0.01918107    -0.00061216     0.00548563
     0.01553959    -0.00142047     0.00535544
     0.01178798    -0.00235149     0.00519153
     0.00743510    -0.00354490     0.00464273
     0.00000000     0.00000000     0.00000000
     0.05587003    -0.01799179    -0.00601046
     0.07311849    -0.00077831    -0.00719066
     0.06431819     0.00380244     0.00890103
     0.05495505     0.00616866     0.01338484
     0.04665741     0.00715592     0.01399765
     0.03911999     0.00647733     0.01335933
     0.03176999     0.00512552     0.01252933
     0.02437244     0.00338126     0.01170306
     0.01673414     0.00126325     0.01051866
     0.00825093    -0.00048685     0.00765833
     0.00000000     0.00000000     0.00000000
     0.07800582    -0.02198926    -0.01686060
     0.08662404    -0.00317331    -0.00706228
     0.06957761     0.01285164     0.01022050
     0.05612142     0.01594043     0.01535736
     0.04667975     0.01529332     0.01536368
     0.03858636     0.01385758     0.01423165
     0.03093084     0.01202920     0.01307406
     0.02330244     0.01003501     0.01205646
     0.01539706     0.00800803     0.01077768
     0.00699605     0.00503986     0.00785758
     0.00000000     0.00000000     0.00000000
     0.02937432    -0.00559061     0.00245186
     0.04779735    -0.00678207    -0.00162016
     0.02879475     0.01159757     0.00844854
     0.02361894     0.01162061     0.00737057
     0.02059131     0.01173766     0.00620050
     0.01777410     0.01107500     0.00544269
     0.01479029     0.01024516     0.00499802
     0.01160449     0.00932768     0.00475972
     0.00827588     0.00833705     0.00460682
     0.00428807     0.00717233     0.00419322
     0.00000000     0.00000000     0.00000000
     0.00000000     0.00000000     0.00000000
     0.00000000     0.00000000     0.00000000
     0.00000000     0.00000000     0.00000000
     0.00000000     0.00000000     0.00000000
     0.00000000     0.00000000     0.00000000
     0.00000000     0.00000000     0.00000000
     0.00000000     0.00000000     0.00000000
     0.00000000     0.00000000     0.00000000
     0.00000000     0.00000000     0.00000000
     0.00000000     0.00000000     0.00000000
     0.00000000     0.00000000     0.00000000
     0.00000000     0.00000000     0.00000000
     0.00000000     0.00000000     0.00000000
     0.00000000     0.00000000     0.00000000
     0.00000000     0.00000000     0.00000000
     0.00000000     0.00000000     0.00000000
     0.00000000     0.00000000     0.00000000
     0.00000000     0.00000000     0.00000000
     0.00000000     0.00000000     0.00000000
     0.00000000     0.00000000     0.00000000
     0.00000000     0.00000000     0.00000000
     0.00000000     0.00000000     0.00000000
    -0.01283431    -0.02347517     0.03103364
     0.01028986    -0.00220994     0.00178700
     0.01090747    -0.00215245     0.00254309
     0.01162559    -0.00051411     0.00334620
     0.01152055    -0.00005811     0.00344045
     0.01076289    -0.00000941     0.00347733
     0.00966581    -0.00021009     0.00341867
     0.00838467    -0.00054267     0.00337856
     0.00700656    -0.00077775     0.00325095
     0.00576174    -0.00177488     0.00341135
     0.00000000     0.00000000     0.00000000
     0.00488223    -0.01479492     0.02112776
     0.02953703    -0.00644298    -0.00297483
     0.02303051    -0.00092122     0.00639610
     0.02068711     0.00168460     0.00797430
     0.01916295     0.00277376     0.00820101
     0.01758325     0.00281968     0.00784985
     0.01556451     0.00247461     0.00747937
     0.01315670     0.00190622     0.00716141
     0.01036051     0.00102562     0.00663014
     0.00651150     0.00002367     0.00588045
     0.00000000     0.00000000     0.00000000
     0.01243335    -0.00712672     0.01354968
     0.03686618    -0.00610333    -0.00255939
     0.02437321     0.00342899     0.00811489
     0.02020156     0.00600624     0.00927902
     0.01876500     0.00645103     0.00900961
     0.01719181     0.00645412     0.00837303
     0.01516329     0.00604532     0.00782352
     0.01269324     0.00540685     0.00740630
     0.00972988     0.00473187     0.00682410
     0.00578767     0.00353150     0.00606423
     0.00000000     0.00000000     0.00000000
    -0.00577327     0.00617200     0.01890578
     0.01991780    -0.00604058     0.00079377
     0.00731143     0.00418521     0.00587736
     0.00821662     0.00426839     0.00413838
     0.00840801     0.00528800     0.00361351
     0.00812845     0.00538465     0.00320754
     0.00736114     0.00526572     0.00301431
     0.00631593     0.00500626     0.00293726
     0.00519620     0.00453946     0.00283351
     0.00379608     0.00476825     0.00305086
     0.00000000     0.00000000     0.00000000
     0.00000000     0.00000000     0.00000000
     0.00000000     0.00000000     0.00000000
     0.00000000     0.00000000     0.00000000
     0.00000000     0.00000000     0.00000000
     0.00000000     0.00000000     0.00000000
     0.00000000     0.00000000     0.00000000
     0.00000000     0.00000000     0.00000000
     0.00000000     0.00000000     0.00000000
     0.00000000     0.00000000     0.00000000
     0.00000000     0.00000000     0.00000000
     0.00000000     0.00000000     0.00000000
     0.00000000     0.00000000     0.00000000
     0.00000000     0.00000000     0.00000000
     0.00000000     0.00000000     0.00000000
     0.00000000     0.00000000     0.00000000
     0.00000000     0.00000000     0.00000000
     0.00000000     0.00000000     0.00000000
     0.00000000     0.00000000     0.00000000
     0.00000000     0.00000000     0.00000000
     0.00000000     0.00000000     0.00000000
     0.00000000     0.00000000     0.00000000
     0.00000000     0.00000000     0.00000000
     0.00000000     0.00000000     0.00000000
     0.00000000     0.00000000     0.00000000
     0.00000000     0.00000000     0.00000000
     0.00000000     0.00000000     0.00000000
     0.00000000     0.00000000     0.00000000
     0.00000000     0.00000000     0.00000000
     0.00000000     0.00000000     0.00000000
     0.00000000     0.00000000     0.00000000
     0.00000000     0.00000000     0.00000000
     0.00000000     0.00000000     0.00000000
     0.00000000     0.00000000     0.00000000
     0.00000000     0.00000000     0.00000000
     0.00000000     0.00000000     0.00000000
     0.00000000     0.00000000     0.00000000
     0.00000000     0.00000000     0.00000000
     0.00000000     0.00000000     0.00000000
     0.00000000     0.00000000     0.00000000
     0.00000000     0.00000000     0.00000000
     0.00000000     0.00000000     0.00000000
     0.00000000     0.00000000     0.00000000
     0.00000000     0.00000000     0.00000000
     0.00000000     0.00000000     0.00000000
     0.00000000     0.00000000     0.00000000
     0.00000000     0.00000000     0.00000000
     0.00000000     0.00000000     0.00000000
     0.00000000     0.00000000     0.00000000
     0.00000000     0.00000000     0.00000000
     0.00000000     0.00000000     0.00000000
     0.00000000     0.00000000     0.00000000
     0.00000000     0.00000000     0.00000000
     0.00000000     0.00000000     0.00000000
     0.00000000     0.00000000     0.00000000
     0.00000000     0.00000000     0.00000000
     0.00000000     0.00000000     0.00000000
     0.00000000     0.00000000     0.00000000
     0.00000000     0.00000000     0.00000000
     0.00000000     0.00000000     0.00000000
     0.00000000     0.00000000     0.00000000
     0.00000000     0.00000000     0.00000000
     0.00000000     0.00000000     0.00000000
     0.00000000     0.00000000     0.00000000
     0.00000000     0.00000000     0.00000000
     0.00000000     0.00000000     0.00000000
     0.00000000     0.00000000     0.00000000
     0.00000000     0.00000000     0.00000000
     0.00000000     0.00000000     0.00000000
     0.00000000     0.00000000     0.00000000
     0.00000000     0.00000000     0.00000000
     0.00000000     0.00000000     0.00000000
     0.00000000     0.00000000     0.00000000
     0.00000000     0.00000000     0.00000000
     0.00000000     0.00000000     0.00000000
     0.00000000     0.00000000     0.00000000
     0.00000000     0.00000000     0.00000000
     0.00000000     0.00000000     0.00000000
     0.00000000     0.00000000     0.00000000
     0.00000000     0.00000000     0.00000000
     0.00000000     0.00000000     0.00000000
     0.00000000     0.00000000     0.00000000
     0.00000000     0.00000000     0.00000000
     0.00000000     0.00000000     0.00000000
     0.00000000     0.00000000     0.00000000
     0.00000000     0.00000000     0.00000000
     0.08360422    -0.01593905     0.00000000
     0.07563976    -0.01521864     0.00000000
     0.05866706    -0.01206140     0.00000000
     0.04355847    -0.00832358     0.00000000
     0.03165790    -0.00524458     0.00000000
     0.02213553    -0.00270536     0.00000000
     0.01407498    -0.00058494     0.00000000
     0.00704313     0.00156679     0.00000000
     0.00000000     0.00000000     0.00000000
     0.10669219    -0.01292378     0.00000000
     0.09790937    -0.02429600     0.00000000
     0.07819696    -0.02197746     0.00000000
     0.05925421    -0.01677251     0.00000000
     0.04321569    -0.01185486     0.00000000
     0.02970980    -0.00767944     0.00000000
     0.01793757    -0.00406464     0.00000000
     0.00754334    -0.00103225     0.00000000
     0.00000000     0.00000000     0.00000000
     0.09824188    -0.00769577     0.00000000
     0.08489454    -0.02602120     0.00000000
     0.06724604    -0.02457566     0.00000000
     0.05124760    -0.01973697     0.00000000
     0.03780202    -0.01500374     0.00000000
     0.02620149    -0.01094087     0.00000000
     0.01573028    -0.00749997     0.00000000
     0.00629107    -0.00425666     0.00000000
     0.00000000     0.00000000     0.00000000
     0.05523155    -0.00792495     0.00000000
     0.04209282    -0.01641506     0.00000000
     0.03326797    -0.01553251     0.00000000
     0.02651716    -0.01318185     0.00000000
     0.02071064    -0.01083485     0.00000000
     0.01522146    -0.00876054     0.00000000
     0.00983756    -0.00684212     0.00000000
     0.00442200    -0.00526103     0.00000000
     0.00000000     0.00000000     0.00000000
     0.00000000     0.00000000     0.00000000
     0.00000000     0.00000000     0.00000000
     0.00000000     0.00000000     0.00000000
     0.00000000     0.00000000     0.00000000
     0.00000000     0.00000000     0.00000000
     0.00000000     0.00000000     0.00000000
     0.00000000     0.00000000     0.00000000
     0.00000000     0.00000000     0.00000000
     0.00000000     0.00000000     0.00000000
     0.00000000     0.00000000     0.00000000
     0.00000000     0.00000000     0.00000000
     0.00000000     0.00000000     0.00000000
     0.00000000     0.00000000     0.00000000
     0.00000000     0.00000000     0.00000000
     0.00000000     0.00000000     0.00000000
     0.00000000     0.00000000     0.00000000
     0.00000000     0.00000000     0.00000000
     0.00000000     0.00000000     0.00000000
     0.07286198    -0.01430844    -0.00358888
     0.06456610    -0.01298539     0.00543548
     0.05098311    -0.01088657     0.00577824
     0.03876988    -0.00766344     0.00421472
     0.02876170    -0.00495463     0.00292671
     0.02042852    -0.00261598     0.00214744
     0.01317553    -0.00064582     0.00170855
     0.00670948     0.00140128     0.00134896
     0.00000000     0.00000000     0.00000000
     0.09481907    -0.01178352    -0.00733997
     0.08552450    -0.02154259     0.00468741
     0.06892195    -0.01963364     0.00682561
     0.05308245    -0.01523054     0.00573162
     0.03940305    -0.01094713     0.00432763
     0.02752450    -0.00720461     0.00333048
     0.01687509    -0.00388266     0.00264554
     0.00721668    -0.00103348     0.00177346
     0.00000000     0.00000000     0.00000000
     0.08742111    -0.00750948    -0.00900926
     0.07398198    -0.02312167     0.00418956
     0.05929908    -0.02181820     0.00616038
     0.04599956    -0.01778297     0.00498199
     0.03455383    -0.01374140     0.00374883
     0.02433127    -0.01017444     0.00293170
     0.01483186    -0.00707429     0.00238518
     0.00604150    -0.00406224     0.00162515
     0.00000000     0.00000000     0.00000000
     0.04829487    -0.00832938    -0.00263183
     0.03610404    -0.01422157     0.00289272
     0.02925782    -0.01365417     0.00286065
     0.02390805    -0.01180747     0.00211806
     0.01901981    -0.00986681     0.00162586
     0.01415681    -0.00808659     0.00136491
     0.00927743    -0.00637935     0.00123030
     0.00426555    -0.00495933     0.00108387
     0.00000000     0.00000000     0.00000000
     0.00000000     0.00000000     0.00000000
     0.00000000     0.00000000     0.00000000
     0.00000000     0.00000000     0.00000000
     0.00000000     0.00000000     0.00000000
     0.00000000     0.00000000     0.00000000
     0.00000000     0.00000000     0.00000000
     0.00000000     0.00000000     0.00000000
     0.00000000     0.00000000     0.00000000
     0.00000000     0.00000000     0.00000000
     0.00000000     0.00000000     0.00000000
     0.00000000     0.00000000     0.00000000
     0.00000000     0.00000000     0.00000000
     0.00000000     0.00000000     0.00000000
     0.00000000     0.00000000     0.00000000
     0.00000000     0.00000000     0.00000000
     0.00000000     0.00000000     0.00000000
     0.00000000     0.00000000     0.00000000
     0.00000000     0.00000000     0.00000000
     0.04898071    -0.01039234    -0.00121825
     0.04030170    -0.00822470     0.00768346
     0.03416952    -0.00817981     0.00813657
     0.02823497    -0.00627487     0.00608735
     0.02223537    -0.00430901     0.00439312
     0.01652960    -0.00244410     0.00332485
     0.01109974    -0.00082684     0.00273015
     0.00595806     0.00094565     0.00223814
     0.00000000     0.00000000     0.00000000
     0.06684137    -0.00954785    -0.00772767
     0.05643267    -0.01496483     0.00694881
     0.04687181    -0.01396309     0.01006319
     0.03825329    -0.01153579     0.00844047
     0.03003822    -0.00874052     0.00653028
     0.02204197    -0.00603158     0.00518052
     0.01414740    -0.00343806     0.00426761
     0.00637536    -0.00107467     0.00297980
     0.00000000     0.00000000     0.00000000
     0.06253380    -0.00783865    -0.01158809
     0.04894983    -0.01653866     0.00641455
     0.04072838    -0.01529745     0.00901558
     0.03360468    -0.01310687     0.00732535
     0.02669555    -0.01064973     0.00565594
     0.01971286    -0.00824432     0.00456924
     0.01257425    -0.00596255     0.00385755
     0.00543608    -0.00352620     0.00274001
     0.00000000     0.00000000     0.00000000
     0.03281352    -0.00941130    -0.00203356
     0.02348298    -0.00963545     0.00400265
     0.02071055    -0.00975909     0.00390718
     0.01831340    -0.00879833     0.00302909
     0.01522750    -0.00771799     0.00245305
     0.01173868    -0.00654091     0.00212653
     0.00799718    -0.00529047     0.00197509
     0.00394827    -0.00421939     0.00180701
     0.00000000     0.00000000     0.00000000
     0.00000000     0.00000000     0.00000000
     0.00000000     0.00000000     0.00000000
     0.00000000     0.00000000     0.00000000
     0.00000000     0.00000000     0.00000000
     0.00000000     0.00000000     0.00000000
     0.00000000     0.00000000     0.00000000
     0.00000000     0.00000000     0.00000000
     0.00000000     0.00000000     0.00000000
     0.00000000     0.00000000     0.00000000
     0.00000000     0.00000000     0.00000000
     0.00000000     0.00000000     0.00000000
     0.00000000     0.00000000     0.00000000
     0.00000000     0.00000000     0.00000000
     0.00000000     0.00000000     0.00000000
     0.00000000     0.00000000     0.00000000
     0.00000000     0.00000000     0.00000000
     0.00000000     0.00000000     0.00000000
     0.00000000     0.00000000     0.00000000
     0.02494078    -0.00561474     0.00618295
     0.01761046    -0.00438851     0.00593214
     0.01836040    -0.00542053     0.00645658
     0.01713909    -0.00453022     0.00523850
     0.01469439    -0.00334377     0.00399546
     0.01158816    -0.00206447     0.00318135
     0.00832479    -0.00091061     0.00273609
     0.00487760     0.00038779     0.00241684
     0.00000000     0.00000000     0.00000000
     0.03585805    -0.00759790    -0.00064861
     0.02585938    -0.00792896     0.00587782
     0.02398831    -0.00796271     0.00851110
     0.02215998    -0.00741327     0.00727082
     0.01924863    -0.00605184     0.00588278
     0.01527277    -0.00447972     0.00491695
     0.01062552    -0.00276202     0.00430295
     0.00521430    -0.00107594     0.00326943
     0.00000000     0.00000000     0.00000000
     0.03470426    -0.00909129    -0.00662790
     0.02250368    -0.00911978     0.00594759
     0.02139665    -0.00823043     0.00748122
     0.01998061    -0.00802003     0.00631715
     0.01747623    -0.00706742     0.00510073
     0.01389887    -0.00583758     0.00435622
     0.00959251    -0.00451535     0.00390923
     0.00456978    -0.00277781     0.00302847
     0.00000000     0.00000000     0.00000000
     0.01691091    -0.01008213     0.00104860
     0.01215180    -0.00528016     0.00302542
     0.01274982    -0.00574868     0.00294752
     0.01203041    -0.00562476     0.00261412
     0.01053484    -0.00518834     0.00225742
     0.00846910    -0.00457571     0.00205316
     0.00616678    -0.00387824     0.00198926
     0.00343574    -0.00319067     0.00196627
     0.00000000     0.00000000     0.00000000
     0.00000000     0.00000000     0.00000000
     0.00000000     0.00000000     0.00000000
     0.00000000     0.00000000     0.00000000
     0.00000000     0.00000000     0.00000000
     0.00000000     0.00000000     0.00000000
     0.00000000     0.00000000     0.00000000
     0.00000000     0.00000000     0.00000000
     0.00000000     0.00000000     0.00000000
     0.00000000     0.00000000     0.00000000
     0.00000000     0.00000000     0.00000000
     0.00000000     0.00000000     0.00000000
     0.00000000     0.00000000     0.00000000
     0.00000000     0.00000000     0.00000000
     0.00000000     0.00000000     0.00000000
     0.00000000     0.00000000     0.00000000
     0.00000000     0.00000000     0.00000000
     0.00000000     0.00000000     0.00000000
     0.00000000     0.00000000     0.00000000
     0.00868003    -0.00410131     0.01139987
     0.00915502    -0.00315330     0.00173289
     0.00863399    -0.00252313     0.00332238
     0.00833373    -0.00252213     0.00273754
     0.00750870    -0.00186643     0.00228815
     0.00618637    -0.00126264     0.00193171
     0.00473720    -0.00077489     0.00170195
     0.00360171    -0.00008554     0.00172630
     0.00000000     0.00000000     0.00000000
     0.01175086    -0.01018369     0.00699222
     0.00935671    -0.00273266     0.00219262
     0.00929650    -0.00392191     0.00444384
     0.00999697    -0.00371604     0.00369826
     0.00953307    -0.00326127     0.00327089
     0.00816296    -0.00257210     0.00291294
     0.00633041    -0.00179590     0.00266418
     0.00396001    -0.00096200     0.00244668
     0.00000000     0.00000000     0.00000000
     0.01157584    -0.01232647     0.00150131
     0.00825320    -0.00276350     0.00275726
     0.00869004    -0.00382537     0.00374331
     0.00931718    -0.00396103     0.00322832
     0.00888427    -0.00373245     0.00284224
     0.00759611    -0.00321571     0.00260105
     0.00586271    -0.00264421     0.00243198
     0.00362848    -0.00188380     0.00229526
     0.00000000     0.00000000     0.00000000
     0.00546034    -0.00989766     0.00291581
     0.00867703    -0.00230446     0.00105793
     0.00670119    -0.00343214     0.00148813
     0.00624821    -0.00290114     0.00138813
     0.00552223    -0.00276591     0.00131281
     0.00460129    -0.00245590     0.00126008
     0.00362984    -0.00206171     0.00123317
     0.00276910    -0.00201901     0.00141705
     0.00000000     0.00000000     0.00000000
     0.00000000     0.00000000     0.00000000
     0.00000000     0.00000000     0.00000000
     0.00000000     0.00000000     0.00000000
     0.00000000     0.00000000     0.00000000
     0.00000000     0.00000000     0.00000000
     0.00000000     0.00000000     0.00000000
     0.00000000     0.00000000     0.00000000
     0.00000000     0.00000000     0.00000000
     0.00000000     0.00000000     0.00000000
     0.00000000     0.00000000     0.00000000
     0.00000000     0.00000000     0.00000000
     0.00000000     0.00000000     0.00000000
     0.00000000     0.00000000     0.00000000
     0.00000000     0.00000000     0.00000000
     0.00000000     0.00000000     0.00000000
     0.00000000     0.00000000     0.00000000
     0.00000000     0.00000000     0.00000000
     0.00000000     0.00000000     0.00000000
     0.00000000     0.00000000     0.00000000
     0.00000000     0.00000000     0.00000000
     0.00000000     0.00000000     0.00000000
     0.00000000     0.00000000     0.00000000
     0.00000000     0.00000000     0.00000000
     0.00000000     0.00000000     0.00000000
     0.00000000     0.00000000     0.00000000
     0.00000000     0.00000000     0.00000000
     0.00000000     0.00000000     0.00000000
     0.00000000     0.00000000     0.00000000
     0.00000000     0.00000000     0.00000000
     0.00000000     0.00000000     0.00000000
     0.00000000     0.00000000     0.00000000
     0.00000000     0.00000000     0.00000000
     0.00000000     0.00000000     0.00000000
     0.00000000     0.00000000     0.00000000
     0.00000000     0.00000000     0.00000000
     0.00000000     0.00000000     0.00000000
     0.00000000     0.00000000     0.00000000
     0.00000000     0.00000000     0.00000000
     0.00000000     0.00000000     0.00000000
     0.00000000     0.00000000     0.00000000
     0.00000000     0.00000000     0.00000000
     0.00000000     0.00000000     0.00000000
     0.00000000     0.00000000     0.00000000
     0.00000000     0.00000000     0.00000000
     0.00000000     0.00000000     0.00000000
     0.00000000     0.00000000     0.00000000
     0.00000000     0.00000000     0.00000000
     0.00000000     0.00000000     0.00000000
     0.00000000     0.00000000     0.00000000
     0.00000000     0.00000000     0.00000000
     0.00000000     0.00000000     0.00000000
     0.00000000     0.00000000     0.00000000
     0.00000000     0.00000000     0.00000000
     0.00000000     0.00000000     0.00000000
     0.00000000     0.00000000     0.00000000
     0.00000000     0.00000000     0.00000000
     0.00000000     0.00000000     0.00000000
     0.00000000     0.00000000     0.00000000
     0.00000000     0.00000000     0.00000000
     0.00000000     0.00000000     0.00000000
     0.00000000     0.00000000     0.00000000
     0.00000000     0.00000000     0.00000000
     0.00000000     0.00000000     0.00000000
     5.33072996    -0.46996484     0.00000000
     4.83359875    -0.65784663     0.00000000
     4.17467003    -0.78707789     0.00000000
     3.50870381    -0.85946210     0.00000000
     2.84043364    -0.88601771     0.00000000
     2.17331960    -0.86533406     0.00000000
     1.50295893    -0.78351146     0.00000000
     0.84080904    -0.59519460     0.00000000
     0.38159609    -0.44794276     0.00000000
     0.00000000     0.00000000     0.00000000
     5.33065454    -0.46546633     0.17272160
     4.83370546    -0.65172784     0.26595960
     4.17470920    -0.77839388     0.32586513
     3.50984697    -0.84972972     0.36195093
     2.84257298    -0.87536216     0.38234165
     2.17606517    -0.85481876     0.38942538
     1.50746956    -0.77380260     0.38566765
     0.84670262    -0.58842382     0.37135865
     0.38587339    -0.44059139     0.34671761
     0.00000000     0.00000000     0.25530869
     5.33021213    -0.45267834     0.34080827
     4.83394638    -0.63235644     0.52414571
     4.17550524    -0.75298676     0.64295104
     3.51333849    -0.82087561     0.71408694
     2.84855645    -0.84419790     0.75371341
     2.18507670    -0.82339548     0.76739512
     1.52054156    -0.74457142     0.75828269
     0.86705586    -0.56788687     0.72642494
     0.40825359    -0.42143323     0.67102240
     0.00000000     0.00000000     0.48213928
     5.32952882    -0.43165674     0.50064207
     4.83423816    -0.59958800     0.76930763
     4.17749630    -0.71176503     0.94273414
     3.51873220    -0.77427641     1.04636633
     2.85825544    -0.79398372     1.10332978
     2.20022178    -0.77236650     1.12189220
     1.54417055    -0.69671186     1.10499887
     0.90228264    -0.53431409     1.04806127
     0.44236645    -0.39147470     0.94829962
     0.00000000     0.00000000     0.66721373
     5.32944274    -0.40239018     0.64805621
     4.83407643    -0.55470495     0.99575508
     4.17981571    -0.65620924     1.21810416
     3.52562528    -0.71146946     1.35016067
     2.87090008    -0.72646637     1.42205779
     2.22059694    -0.70458648     1.44256691
     1.57403250    -0.63300323     1.41708886
     0.93981009    -0.48767379     1.32540257
     0.47672760    -0.35056870     1.16718084
     0.00000000     0.00000000     0.79698729
     5.32930707    -0.36693073     0.77873179
     4.83295000    -0.50092250     1.19645636
     4.18235868    -0.58750827     1.46227128
     3.53271411    -0.63447998     1.61927947
     2.88512928    -0.64484566     1.70224396
     2.24123223    -0.62293110     1.72511263
     1.60415191    -0.55688770     1.68326382
     0.97579979    -0.42910481     1.55565277
     0.50781721    -0.30743184     1.32881241
     0.00000000     0.00000000     0.87307850
     5.32700453    -0.32690724     0.89111131
     4.83249417    -0.43703827     1.36771170
     4.18365331    -0.50828571     1.66976955
     3.53961047    -0.54553532     1.84722224
     2.89729492    -0.55191435     1.93906828
     2.26155408    -0.53096262     1.96238497
     1.63304521    -0.47048937     1.89927064
     1.01368831    -0.36443481     1.73658626
     0.53545486    -0.25420686     1.44585374
     0.00000000     0.00000000     0.91478371
     5.32422378    -0.27994597     0.98336372
     4.83002873    -0.36570332     1.50639346
     4.18431943    -0.41945028     1.83638979
     3.54312981    -0.44764093     2.03024847
     2.90761063    -0.44962188     2.12827214
     2.27616558    -0.43068263     2.15056626
     1.65992428    -0.37876479     2.06409230
     1.04306391    -0.29342211     1.87457611
     0.55426767    -0.20233837     1.52152350
     0.00000000     0.00000000     0.89329386
     5.32172205    -0.23044077     1.04963812
     4.82664236    -0.28731327     1.60841820
     4.18201187    -0.32485837     1.95917536
     3.54421313    -0.34149509     2.16485884
     2.91091288    -0.34176210     2.26835295
     2.28604672    -0.32375283     2.28637060
     1.67227765    -0.28449388     2.18461999
     1.05787128    -0.21967436     1.97058726
     0.55337360    -0.15488719     1.57101650
     0.00000000     0.00000000     0.83261770
     5.31917447    -0.17640748     1.09023795
     4.82177029    -0.20704629     1.67052769
     4.17745450    -0.22399977     2.03552591
     3.53950470    -0.23212920     2.24882403
     2.90903215    -0.22765986     2.35520415
     2.28400873    -0.21594912     2.37214089
     1.67529972    -0.18572500     2.25788756
     1.04229474    -0.14572413     2.03836332
     0.52802617    -0.11085595     1.58462408
     0.00000000     0.00000000     0.76275461
     5.31576332    -0.12331003     1.10376094
     4.81570118    -0.12245551     1.69251526
     4.16934481    -0.12260326     2.06351946
     3.53013508    -0.11812333     2.28017591
     2.89852950    -0.11379947     2.38832412
     2.27334094    -0.10314062     2.40446347
     1.66181097    -0.09108633     2.28677301
     1.03634796    -0.06567903     2.06191909
     0.46573923    -0.06814089     1.57234146
     0.00000000     0.00000000     0.65286365
     5.31174987    -0.06785844     1.09024124
     4.80825207    -0.04012149     1.67345910
     4.15795548    -0.01900101     2.04247865
     3.51595378    -0.00607716     2.25810811
     2.87997975     0.00296690     2.36640221
     2.25256768     0.00533610     2.38440489
     1.63748003     0.00866949     2.26650110
     1.00918129     0.00294207     2.04348211
     0.51032049    -0.01084240     1.59209340
     0.00000000     0.00000000     0.88037552
     5.30768506    -0.01583636     1.04997466
     4.79940493     0.04241576     1.61352189
     4.14431207     0.08076444     1.97217744
     3.49623359     0.10575071     2.18277701
     2.85608790     0.11493204     2.28842105
     2.21814810     0.11571703     2.31211317
     1.59993492     0.10067851     2.19733203
     0.96623084     0.07986195     1.98372662
     0.51638849     0.03054140     1.56971598
     0.00000000     0.00000000     0.94761943
     5.30365874     0.03517328     0.98301455
     4.79084328     0.11950161     1.51371097
     4.12726552     0.17749609     1.85422069
     3.47405489     0.21148879     2.05385287
     2.82413963     0.22420085     2.15687226
     2.18039192     0.22036115     2.18284728
     1.54661407     0.19240463     2.08595686
     0.91088461     0.15256837     1.88733238
     0.49057419     0.07345869     1.53336500
     0.00000000     0.00000000     1.00804576
     5.30097123     0.08081777     0.89157811
     4.78139934     0.19142691     1.37619989
     4.11053055     0.26666117     1.68896628
     3.44728910     0.31047998     1.87361499
     2.79045654     0.32580620     1.97071615
     2.13538802     0.31872324     1.99995792
     1.49397730     0.28044788     1.92766738
     0.85085522     0.21718843     1.76363211
     0.45711059     0.12461477     1.48068542
     0.00000000     0.00000000     1.05683558
     5.29707139     0.12093258     0.77764423
     4.77286330     0.25387819     1.20637742
     4.09406774     0.34417972     1.48646478
     3.42101879     0.39627578     1.64927980
     2.75283750     0.41501114     1.73702699
     2.09045745     0.40526380     1.76241390
     1.43637538     0.35675743     1.71625412
     0.78946311     0.26758351     1.57535859
     0.40340255     0.17158758     1.35578241
     0.00000000     0.00000000     1.00298513
     5.29299548     0.15505948     0.64738670
     4.76888859     0.30930765     1.00242253
     4.08453676     0.41660498     1.23388172
     3.40592159     0.47515118     1.37123797
     2.73090467     0.49765890     1.44672224
     2.06246838     0.48560154     1.46857632
     1.39989445     0.43113861     1.43832656
     0.74979672     0.31457627     1.33321839
     0.38115674     0.20162532     1.19563759
     0.00000000     0.00000000     0.89415302
     5.28941716     0.18470432     0.49973600
     4.76419931     0.35553004     0.77375109
     4.07668690     0.47196337     0.95516956
     3.39302907     0.53748917     1.06252052
     2.71155137     0.56439451     1.12301280
     2.03433869     0.55340412     1.14295689
     1.36210777     0.49561478     1.12174577
     0.70344054     0.36034880     1.06707568
     0.34238842     0.25621805     0.97974410
     0.00000000     0.00000000     0.73328861
     5.28752217     0.20573412     0.33999295
     4.76038556     0.38871222     0.52733569
     4.07051434     0.51283838     0.65140297
     3.38322327     0.58338472     0.72538164
     2.69669259     0.61392501     0.76744029
     2.01201307     0.60489412     0.78258669
     1.32818694     0.54378355     0.77115657
     0.65656028     0.39637951     0.74591965
     0.30676119     0.29701957     0.69678451
     0.00000000     0.00000000     0.52334718
     5.28619413     0.21848784     0.17252185
     4.75808570     0.40894310     0.26771356
     4.06654852     0.53797150     0.32978758
     3.37698449     0.61180632     0.36780710
     2.68756699     0.64470117     0.38951438
     1.99924332     0.63670794     0.39741085
     1.30957021     0.57462914     0.39266546
     0.62854483     0.41924957     0.38291101
     0.28610860     0.32595258     0.36062093
     0.00000000     0.00000000     0.27236046
     5.28559050     0.22295964     0.00000000
     4.75737652     0.41577333     0.00000000
     4.06514253     0.54643936     0.00000000
     3.37491784     0.62139419     0.00000000
     2.68441214     0.65523030     0.00000000
     1.99522145     0.64728119     0.00000000
     1.30326111     0.58513061     0.00000000
     0.62229050     0.42807962     0.00000000
     0.28333250     0.33995148     0.00000000
     0.00000000     0.00000000     0.00000000
     5.43768422    -0.29069770     0.00000000
     5.44920818    -0.25838958     0.00000000
     5.45812022    -0.22557902     0.00000000
     5.46417991    -0.19189097     0.00000000
     5.46704254    -0.15777646     0.00000000
     5.46659964    -0.12340165     0.00000000
     5.46315712    -0.08901883     0.00000000
     5.45677306    -0.05490281     0.00000000
     5.44774378    -0.02099345     0.00000000
     5.43622234     0.01203038     0.00000000
     5.42159729     0.04497012     0.00000000
     5.43769212    -0.28863057     0.08431629
     5.44837584    -0.25754621     0.09335990
     5.45681578    -0.22526898     0.10005322
     5.46248100    -0.19195078     0.10439198
     5.46536090    -0.15765820     0.10632037
     5.46501887    -0.12331773     0.10595340
     5.46151141    -0.08905224     0.10564088
     5.45508295    -0.05471570     0.10296864
     5.44647576    -0.02124393     0.09801127
     5.43538910     0.01139892     0.09131624
     5.42179147     0.04301852     0.08286266
     5.43755943    -0.28261851     0.16744250
     5.44642465    -0.25336154     0.18679877
     5.45334114    -0.22244386     0.20155521
     5.45822100    -0.18973432     0.21177937
     5.46046269    -0.15670520     0.21732126
     5.46026281    -0.12314186     0.21655689
     5.45676519    -0.08957273     0.21659164
     5.45109676    -0.05656545     0.21024454
     5.44327429    -0.02365406     0.19935683
     5.43373191     0.00763458     0.18446602
     5.42214026     0.03729387     0.16542917
     5.43730560    -0.27277322     0.24663162
     5.44359751    -0.24571325     0.27671061
     5.44853546    -0.21632958     0.30055848
     5.45128619    -0.18617864     0.31817658
     5.45281168    -0.15497008     0.32682043
     5.45227447    -0.12288544     0.32743305
     5.44932262    -0.09075422     0.32601670
     5.44450356    -0.05943843     0.31659245
     5.43895419    -0.02907297     0.29815808
     5.43151927     0.00063145     0.27396868
     5.42266362     0.02782083     0.24434962
     5.43717757    -0.25883878     0.31947742
     5.44028166    -0.23440646     0.36160999
     5.44152620    -0.20876146     0.39630671
     5.44224307    -0.18145649     0.42064692
     5.44220899    -0.15250073     0.43431743
     5.44134415    -0.12264131     0.43702775
     5.43893374    -0.09285542     0.43350502
     5.43588326    -0.06367751     0.41904434
     5.43242506    -0.03608816     0.39392299
     5.42892522    -0.01006656     0.35860976
     5.42364280     0.01444726     0.31663716
     5.43694576    -0.24114054     0.38442377
     5.43519392    -0.22154795     0.44093117
     5.43315519    -0.19944245     0.48633058
     5.43113680    -0.17531034     0.51914438
     5.42924088    -0.14906640     0.53946255
     5.42759059    -0.12282884     0.54597698
     5.42624436    -0.09563069     0.53863341
     5.42539188    -0.06998300     0.51801032
     5.42480751    -0.04531943     0.48430237
     5.42468804    -0.02294386     0.43832068
     5.42475052    -0.00307534     0.38145666
