# vtk DataFile Version 3.0
Example VTK
ASCII
DATASET UNSTRUCTURED_GRID
POINTS  1589 float
 -0.756461258255E+01 -0.455970240351E+01  0.114660597931E-26
 -0.617009355787E+01 -0.608008957992E+01  0.288571236593E-26
 -0.477515396573E+01 -0.701921990651E+01  0.328357770931E-26
 -0.338505953336E+01 -0.759520644825E+01  0.353086254607E-26
 -0.199615274740E+01 -0.788408221820E+01  0.358884063446E-26
 -0.614860985810E+00 -0.790153596272E+01  0.336695132872E-26
  0.761162753721E+00 -0.766276211622E+01  0.230580240479E-26
  0.160411737718E+01 -0.706929720774E+01  0.722743939398E-27
  0.255688000000E+01 -0.652469000000E+01 -0.716178910920E-27
 -0.756800711656E+01 -0.366656486951E+01 -0.911108017224E-02
 -0.624248186978E+01 -0.489066744180E+01  0.000000000000E+00
 -0.487972474285E+01 -0.563858418315E+01  0.000000000000E+00
 -0.351671641806E+01 -0.609645949321E+01  0.000000000000E+00
 -0.215527089887E+01 -0.631875186370E+01  0.000000000000E+00
 -0.786079540753E+00 -0.632050158586E+01  0.000000000000E+00
  0.610753058419E+00 -0.610140125722E+01  0.000000000000E+00
  0.163316366134E+01 -0.571240579337E+01  0.000000000000E+00
  0.283050807969E+01 -0.540820839038E+01  0.000000000000E+00
 -0.757292263317E+01 -0.277578353702E+01 -0.115807674430E-01
 -0.627389624744E+01 -0.370180638241E+01  0.000000000000E+00
 -0.494890759895E+01 -0.425840788630E+01  0.000000000000E+00
 -0.360978596267E+01 -0.459484723072E+01  0.000000000000E+00
 -0.225487277831E+01 -0.475307856775E+01  0.000000000000E+00
 -0.867112065535E+00 -0.474179750614E+01  0.000000000000E+00
  0.591584912695E+00 -0.455963299539E+01  0.000000000000E+00
  0.173348177979E+01 -0.441678581365E+01  0.000000000000E+00
  0.304279916140E+01 -0.434631438717E+01  0.000000000000E+00
 -0.757696552910E+01 -0.188476491945E+01 -0.138670800605E-01
 -0.629594071253E+01 -0.250539229268E+01  0.000000000000E+00
 -0.499276919883E+01 -0.287377367638E+01  0.000000000000E+00
 -0.366863487590E+01 -0.309293035586E+01  0.000000000000E+00
 -0.231492148314E+01 -0.319187660337E+01  0.000000000000E+00
 -0.911175273161E+00 -0.317624398472E+01  0.000000000000E+00
  0.579435153139E+00 -0.304924312448E+01  0.000000000000E+00
  0.181111397637E+01 -0.314745550764E+01  0.000000000000E+00
  0.320510604380E+01 -0.329134981382E+01  0.000000000000E+00
 -0.758128153575E+01 -0.994322575781E+00 -0.151182392273E-01
 -0.631037565394E+01 -0.130465829558E+01  0.000000000000E+00
 -0.502064032693E+01 -0.148544946946E+01  0.000000000000E+00
 -0.370506304051E+01 -0.159059662525E+01  0.000000000000E+00
 -0.235247054423E+01 -0.163447769973E+01  0.000000000000E+00
 -0.942741699903E+00 -0.162017884014E+01  0.000000000000E+00
  0.556496936547E+00 -0.155222458917E+01  0.000000000000E+00
  0.185160400253E+01 -0.187847079463E+01  0.000000000000E+00
  0.330821459975E+01 -0.222262171151E+01  0.000000000000E+00
 -0.758555828743E+01 -0.104024151170E+00 -0.161808196342E-01
 -0.632104466862E+01 -0.101471611397E+00  0.000000000000E+00
 -0.503772614190E+01 -0.949121495557E-01  0.000000000000E+00
 -0.372695925970E+01 -0.879093539947E-01  0.000000000000E+00
 -0.237550329051E+01 -0.788493331966E-01  0.000000000000E+00
 -0.963213936336E+00 -0.680883082331E-01  0.000000000000E+00
  0.541190071254E+00 -0.594078380251E-01  0.000000000000E+00
  0.187994966237E+01 -0.582839811638E+00  0.000000000000E+00
  0.333333000000E+01 -0.112691000000E+01  0.397045862615E-27
 -0.758979566588E+01  0.786229096283E+00 -0.164476340430E-01
 -0.632643239594E+01  0.110239461217E+01  0.000000000000E+00
 -0.504449689694E+01  0.129611347378E+01  0.000000000000E+00
 -0.373399599347E+01  0.141466086624E+01  0.000000000000E+00
 -0.238050074874E+01  0.147542473926E+01  0.000000000000E+00
 -0.959188384456E+00  0.148155800752E+01  0.000000000000E+00
  0.571378793031E+00  0.142238172124E+01  0.000000000000E+00
  0.184176372612E+01  0.901016273938E+00  0.000000000000E+00
  0.323139037206E+01  0.364121988878E+00  0.000000000000E+00
 -0.759379942125E+01  0.167652132316E+01 -0.163723313027E-01
 -0.632798834292E+01  0.230516722749E+01  0.000000000000E+00
 -0.504002475385E+01  0.268582854020E+01  0.000000000000E+00
 -0.372676775896E+01  0.291673265974E+01  0.000000000000E+00
 -0.237453241443E+01  0.303000801927E+01  0.000000000000E+00
 -0.956004033510E+00  0.302993729209E+01  0.000000000000E+00
  0.575615982422E+00  0.290321529829E+01  0.000000000000E+00
  0.176031622549E+01  0.237385532310E+01  0.000000000000E+00
  0.306259963104E+01  0.188126678287E+01  0.000000000000E+00
 -0.759897357390E+01  0.256770522160E+01 -0.145202493660E-01
 -0.632252286021E+01  0.350448280904E+01  0.000000000000E+00
 -0.501934576535E+01  0.407245997105E+01  0.000000000000E+00
 -0.369795526781E+01  0.441890779476E+01  0.000000000000E+00
 -0.235284697411E+01  0.458897009180E+01  0.000000000000E+00
 -0.959310040404E+00  0.458855228799E+01  0.000000000000E+00
  0.534180517200E+00  0.440091595247E+01  0.000000000000E+00
  0.159766332580E+01  0.385788389385E+01  0.000000000000E+00
  0.279050167724E+01  0.339379430855E+01  0.000000000000E+00
 -0.760506604342E+01  0.345870257707E+01 -0.115167027966E-01
 -0.630867428191E+01  0.469618543360E+01  0.000000000000E+00
 -0.497117024745E+01  0.545495824858E+01  0.000000000000E+00
 -0.363194764434E+01  0.592206007989E+01  0.000000000000E+00
 -0.229109859151E+01  0.615571857906E+01  0.000000000000E+00
 -0.938003415803E+00  0.616777364134E+01  0.000000000000E+00
  0.466372759343E+00  0.594173218817E+01  0.000000000000E+00
  0.136378065502E+01  0.537306879679E+01  0.000000000000E+00
  0.239323699290E+01  0.493882009717E+01  0.000000000000E+00
 -0.761511778952E+01  0.435233307789E+01  0.100845769988E-26
 -0.625129776218E+01  0.588819057502E+01  0.266149829218E-26
 -0.488514639388E+01  0.683799004019E+01  0.310221023773E-26
 -0.351948156882E+01  0.742379457107E+01  0.331453034912E-26
 -0.215530668177E+01  0.772566543384E+01  0.331344763927E-26
 -0.798286195274E+00  0.775842912337E+01  0.297947241910E-26
  0.543519099058E+00  0.752686225732E+01  0.154077103740E-26
  0.117424907309E+01  0.696634131596E+01 -0.420244556396E-28
  0.195297000000E+01  0.652469000000E+01 -0.595545818926E-27
 -0.756476057602E+01 -0.450449397723E+01  0.805950751839E+00
 -0.616960259605E+01 -0.600737676782E+01  0.108388134363E+01
 -0.477401439584E+01 -0.693349876332E+01  0.125503403357E+01
 -0.338294742986E+01 -0.750229170539E+01  0.136091667898E+01
 -0.199311238738E+01 -0.778722313391E+01  0.141616408325E+01
 -0.609993801042E+00 -0.780419879812E+01  0.142643622971E+01
  0.767678571791E+00 -0.756813617705E+01  0.139463087864E+01
  0.161647917698E+01 -0.699169551380E+01  0.122582908739E+01
  0.256440000000E+01 -0.647239000000E+01  0.677093000000E+00
 -0.756812059937E+01 -0.364279017524E+01  0.895006850512E+00
 -0.623740174668E+01 -0.485823186277E+01  0.120683670210E+01
 -0.487216481885E+01 -0.560067143430E+01  0.139517179400E+01
 -0.350601215659E+01 -0.605507948582E+01  0.151316567560E+01
 -0.214173819357E+01 -0.627606707517E+01  0.157319088695E+01
 -0.770680839872E+00 -0.627832661396E+01  0.157960415854E+01
  0.624984064757E+00 -0.606363598396E+01  0.152110556209E+01
  0.163874644048E+01 -0.568511710581E+01  0.131965866337E+01
  0.282321218487E+01 -0.539469700126E+01  0.747190514271E+00
 -0.757206988034E+01 -0.276911426027E+01  0.962219748345E+00
 -0.626775427052E+01 -0.369268574420E+01  0.130219316078E+01
 -0.493885075119E+01 -0.424807559361E+01  0.150596649753E+01
 -0.359557933826E+01 -0.458367370823E+01  0.163011192658E+01
 -0.223822713123E+01 -0.474207037367E+01  0.169034775131E+01
 -0.851453476241E+00 -0.473185310536E+01  0.168810152804E+01
  0.599992416017E+00 -0.455274372212E+01  0.162040165891E+01
  0.172999924196E+01 -0.441249812934E+01  0.140760581736E+01
  0.302633695613E+01 -0.434684666357E+01  0.802109077666E+00
 -0.757611320121E+01 -0.188612771755E+01  0.100775160028E+01
 -0.628897691793E+01 -0.250676537233E+01  0.136677275144E+01
 -0.498205903189E+01 -0.287571774384E+01  0.158001124061E+01
 -0.365377126234E+01 -0.309518907260E+01  0.170882206732E+01
 -0.229808199249E+01 -0.319463483003E+01  0.176868718708E+01
 -0.896107779043E+00 -0.317962498819E+01  0.176383738341E+01
  0.586444033811E+00 -0.305314832843E+01  0.169242957394E+01
  0.180433149387E+01 -0.315010942127E+01  0.146739150731E+01
  0.318587754695E+01 -0.329250050497E+01  0.829909932384E+00
 -0.758050267582E+01 -0.996270233863E+00  0.102958179526E+01
 -0.630426527134E+01 -0.130758976652E+01  0.139836329996E+01
 -0.501020311239E+01 -0.148916092087E+01  0.161600539722E+01
 -0.369060138286E+01 -0.159483298114E+01  0.174696932618E+01
 -0.233598098683E+01 -0.163911064543E+01  0.180693341234E+01
 -0.927114161446E+00 -0.162472162221E+01  0.180227959339E+01
  0.566448971177E+00 -0.155565093081E+01  0.172980368167E+01
  0.184875173432E+01 -0.187998372828E+01  0.149820973591E+01
  0.329220222464E+01 -0.221991953134E+01  0.832478058976E+00
 -0.758536526411E+01 -0.103824051048E+00  0.102699238475E+01
 -0.631466730186E+01 -0.101461310968E+00  0.139529776813E+01
 -0.502777406771E+01 -0.950900171588E-01  0.161265596963E+01
 -0.371323272701E+01 -0.882829025315E-01  0.174288410837E+01
 -0.236005146430E+01 -0.793931964035E-01  0.180175345062E+01
 -0.948473061752E+00 -0.680925557125E-01  0.179569371931E+01
  0.551843605369E+00 -0.579074393413E-01  0.172568747698E+01
  0.188585126333E+01 -0.583275468272E+00  0.148763913832E+01
  0.333333000000E+01 -0.112691000000E+01  0.833333000000E+00
 -0.758931883840E+01  0.788439652731E+00  0.102907929273E+01
 -0.632061054896E+01  0.110531888262E+01  0.139965890112E+01
 -0.503445387001E+01  0.129949544148E+01  0.161782240631E+01
 -0.372048792178E+01  0.141825784796E+01  0.174803055117E+01
 -0.236626324743E+01  0.147920272374E+01  0.180524229623E+01
 -0.948183341236E+00  0.148627529683E+01  0.179450695924E+01
  0.572884913924E+00  0.143023845214E+01  0.171436380694E+01
  0.183363556822E+01  0.907954967725E+00  0.149744699588E+01
  0.322106678055E+01  0.350436658594E+00  0.933392124584E+00
 -0.759334561024E+01  0.167817428498E+01  0.100691787718E+01
 -0.632132467955E+01  0.230633713755E+01  0.136930983914E+01
 -0.502995950763E+01  0.268756434295E+01  0.158377887129E+01
 -0.371341150515E+01  0.291864245448E+01  0.171158935594E+01
 -0.236113321988E+01  0.303244899184E+01  0.176713253645E+01
 -0.947377248967E+00  0.303419187191E+01  0.175448810382E+01
  0.572267766653E+00  0.291259991935E+01  0.166881405036E+01
  0.174428017323E+01  0.238567160133E+01  0.146882515840E+01
  0.304478405335E+01  0.187308895138E+01  0.981309538870E+00
 -0.759833553555E+01  0.256120756016E+01  0.961596073913E+00
 -0.631638986653E+01  0.349489060062E+01  0.130569427040E+01
 -0.500960378271E+01  0.406206680643E+01  0.151160656349E+01
 -0.368479136183E+01  0.440770747547E+01  0.163539756813E+01
 -0.233878272752E+01  0.457813357158E+01  0.169179854264E+01
 -0.948843917126E+00  0.458007467808E+01  0.168111607922E+01
  0.533550475449E+00  0.439984258397E+01  0.159652523897E+01
  0.158447817711E+01  0.386346933015E+01  0.140930799050E+01
  0.277210710431E+01  0.339232702842E+01  0.970275963334E+00
 -0.760521603655E+01  0.343523015264E+01  0.895326263025E+00
 -0.630291544978E+01  0.466278285530E+01  0.121080804001E+01
 -0.496331926420E+01  0.541713713827E+01  0.140209907082E+01
 -0.362107327067E+01  0.588065599311E+01  0.152096812841E+01
 -0.227748829586E+01  0.611326398340E+01  0.158002727136E+01
 -0.923098040516E+00  0.612645686884E+01  0.158147331110E+01
  0.477428971572E+00  0.590928717628E+01  0.150111283514E+01
  0.136372471248E+01  0.535252134321E+01  0.131743820161E+01
  0.238484824554E+01  0.492591704787E+01  0.907331049390E+00
 -0.761465840417E+01  0.429740347964E+01  0.807254398900E+00
 -0.625003624798E+01  0.581418167134E+01  0.108874493359E+01
 -0.488329728200E+01  0.675214392884E+01  0.126175013534E+01
 -0.351647724518E+01  0.733058734476E+01  0.136890807955E+01
 -0.215117158244E+01  0.762835733592E+01  0.142393798254E+01
 -0.792299697929E+00  0.766090735087E+01  0.143327306966E+01
  0.551881161061E+00  0.743279504150E+01  0.138709956596E+01
  0.119140712950E+01  0.688649390432E+01  0.120474752497E+01
  0.196387000000E+01  0.646426000000E+01  0.786055000000E+00
 -0.756495953883E+01 -0.434093514454E+01  0.159406769931E+01
 -0.616798719766E+01 -0.578875214845E+01  0.214148238404E+01
 -0.477059614404E+01 -0.667894071998E+01  0.247872873784E+01
 -0.337696042356E+01 -0.722584343098E+01  0.268747267461E+01
 -0.198387300194E+01 -0.749923902409E+01  0.279605612189E+01
 -0.596798915969E+00 -0.751492166559E+01  0.281536817976E+01
  0.791796909310E+00 -0.728693415172E+01  0.274653927003E+01
  0.166037055066E+01 -0.675983806619E+01  0.241109997126E+01
  0.258678000000E+01 -0.631679000000E+01  0.133751000000E+01
 -0.756778453682E+01 -0.353199843174E+01  0.177661464899E+01
 -0.622682043481E+01 -0.470814593805E+01  0.239150974282E+01
 -0.485332798533E+01 -0.542731090642E+01  0.276508236222E+01
 -0.347926746303E+01 -0.586639976030E+01  0.299816996833E+01
 -0.210646118270E+01 -0.608068415849E+01  0.311678536986E+01
 -0.728164016779E+00 -0.608325855379E+01  0.312920112537E+01
  0.667260987756E+00 -0.588298364291E+01  0.301601077201E+01
  0.166257936420E+01 -0.554295318957E+01  0.262840482561E+01
  0.281587250514E+01 -0.530122042990E+01  0.149334127273E+01
 -0.757044154550E+01 -0.269757610618E+01  0.191777443857E+01
 -0.625385570012E+01 -0.359442009413E+01  0.258748679561E+01
 -0.491238627392E+01 -0.413543984863E+01  0.299153402290E+01
 -0.355728063552E+01 -0.446201819659E+01  0.323864515612E+01
 -0.219129826097E+01 -0.461751054082E+01  0.335934420410E+01
 -0.803880015598E+00 -0.460981803154E+01  0.335803014312E+01
  0.633353894167E+00 -0.444139097250E+01  0.322737346435E+01
  0.173726376606E+01 -0.432308375737E+01  0.281699126194E+01
  0.299813742007E+01 -0.428708182387E+01  0.161220556033E+01
 -0.757399760515E+01 -0.184308240481E+01  0.201452814362E+01
 -0.627382134227E+01 -0.244829997336E+01  0.272191475728E+01
 -0.495227344958E+01 -0.280916694268E+01  0.314526542836E+01
 -0.361117815986E+01 -0.302393088362E+01  0.340274984284E+01
 -0.224770011220E+01 -0.312256754581E+01  0.352368668032E+01
 -0.847636922767E+00 -0.310941756101E+01  0.351740053150E+01
  0.618319047607E+00 -0.298773380021E+01  0.338019082997E+01
  0.180441789937E+01 -0.309437273788E+01  0.294562977962E+01
  0.314806782922E+01 -0.325105433485E+01  0.167365957822E+01
 -0.757949818788E+01 -0.976616443444E+00  0.206449432680E+01
 -0.628842850179E+01 -0.128022900209E+01  0.278992201497E+01
 -0.497962800346E+01 -0.145858850081E+01  0.322329519252E+01
 -0.364726114750E+01 -0.156258343803E+01  0.348558061223E+01
 -0.228483356512E+01 -0.160705715670E+01  0.360695876472E+01
 -0.876756946065E+00 -0.159319804692E+01  0.360009296738E+01
  0.605040814654E+00 -0.152394321053E+01  0.346014259920E+01
  0.185709063212E+01 -0.185068704648E+01  0.301141519234E+01
  0.326007049752E+01 -0.219371442824E+01  0.167973936672E+01
 -0.758435312870E+01 -0.103419650808E+00  0.206265515933E+01
 -0.629953563334E+01 -0.101178051197E+00  0.278955735229E+01
 -0.499770132657E+01 -0.952653221047E-01  0.322272389806E+01
 -0.367097112199E+01 -0.891107582981E-01  0.348422532065E+01
 -0.231096633464E+01 -0.811976507171E-01  0.360372213440E+01
 -0.901008836493E+00 -0.689529539312E-01  0.359382430444E+01
  0.588419453412E+00 -0.557782253933E-01  0.345635809887E+01
  0.190638286694E+01 -0.585341333532E+00  0.298564636003E+01
  0.333333000000E+01 -0.112691000000E+01  0.166667000000E+01
 -0.758891173492E+01  0.769709093534E+00  0.206451994953E+01
 -0.630502677122E+01  0.107831474062E+01  0.279247476297E+01
 -0.500405075616E+01  0.126864954354E+01  0.322686826234E+01
 -0.367849647117E+01  0.138462065445E+01  0.348815037899E+01
 -0.232014620178E+01  0.144438877173E+01  0.360498289485E+01
 -0.910275223706E+00  0.145405354481E+01  0.358798557062E+01
  0.586302233456E+00  0.140714115687E+01  0.343395664302E+01
  0.182103398562E+01  0.887399131642E+00  0.301314424573E+01
  0.319385347944E+01  0.321196459105E+00  0.187158763648E+01
 -0.759208563772E+01  0.163591255941E+01  0.201462221555E+01
 -0.630663671341E+01  0.224780995983E+01  0.272700113420E+01
 -0.500046345088E+01  0.262080327291E+01  0.315263840754E+01
 -0.367286642152E+01  0.284681201947E+01  0.340878801358E+01
 -0.231772250682E+01  0.295946696674E+01  0.352243235644E+01
 -0.915830228008E+00  0.296655528011E+01  0.350235923735E+01
  0.573343935958E+00  0.286066206511E+01  0.333877347530E+01
  0.171287962850E+01  0.234540584425E+01  0.295517381719E+01
  0.300084937892E+01  0.182808682683E+01  0.196964905425E+01
 -0.759728858699E+01  0.249040123353E+01  0.191826105177E+01
 -0.630262404086E+01  0.339590518707E+01  0.259475358009E+01
 -0.498324180889E+01  0.394924737487E+01  0.300245852419E+01
 -0.364762311139E+01  0.428601095996E+01  0.324947951454E+01
 -0.229657430846E+01  0.445437262784E+01  0.336352667653E+01
 -0.913992242445E+00  0.446307108161E+01  0.334732506877E+01
  0.542240963174E+00  0.430440225663E+01  0.318495697619E+01
  0.156458125204E+01  0.378806459166E+01  0.282700910527E+01
  0.273551477717E+01  0.332821732121E+01  0.194413812792E+01
 -0.760456878458E+01  0.332498349964E+01  0.177790071860E+01
 -0.629117848161E+01  0.451141335081E+01  0.240003659142E+01
 -0.494331715393E+01  0.524340750432E+01  0.277860883999E+01
 -0.359307989061E+01  0.569168066275E+01  0.301357280883E+01
 -0.224072294614E+01  0.591832350742E+01  0.313028478047E+01
 -0.880555236550E+00  0.593493075447E+01  0.313441748939E+01
  0.513645175742E+00  0.574124050157E+01  0.298203742488E+01
  0.137544811424E+01  0.521733495817E+01  0.263357457387E+01
  0.237845438966E+01  0.481954605436E+01  0.180893386491E+01
 -0.761310370332E+01  0.413425619917E+01  0.159628023753E+01
 -0.624654454727E+01  0.559394350627E+01  0.215008710721E+01
 -0.487777040737E+01  0.649688869376E+01  0.249213562229E+01
 -0.350792203848E+01  0.705329111433E+01  0.270311621604E+01
 -0.213913698023E+01  0.733928053511E+01  0.281210561552E+01
 -0.774407425872E+00  0.737125024782E+01  0.282805407645E+01
  0.584866209849E+00  0.715253282003E+01  0.273472259808E+01
  0.124985366547E+01  0.664767611381E+01  0.237410950259E+01
  0.199630000000E+01  0.628446000000E+01  0.155276000000E+01
 -0.756497491082E+01 -0.407319647323E+01  0.234260275109E+01
 -0.616532159943E+01 -0.542885687795E+01  0.314616677734E+01
 -0.476525373282E+01 -0.626205480662E+01  0.364075354389E+01
 -0.336771658625E+01 -0.677286451876E+01  0.394629506599E+01
 -0.196942133013E+01 -0.702774105459E+01  0.410481308317E+01
 -0.573534093666E+00 -0.704166742327E+01  0.412837603788E+01
  0.829519689756E+00 -0.682629488871E+01  0.401693583415E+01
  0.172541820076E+01 -0.637878474617E+01  0.352354205114E+01
  0.262348000000E+01 -0.606170000000E+01  0.196500000000E+01
 -0.756618960848E+01 -0.333722786162E+01  0.262605310828E+01
 -0.621201578557E+01 -0.444422381895E+01  0.353169344674E+01
 -0.482479632755E+01 -0.512301810164E+01  0.408484660599E+01
 -0.343871540089E+01 -0.553587918609E+01  0.442793759230E+01
 -0.205346687804E+01 -0.573824487632E+01  0.460139908853E+01
 -0.660957352038E+00 -0.574230012281E+01  0.461899597304E+01
  0.740653061278E+00 -0.555826633921E+01  0.445622195092E+01
  0.171682200882E+01 -0.528431895281E+01  0.390654653329E+01
  0.281801178083E+01 -0.513109372292E+01  0.222820580792E+01
 -0.756780042048E+01 -0.256211305511E+01  0.284867648739E+01
 -0.623544323319E+01 -0.340995447046E+01  0.383696616738E+01
 -0.487113740971E+01 -0.392359833954E+01  0.443654920014E+01
 -0.349642489658E+01 -0.423350678920E+01  0.480456006781E+01
 -0.211586774730E+01 -0.438259572663E+01  0.498473412633E+01
 -0.720437048008E+00 -0.437930497458E+01  0.498813835851E+01
  0.705197686013E+00 -0.422532701166E+01  0.480260227610E+01
  0.177732084578E+01 -0.414855283847E+01  0.421655166211E+01
  0.297643569431E+01 -0.416922733047E+01  0.242487773867E+01
 -0.757272675975E+01 -0.175917704826E+01  0.300604143821E+01
 -0.625211114757E+01 -0.233175387315E+01  0.405005022410E+01
 -0.490422364420E+01 -0.267594522668E+01  0.468119379799E+01
 -0.354038953342E+01 -0.288131253162E+01  0.506681710637E+01
 -0.216191222043E+01 -0.297686634481E+01  0.524995557997E+01
 -0.757254705320E+00 -0.296840608261E+01  0.524690151795E+01
  0.693109368592E+00 -0.285493375997E+01  0.505204133889E+01
  0.184049284996E+01 -0.298297888129E+01  0.442911273209E+01
  0.311597639138E+01 -0.317123110269E+01  0.252863016511E+01
 -0.757749157485E+01 -0.936351280053E+00  0.308927764381E+01
 -0.626545183811E+01 -0.122377643709E+01  0.416503655040E+01
 -0.492881221355E+01 -0.139437182178E+01  0.481275895059E+01
 -0.357274161266E+01 -0.149458703298E+01  0.520734474221E+01
 -0.219566711990E+01 -0.153855847091E+01  0.539188789159E+01
 -0.781888638437E+00 -0.152776708738E+01  0.538643852146E+01
  0.687251387525E+00 -0.146065095902E+01  0.518533992634E+01
  0.190351728297E+01 -0.179524484184E+01  0.453811848951E+01
  0.323620601213E+01 -0.214955483590E+01  0.253884609416E+01
 -0.758241224067E+01 -0.102942566928E+00  0.309733269108E+01
 -0.627623687908E+01 -0.100567735300E+00  0.417753883677E+01
 -0.494643149596E+01 -0.951137645176E-01  0.482709678965E+01
 -0.359631771026E+01 -0.899650167314E-01  0.522198000302E+01
 -0.222288519592E+01 -0.833816189431E-01  0.540478751552E+01
 -0.810078720640E+00 -0.723830672962E-01  0.539520467204E+01
  0.663064662091E+00 -0.543517927246E-01  0.519438310555E+01
  0.195307567404E+01 -0.588132865234E+00  0.450160665764E+01
  0.333333000000E+01 -0.112691000000E+01  0.250000000000E+01
 -0.758726244581E+01  0.730415767608E+00  0.308974598109E+01
 -0.628203433458E+01  0.102297864130E+01  0.416855110041E+01
 -0.495247085475E+01  0.120463320656E+01  0.481795952810E+01
 -0.360408063315E+01  0.131534824398E+01  0.521202370381E+01
 -0.223496638968E+01  0.137241078329E+01  0.539202776557E+01
 -0.829781558640E+00  0.138384818530E+01  0.537610650099E+01
  0.634735940922E+00  0.135094404024E+01  0.515820402758E+01
  0.183177946012E+01  0.837439508125E+00  0.455472796810E+01
  0.316396100381E+01  0.271352638812E+00  0.281624634903E+01
 -0.759161569062E+01  0.155314090457E+01  0.300703439601E+01
 -0.628460332204E+01  0.213180490124E+01  0.405704133941E+01
 -0.495089799910E+01  0.248774067667E+01  0.469165665799E+01
 -0.360099179659E+01  0.270359586027E+01  0.507679013472E+01
 -0.223683966272E+01  0.281264231549E+01  0.525192847402E+01
 -0.843592007528E+00  0.282559065641E+01  0.523317815083E+01
  0.604803729047E+00  0.274247613333E+01  0.500490809113E+01
  0.170066145714E+01  0.224779106629E+01  0.446452622900E+01
  0.294761594022E+01  0.174391597327E+01  0.296869223994E+01
 -0.759523322079E+01  0.235600055041E+01  0.285011167317E+01
 -0.628441673291E+01  0.321139199952E+01  0.384691688866E+01
 -0.494087648657E+01  0.373725620923E+01  0.445166560010E+01
 -0.358573711216E+01  0.405780916670E+01  0.482049286724E+01
 -0.222347191692E+01  0.422057085237E+01  0.499289778609E+01
 -0.844319242879E+00  0.423812084242E+01  0.497913937238E+01
  0.576680721839E+00  0.410813171355E+01  0.475220324000E+01
  0.155999071342E+01  0.363065392984E+01  0.425070777336E+01
  0.269207003345E+01  0.320429651712E+01  0.292205418103E+01
 -0.760252397519E+01  0.313107167445E+01  0.262835591911E+01
 -0.627568316717E+01  0.424702319148E+01  0.354381385289E+01
 -0.491384910330E+01  0.493838145158E+01  0.410409783852E+01
 -0.355106013694E+01  0.536106066821E+01  0.445014129161E+01
 -0.218655118943E+01  0.557711798211E+01  0.462106259928E+01
 -0.813925730637E+00  0.560000086843E+01  0.462892924861E+01
  0.576481045793E+00  0.543397076421E+01  0.441848218737E+01
  0.141396818332E+01  0.496547625587E+01  0.393468082265E+01
  0.238375617193E+01  0.462815047342E+01  0.269274541186E+01
 -0.761047529797E+01  0.386687184028E+01  0.234573404518E+01
 -0.624113518355E+01  0.523307911756E+01  0.315826316248E+01
 -0.486913671013E+01  0.607869860465E+01  0.366013719521E+01
 -0.349471441186E+01  0.659895205066E+01  0.396934967203E+01
 -0.211931928445E+01  0.686633806359E+01  0.412854033360E+01
 -0.743814840999E+00  0.689704204242E+01  0.414925552618E+01
  0.633479605566E+00  0.669386119153E+01  0.400328389239E+01
  0.132915720468E+01  0.625309572227E+01  0.348741370207E+01
  0.204947000000E+01  0.598972000000E+01  0.228122000000E+01
 -0.756396995007E+01 -0.370709827576E+01  0.303253748220E+01
 -0.616255420483E+01 -0.493778817308E+01  0.407311771166E+01
 -0.475855150462E+01 -0.569316282731E+01  0.471229517149E+01
 -0.335654806436E+01 -0.615499626720E+01  0.510653465648E+01
 -0.195082757590E+01 -0.638504277034E+01  0.530916664513E+01
 -0.544589009922E+00 -0.639672755577E+01  0.533331708588E+01
  0.873721300136E+00 -0.619818637316E+01  0.517395035946E+01
  0.180501502439E+01 -0.586319038336E+01  0.454042346312E+01
  0.267357000000E+01 -0.571343000000E+01  0.254410000000E+01
 -0.756385831182E+01 -0.306306539609E+01  0.342942538807E+01
 -0.619186581451E+01 -0.407553291559E+01  0.460800563010E+01
 -0.478769435052E+01 -0.469614918377E+01  0.533089237159E+01
 -0.338902528635E+01 -0.507297890363E+01  0.577706187763E+01
 -0.198798630377E+01 -0.526018160345E+01  0.600032795637E+01
 -0.579276052833E+00 -0.526045537247E+01  0.601933743136E+01
  0.846300968571E+00 -0.510353368972E+01  0.581218524724E+01
  0.181021732917E+01 -0.491965373275E+01  0.512536367201E+01
  0.283075159667E+01 -0.488439208058E+01  0.294134222894E+01
 -0.756718168625E+01 -0.236979363402E+01  0.374708666443E+01
 -0.620822769099E+01 -0.314593229833E+01  0.503440165599E+01
 -0.481325797021E+01 -0.361881452089E+01  0.582360056753E+01
 -0.341713156629E+01 -0.390528092181E+01  0.630827772663E+01
 -0.201633448391E+01 -0.404601023394E+01  0.654494094474E+01
 -0.606392991727E+00 -0.403900303543E+01  0.655426935235E+01
  0.829463500196E+00 -0.391788089057E+01  0.631904658263E+01
  0.186146591480E+01 -0.390033870223E+01  0.558743002729E+01
  0.296976980904E+01 -0.399099582349E+01  0.323015532233E+01
 -0.757069556113E+01 -0.163699193172E+01  0.397292201502E+01
 -0.622088423023E+01 -0.216202179238E+01  0.534010111172E+01
 -0.483446690996E+01 -0.247984018605E+01  0.617493763708E+01
 -0.344219425758E+01 -0.267131312161E+01  0.668755478805E+01
 -0.204256030229E+01 -0.276400533447E+01  0.693215410836E+01
 -0.625964126170E+00 -0.275189679112E+01  0.693482944549E+01
  0.828732588143E+00 -0.266526244507E+01  0.668636354635E+01
  0.192254948848E+01 -0.282638055163E+01  0.590610573514E+01
  0.310227400891E+01 -0.305142342565E+01  0.338690004889E+01
 -0.757426747956E+01 -0.876490099337E+00  0.410196011023E+01
 -0.623142626570E+01 -0.114092322065E+01  0.551577085792E+01
 -0.485196378033E+01 -0.129823733225E+01  0.637716677767E+01
 -0.346460265169E+01 -0.139249156680E+01  0.690435702067E+01
 -0.206538986007E+01 -0.143584299749E+01  0.715408983621E+01
 -0.644343991343E+00 -0.142396544087E+01  0.715062896646E+01
  0.833813232112E+00 -0.137236272563E+01  0.689053699970E+01
  0.199524343640E+01 -0.171723668674E+01  0.607397215882E+01
  0.322930844608E+01 -0.209285025459E+01  0.340194334210E+01
 -0.757882079401E+01 -0.102612300539E+00  0.413037691584E+01
 -0.624088112904E+01 -0.998594509877E-01  0.555633216728E+01
 -0.486693583010E+01 -0.952066856496E-01  0.642377503394E+01
 -0.348404831220E+01 -0.897310879636E-01  0.695441129906E+01
 -0.208909600085E+01 -0.847946169594E-01  0.720378166956E+01
 -0.671117520697E+00 -0.734496304223E-01  0.719649190433E+01
  0.803307501300E+00 -0.617212775735E-01  0.693535372070E+01
  0.203907334285E+01 -0.589166094736E+00  0.604205026605E+01
  0.333333000000E+01 -0.112691000000E+01  0.333333000000E+01
 -0.758381214954E+01  0.671355025077E+00  0.410288805991E+01
 -0.624712600891E+01  0.941038203232E+00  0.552012747442E+01
 -0.487393093532E+01  0.110857690550E+01  0.638350154259E+01
 -0.349286345033E+01  0.121304673800E+01  0.691156552870E+01
 -0.210276418802E+01  0.126785671107E+01  0.715805162947E+01
 -0.695144269025E+00  0.127852161942E+01  0.714766931964E+01
  0.759460508122E+00  0.125281728427E+01  0.687494296240E+01
  0.188507255742E+01  0.764114071855E+00  0.612867990528E+01
  0.314172702694E+01  0.203357115432E+00  0.376932458364E+01
 -0.758924526709E+01  0.143166929946E+01  0.397481172613E+01
 -0.625206891892E+01  0.196284736077E+01  0.534812131693E+01
 -0.487735154175E+01  0.229087117767E+01  0.618812535511E+01
 -0.349814090148E+01  0.249343704706E+01  0.670110196941E+01
 -0.211166860673E+01  0.259775890371E+01  0.694091355238E+01
 -0.717391830075E+00  0.261030857520E+01  0.692943433345E+01
  0.716605020873E+00  0.255180046735E+01  0.664980642508E+01
  0.172816931255E+01  0.209907257071E+01  0.600275778464E+01
  0.290963223202E+01  0.160615213332E+01  0.397512106270E+01
 -0.759398629213E+01  0.216444992880E+01  0.374952407768E+01
 -0.625403763533E+01  0.294754801771E+01  0.504623622621E+01
 -0.487755626601E+01  0.343181922686E+01  0.584131110559E+01
 -0.349831262648E+01  0.372849438760E+01  0.632849454333E+01
 -0.211573313778E+01  0.388281940197E+01  0.655785513606E+01
 -0.727849550493E+00  0.389830387929E+01  0.655275693589E+01
  0.683124980542E+00  0.380753767014E+01  0.627717167716E+01
  0.159060107062E+01  0.339047655395E+01  0.567488532429E+01
  0.265951302985E+01  0.300937345174E+01  0.389787679891E+01
 -0.759857743044E+01  0.285789587578E+01  0.343220465717E+01
 -0.625366918102E+01  0.387867727186E+01  0.462141058282E+01
 -0.487374945803E+01  0.451116244840E+01  0.535293120604E+01
 -0.349777366363E+01  0.489812504038E+01  0.580276779497E+01
 -0.211620006635E+01  0.510018774430E+01  0.602242878147E+01
 -0.730356071583E+00  0.512017096715E+01  0.603278673842E+01
  0.675591806303E+00  0.499425538089E+01  0.577507278933E+01
  0.147325391216E+01  0.461154387785E+01  0.519709376101E+01
  0.240089985209E+01  0.435161657205E+01  0.354837104983E+01
 -0.760625172001E+01  0.350161086538E+01  0.303629055739E+01
 -0.623470536891E+01  0.474108315391E+01  0.408944859149E+01
 -0.485831306331E+01  0.550833075393E+01  0.473775360929E+01
 -0.347829777302E+01  0.597980095247E+01  0.513721606734E+01
 -0.209454430621E+01  0.622202643127E+01  0.534268837283E+01
 -0.707877511868E+00  0.625105267711E+01  0.536423499141E+01
  0.689391954518E+00  0.606953658374E+01  0.517164621370E+01
  0.143202862320E+01  0.572027394466E+01  0.452370697217E+01
  0.212207000000E+01  0.558730000000E+01  0.295352000000E+01
 -0.756257700381E+01 -0.325133114783E+01  0.364774269737E+01
 -0.615988889680E+01 -0.432808761342E+01  0.489959412455E+01
 -0.475191174257E+01 -0.498647363694E+01  0.566714874323E+01
 -0.334433249367E+01 -0.538825934143E+01  0.613998620575E+01
 -0.193259001420E+01 -0.558732335404E+01  0.638019368035E+01
 -0.513645329707E+00 -0.559610464744E+01  0.639916069894E+01
  0.920373068589E+00 -0.542001196763E+01  0.619604324283E+01
  0.189353949775E+01 -0.522248074241E+01  0.544037638407E+01
  0.273585000000E+01 -0.528053000000E+01  0.306056000000E+01
 -0.756431515696E+01 -0.272039515547E+01  0.417567669642E+01
 -0.615765177572E+01 -0.361396572915E+01  0.560471820413E+01
 -0.474576460079E+01 -0.415995831524E+01  0.648255429201E+01
 -0.333405884392E+01 -0.449194454429E+01  0.702227754750E+01
 -0.191547171236E+01 -0.465468582707E+01  0.729067926334E+01
 -0.488802727129E+00 -0.465989669711E+01  0.730569133264E+01
  0.958763221990E+00 -0.451112996507E+01  0.705865791200E+01
  0.198934510660E+01 -0.444535704520E+01  0.622991701370E+01
  0.283639000000E+01 -0.458160000000E+01  0.363581000000E+01
 -0.756604748905E+01 -0.212491846014E+01  0.459946496763E+01
 -0.615650628120E+01 -0.281339404410E+01  0.617321336870E+01
 -0.474260862695E+01 -0.323408079065E+01  0.713798613137E+01
 -0.332545465153E+01 -0.348832234344E+01  0.773268242528E+01
 -0.190421086724E+01 -0.361070107461E+01  0.802083398296E+01
 -0.468115428699E+00 -0.361259521237E+01  0.803345117341E+01
  0.982031629895E+00 -0.349233907012E+01  0.774941528897E+01
  0.208273079471E+01 -0.357143668209E+01  0.684880253602E+01
  0.295176000000E+01 -0.377956000000E+01  0.404840000000E+01
 -0.756743060294E+01 -0.147863878384E+01  0.490950894119E+01
 -0.615805691489E+01 -0.194696124608E+01  0.658940482139E+01
 -0.474146018389E+01 -0.223096343597E+01  0.761995264408E+01
 -0.332308953803E+01 -0.240251572863E+01  0.825189445578E+01
 -0.189668417487E+01 -0.248143007542E+01  0.855658602349E+01
 -0.460706243096E+00 -0.247967539410E+01  0.856451229075E+01
  0.999799185070E+00 -0.239095817056E+01  0.825371186312E+01
  0.216347355181E+01 -0.261870560966E+01  0.728700975527E+01
  0.307680000000E+01 -0.291030000000E+01  0.427989000000E+01
 -0.756993104270E+01 -0.799205066213E+00  0.509844311560E+01
 -0.616135354825E+01 -0.103428223953E+01  0.684480743816E+01
 -0.474529175578E+01 -0.117693299879E+01  0.791444881722E+01
 -0.332467503145E+01 -0.125925099921E+01  0.857140482098E+01
 -0.189940621682E+01 -0.129644951730E+01  0.888197579281E+01
 -0.459140935544E+00 -0.128692640120E+01  0.889212991740E+01
  0.989715150796E+00 -0.123376831960E+01  0.855281006388E+01
  0.223823824425E+01 -0.161551404362E+01  0.752803896033E+01
  0.320592000000E+01 -0.201270000000E+01  0.431991000000E+01
 -0.757375848183E+01 -0.101982663532E+00  0.516256318588E+01
 -0.616746469311E+01 -0.100064262227E+00  0.693193987087E+01
 -0.475283881863E+01 -0.947740738753E-01  0.801637389453E+01
 -0.333352377778E+01 -0.899416993163E-01  0.868084484520E+01
 -0.190856464523E+01 -0.796586844866E-01  0.899519093539E+01
 -0.470922954892E+00 -0.694126324889E-01  0.900013399760E+01
  0.981457532438E+00 -0.437696873304E-01  0.866063064348E+01
  0.226464750478E+01 -0.585738448975E+00  0.753251375356E+01
  0.333333000000E+01 -0.112691000000E+01  0.416667000000E+01
 -0.757872351750E+01  0.594224187773E+00  0.510008313433E+01
 -0.617621363573E+01  0.835612316937E+00  0.684917458910E+01
 -0.476450468642E+01  0.985424945575E+00  0.792232075195E+01
 -0.334895061222E+01  0.108196004196E+01  0.857927031890E+01
 -0.192532789703E+01  0.113291516221E+01  0.889034195648E+01
 -0.491045131244E+00  0.115243599333E+01  0.889376258285E+01
  0.955242731290E+00  0.113569497880E+01  0.854788458653E+01
  0.214149060691E+01  0.661227839225E+00  0.763224508751E+01
  0.311477000000E+01  0.846185000000E-01  0.477384000000E+01
 -0.758468889257E+01  0.127411634457E+01  0.491197008315E+01
 -0.618655965839E+01  0.174705962276E+01  0.659906013356E+01
 -0.478114908755E+01  0.204093305661E+01  0.763335272572E+01
 -0.336823091305E+01  0.222314024016E+01  0.827012262794E+01
 -0.195304474515E+01  0.231884296363E+01  0.856799050290E+01
 -0.518947221307E+00  0.233951187803E+01  0.857424062642E+01
  0.913613307159E+00  0.228859482832E+01  0.822475257078E+01
  0.200566456810E+01  0.188020477473E+01  0.745062729744E+01
  0.287533000000E+01  0.141185000000E+01  0.502046000000E+01
 -0.759072372180E+01  0.191978021607E+01  0.460311764255E+01
 -0.619922295858E+01  0.261382850502E+01  0.618585011663E+01
 -0.479934157739E+01  0.304352481581E+01  0.715865218229E+01
 -0.339577517958E+01  0.330920093191E+01  0.775634169875E+01
 -0.198432462729E+01  0.344536172960E+01  0.804023690887E+01
 -0.562407359938E+00  0.346888443459E+01  0.804512372395E+01
  0.868461794989E+00  0.338137590681E+01  0.772082647547E+01
  0.184700210180E+01  0.304487924883E+01  0.700121717688E+01
  0.263311000000E+01  0.275453000000E+01  0.488788000000E+01
 -0.759561135329E+01  0.251537026849E+01  0.417916005109E+01
 -0.621197952402E+01  0.341391012578E+01  0.562078310334E+01
 -0.482142929007E+01  0.396975031243E+01  0.650647690301E+01
 -0.342478799307E+01  0.431191042560E+01  0.705170312047E+01
 -0.202533388849E+01  0.448567778300E+01  0.731551300840E+01
 -0.611951615334E+00  0.451174188255E+01  0.732454331757E+01
  0.805797778313E+00  0.438568103360E+01  0.703624644615E+01
  0.169227242309E+01  0.411055092975E+01  0.632632364075E+01
  0.240640000000E+01  0.401125000000E+01  0.438612000000E+01
 -0.759990698901E+01  0.304652811943E+01  0.365115025184E+01
 -0.622735140478E+01  0.413287859454E+01  0.491307163573E+01
 -0.484521517047E+01  0.480103361492E+01  0.569206962074E+01
 -0.346027515804E+01  0.521243214425E+01  0.617074670442E+01
 -0.207062405820E+01  0.542290918553E+01  0.641231167558E+01
 -0.672841350282E+00  0.544894281065E+01  0.642956741067E+01
  0.733682124512E+00  0.529370295264E+01  0.618749419568E+01
  0.153405712319E+01  0.504701711275E+01  0.546576518269E+01
  0.221231000000E+01  0.508710000000E+01  0.355309000000E+01
  0.500000000000E+01 -0.169037000000E+01  0.489859000001E-15
  0.527591000000E+01 -0.788220000000E+00  0.391887000000E-15
  0.575887000000E+01 -0.658810000000E+00  0.391887000000E-15
  0.624183000000E+01 -0.529401000000E+00  0.391887000000E-15
  0.672480000000E+01 -0.399991000000E+00  0.391887000000E-15
  0.720776000000E+01 -0.270582000000E+00  0.391887000000E-15
  0.769072000000E+01 -0.141172000000E+00  0.391887000000E-15
  0.817369000000E+01 -0.117629000000E-01  0.391887000000E-15
  0.865665000000E+01  0.117647000000E+00  0.391887000000E-15
  0.913961000000E+01  0.247056000000E+00  0.391887000000E-15
  0.962257000000E+01  0.376466000000E+00  0.391887000000E-15
  0.467244880432E+01 -0.159787911792E+00  0.391887000000E-15
  0.507345004339E+01  0.471767426980E+00  0.313510000000E-15
  0.555784957757E+01  0.580139442861E+00  0.313510000000E-15
  0.602928187569E+01  0.710508346121E+00  0.313510000000E-15
  0.649718526069E+01  0.839235324799E+00  0.313510000000E-15
  0.696361332326E+01  0.966496494295E+00  0.313510000000E-15
  0.742971407612E+01  0.109271593713E+01  0.313510000000E-15
  0.789586602498E+01  0.121842495922E+01  0.313510000000E-15
  0.836219388882E+01  0.134421680448E+01  0.313510000000E-15
  0.882875788277E+01  0.147036429575E+01  0.313510000000E-15
  0.929129000000E+01  0.161285000000E+01  0.313510000000E-15
  0.443219752252E+01  0.137821604076E+01  0.293915000000E-15
  0.487900732091E+01  0.171165957893E+01  0.235132000000E-15
  0.535046167137E+01  0.184442728612E+01  0.235132000000E-15
  0.580183244257E+01  0.197694029907E+01  0.235132000000E-15
  0.624866616636E+01  0.210449832096E+01  0.235132000000E-15
  0.669582057175E+01  0.222809078237E+01  0.235132000000E-15
  0.714419360109E+01  0.235021854790E+01  0.235132000000E-15
  0.759399448385E+01  0.247179939174E+01  0.235132000000E-15
  0.804551447763E+01  0.259326605826E+01  0.235132000000E-15
  0.849951473489E+01  0.271703028381E+01  0.235132000000E-15
  0.896000000000E+01  0.284924000000E+01  0.235132000000E-15
  0.407415605275E+01  0.289404654923E+01  0.195943000000E-15
  0.457891222804E+01  0.292699519970E+01  0.156755000000E-15
  0.502975308852E+01  0.310359004337E+01  0.156755000000E-15
  0.547197835479E+01  0.324244043277E+01  0.156755000000E-15
  0.591552880803E+01  0.336758992646E+01  0.156755000000E-15
  0.636087230497E+01  0.348951569293E+01  0.156755000000E-15
  0.680837317853E+01  0.361020407495E+01  0.156755000000E-15
  0.725776059258E+01  0.373066385209E+01  0.156755000000E-15
  0.770904411096E+01  0.385136625703E+01  0.156755000000E-15
  0.816386772017E+01  0.397081137834E+01  0.156755000000E-15
  0.862871000000E+01  0.408562000000E+01  0.156755000000E-15
  0.350445160955E+01  0.445533788484E+01  0.979717000000E-16
  0.413147888465E+01  0.414070330694E+01  0.783774000000E-16
  0.456728604524E+01  0.433422497731E+01  0.783774000000E-16
  0.502647111630E+01  0.446394318857E+01  0.783774000000E-16
  0.548965182072E+01  0.459110964587E+01  0.783774000000E-16
  0.595515176137E+01  0.471618576365E+01  0.783774000000E-16
  0.642179115509E+01  0.484101911207E+01  0.783774000000E-16
  0.688904604068E+01  0.496583626926E+01  0.783774000000E-16
  0.735678514410E+01  0.509040512998E+01  0.783774000000E-16
  0.782489048834E+01  0.521457597838E+01  0.783774000000E-16
  0.829742000000E+01  0.532201000000E+01  0.783774000002E-16
  0.292945000000E+01  0.603704000000E+01  0.780315215045E-27
  0.361947000000E+01  0.539371000000E+01  0.395563113858E-27
  0.410243000000E+01  0.552311000000E+01  0.125202717006E-27
  0.458539000000E+01  0.565252000000E+01  0.171439102403E-27
  0.506835000000E+01  0.578193000000E+01  0.174160135119E-27
  0.555132000000E+01  0.591134000000E+01  0.173365883780E-27
  0.603428000000E+01  0.604075000000E+01  0.171208795698E-27
  0.651724000000E+01  0.617016000000E+01  0.168840909908E-27
  0.700021000000E+01  0.629957000000E+01  0.166038339512E-27
  0.748317000000E+01  0.642898000000E+01  0.150644228169E-27
  0.796613000000E+01  0.655839000000E+01  0.540293666107E-28
  0.498725000000E+01 -0.164280000000E+01  0.625738000000E+00
  0.526571000000E+01 -0.750165000000E+00  0.500590000000E+00
  0.574867000000E+01 -0.620756000000E+00  0.500590000000E+00
  0.623164000000E+01 -0.491346000000E+00  0.500590000000E+00
  0.671460000000E+01 -0.361937000000E+00  0.500590000000E+00
  0.719756000000E+01 -0.232527000000E+00  0.500590000000E+00
  0.768053000000E+01 -0.103118000000E+00  0.500590000000E+00
  0.816349000000E+01  0.262920000000E-01  0.500590000000E+00
  0.864645000000E+01  0.155702000000E+00  0.500590000000E+00
  0.912941000000E+01  0.285111000000E+00  0.500590000000E+00
  0.961238000000E+01  0.414521000000E+00  0.500590000000E+00
  0.466246103563E+01 -0.154099978003E+00  0.767969320116E+00
  0.506412195410E+01  0.474275256956E+00  0.608138693834E+00
  0.554729248428E+01  0.583577753658E+00  0.620677159176E+00
  0.601927397060E+01  0.714242160538E+00  0.624034629600E+00
  0.648842745415E+01  0.843169870389E+00  0.624983267788E+00
  0.695631127184E+01  0.970736788154E+00  0.625096536413E+00
  0.742387882400E+01  0.109729549739E+01  0.624945945489E+00
  0.789141928991E+01  0.122332725365E+01  0.624712079938E+00
  0.835906488831E+01  0.134938805415E+01  0.624288738847E+00
  0.882675188253E+01  0.147560149202E+01  0.623188078244E+00
  0.929009000000E+01  0.161731000000E+01  0.618286000000E+00
  0.441371273390E+01  0.137671569109E+01  0.826472644678E+00
  0.486496295831E+01  0.170800157681E+01  0.667868931491E+00
  0.533606425639E+01  0.184051699671E+01  0.685903266710E+00
  0.578862265995E+01  0.197286934223E+01  0.693504066919E+00
  0.623758819708E+01  0.210065127712E+01  0.695826325869E+00
  0.668720736701E+01  0.222473697932E+01  0.695733713048E+00
  0.713805992907E+01  0.234744736734E+01  0.694898682265E+00
  0.759019252827E+01  0.246958641582E+01  0.693742746141E+00
  0.804373589935E+01  0.259153064859E+01  0.691807257356E+00
  0.849923676682E+01  0.271553669893E+01  0.687894384868E+00
  0.896044000000E+01  0.284757000000E+01  0.680162000000E+00
  0.405224661726E+01  0.289857349319E+01  0.822865729766E+00
  0.456312423381E+01  0.292778555465E+01  0.669503020846E+00
  0.501420346175E+01  0.310241426112E+01  0.686539023017E+00
  0.545788256031E+01  0.324058830263E+01  0.694938227466E+00
  0.590367805499E+01  0.336591732577E+01  0.696985979584E+00
  0.635158906904E+01  0.348833343608E+01  0.696503810217E+00
  0.680162157964E+01  0.360963259673E+01  0.695362186395E+00
  0.725334573245E+01  0.373070569583E+01  0.694015788192E+00
  0.770664529095E+01  0.385197865498E+01  0.691979230105E+00
  0.816287989237E+01  0.397195750294E+01  0.688006396235E+00
  0.862826000000E+01  0.408729000000E+01  0.680162000000E+00
  0.349110670162E+01  0.445364306368E+01  0.762979767526E+00
  0.412092670470E+01  0.413684965793E+01  0.611637314702E+00
  0.455792216626E+01  0.432670598276E+01  0.625368638056E+00
  0.501881420715E+01  0.445603088909E+01  0.626619707100E+00
  0.548378100008E+01  0.458350528466E+01  0.626056319896E+00
  0.595094938572E+01  0.470898025925E+01  0.625246514536E+00
  0.641912295555E+01  0.483422744698E+01  0.624648002370E+00
  0.688775752254E+01  0.495943710783E+01  0.624243064576E+00
  0.735672264589E+01  0.508440183151E+01  0.623805860987E+00
  0.782578033697E+01  0.520905305096E+01  0.622829352502E+00
  0.829861000000E+01  0.531755000000E+01  0.618286000000E+00
  0.294219000000E+01  0.598947000000E+01  0.625738000000E+00
  0.362966000000E+01  0.535565000000E+01  0.500590000000E+00
  0.411263000000E+01  0.548506000000E+01  0.500590000000E+00
  0.459559000000E+01  0.561447000000E+01  0.500590000000E+00
  0.507855000000E+01  0.574388000000E+01  0.500590000000E+00
  0.556151000000E+01  0.587329000000E+01  0.500590000000E+00
  0.604448000000E+01  0.600270000000E+01  0.500590000000E+00
  0.652744000000E+01  0.613211000000E+01  0.500590000000E+00
  0.701040000000E+01  0.626152000000E+01  0.500590000000E+00
  0.749337000000E+01  0.639093000000E+01  0.500590000000E+00
  0.797633000000E+01  0.652034000000E+01  0.500590000000E+00
  0.494933000000E+01 -0.150127000000E+01  0.123607000000E+01
  0.523537000000E+01 -0.636938000000E+00  0.988854000000E+00
  0.571833000000E+01 -0.507528000000E+00  0.988854000000E+00
  0.620130000000E+01 -0.378118000000E+00  0.988854000000E+00
  0.668426000000E+01 -0.248709000000E+00  0.988854000000E+00
  0.716722000000E+01 -0.119299000000E+00  0.988854000000E+00
  0.765019000000E+01  0.101101000000E-01  0.988854000000E+00
  0.813315000000E+01  0.139520000000E+00  0.988854000000E+00
  0.861611000000E+01  0.268929000000E+00  0.988854000000E+00
  0.909907000000E+01  0.398339000000E+00  0.988854000000E+00
  0.958204000000E+01  0.527748000000E+00  0.988854000000E+00
  0.462548104162E+01 -0.932829386924E-01  0.152549765500E+01
  0.503000189820E+01  0.518232070658E+00  0.120835873892E+01
  0.551001711821E+01  0.630532688395E+00  0.122896973672E+01
  0.598374897163E+01  0.761899539152E+00  0.123384212172E+01
  0.645629047073E+01  0.891465596660E+00  0.123508227606E+01
  0.692790154011E+01  0.101991437118E+01  0.123518750246E+01
  0.739913294145E+01  0.114729837460E+01  0.123495240993E+01
  0.787020151727E+01  0.127409480787E+01  0.123464455911E+01
  0.834105701313E+01  0.140089475936E+01  0.123408002106E+01
  0.881155487133E+01  0.152730329962E+01  0.123250952542E+01
  0.927681000000E+01  0.166687000000E+01  0.122425000000E+01
  0.435721137319E+01  0.139481776770E+01  0.164922801626E+01
  0.482062672728E+01  0.171509302979E+01  0.132658033368E+01
  0.529017452911E+01  0.184740023263E+01  0.135891833840E+01
  0.574628600543E+01  0.197938951915E+01  0.137095523959E+01
  0.620145765617E+01  0.210796391550E+01  0.137404322119E+01
  0.665812826384E+01  0.223356594314E+01  0.137353715120E+01
  0.711596316945E+01  0.235788472436E+01  0.137211871156E+01
  0.757460369050E+01  0.248156772179E+01  0.137037731807E+01
  0.803380612862E+01  0.260485873762E+01  0.136749513003E+01
  0.849360437913E+01  0.272958132212E+01  0.136131755383E+01
  0.895686000000E+01  0.286093000000E+01  0.134800000000E+01
  0.399736333546E+01  0.288981735471E+01  0.164176005556E+01
  0.452302556306E+01  0.291245758385E+01  0.132908337699E+01
  0.497455461725E+01  0.308072972113E+01  0.136040218932E+01
  0.542262610478E+01  0.321697991231E+01  0.137374950464E+01
  0.587509185297E+01  0.334285140513E+01  0.137614494441E+01
  0.633040071271E+01  0.346669923292E+01  0.137489021826E+01
  0.678758070117E+01  0.358971864519E+01  0.137293085376E+01
  0.724584986957E+01  0.371254746656E+01  0.137086763381E+01
  0.770475199730E+01  0.383541512506E+01  0.136781786131E+01
  0.816505592798E+01  0.395692022551E+01  0.136153890984E+01
  0.863184000000E+01  0.407393000000E+01  0.134800000000E+01
  0.347016600062E+01  0.440165083760E+01  0.151824833618E+01
  0.410389341892E+01  0.408956338984E+01  0.121358149226E+01
  0.454458689733E+01  0.426901328462E+01  0.123656301525E+01
  0.501002072789E+01  0.439785281664E+01  0.123790052623E+01
  0.547967376161E+01  0.452614182393E+01  0.123665851705E+01
  0.595118237697E+01  0.465257848093E+01  0.123528930000E+01
  0.642311690430E+01  0.477884903371E+01  0.123438626630E+01
  0.689512882608E+01  0.490507437326E+01  0.123383142239E+01
  0.736709007196E+01  0.503092604176E+01  0.123325973917E+01
  0.783853051172E+01  0.515674465782E+01  0.123189398844E+01
  0.831189000000E+01  0.526799000000E+01  0.122425000000E+01
  0.298012000000E+01  0.584793000000E+01  0.123607000000E+01
  0.366000000000E+01  0.524242000000E+01  0.988854000000E+00
  0.414296000000E+01  0.537183000000E+01  0.988854000000E+00
  0.462593000000E+01  0.550124000000E+01  0.988854000000E+00
  0.510889000000E+01  0.563065000000E+01  0.988854000000E+00
  0.559185000000E+01  0.576006000000E+01  0.988854000000E+00
  0.607482000000E+01  0.588947000000E+01  0.988854000000E+00
  0.655778000000E+01  0.601888000000E+01  0.988854000000E+00
  0.704074000000E+01  0.614829000000E+01  0.988854000000E+00
  0.752371000000E+01  0.627770000000E+01  0.988854000000E+00
  0.800667000000E+01  0.640711000000E+01  0.988854000000E+00
  0.488716000000E+01 -0.126925000000E+01  0.181596000000E+01
  0.518564000000E+01 -0.451325000000E+00  0.145277000000E+01
  0.566860000000E+01 -0.321916000000E+00  0.145277000000E+01
  0.615156000000E+01 -0.192506000000E+00  0.145277000000E+01
  0.663453000000E+01 -0.630967000000E-01  0.145277000000E+01
  0.711749000000E+01  0.663128000000E-01  0.145277000000E+01
  0.760045000000E+01  0.195722000000E+00  0.145277000000E+01
  0.808341000000E+01  0.325132000000E+00  0.145277000000E+01
  0.856638000000E+01  0.454541000000E+00  0.145277000000E+01
  0.904934000000E+01  0.583951000000E+00  0.145277000000E+01
  0.953230000000E+01  0.713360000000E+00  0.145277000000E+01
  0.456526730915E+01  0.208624735726E-01  0.226230440127E+01
  0.497405765009E+01  0.602675219616E+00  0.179111421481E+01
  0.545023399647E+01  0.720222183942E+00  0.181220056681E+01
  0.592755062432E+01  0.852480733325E+00  0.181579819724E+01
  0.640512172641E+01  0.983252705278E+00  0.181670617600E+01
  0.688176303935E+01  0.111255708509E+01  0.181678629590E+01
  0.735787456779E+01  0.124090914347E+01  0.181658172128E+01
  0.783365535523E+01  0.136872909877E+01  0.181632602627E+01
  0.830921651411E+01  0.149632169941E+01  0.181601339059E+01
  0.878359298635E+01  0.162340226130E+01  0.181495713250E+01
  0.925190000000E+01  0.175986000000E+01  0.180586000000E+01
  0.427222199388E+01  0.143010029360E+01  0.246345526641E+01
  0.475000757564E+01  0.173286157642E+01  0.196818873350E+01
  0.521674702925E+01  0.186500953656E+01  0.200597228551E+01
  0.567970400322E+01  0.199666346600E+01  0.201625492535E+01
  0.614535148376E+01  0.212705337828E+01  0.201811101652E+01
  0.661282485268E+01  0.225471806963E+01  0.201721326185E+01
  0.708089146121E+01  0.238127733849E+01  0.201578491808E+01
  0.754899539840E+01  0.250716887598E+01  0.201428533501E+01
  0.801671444752E+01  0.263237667778E+01  0.201204249165E+01
  0.848280256187E+01  0.275835510997E+01  0.200649283625E+01
  0.894940000000E+01  0.288877000000E+01  0.199149000000E+01
  0.391705172068E+01  0.286682506294E+01  0.245368831196E+01
  0.446124597734E+01  0.288133155232E+01  0.197034268625E+01
  0.491341881179E+01  0.303916647190E+01  0.200845111009E+01
  0.536989396813E+01  0.317302259842E+01  0.201976352995E+01
  0.583410258715E+01  0.330017249991E+01  0.202044040434E+01
  0.630090487789E+01  0.342636550120E+01  0.201867112498E+01
  0.676861561116E+01  0.355200733283E+01  0.201667298063E+01
  0.723643342970E+01  0.367742838427E+01  0.201484631109E+01
  0.770375967084E+01  0.380284081731E+01  0.201244171921E+01
  0.817013780871E+01  0.392645236797E+01  0.200679348649E+01
  0.863930000000E+01  0.404608000000E+01  0.199149000000E+01
  0.345217131279E+01  0.429608881615E+01  0.225452740512E+01
  0.408562892746E+01  0.400035164277E+01  0.179528822119E+01
  0.453200098521E+01  0.416449660203E+01  0.182024064103E+01
  0.500436217939E+01  0.429306104191E+01  0.181965980782E+01
  0.548110071458E+01  0.442206046029E+01  0.181794194833E+01
  0.595818783431E+01  0.454991344700E+01  0.181667269317E+01
  0.643497269798E+01  0.467755058016E+01  0.181587828686E+01
  0.691139508484E+01  0.480507825201E+01  0.181543143044E+01
  0.738756893172E+01  0.493249169476E+01  0.181512685632E+01
  0.786247604310E+01  0.505959546981E+01  0.181427341219E+01
  0.833681000000E+01  0.517500000000E+01  0.180586000000E+01
  0.304229000000E+01  0.561592000000E+01  0.181596000000E+01
  0.370974000000E+01  0.505681000000E+01  0.145277000000E+01
  0.419270000000E+01  0.518622000000E+01  0.145277000000E+01
  0.467566000000E+01  0.531563000000E+01  0.145277000000E+01
  0.515863000000E+01  0.544504000000E+01  0.145277000000E+01
  0.564159000000E+01  0.557445000000E+01  0.145277000000E+01
  0.612455000000E+01  0.570386000000E+01  0.145277000000E+01
  0.660751000000E+01  0.583327000000E+01  0.145277000000E+01
  0.709048000000E+01  0.596268000000E+01  0.145277000000E+01
  0.757344000000E+01  0.609209000000E+01  0.145277000000E+01
  0.805640000000E+01  0.622150000000E+01  0.145277000000E+01
  0.480228000000E+01 -0.952469000000E+00  0.235114000000E+01
  0.511773000000E+01 -0.197899000000E+00  0.188091000000E+01
  0.560069000000E+01 -0.684892000000E-01  0.188091000000E+01
  0.608366000000E+01  0.609204000000E-01  0.188091000000E+01
  0.656662000000E+01  0.190330000000E+00  0.188091000000E+01
  0.704958000000E+01  0.319739000000E+00  0.188091000000E+01
  0.753255000000E+01  0.449149000000E+00  0.188091000000E+01
  0.801551000000E+01  0.578558000000E+00  0.188091000000E+01
  0.849847000000E+01  0.707968000000E+00  0.188091000000E+01
  0.898143000000E+01  0.837378000000E+00  0.188091000000E+01
  0.946440000000E+01  0.966787000000E+00  0.188091000000E+01
  0.448480127101E+01  0.178435177871E+00  0.296808806926E+01
  0.489793423199E+01  0.729413936128E+00  0.234506999935E+01
  0.537455211801E+01  0.852751648832E+00  0.235666422502E+01
  0.585795135684E+01  0.986620012700E+00  0.235794542511E+01
  0.634075573647E+01  0.111672458234E+01  0.235844793775E+01
  0.682231315401E+01  0.124633534407E+01  0.235848698317E+01
  0.730319217522E+01  0.137537283862E+01  0.235838437911E+01
  0.778367906059E+01  0.150415629934E+01  0.235830612500E+01
  0.826394255036E+01  0.163312444197E+01  0.235806392558E+01
  0.874445964216E+01  0.176058193337E+01  0.235838891835E+01
  0.921608000000E+01  0.189354000000E+01  0.235170000000E+01
  0.416726755555E+01  0.148334836182E+01  0.326436597343E+01
  0.465743743474E+01  0.176259523052E+01  0.258531523940E+01
  0.512420677221E+01  0.189535808305E+01  0.261156720003E+01
  0.560063261945E+01  0.202832715987E+01  0.261433728308E+01
  0.607968657509E+01  0.215948802320E+01  0.261514578933E+01
  0.655900577480E+01  0.228879658426E+01  0.261451660330E+01
  0.703767069522E+01  0.241745671028E+01  0.261385078297E+01
  0.751567137027E+01  0.254570988176E+01  0.261325750169E+01
  0.799297400481E+01  0.267337049719E+01  0.261223706250E+01
  0.846825416203E+01  0.280081623496E+01  0.261079236053E+01
  0.893831000000E+01  0.293018000000E+01  0.259920000000E+01
  0.381756529301E+01  0.283355549207E+01  0.325868711493E+01
  0.438034325660E+01  0.283454286511E+01  0.258683138579E+01
  0.483710893832E+01  0.297918649593E+01  0.261420247695E+01
  0.531106571865E+01  0.311166390540E+01  0.261654129275E+01
  0.579053034038E+01  0.324122997576E+01  0.261645848908E+01
  0.626995556091E+01  0.337037809440E+01  0.261535560183E+01
  0.674865988261E+01  0.349886053328E+01  0.261438837191E+01
  0.722661472816E+01  0.362696847693E+01  0.261363096249E+01
  0.770365732140E+01  0.375504084197E+01  0.261252648367E+01
  0.817882336098E+01  0.388211198357E+01  0.261106245917E+01
  0.865040000000E+01  0.400468000000E+01  0.259920000000E+01
  0.343866335967E+01  0.414502374876E+01  0.296053312361E+01
  0.406874423088E+01  0.386907966260E+01  0.234715264973E+01
  0.452463859142E+01  0.401621300140E+01  0.236240955306E+01
  0.500921204692E+01  0.414441679704E+01  0.235955528375E+01
  0.549228494841E+01  0.427546881704E+01  0.235887763332E+01
  0.597449775896E+01  0.440487961448E+01  0.235816189550E+01
  0.645577771641E+01  0.453398334690E+01  0.235781100815E+01
  0.693654126689E+01  0.466284488528E+01  0.235765883402E+01
  0.741718040154E+01  0.479131838609E+01  0.235744435302E+01
  0.789728888098E+01  0.492117579150E+01  0.235785288358E+01
  0.837263000000E+01  0.504132000000E+01  0.235170000000E+01
  0.312717000000E+01  0.529913000000E+01  0.235114000000E+01
  0.377764000000E+01  0.480338000000E+01  0.188091000000E+01
  0.426060000000E+01  0.493279000000E+01  0.188091000000E+01
  0.474357000000E+01  0.506220000000E+01  0.188091000000E+01
  0.522653000000E+01  0.519161000000E+01  0.188091000000E+01
  0.570949000000E+01  0.532102000000E+01  0.188091000000E+01
  0.619246000000E+01  0.545043000000E+01  0.188091000000E+01
  0.667542000000E+01  0.557984000000E+01  0.188091000000E+01
  0.715838000000E+01  0.570925000000E+01  0.188091000000E+01
  0.764135000000E+01  0.583866000000E+01  0.188091000000E+01
  0.812431000000E+01  0.596807000000E+01  0.188091000000E+01
  0.469677000000E+01 -0.558718000000E+00  0.282843000000E+01
  0.503333000000E+01  0.117102000000E+00  0.226274000000E+01
  0.551629000000E+01  0.246512000000E+00  0.226274000000E+01
  0.599925000000E+01  0.375921000000E+00  0.226274000000E+01
  0.648222000000E+01  0.505331000000E+00  0.226274000000E+01
  0.696518000000E+01  0.634740000000E+00  0.226274000000E+01
  0.744814000000E+01  0.764150000000E+00  0.226274000000E+01
  0.793110000000E+01  0.893559000000E+00  0.226274000000E+01
  0.841407000000E+01  0.102297000000E+01  0.226274000000E+01
  0.889703000000E+01  0.115238000000E+01  0.226274000000E+01
  0.937999000000E+01  0.128179000000E+01  0.226274000000E+01
  0.443473000000E+01  0.419249000000E+00  0.356403000000E+01
  0.482369000000E+01  0.899475000000E+00  0.285122000000E+01
  0.530665000000E+01  0.102888000000E+01  0.285122000000E+01
  0.578962000000E+01  0.115829000000E+01  0.285122000000E+01
  0.627258000000E+01  0.128770000000E+01  0.285122000000E+01
  0.675554000000E+01  0.141711000000E+01  0.285122000000E+01
  0.723851000000E+01  0.154652000000E+01  0.285122000000E+01
  0.772147000000E+01  0.167593000000E+01  0.285122000000E+01
  0.820443000000E+01  0.180534000000E+01  0.285122000000E+01
  0.868739000000E+01  0.193475000000E+01  0.285122000000E+01
  0.917036000000E+01  0.206416000000E+01  0.285122000000E+01
  0.412668000000E+01  0.156892000000E+01  0.395075000000E+01
  0.457725000000E+01  0.181921000000E+01  0.316060000000E+01
  0.506021000000E+01  0.194862000000E+01  0.316060000000E+01
  0.554317000000E+01  0.207803000000E+01  0.316060000000E+01
  0.602614000000E+01  0.220744000000E+01  0.316060000000E+01
  0.650910000000E+01  0.233685000000E+01  0.316060000000E+01
  0.699206000000E+01  0.246626000000E+01  0.316060000000E+01
  0.747503000000E+01  0.259567000000E+01  0.316060000000E+01
  0.795799000000E+01  0.272508000000E+01  0.316060000000E+01
  0.844095000000E+01  0.285449000000E+01  0.316060000000E+01
  0.892392000000E+01  0.298390000000E+01  0.316060000000E+01
  0.380277000000E+01  0.277775000000E+01  0.395075000000E+01
  0.431812000000E+01  0.278628000000E+01  0.316060000000E+01
  0.480109000000E+01  0.291569000000E+01  0.316060000000E+01
  0.528405000000E+01  0.304509000000E+01  0.316060000000E+01
  0.576701000000E+01  0.317450000000E+01  0.316060000000E+01
  0.624998000000E+01  0.330391000000E+01  0.316060000000E+01
  0.673294000000E+01  0.343332000000E+01  0.316060000000E+01
  0.721590000000E+01  0.356273000000E+01  0.316060000000E+01
  0.769886000000E+01  0.369214000000E+01  0.316060000000E+01
  0.818183000000E+01  0.382155000000E+01  0.316060000000E+01
  0.866479000000E+01  0.395096000000E+01  0.316060000000E+01
  0.349472000000E+01  0.392742000000E+01  0.356403000000E+01
  0.407168000000E+01  0.370601000000E+01  0.285122000000E+01
  0.455465000000E+01  0.383542000000E+01  0.285122000000E+01
  0.503761000000E+01  0.396483000000E+01  0.285122000000E+01
  0.552057000000E+01  0.409424000000E+01  0.285122000000E+01
  0.600353000000E+01  0.422365000000E+01  0.285122000000E+01
  0.648650000000E+01  0.435306000000E+01  0.285122000000E+01
  0.696946000000E+01  0.448247000000E+01  0.285122000000E+01
  0.745242000000E+01  0.461188000000E+01  0.285122000000E+01
  0.793539000000E+01  0.474129000000E+01  0.285122000000E+01
  0.841835000000E+01  0.487070000000E+01  0.285122000000E+01
  0.323267000000E+01  0.490538000000E+01  0.282843000000E+01
  0.386205000000E+01  0.448838000000E+01  0.226274000000E+01
  0.434501000000E+01  0.461779000000E+01  0.226274000000E+01
  0.482797000000E+01  0.474720000000E+01  0.226274000000E+01
  0.531093000000E+01  0.487661000000E+01  0.226274000000E+01
  0.579390000000E+01  0.500602000000E+01  0.226274000000E+01
  0.627686000000E+01  0.513543000000E+01  0.226274000000E+01
  0.675982000000E+01  0.526484000000E+01  0.226274000000E+01
  0.724279000000E+01  0.539425000000E+01  0.226274000000E+01
  0.772575000000E+01  0.552366000000E+01  0.226274000000E+01
  0.820871000000E+01  0.565307000000E+01  0.226274000000E+01
  0.560370000000E+01 -0.185213000000E+01  0.275546000000E-15
  0.620741000000E+01 -0.201389000000E+01  0.275546000000E-15
  0.681111000000E+01 -0.217566000000E+01  0.275546000000E-15
  0.741481000000E+01 -0.233742000000E+01  0.275546000000E-15
  0.801852000000E+01 -0.249918000000E+01  0.275546000000E-15
  0.862222000000E+01 -0.266094000000E+01  0.275546000000E-15
  0.922593000000E+01 -0.282270000000E+01  0.275546000000E-15
  0.982963000000E+01 -0.298447000000E+01  0.275546000000E-15
  0.493352367038E+01 -0.258528717722E+01  0.220436000000E-15
  0.552617868029E+01 -0.275171689327E+01  0.220436000000E-15
  0.609923419821E+01 -0.290647311151E+01  0.220436000000E-15
  0.667334165269E+01 -0.306143251762E+01  0.220436000000E-15
  0.725257990533E+01 -0.321705389487E+01  0.220436000000E-15
  0.783589631901E+01 -0.337357416323E+01  0.220436000000E-15
  0.842179055269E+01 -0.353082107231E+01  0.220436000000E-15
  0.900956770172E+01 -0.368785249816E+01  0.220436000000E-15
  0.959669000000E+01 -0.385380000000E+01  0.220436000000E-15
  0.476350568464E+01 -0.346028557122E+01  0.165327000000E-15
  0.535143507921E+01 -0.364040240246E+01  0.165327000000E-15
  0.591615197301E+01 -0.379745438573E+01  0.165327000000E-15
  0.648028218908E+01 -0.394916460650E+01  0.165327000000E-15
  0.704907323416E+01 -0.410100583043E+01  0.165327000000E-15
  0.762233043433E+01 -0.425401163260E+01  0.165327000000E-15
  0.819884825451E+01 -0.440790626710E+01  0.165327000000E-15
  0.877813112411E+01 -0.456300576733E+01  0.165327000000E-15
  0.936375000000E+01 -0.472313000000E+01  0.165327000000E-15
  0.452103903577E+01 -0.432232579545E+01  0.110218000000E-15
  0.510139427441E+01 -0.451651235130E+01  0.110218000000E-15
  0.566739694914E+01 -0.467514115470E+01  0.110218000000E-15
  0.623544584714E+01 -0.482698560226E+01  0.110218000000E-15
  0.680775184428E+01 -0.497886308040E+01  0.110218000000E-15
  0.738365051740E+01 -0.513179159011E+01  0.110218000000E-15
  0.796192527226E+01 -0.528583216149E+01  0.110218000000E-15
  0.854258539560E+01 -0.544021916638E+01  0.110218000000E-15
  0.913082000000E+01 -0.559247000000E+01  0.110218000000E-15
  0.420488472585E+01 -0.518292897702E+01  0.551091000000E-16
  0.478023521846E+01 -0.537027304370E+01  0.551091000000E-16
  0.536286249445E+01 -0.552771710992E+01  0.551091000000E-16
  0.594840194123E+01 -0.568420467160E+01  0.551091000000E-16
  0.653630910661E+01 -0.584041814009E+01  0.551091000000E-16
  0.712541077525E+01 -0.599728936838E+01  0.551091000000E-16
  0.771518097310E+01 -0.615446122551E+01  0.551091000000E-16
  0.830518256260E+01 -0.631248496959E+01  0.551091000000E-16
  0.889788000000E+01 -0.646180000000E+01  0.551091000002E-16
  0.383531000000E+01 -0.603704000000E+01  0.721426856770E-27
  0.443902000000E+01 -0.619880000000E+01  0.138363119908E-27
  0.504272000000E+01 -0.636056000000E+01  0.166554215785E-27
  0.564643000000E+01 -0.652232000000E+01  0.159817131417E-27
  0.625013000000E+01 -0.668408000000E+01  0.154392590648E-27
  0.685383000000E+01 -0.684585000000E+01  0.148672299298E-27
  0.745754000000E+01 -0.700761000000E+01  0.144482127388E-27
  0.806124000000E+01 -0.716937000000E+01  0.133438168518E-27
  0.866494000000E+01 -0.733113000000E+01  0.486237094419E-28
  0.499283000000E+01 -0.171713000000E+01  0.351978000000E+00
  0.559653000000E+01 -0.187889000000E+01  0.351978000000E+00
  0.620024000000E+01 -0.204065000000E+01  0.351978000000E+00
  0.680394000000E+01 -0.220241000000E+01  0.351978000000E+00
  0.740764000000E+01 -0.236418000000E+01  0.351978000000E+00
  0.801135000000E+01 -0.252594000000E+01  0.351978000000E+00
  0.861505000000E+01 -0.268770000000E+01  0.351978000000E+00
  0.921876000000E+01 -0.284946000000E+01  0.351978000000E+00
  0.982246000000E+01 -0.301122000000E+01  0.351978000000E+00
  0.491503680397E+01 -0.258671809281E+01  0.421004965097E+00
  0.550651539127E+01 -0.275084876565E+01  0.442987076944E+00
  0.608439823275E+01 -0.290742304318E+01  0.445229173202E+00
  0.666326019390E+01 -0.306326771274E+01  0.442919202083E+00
  0.724587089584E+01 -0.321958226346E+01  0.440660082317E+00
  0.783147987694E+01 -0.337654756926E+01  0.439257888069E+00
  0.841902641685E+01 -0.353411657873E+01  0.438464658898E+00
  0.900799507075E+01 -0.369137262127E+01  0.437770804336E+00
  0.959585000000E+01 -0.385693000000E+01  0.434732000000E+00
  0.474336163201E+01 -0.345777081667E+01  0.457620026475E+00
  0.533031099563E+01 -0.363442869473E+01  0.486002864032E+00
  0.589955002750E+01 -0.379202582028E+01  0.490959325165E+00
  0.646873621110E+01 -0.394506959619E+01  0.489784375947E+00
  0.704170916915E+01 -0.409804276186E+01  0.487378413864E+00
  0.761809923878E+01 -0.425187604183E+01  0.485571132772E+00
  0.819689584205E+01 -0.440636763403E+01  0.484241587192E+00
  0.877774722617E+01 -0.456185984096E+01  0.482324229870E+00
  0.936407000000E+01 -0.472196000000E+01  0.478239000000E+00
  0.450213561087E+01 -0.432313634554E+01  0.457749430035E+00
  0.508208819098E+01 -0.451272994244E+01  0.484778878417E+00
  0.565232171448E+01 -0.467136647837E+01  0.490132920966E+00
  0.622477182304E+01 -0.482447110166E+01  0.488681897112E+00
  0.680069260687E+01 -0.497753590371E+01  0.486556393940E+00
  0.737931255334E+01 -0.513138549958E+01  0.485008508374E+00
  0.795964927542E+01 -0.528611358106E+01  0.483882352463E+00
  0.854172776726E+01 -0.544098177369E+01  0.482124259072E+00
  0.913050000000E+01 -0.559364000000E+01  0.478239000000E+00
  0.419332739458E+01 -0.518020778692E+01  0.424275807560E+00
  0.476963965199E+01 -0.536317263601E+01  0.440164852812E+00
  0.535531672535E+01 -0.552090856108E+01  0.441144690024E+00
  0.594340482881E+01 -0.567825223334E+01  0.439883094418E+00
  0.653321429558E+01 -0.583522243091E+01  0.438758069307E+00
  0.712375686082E+01 -0.599266952816E+01  0.438119172235E+00
  0.771470388575E+01 -0.615028922170E+01  0.437774677047E+00
  0.830565664273E+01 -0.630865382483E+01  0.437389795642E+00
  0.889872000000E+01 -0.645867000000E+01  0.434732000000E+00
  0.384248000000E+01 -0.601028000000E+01  0.351978000000E+00
  0.444619000000E+01 -0.617204000000E+01  0.351978000000E+00
  0.504989000000E+01 -0.633380000000E+01  0.351978000000E+00
  0.565359000000E+01 -0.649556000000E+01  0.351978000000E+00
  0.625730000000E+01 -0.665733000000E+01  0.351978000000E+00
  0.686100000000E+01 -0.681909000000E+01  0.351978000000E+00
  0.746471000000E+01 -0.698085000000E+01  0.351978000000E+00
  0.806841000000E+01 -0.714261000000E+01  0.351978000000E+00
  0.867211000000E+01 -0.730437000000E+01  0.351978000000E+00
  0.497150000000E+01 -0.179674000000E+01  0.695288000000E+00
  0.557520000000E+01 -0.195850000000E+01  0.695288000000E+00
  0.617891000000E+01 -0.212026000000E+01  0.695288000000E+00
  0.678261000000E+01 -0.228203000000E+01  0.695288000000E+00
  0.738631000000E+01 -0.244379000000E+01  0.695288000000E+00
  0.799002000000E+01 -0.260555000000E+01  0.695288000000E+00
  0.859372000000E+01 -0.276731000000E+01  0.695288000000E+00
  0.919742000000E+01 -0.292907000000E+01  0.695288000000E+00
  0.980113000000E+01 -0.309084000000E+01  0.695288000000E+00
  0.486519496513E+01 -0.261727127210E+01  0.843660237803E+00
  0.545387448296E+01 -0.277658923457E+01  0.873223991994E+00
  0.604291453124E+01 -0.293713065404E+01  0.876365259627E+00
  0.663266879583E+01 -0.309523347130E+01  0.873044692620E+00
  0.722287309607E+01 -0.325313231468E+01  0.869868105827E+00
  0.781373280698E+01 -0.341107267984E+01  0.867905697796E+00
  0.840510585407E+01 -0.356942388589E+01  0.866819075629E+00
  0.899696344584E+01 -0.372730688871E+01  0.865879510138E+00
  0.958652000000E+01 -0.389178000000E+01  0.860798000000E+00
  0.469033573951E+01 -0.346399285748E+01  0.918626501126E+00
  0.527462336820E+01 -0.363173849936E+01  0.960242725473E+00
  0.585454558285E+01 -0.379066057231E+01  0.967530917134E+00
  0.643614543698E+01 -0.394715111649E+01  0.965519896620E+00
  0.701945435369E+01 -0.410295094798E+01  0.961981358431E+00
  0.760367179025E+01 -0.425886208071E+01  0.959439441717E+00
  0.818833673718E+01 -0.441488231924E+01  0.957621187477E+00
  0.877334268981E+01 -0.457140946768E+01  0.954751525853E+00
  0.936155000000E+01 -0.473135000000E+01  0.947812000000E+00
  0.445896196755E+01 -0.431329225927E+01  0.917304747227E+00
  0.503772647364E+01 -0.449102138006E+01  0.958616371685E+00
  0.561783726003E+01 -0.464955701482E+01  0.966341755487E+00
  0.620107788121E+01 -0.480571408482E+01  0.963934589437E+00
  0.678590482642E+01 -0.496167578787E+01  0.960776146757E+00
  0.737137827476E+01 -0.511782733604E+01  0.958596248572E+00
  0.795696779533E+01 -0.527426485152E+01  0.957067115374E+00
  0.854284556635E+01 -0.543038496473E+01  0.954434845097E+00
  0.913302000000E+01 -0.558424000000E+01  0.947812000000E+00
  0.417362163794E+01 -0.514640123180E+01  0.845923921757E+00
  0.475271504781E+01 -0.531916730383E+01  0.869287654608E+00
  0.534523420197E+01 -0.547776266180E+01  0.870506534882E+00
  0.593923835518E+01 -0.563685424322E+01  0.868656675013E+00
  0.653334151428E+01 -0.579550605273E+01  0.867054651124E+00
  0.712721507499E+01 -0.595426975111E+01  0.866175719101E+00
  0.772094235391E+01 -0.611290203468E+01  0.865736470382E+00
  0.831421940541E+01 -0.627207439071E+01  0.865262590841E+00
  0.890806000000E+01 -0.642382000000E+01  0.860798000000E+00
  0.386382000000E+01 -0.593067000000E+01  0.695288000000E+00
  0.446752000000E+01 -0.609243000000E+01  0.695288000000E+00
  0.507122000000E+01 -0.625419000000E+01  0.695288000000E+00
  0.567493000000E+01 -0.641595000000E+01  0.695288000000E+00
  0.627863000000E+01 -0.657771000000E+01  0.695288000000E+00
  0.688233000000E+01 -0.673948000000E+01  0.695288000000E+00
  0.748604000000E+01 -0.690124000000E+01  0.695288000000E+00
  0.808974000000E+01 -0.706300000000E+01  0.695288000000E+00
  0.869345000000E+01 -0.722476000000E+01  0.695288000000E+00
  0.493653000000E+01 -0.192725000000E+01  0.102148000000E+01
  0.554023000000E+01 -0.208901000000E+01  0.102148000000E+01
  0.614394000000E+01 -0.225077000000E+01  0.102148000000E+01
  0.674764000000E+01 -0.241254000000E+01  0.102148000000E+01
  0.735134000000E+01 -0.257430000000E+01  0.102148000000E+01
  0.795505000000E+01 -0.273606000000E+01  0.102148000000E+01
  0.855875000000E+01 -0.289782000000E+01  0.102148000000E+01
  0.916245000000E+01 -0.305958000000E+01  0.102148000000E+01
  0.976616000000E+01 -0.322134000000E+01  0.102148000000E+01
  0.480256909995E+01 -0.267605916025E+01  0.126050056150E+01
  0.538974001001E+01 -0.283276767140E+01  0.128094003684E+01
  0.599052326540E+01 -0.299656861745E+01  0.128328388614E+01
  0.659067088367E+01 -0.315711477689E+01  0.128072379443E+01
  0.718847012998E+01 -0.331659072894E+01  0.127823084024E+01
  0.778498395030E+01 -0.347579558656E+01  0.127665919576E+01
  0.838119104194E+01 -0.363513669243E+01  0.127584374022E+01
  0.897691147538E+01 -0.379407460496E+01  0.127527627915E+01
  0.956900000000E+01 -0.395716000000E+01  0.126974000000E+01
  0.462373787618E+01 -0.347823399341E+01  0.137791770042E+01
  0.520584175064E+01 -0.363656700127E+01  0.141293700506E+01
  0.579867302407E+01 -0.379739432976E+01  0.141843879494E+01
  0.639445216049E+01 -0.395791532243E+01  0.141640382001E+01
  0.698931047563E+01 -0.411673923256E+01  0.141352031464E+01
  0.758261679498E+01 -0.427510483345E+01  0.141156260700E+01
  0.817478834349E+01 -0.443307092101E+01  0.141030150608E+01
  0.876532400835E+01 -0.459110510011E+01  0.140796404219E+01
  0.935631000000E+01 -0.475093000000E+01  0.140026000000E+01
  0.440712115367E+01 -0.429220776069E+01  0.137391639013E+01
  0.498560142847E+01 -0.445569417091E+01  0.141202804952E+01
  0.557778428577E+01 -0.461488917600E+01  0.141748895275E+01
  0.617373554148E+01 -0.477471620853E+01  0.141512360075E+01
  0.676878150810E+01 -0.493394885036E+01  0.141249773818E+01
  0.736242780031E+01 -0.509270653974E+01  0.141081864077E+01
  0.795489432140E+01 -0.525135556748E+01  0.140978682263E+01
  0.854593858445E+01 -0.540908800711E+01  0.140765619999E+01
  0.913827000000E+01 -0.556467000000E+01  0.140026000000E+01
  0.415625321646E+01 -0.508071634698E+01  0.125743913063E+01
  0.473983677174E+01 -0.524294201813E+01  0.127817461960E+01
  0.533981985266E+01 -0.540259343630E+01  0.127852056782E+01
  0.593994294833E+01 -0.556351990489E+01  0.127703051002E+01
  0.653863539306E+01 -0.572397408762E+01  0.127574933997E+01
  0.713640164806E+01 -0.588411773007E+01  0.127505031442E+01
  0.773384193525E+01 -0.604412035162E+01  0.127478206622E+01
  0.833044429242E+01 -0.620421277295E+01  0.127463438659E+01
  0.892558000000E+01 -0.635843000000E+01  0.126974000000E+01
  0.389879000000E+01 -0.580016000000E+01  0.102148000000E+01
  0.450249000000E+01 -0.596192000000E+01  0.102148000000E+01
  0.510619000000E+01 -0.612368000000E+01  0.102148000000E+01
  0.570990000000E+01 -0.628544000000E+01  0.102148000000E+01
  0.631360000000E+01 -0.644720000000E+01  0.102148000000E+01
  0.691730000000E+01 -0.660897000000E+01  0.102148000000E+01
  0.752101000000E+01 -0.677073000000E+01  0.102148000000E+01
  0.812471000000E+01 -0.693249000000E+01  0.102148000000E+01
  0.872841000000E+01 -0.709425000000E+01  0.102148000000E+01
  0.488878000000E+01 -0.210544000000E+01  0.132252000000E+01
  0.549249000000E+01 -0.226720000000E+01  0.132252000000E+01
  0.609619000000E+01 -0.242896000000E+01  0.132252000000E+01
  0.669989000000E+01 -0.259073000000E+01  0.132252000000E+01
  0.730360000000E+01 -0.275249000000E+01  0.132252000000E+01
  0.790730000000E+01 -0.291425000000E+01  0.132252000000E+01
  0.851100000000E+01 -0.307601000000E+01  0.132252000000E+01
  0.911471000000E+01 -0.323777000000E+01  0.132252000000E+01
  0.971841000000E+01 -0.339954000000E+01  0.132252000000E+01
  0.474075729974E+01 -0.276345573842E+01  0.165539208872E+01
  0.533331261123E+01 -0.292138203446E+01  0.165927182095E+01
  0.593932945912E+01 -0.308566739561E+01  0.166074321043E+01
  0.654402109666E+01 -0.324709659559E+01  0.165957708359E+01
  0.714625174885E+01 -0.340779910509E+01  0.165851978853E+01
  0.774708734343E+01 -0.356829202574E+01  0.165781414871E+01
  0.834751725202E+01 -0.372908032529E+01  0.165736760782E+01
  0.894868391959E+01 -0.388934152649E+01  0.165752272603E+01
  0.954381000000E+01 -0.405116000000E+01  0.165354000000E+01
  0.455887403104E+01 -0.350236756024E+01  0.182150719337E+01
  0.514583149650E+01 -0.365242221957E+01  0.183551145485E+01
  0.574954040825E+01 -0.381670412885E+01  0.183719267147E+01
  0.635459049890E+01 -0.397877978252E+01  0.183628123421E+01
  0.695697771263E+01 -0.413970453759E+01  0.183511590305E+01
  0.755721641034E+01 -0.430011001325E+01  0.183438243338E+01
  0.815644362481E+01 -0.446021085379E+01  0.183383515457E+01
  0.875441709685E+01 -0.462016200461E+01  0.183336925096E+01
  0.934851000000E+01 -0.478004000000E+01  0.182756000000E+01
  0.435867844453E+01 -0.426030274006E+01  0.181664105218E+01
  0.494383684472E+01 -0.441060447577E+01  0.183571376756E+01
  0.554702518565E+01 -0.457300343242E+01  0.183670330334E+01
  0.615168770393E+01 -0.473526102252E+01  0.183569110347E+01
  0.675376875986E+01 -0.489670348003E+01  0.183460289252E+01
  0.735396591062E+01 -0.505738831428E+01  0.183398932833E+01
  0.795319008344E+01 -0.521791100116E+01  0.183354461716E+01
  0.855129078109E+01 -0.537796870656E+01  0.183318466629E+01
  0.914607000000E+01 -0.553555000000E+01  0.182756000000E+01
  0.414784828591E+01 -0.498424615018E+01  0.164797963009E+01
  0.474010582349E+01 -0.513841842844E+01  0.165893709809E+01
  0.534489050729E+01 -0.530010346936E+01  0.165833240235E+01
  0.594828235207E+01 -0.546219339645E+01  0.165774296489E+01
  0.655030086437E+01 -0.562373295321E+01  0.165714910077E+01
  0.715147070676E+01 -0.578490895604E+01  0.165686788504E+01
  0.775253583471E+01 -0.594573975046E+01  0.165670414540E+01
  0.835390884836E+01 -0.610742564690E+01  0.165708077453E+01
  0.895076000000E+01 -0.626444000000E+01  0.165354000000E+01
  0.394653000000E+01 -0.562197000000E+01  0.132252000000E+01
  0.455024000000E+01 -0.578373000000E+01  0.132252000000E+01
  0.515394000000E+01 -0.594549000000E+01  0.132252000000E+01
  0.575764000000E+01 -0.610725000000E+01  0.132252000000E+01
  0.636135000000E+01 -0.626901000000E+01  0.132252000000E+01
  0.696505000000E+01 -0.643078000000E+01  0.132252000000E+01
  0.756875000000E+01 -0.659254000000E+01  0.132252000000E+01
  0.817246000000E+01 -0.675430000000E+01  0.132252000000E+01
  0.877616000000E+01 -0.691606000000E+01  0.132252000000E+01
  0.482944000000E+01 -0.232692000000E+01  0.159099000000E+01
  0.543314000000E+01 -0.248869000000E+01  0.159099000000E+01
  0.603684000000E+01 -0.265045000000E+01  0.159099000000E+01
  0.664055000000E+01 -0.281221000000E+01  0.159099000000E+01
  0.724425000000E+01 -0.297397000000E+01  0.159099000000E+01
  0.784795000000E+01 -0.313573000000E+01  0.159099000000E+01
  0.845166000000E+01 -0.329750000000E+01  0.159099000000E+01
  0.905536000000E+01 -0.345926000000E+01  0.159099000000E+01
  0.965906000000E+01 -0.362102000000E+01  0.159099000000E+01
  0.468204000000E+01 -0.287703000000E+01  0.200476000000E+01
  0.528574000000E+01 -0.303879000000E+01  0.200476000000E+01
  0.588944000000E+01 -0.320055000000E+01  0.200476000000E+01
  0.649315000000E+01 -0.336232000000E+01  0.200476000000E+01
  0.709685000000E+01 -0.352408000000E+01  0.200476000000E+01
  0.770055000000E+01 -0.368584000000E+01  0.200476000000E+01
  0.830426000000E+01 -0.384760000000E+01  0.200476000000E+01
  0.890796000000E+01 -0.400936000000E+01  0.200476000000E+01
  0.951166000000E+01 -0.417113000000E+01  0.200476000000E+01
  0.450876000000E+01 -0.352372000000E+01  0.222230000000E+01
  0.511246000000E+01 -0.368548000000E+01  0.222230000000E+01
  0.571616000000E+01 -0.384724000000E+01  0.222230000000E+01
  0.631987000000E+01 -0.400900000000E+01  0.222230000000E+01
  0.692357000000E+01 -0.417077000000E+01  0.222230000000E+01
  0.752727000000E+01 -0.433253000000E+01  0.222230000000E+01
  0.813098000000E+01 -0.449429000000E+01  0.222230000000E+01
  0.873468000000E+01 -0.465605000000E+01  0.222230000000E+01
  0.933838000000E+01 -0.481781000000E+01  0.222230000000E+01
  0.432656000000E+01 -0.420369000000E+01  0.222230000000E+01
  0.493026000000E+01 -0.436545000000E+01  0.222230000000E+01
  0.553397000000E+01 -0.452721000000E+01  0.222230000000E+01
  0.613767000000E+01 -0.468897000000E+01  0.222230000000E+01
  0.674137000000E+01 -0.485074000000E+01  0.222230000000E+01
  0.734508000000E+01 -0.501250000000E+01  0.222230000000E+01
  0.794878000000E+01 -0.517426000000E+01  0.222230000000E+01
  0.855248000000E+01 -0.533602000000E+01  0.222230000000E+01
  0.915619000000E+01 -0.549778000000E+01  0.222230000000E+01
  0.415328000000E+01 -0.485038000000E+01  0.200476000000E+01
  0.475698000000E+01 -0.501214000000E+01  0.200476000000E+01
  0.536069000000E+01 -0.517390000000E+01  0.200476000000E+01
  0.596439000000E+01 -0.533566000000E+01  0.200476000000E+01
  0.656809000000E+01 -0.549742000000E+01  0.200476000000E+01
  0.717180000000E+01 -0.565919000000E+01  0.200476000000E+01
  0.777550000000E+01 -0.582095000000E+01  0.200476000000E+01
  0.837920000000E+01 -0.598271000000E+01  0.200476000000E+01
  0.898291000000E+01 -0.614447000000E+01  0.200476000000E+01
  0.400588000000E+01 -0.540048000000E+01  0.159099000000E+01
  0.460958000000E+01 -0.556224000000E+01  0.159099000000E+01
  0.521329000000E+01 -0.572401000000E+01  0.159099000000E+01
  0.581699000000E+01 -0.588577000000E+01  0.159099000000E+01
  0.642069000000E+01 -0.604753000000E+01  0.159099000000E+01
  0.702440000000E+01 -0.620929000000E+01  0.159099000000E+01
  0.762810000000E+01 -0.637105000000E+01  0.159099000000E+01
  0.823180000000E+01 -0.653282000000E+01  0.159099000000E+01
  0.883551000000E+01 -0.669458000000E+01  0.159099000000E+01
 -0.862024044006E+01 -0.440993927464E+01  0.000000000000E+00
 -0.756356534936E+01 -0.671076961369E+01  0.000000000000E+00
 -0.616928475971E+01 -0.823652810841E+01  0.000000000000E+00
 -0.477906430085E+01 -0.918320692548E+01  0.000000000000E+00
 -0.339042932298E+01 -0.976873792659E+01  0.000000000000E+00
 -0.200087332907E+01 -0.100656984265E+02  0.000000000000E+00
 -0.615053178712E+00 -0.101081143519E+02  0.000000000000E+00
  0.778556781049E+00 -0.986538380422E+01  0.000000000000E+00
  0.167677308087E+01 -0.938251422418E+01  0.000000000000E+00
  0.264934000000E+01 -0.852255000000E+01  0.000000000000E+00
 -0.861987958749E+01 -0.435650892776E+01  0.779866617422E+00
 -0.756276569549E+01 -0.662859625143E+01  0.119767137925E+01
 -0.616833188897E+01 -0.813594374772E+01  0.147390285280E+01
 -0.477760326785E+01 -0.907068798157E+01  0.164742058287E+01
 -0.338820402112E+01 -0.964859555449E+01  0.175523678808E+01
 -0.199801088167E+01 -0.994170954027E+01  0.181276571111E+01
 -0.610827129316E+00 -0.998345060794E+01  0.182737964785E+01
  0.784162755190E+00 -0.974382524689E+01  0.180061571964E+01
  0.168737485594E+01 -0.927672235346E+01  0.165090765356E+01
  0.265940000000E+01 -0.845929000000E+01  0.111145400557E+01
 -0.861932927903E+01 -0.419827329738E+01  0.153948913648E+01
 -0.756131468790E+01 -0.638546832632E+01  0.236392896705E+01
 -0.616576980664E+01 -0.783711679363E+01  0.291192277882E+01
 -0.477322241422E+01 -0.873607767982E+01  0.325296169282E+01
 -0.338172838073E+01 -0.929129241243E+01  0.346550184834E+01
 -0.198916628708E+01 -0.957282919652E+01  0.357854759739E+01
 -0.598164203171E+00 -0.961206723250E+01  0.360594830592E+01
  0.803332223749E+00 -0.938194506980E+01  0.355201341146E+01
  0.172566554550E+01 -0.896362374266E+01  0.324842982127E+01
  0.268944000000E+01 -0.827083000000E+01  0.217866574849E+01
 -0.861904739713E+01 -0.393924073953E+01  0.226228626986E+01
 -0.755953619922E+01 -0.598768485358E+01  0.347271278154E+01
 -0.616170630752E+01 -0.734739500245E+01  0.427724607122E+01
 -0.476629906074E+01 -0.818800978225E+01  0.477662898716E+01
 -0.337144180110E+01 -0.870617136900E+01  0.508724327350E+01
 -0.197441664171E+01 -0.896840610645E+01  0.525126515874E+01
 -0.575631187852E+00 -0.900280393966E+01  0.528961668882E+01
  0.836400054552E+00 -0.878953379360E+01  0.520060892109E+01
  0.178678917535E+01 -0.845176223309E+01  0.473779223657E+01
  0.273896000000E+01 -0.796106000000E+01  0.317199587222E+01
 -0.861831205673E+01 -0.358532026493E+01  0.292962206924E+01
 -0.755775030332E+01 -0.544478640752E+01  0.449625218651E+01
 -0.615681912319E+01 -0.667908650959E+01  0.553582358671E+01
 -0.475739385753E+01 -0.744045918896E+01  0.618057454404E+01
 -0.335833675463E+01 -0.790821360259E+01  0.658012659802E+01
 -0.195514335567E+01 -0.814460661027E+01  0.678786458021E+01
 -0.547793506691E+00 -0.817237643629E+01  0.683308232889E+01
  0.872235275797E+00 -0.798073144896E+01  0.669998154120E+01
  0.185979833724E+01 -0.775372753539E+01  0.608008827521E+01
  0.280715000000E+01 -0.753640000000E+01  0.406200604953E+01
 -0.861772418885E+01 -0.314637512811E+01  0.352422022103E+01
 -0.755660448208E+01 -0.477201920171E+01  0.540779983660E+01
 -0.615143541354E+01 -0.584856645576E+01  0.665725588949E+01
 -0.474807260633E+01 -0.651251429782E+01  0.743076252413E+01
 -0.334345573626E+01 -0.691815900304E+01  0.790751856831E+01
 -0.193498505614E+01 -0.712293724277E+01  0.815317456920E+01
 -0.520005160823E+00 -0.714362857389E+01  0.819555330945E+01
  0.903991701006E+00 -0.697554563519E+01  0.801802537244E+01
  0.193787182227E+01 -0.689454879228E+01  0.724681567337E+01
  0.289295000000E+01 -0.700555000000E+01  0.483393890066E+01
 -0.861933567646E+01 -0.263377606271E+01  0.403284575750E+01
 -0.755485210475E+01 -0.398362248291E+01  0.618623759513E+01
 -0.614719417060E+01 -0.487731081320E+01  0.761438535820E+01
 -0.473890905782E+01 -0.542719745006E+01  0.849704581136E+01
 -0.333016714558E+01 -0.576191226413E+01  0.903997454632E+01
 -0.191522804931E+01 -0.592931200408E+01  0.931442332939E+01
 -0.493997462878E+00 -0.594225843157E+01  0.934591913783E+01
  0.935631087154E+00 -0.580269628272E+01  0.912756912535E+01
  0.202022651180E+01 -0.585475816238E+01  0.825152400025E+01
  0.303424000000E+01 -0.614055000000E+01  0.568082285395E+01
 -0.862149932544E+01 -0.205703277869E+01  0.444367325007E+01
 -0.755518297498E+01 -0.309989289810E+01  0.681362861567E+01
 -0.614400418988E+01 -0.378844590266E+01  0.838432171166E+01
 -0.473313482224E+01 -0.421224686058E+01  0.935494250604E+01
 -0.331867794855E+01 -0.446769736435E+01  0.995016815583E+01
 -0.190106242395E+01 -0.459432972006E+01  0.102467374951E+02
 -0.470729264646E+00 -0.459965424435E+01  0.102621132679E+02
  0.960122191282E+00 -0.448972478365E+01  0.100128329853E+02
  0.210131086079E+01 -0.469419218013E+01  0.904045650409E+01
  0.320142000000E+01 -0.513372000000E+01  0.628652757399E+01
 -0.862356103839E+01 -0.143342420449E+01  0.474334963239E+01
 -0.755683032760E+01 -0.214137841227E+01  0.727379630933E+01
 -0.614433215046E+01 -0.261031364681E+01  0.894911102009E+01
 -0.473017440114E+01 -0.289599555880E+01  0.998445004072E+01
 -0.331409256231E+01 -0.306847870652E+01  0.106174919006E+02
 -0.189142352855E+01 -0.315018997663E+01  0.109288828940E+02
 -0.460301072627E+00 -0.315035483279E+01  0.109362456840E+02
  0.974653809996E+00 -0.307034302926E+01  0.106566378995E+02
  0.217150001763E+01 -0.344259579563E+01  0.961027149196E+01
  0.339046000000E+01 -0.402099000000E+01  0.664725980833E+01
 -0.862585620510E+01 -0.775419794230E+00  0.492641192600E+01
 -0.756054659426E+01 -0.113475538778E+01  0.755471066453E+01
 -0.614762318489E+01 -0.136926289203E+01  0.929544420116E+01
 -0.473341787857E+01 -0.151296856241E+01  0.103710342673E+02
 -0.331486411556E+01 -0.159562960223E+01  0.110260156199E+02
 -0.189302809279E+01 -0.163466217593E+01  0.113479617068E+02
 -0.457624939989E+00 -0.162592533320E+01  0.113489008088E+02
  0.961894908707E+00 -0.158019657489E+01  0.110611144291E+02
  0.222618329013E+01 -0.212925393829E+01  0.994179961205E+01
  0.359729000000E+01 -0.284101000000E+01  0.676796523422E+01
 -0.862920742538E+01 -0.103062183632E+00  0.498814119211E+01
 -0.756615815565E+01 -0.100666477846E+00  0.765079120424E+01
 -0.615519583367E+01 -0.987983226473E-01  0.941492791906E+01
 -0.474198220489E+01 -0.933434036795E-01  0.105048951267E+02
 -0.332442065796E+01 -0.886247053664E-01  0.111679783868E+02
 -0.190276116935E+01 -0.787153575284E-01  0.114927973300E+02
 -0.470048584909E+00 -0.688556657615E-01  0.114918209816E+02
  0.955563274670E+00 -0.484327119268E-01  0.111990827001E+02
  0.225033171307E+01 -0.782871486560E+00  0.100386441438E+02
  0.381812000000E+01 -0.163350000000E+01  0.661262248115E+01
 -0.863338799888E+01  0.571419348742E+00  0.492737297163E+01
 -0.757385564170E+01  0.931253767933E+00  0.755941243182E+01
 -0.616686317872E+01  0.117379493696E+01  0.930469125579E+01
 -0.475631216217E+01  0.132461400946E+01  0.103827531030E+02
 -0.334222773075E+01  0.142135033933E+01  0.110395571317E+02
 -0.192204040571E+01  0.147352378979E+01  0.113614542861E+02
 -0.492398347604E+00  0.149355512416E+01  0.113586783237E+02
  0.929846759162E+00  0.147319774891E+01  0.110676207894E+02
  0.214616631837E+01  0.853792432228E+00  0.101178043625E+02
  0.346924000000E+01  0.119503000000E+00  0.751748444676E+01
 -0.863785622363E+01  0.122732575257E+01  0.474551253693E+01
 -0.758365120293E+01  0.193978956783E+01  0.728254723589E+01
 -0.618146646643E+01  0.241401350256E+01  0.896684822229E+01
 -0.477711980333E+01  0.271037273070E+01  0.100076818990E+02
 -0.336609233253E+01  0.289296497383E+01  0.106427258198E+02
 -0.195399057430E+01  0.299244392958E+01  0.109573167779E+02
 -0.526075343305E+00  0.301296165132E+01  0.109521635236E+02
  0.890260997944E+00  0.296636536827E+01  0.106758195957E+02
  0.200877332706E+01  0.245613144453E+01  0.986385012920E+01
  0.311159000000E+01  0.194949000000E+01  0.776902767190E+01
 -0.864252779564E+01  0.185189045742E+01  0.444606634320E+01
 -0.759386476022E+01  0.289673730850E+01  0.682652172130E+01
 -0.619970633321E+01  0.359442875272E+01  0.840963669053E+01
 -0.480105440711E+01  0.402716348795E+01  0.938723576984E+01
 -0.339960329959E+01  0.429471159515E+01  0.998720649103E+01
 -0.199126882358E+01  0.443605061351E+01  0.102856912314E+02
 -0.574812491208E+00  0.446159567018E+01  0.102951273737E+02
  0.841486588003E+00  0.438514942419E+01  0.100352973066E+02
  0.185006649031E+01  0.399010216323E+01  0.931414773302E+01
  0.276762000000E+01  0.373421000000E+01  0.751800864361E+01
 -0.864608397816E+01  0.242686279279E+01  0.403657646963E+01
 -0.760542932307E+01  0.378027907222E+01  0.620266402719E+01
 -0.621874126907E+01  0.468398981575E+01  0.764560368712E+01
 -0.482966228474E+01  0.524428718139E+01  0.853734397731E+01
 -0.343444081497E+01  0.558987669523E+01  0.908586708475E+01
 -0.203445831099E+01  0.577127484533E+01  0.936998351858E+01
 -0.622631211864E+00  0.580184891672E+01  0.939262525031E+01
  0.789173893939E+00  0.569473134081E+01  0.916919614838E+01
  0.169748087620E+01  0.541045101107E+01  0.848419706940E+01
  0.245735000000E+01  0.536055000000E+01  0.679954622025E+01
 -0.865004551095E+01  0.293873670739E+01  0.352655654791E+01
 -0.761525896977E+01  0.456628915309E+01  0.542607837835E+01
 -0.623619881673E+01  0.565369335778E+01  0.669329496449E+01
 -0.485405896645E+01  0.632767238582E+01  0.747468219549E+01
 -0.346776248541E+01  0.674409540631E+01  0.795762199148E+01
 -0.207603630892E+01  0.696120786564E+01  0.820863155058E+01
 -0.675542673513E+00  0.699626739437E+01  0.824570669205E+01
  0.732633777825E+00  0.685754384615E+01  0.805205118615E+01
  0.153860176130E+01  0.666050914128E+01  0.734636015271E+01
  0.219858000000E+01  0.672672000000E+01  0.559325010924E+01
 -0.865456650801E+01  0.337601397367E+01  0.293216564706E+01
 -0.762021550879E+01  0.524045296240E+01  0.451000542900E+01
 -0.624689261255E+01  0.648830050138E+01  0.556244274680E+01
 -0.486933954719E+01  0.725892806265E+01  0.621403187302E+01
 -0.348851331616E+01  0.773661737198E+01  0.661841114584E+01
 -0.210186396605E+01  0.798422154298E+01  0.682759463372E+01
 -0.709303058389E+00  0.802612272486E+01  0.686671440919E+01
  0.695496664512E+00  0.785525298290E+01  0.671873453355E+01
  0.143711378219E+01  0.755637364432E+01  0.616465274893E+01
  0.208004000000E+01  0.735507000000E+01  0.468470753093E+01
 -0.865911309731E+01  0.373024568854E+01  0.226404799506E+01
 -0.762642191019E+01  0.578518177263E+01  0.348302239518E+01
 -0.625663437871E+01  0.715919791299E+01  0.429847746358E+01
 -0.488329524741E+01  0.800944969954E+01  0.480313480544E+01
 -0.350764160523E+01  0.853764065914E+01  0.511764592683E+01
 -0.212836884313E+01  0.881297790578E+01  0.528303823051E+01
 -0.744472569947E+00  0.886139005681E+01  0.531572904832E+01
  0.651818387500E+00  0.866772300154E+01  0.522480418086E+01
  0.133703308021E+01  0.830491775205E+01  0.480802951482E+01
  0.198540000000E+01  0.785780000000E+01  0.364351272174E+01
 -0.866187878794E+01  0.398911623935E+01  0.154072335981E+01
 -0.763147366190E+01  0.618372073016E+01  0.237147765369E+01
 -0.626411452180E+01  0.765076369804E+01  0.292675172076E+01
 -0.489402548726E+01  0.855940230516E+01  0.327133648604E+01
 -0.352235097441E+01  0.912487996254E+01  0.348645210929E+01
 -0.214934435119E+01  0.942134795575E+01  0.360074421129E+01
 -0.775941195389E+00  0.947444110814E+01  0.362551050813E+01
  0.608965274239E+00  0.926603733319E+01  0.357348564878E+01
  0.125895893530E+01  0.885332882919E+01  0.329648349802E+01
  0.191647000000E+01  0.822453000000E+01  0.249422335066E+01
 -0.866398422632E+01  0.414715659015E+01  0.780534181927E+00
 -0.763450324749E+01  0.642694544365E+01  0.120166507097E+01
 -0.626893128511E+01  0.795076948848E+01  0.148178964324E+01
 -0.490080366337E+01  0.889527631034E+01  0.165669317455E+01
 -0.353159702220E+01  0.948376907294E+01  0.176606570357E+01
 -0.216170214248E+01  0.979283912685E+01  0.182411613360E+01
 -0.793572184531E+00  0.984968702655E+01  0.183742315618E+01
  0.584340862893E+00  0.963293360405E+01  0.181327963592E+01
  0.121581299175E+01  0.919140585280E+01  0.167462499606E+01
  0.187456000000E+01  0.844766000000E+01  0.126760842374E+01
 -0.866495097573E+01  0.420058539171E+01  0.000000000000E+00
 -0.763545230944E+01  0.650878690136E+01  0.000000000000E+00
 -0.627063706917E+01  0.805159120005E+01  0.000000000000E+00
 -0.490304170939E+01  0.900818843471E+01  0.000000000000E+00
 -0.353483852423E+01  0.960456103509E+01  0.000000000000E+00
 -0.216557090871E+01  0.991761369949E+01  0.000000000000E+00
 -0.799565994126E+00  0.997584762139E+01  0.000000000000E+00
  0.578517272561E+00  0.975712216021E+01  0.000000000000E+00
  0.120451611990E+01  0.930668535204E+01  0.000000000000E+00
  0.186051000000E+01  0.852255000000E+01  0.000000000000E+00
 -0.888742954370E+01 -0.225397518018E+01  0.000000000000E+00
 -0.891628315737E+01 -0.182397676738E+01  0.000000000000E+00
 -0.893887895599E+01 -0.139449604908E+01  0.000000000000E+00
 -0.895523462984E+01 -0.964362198181E+00  0.000000000000E+00
 -0.896593144373E+01 -0.534269472443E+00  0.000000000000E+00
 -0.897096468611E+01 -0.104107873542E+00  0.000000000000E+00
 -0.897012320188E+01  0.326022563201E+00  0.000000000000E+00
 -0.896323686837E+01  0.755976016217E+00  0.000000000000E+00
 -0.895011422485E+01  0.118605913704E+01  0.000000000000E+00
 -0.893037949799E+01  0.161545742138E+01  0.000000000000E+00
 -0.890467050708E+01  0.204548477851E+01  0.000000000000E+00
 -0.888730556170E+01 -0.222754613732E+01  0.386942842400E+00
 -0.891478877255E+01 -0.181256983034E+01  0.429185928252E+00
 -0.893641586918E+01 -0.139129953267E+01  0.461787607487E+00
 -0.895256466570E+01 -0.965070986096E+00  0.483954419384E+00
 -0.896315262708E+01 -0.535237739090E+00  0.494495801406E+00
 -0.896820810523E+01 -0.104025872438E+00  0.493219227806E+00
 -0.896731043606E+01  0.327087355810E+00  0.494015726876E+00
 -0.896054242963E+01  0.756814098139E+00  0.482909319598E+00
 -0.894759979534E+01  0.118294868682E+01  0.460283858792E+00
 -0.892884656939E+01  0.160420052423E+01  0.427676068712E+00
 -0.890440779227E+01  0.201918401539E+01  0.385946132696E+00
 -0.888728402381E+01 -0.214893561158E+01  0.766630611568E+00
 -0.891105223086E+01 -0.175925635383E+01  0.854867739658E+00
 -0.893033933717E+01 -0.135682503576E+01  0.923159474194E+00
 -0.894499313186E+01 -0.944339495438E+00  0.969861055181E+00
 -0.895491843226E+01 -0.525785926924E+00  0.993685867174E+00
 -0.895976327123E+01 -0.103851020807E+00  0.992397480393E+00
 -0.895893379553E+01  0.318050255202E+00  0.993123265609E+00
 -0.895270745737E+01  0.736466946515E+00  0.968661478090E+00
 -0.894121032236E+01  0.114891807407E+01  0.921440499285E+00
 -0.892474128204E+01  0.155131568930E+01  0.853098314770E+00
 -0.890388656914E+01  0.194092239370E+01  0.765220796027E+00
 -0.888742605045E+01 -0.201984318895E+01  0.112794087559E+01
 -0.890526800783E+01 -0.166520108174E+01  0.126533344933E+01
 -0.892030049108E+01 -0.129137424229E+01  0.137336911411E+01
 -0.893261617520E+01 -0.903741065728E+00  0.144940775322E+01
 -0.894100469852E+01 -0.506300618793E+00  0.148925078099E+01
 -0.894555581018E+01 -0.103609876527E+00  0.149269128947E+01
 -0.894482803007E+01  0.299091056576E+00  0.148859299545E+01
 -0.894001464174E+01  0.696527782514E+00  0.144809499482E+01
 -0.893069551417E+01  0.108418956087E+01  0.137140429004E+01
 -0.891828372986E+01  0.145803651390E+01  0.126318728165E+01
 -0.890312725497E+01  0.181241301747E+01  0.112631049098E+01
 -0.888744424997E+01 -0.184305580497E+01  0.146124857932E+01
 -0.889756594174E+01 -0.153271672463E+01  0.165374929093E+01
 -0.890741109480E+01 -0.119822213264E+01  0.180767585888E+01
 -0.891549499490E+01 -0.844572342608E+00  0.191714301567E+01
 -0.892152754709E+01 -0.477402241357E+00  0.197939492080E+01
 -0.892500291837E+01 -0.103375769359E+00  0.199274227368E+01
 -0.892511711943E+01  0.270555801919E+00  0.197874310193E+01
 -0.892245367486E+01  0.637834533837E+00  0.191581648047E+01
 -0.891732356685E+01  0.991630571310E+00  0.180569375604E+01
 -0.890984685212E+01  0.132628665665E+01  0.165133117603E+01
 -0.890194775298E+01  0.163646224979E+01  0.145911655661E+01
 -0.888770358102E+01 -0.162317887950E+01  0.175882204649E+01
 -0.888940101840E+01 -0.136694575092E+01  0.201413656326E+01
 -0.889158113160E+01 -0.107970188623E+01  0.221977320261E+01
 -0.889382395569E+01 -0.768297259520E+00  0.237007698614E+01
 -0.889592509201E+01 -0.439737067062E+00  0.246209002967E+01
 -0.889773355578E+01 -0.103511306115E+00  0.249276914087E+01
 -0.889917982190E+01  0.233576960664E+00  0.246146953347E+01
 -0.890007810415E+01  0.561504821798E+00  0.236929266696E+01
 -0.890065511788E+01  0.873286827807E+00  0.221820286251E+01
 -0.890078879564E+01  0.116067559094E+01  0.201207952183E+01
 -0.890084410303E+01  0.141697776131E+01  0.175652963366E+01
CELLS       1130     10170
8      0      9     10      1     99    108    109    100
8     99    108    109    100    198    207    208    199
8    198    207    208    199    297    306    307    298
8    297    306    307    298    396    405    406    397
8    396    405    406    397    495    504    505    496
8      9     18     19     10    108    117    118    109
8    108    117    118    109    207    216    217    208
8    207    216    217    208    306    315    316    307
8    306    315    316    307    405    414    415    406
8    405    414    415    406    504    513    514    505
8     18     27     28     19    117    126    127    118
8    117    126    127    118    216    225    226    217
8    216    225    226    217    315    324    325    316
8    315    324    325    316    414    423    424    415
8    414    423    424    415    513    522    523    514
8     27     36     37     28    126    135    136    127
8    126    135    136    127    225    234    235    226
8    225    234    235    226    324    333    334    325
8    324    333    334    325    423    432    433    424
8    423    432    433    424    522    531    532    523
8     36     45     46     37    135    144    145    136
8    135    144    145    136    234    243    244    235
8    234    243    244    235    333    342    343    334
8    333    342    343    334    432    441    442    433
8    432    441    442    433    531    540    541    532
8     45     54     55     46    144    153    154    145
8    144    153    154    145    243    252    253    244
8    243    252    253    244    342    351    352    343
8    342    351    352    343    441    450    451    442
8    441    450    451    442    540    549    550    541
8     54     63     64     55    153    162    163    154
8    153    162    163    154    252    261    262    253
8    252    261    262    253    351    360    361    352
8    351    360    361    352    450    459    460    451
8    450    459    460    451    549    558    559    550
8     63     72     73     64    162    171    172    163
8    162    171    172    163    261    270    271    262
8    261    270    271    262    360    369    370    361
8    360    369    370    361    459    468    469    460
8    459    468    469    460    558    567    568    559
8     72     81     82     73    171    180    181    172
8    171    180    181    172    270    279    280    271
8    270    279    280    271    369    378    379    370
8    369    378    379    370    468    477    478    469
8    468    477    478    469    567    576    577    568
8     81     90     91     82    180    189    190    181
8    180    189    190    181    279    288    289    280
8    279    288    289    280    378    387    388    379
8    378    387    388    379    477    486    487    478
8    477    486    487    478    576    585    586    577
8      1     10     11      2    100    109    110    101
8    100    109    110    101    199    208    209    200
8    199    208    209    200    298    307    308    299
8    298    307    308    299    397    406    407    398
8    397    406    407    398    496    505    506    497
8     10     19     20     11    109    118    119    110
8    109    118    119    110    208    217    218    209
8    208    217    218    209    307    316    317    308
8    307    316    317    308    406    415    416    407
8    406    415    416    407    505    514    515    506
8     19     28     29     20    118    127    128    119
8    118    127    128    119    217    226    227    218
8    217    226    227    218    316    325    326    317
8    316    325    326    317    415    424    425    416
8    415    424    425    416    514    523    524    515
8     28     37     38     29    127    136    137    128
8    127    136    137    128    226    235    236    227
8    226    235    236    227    325    334    335    326
8    325    334    335    326    424    433    434    425
8    424    433    434    425    523    532    533    524
8     37     46     47     38    136    145    146    137
8    136    145    146    137    235    244    245    236
8    235    244    245    236    334    343    344    335
8    334    343    344    335    433    442    443    434
8    433    442    443    434    532    541    542    533
8     46     55     56     47    145    154    155    146
8    145    154    155    146    244    253    254    245
8    244    253    254    245    343    352    353    344
8    343    352    353    344    442    451    452    443
8    442    451    452    443    541    550    551    542
8     55     64     65     56    154    163    164    155
8    154    163    164    155    253    262    263    254
8    253    262    263    254    352    361    362    353
8    352    361    362    353    451    460    461    452
8    451    460    461    452    550    559    560    551
8     64     73     74     65    163    172    173    164
8    163    172    173    164    262    271    272    263
8    262    271    272    263    361    370    371    362
8    361    370    371    362    460    469    470    461
8    460    469    470    461    559    568    569    560
8     73     82     83     74    172    181    182    173
8    172    181    182    173    271    280    281    272
8    271    280    281    272    370    379    380    371
8    370    379    380    371    469    478    479    470
8    469    478    479    470    568    577    578    569
8     82     91     92     83    181    190    191    182
8    181    190    191    182    280    289    290    281
8    280    289    290    281    379    388    389    380
8    379    388    389    380    478    487    488    479
8    478    487    488    479    577    586    587    578
8      2     11     12      3    101    110    111    102
8    101    110    111    102    200    209    210    201
8    200    209    210    201    299    308    309    300
8    299    308    309    300    398    407    408    399
8    398    407    408    399    497    506    507    498
8     11     20     21     12    110    119    120    111
8    110    119    120    111    209    218    219    210
8    209    218    219    210    308    317    318    309
8    308    317    318    309    407    416    417    408
8    407    416    417    408    506    515    516    507
8     20     29     30     21    119    128    129    120
8    119    128    129    120    218    227    228    219
8    218    227    228    219    317    326    327    318
8    317    326    327    318    416    425    426    417
8    416    425    426    417    515    524    525    516
8     29     38     39     30    128    137    138    129
8    128    137    138    129    227    236    237    228
8    227    236    237    228    326    335    336    327
8    326    335    336    327    425    434    435    426
8    425    434    435    426    524    533    534    525
8     38     47     48     39    137    146    147    138
8    137    146    147    138    236    245    246    237
8    236    245    246    237    335    344    345    336
8    335    344    345    336    434    443    444    435
8    434    443    444    435    533    542    543    534
8     47     56     57     48    146    155    156    147
8    146    155    156    147    245    254    255    246
8    245    254    255    246    344    353    354    345
8    344    353    354    345    443    452    453    444
8    443    452    453    444    542    551    552    543
8     56     65     66     57    155    164    165    156
8    155    164    165    156    254    263    264    255
8    254    263    264    255    353    362    363    354
8    353    362    363    354    452    461    462    453
8    452    461    462    453    551    560    561    552
8     65     74     75     66    164    173    174    165
8    164    173    174    165    263    272    273    264
8    263    272    273    264    362    371    372    363
8    362    371    372    363    461    470    471    462
8    461    470    471    462    560    569    570    561
8     74     83     84     75    173    182    183    174
8    173    182    183    174    272    281    282    273
8    272    281    282    273    371    380    381    372
8    371    380    381    372    470    479    480    471
8    470    479    480    471    569    578    579    570
8     83     92     93     84    182    191    192    183
8    182    191    192    183    281    290    291    282
8    281    290    291    282    380    389    390    381
8    380    389    390    381    479    488    489    480
8    479    488    489    480    578    587    588    579
8      3     12     13      4    102    111    112    103
8    102    111    112    103    201    210    211    202
8    201    210    211    202    300    309    310    301
8    300    309    310    301    399    408    409    400
8    399    408    409    400    498    507    508    499
8     12     21     22     13    111    120    121    112
8    111    120    121    112    210    219    220    211
8    210    219    220    211    309    318    319    310
8    309    318    319    310    408    417    418    409
8    408    417    418    409    507    516    517    508
8     21     30     31     22    120    129    130    121
8    120    129    130    121    219    228    229    220
8    219    228    229    220    318    327    328    319
8    318    327    328    319    417    426    427    418
8    417    426    427    418    516    525    526    517
8     30     39     40     31    129    138    139    130
8    129    138    139    130    228    237    238    229
8    228    237    238    229    327    336    337    328
8    327    336    337    328    426    435    436    427
8    426    435    436    427    525    534    535    526
8     39     48     49     40    138    147    148    139
8    138    147    148    139    237    246    247    238
8    237    246    247    238    336    345    346    337
8    336    345    346    337    435    444    445    436
8    435    444    445    436    534    543    544    535
8     48     57     58     49    147    156    157    148
8    147    156    157    148    246    255    256    247
8    246    255    256    247    345    354    355    346
8    345    354    355    346    444    453    454    445
8    444    453    454    445    543    552    553    544
8     57     66     67     58    156    165    166    157
8    156    165    166    157    255    264    265    256
8    255    264    265    256    354    363    364    355
8    354    363    364    355    453    462    463    454
8    453    462    463    454    552    561    562    553
8     66     75     76     67    165    174    175    166
8    165    174    175    166    264    273    274    265
8    264    273    274    265    363    372    373    364
8    363    372    373    364    462    471    472    463
8    462    471    472    463    561    570    571    562
8     75     84     85     76    174    183    184    175
8    174    183    184    175    273    282    283    274
8    273    282    283    274    372    381    382    373
8    372    381    382    373    471    480    481    472
8    471    480    481    472    570    579    580    571
8     84     93     94     85    183    192    193    184
8    183    192    193    184    282    291    292    283
8    282    291    292    283    381    390    391    382
8    381    390    391    382    480    489    490    481
8    480    489    490    481    579    588    589    580
8      4     13     14      5    103    112    113    104
8    103    112    113    104    202    211    212    203
8    202    211    212    203    301    310    311    302
8    301    310    311    302    400    409    410    401
8    400    409    410    401    499    508    509    500
8     13     22     23     14    112    121    122    113
8    112    121    122    113    211    220    221    212
8    211    220    221    212    310    319    320    311
8    310    319    320    311    409    418    419    410
8    409    418    419    410    508    517    518    509
8     22     31     32     23    121    130    131    122
8    121    130    131    122    220    229    230    221
8    220    229    230    221    319    328    329    320
8    319    328    329    320    418    427    428    419
8    418    427    428    419    517    526    527    518
8     31     40     41     32    130    139    140    131
8    130    139    140    131    229    238    239    230
8    229    238    239    230    328    337    338    329
8    328    337    338    329    427    436    437    428
8    427    436    437    428    526    535    536    527
8     40     49     50     41    139    148    149    140
8    139    148    149    140    238    247    248    239
8    238    247    248    239    337    346    347    338
8    337    346    347    338    436    445    446    437
8    436    445    446    437    535    544    545    536
8     49     58     59     50    148    157    158    149
8    148    157    158    149    247    256    257    248
8    247    256    257    248    346    355    356    347
8    346    355    356    347    445    454    455    446
8    445    454    455    446    544    553    554    545
8     58     67     68     59    157    166    167    158
8    157    166    167    158    256    265    266    257
8    256    265    266    257    355    364    365    356
8    355    364    365    356    454    463    464    455
8    454    463    464    455    553    562    563    554
8     67     76     77     68    166    175    176    167
8    166    175    176    167    265    274    275    266
8    265    274    275    266    364    373    374    365
8    364    373    374    365    463    472    473    464
8    463    472    473    464    562    571    572    563
8     76     85     86     77    175    184    185    176
8    175    184    185    176    274    283    284    275
8    274    283    284    275    373    382    383    374
8    373    382    383    374    472    481    482    473
8    472    481    482    473    571    580    581    572
8     85     94     95     86    184    193    194    185
8    184    193    194    185    283    292    293    284
8    283    292    293    284    382    391    392    383
8    382    391    392    383    481    490    491    482
8    481    490    491    482    580    589    590    581
8      5     14     15      6    104    113    114    105
8    104    113    114    105    203    212    213    204
8    203    212    213    204    302    311    312    303
8    302    311    312    303    401    410    411    402
8    401    410    411    402    500    509    510    501
8     14     23     24     15    113    122    123    114
8    113    122    123    114    212    221    222    213
8    212    221    222    213    311    320    321    312
8    311    320    321    312    410    419    420    411
8    410    419    420    411    509    518    519    510
8     23     32     33     24    122    131    132    123
8    122    131    132    123    221    230    231    222
8    221    230    231    222    320    329    330    321
8    320    329    330    321    419    428    429    420
8    419    428    429    420    518    527    528    519
8     32     41     42     33    131    140    141    132
8    131    140    141    132    230    239    240    231
8    230    239    240    231    329    338    339    330
8    329    338    339    330    428    437    438    429
8    428    437    438    429    527    536    537    528
8     41     50     51     42    140    149    150    141
8    140    149    150    141    239    248    249    240
8    239    248    249    240    338    347    348    339
8    338    347    348    339    437    446    447    438
8    437    446    447    438    536    545    546    537
8     50     59     60     51    149    158    159    150
8    149    158    159    150    248    257    258    249
8    248    257    258    249    347    356    357    348
8    347    356    357    348    446    455    456    447
8    446    455    456    447    545    554    555    546
8     59     68     69     60    158    167    168    159
8    158    167    168    159    257    266    267    258
8    257    266    267    258    356    365    366    357
8    356    365    366    357    455    464    465    456
8    455    464    465    456    554    563    564    555
8     68     77     78     69    167    176    177    168
8    167    176    177    168    266    275    276    267
8    266    275    276    267    365    374    375    366
8    365    374    375    366    464    473    474    465
8    464    473    474    465    563    572    573    564
8     77     86     87     78    176    185    186    177
8    176    185    186    177    275    284    285    276
8    275    284    285    276    374    383    384    375
8    374    383    384    375    473    482    483    474
8    473    482    483    474    572    581    582    573
8     86     95     96     87    185    194    195    186
8    185    194    195    186    284    293    294    285
8    284    293    294    285    383    392    393    384
8    383    392    393    384    482    491    492    483
8    482    491    492    483    581    590    591    582
8      6     15     16      7    105    114    115    106
8    105    114    115    106    204    213    214    205
8    204    213    214    205    303    312    313    304
8    303    312    313    304    402    411    412    403
8    402    411    412    403    501    510    511    502
8     15     24     25     16    114    123    124    115
8    114    123    124    115    213    222    223    214
8    213    222    223    214    312    321    322    313
8    312    321    322    313    411    420    421    412
8    411    420    421    412    510    519    520    511
8     24     33     34     25    123    132    133    124
8    123    132    133    124    222    231    232    223
8    222    231    232    223    321    330    331    322
8    321    330    331    322    420    429    430    421
8    420    429    430    421    519    528    529    520
8     33     42     43     34    132    141    142    133
8    132    141    142    133    231    240    241    232
8    231    240    241    232    330    339    340    331
8    330    339    340    331    429    438    439    430
8    429    438    439    430    528    537    538    529
8     42     51     52     43    141    150    151    142
8    141    150    151    142    240    249    250    241
8    240    249    250    241    339    348    349    340
8    339    348    349    340    438    447    448    439
8    438    447    448    439    537    546    547    538
8     51     60     61     52    150    159    160    151
8    150    159    160    151    249    258    259    250
8    249    258    259    250    348    357    358    349
8    348    357    358    349    447    456    457    448
8    447    456    457    448    546    555    556    547
8     60     69     70     61    159    168    169    160
8    159    168    169    160    258    267    268    259
8    258    267    268    259    357    366    367    358
8    357    366    367    358    456    465    466    457
8    456    465    466    457    555    564    565    556
8     69     78     79     70    168    177    178    169
8    168    177    178    169    267    276    277    268
8    267    276    277    268    366    375    376    367
8    366    375    376    367    465    474    475    466
8    465    474    475    466    564    573    574    565
8     78     87     88     79    177    186    187    178
8    177    186    187    178    276    285    286    277
8    276    285    286    277    375    384    385    376
8    375    384    385    376    474    483    484    475
8    474    483    484    475    573    582    583    574
8     87     96     97     88    186    195    196    187
8    186    195    196    187    285    294    295    286
8    285    294    295    286    384    393    394    385
8    384    393    394    385    483    492    493    484
8    483    492    493    484    582    591    592    583
8      7     16     17      8    106    115    116    107
8    106    115    116    107    205    214    215    206
8    205    214    215    206    304    313    314    305
8    304    313    314    305    403    412    413    404
8    403    412    413    404    502    511    512    503
8     16     25     26     17    115    124    125    116
8    115    124    125    116    214    223    224    215
8    214    223    224    215    313    322    323    314
8    313    322    323    314    412    421    422    413
8    412    421    422    413    511    520    521    512
8     25     34     35     26    124    133    134    125
8    124    133    134    125    223    232    233    224
8    223    232    233    224    322    331    332    323
8    322    331    332    323    421    430    431    422
8    421    430    431    422    520    529    530    521
8     34     43     44     35    133    142    143    134
8    133    142    143    134    232    241    242    233
8    232    241    242    233    331    340    341    332
8    331    340    341    332    430    439    440    431
8    430    439    440    431    529    538    539    530
8     43     52     53     44    142    151    152    143
8    142    151    152    143    241    250    251    242
8    241    250    251    242    340    349    350    341
8    340    349    350    341    439    448    449    440
8    439    448    449    440    538    547    548    539
8     52     61     62     53    151    160    161    152
8    151    160    161    152    250    259    260    251
8    250    259    260    251    349    358    359    350
8    349    358    359    350    448    457    458    449
8    448    457    458    449    547    556    557    548
8     61     70     71     62    160    169    170    161
8    160    169    170    161    259    268    269    260
8    259    268    269    260    358    367    368    359
8    358    367    368    359    457    466    467    458
8    457    466    467    458    556    565    566    557
8     70     79     80     71    169    178    179    170
8    169    178    179    170    268    277    278    269
8    268    277    278    269    367    376    377    368
8    367    376    377    368    466    475    476    467
8    466    475    476    467    565    574    575    566
8     79     88     89     80    178    187    188    179
8    178    187    188    179    277    286    287    278
8    277    286    287    278    376    385    386    377
8    376    385    386    377    475    484    485    476
8    475    484    485    476    574    583    584    575
8     88     97     98     89    187    196    197    188
8    187    196    197    188    286    295    296    287
8    286    295    296    287    385    394    395    386
8    385    394    395    386    484    493    494    485
8    484    493    494    485    583    592    593    584
8     53     62    605    594    152    161    671    660
8    152    161    671    660    251    260    737    726
8    251    260    737    726    350    359    803    792
8    350    359    803    792    449    458    869    858
8    449    458    869    858    548    557    935    924
8     62     71    616    605    161    170    682    671
8    161    170    682    671    260    269    748    737
8    260    269    748    737    359    368    814    803
8    359    368    814    803    458    467    880    869
8    458    467    880    869    557    566    946    935
8     71     80    627    616    170    179    693    682
8    170    179    693    682    269    278    759    748
8    269    278    759    748    368    377    825    814
8    368    377    825    814    467    476    891    880
8    467    476    891    880    566    575    957    946
8     80     89    638    627    179    188    704    693
8    179    188    704    693    278    287    770    759
8    278    287    770    759    377    386    836    825
8    377    386    836    825    476    485    902    891
8    476    485    902    891    575    584    968    957
8     89     98    649    638    188    197    715    704
8    188    197    715    704    287    296    781    770
8    287    296    781    770    386    395    847    836
8    386    395    847    836    485    494    913    902
8    485    494    913    902    584    593    979    968
8      8     17   1025   1034    107    116   1079   1088
8    107    116   1079   1088    206    215   1133   1142
8    206    215   1133   1142    305    314   1187   1196
8    305    314   1187   1196    404    413   1241   1250
8    404    413   1241   1250    503    512   1295   1304
8     17     26   1016   1025    116    125   1070   1079
8    116    125   1070   1079    215    224   1124   1133
8    215    224   1124   1133    314    323   1178   1187
8    314    323   1178   1187    413    422   1232   1241
8    413    422   1232   1241    512    521   1286   1295
8     26     35   1007   1016    125    134   1061   1070
8    125    134   1061   1070    224    233   1115   1124
8    224    233   1115   1124    323    332   1169   1178
8    323    332   1169   1178    422    431   1223   1232
8    422    431   1223   1232    521    530   1277   1286
8     35     44    998   1007    134    143   1052   1061
8    134    143   1052   1061    233    242   1106   1115
8    233    242   1106   1115    332    341   1160   1169
8    332    341   1160   1169    431    440   1214   1223
8    431    440   1214   1223    530    539   1268   1277
8     44     53    594    998    143    152   1043   1052
8    143    152   1043   1052    242    251   1097   1106
8    242    251   1097   1106    341    350   1151   1160
8    341    350   1151   1160    440    449   1205   1214
8    440    449   1205   1214    539    548   1259   1268
8    594    605    606    595    660    671    672    661
8    660    671    672    661    726    737    738    727
8    726    737    738    727    792    803    804    793
8    792    803    804    793    858    869    870    859
8    858    869    870    859    924    935    936    925
8    605    616    617    606    671    682    683    672
8    671    682    683    672    737    748    749    738
8    737    748    749    738    803    814    815    804
8    803    814    815    804    869    880    881    870
8    869    880    881    870    935    946    947    936
8    616    627    628    617    682    693    694    683
8    682    693    694    683    748    759    760    749
8    748    759    760    749    814    825    826    815
8    814    825    826    815    880    891    892    881
8    880    891    892    881    946    957    958    947
8    627    638    639    628    693    704    705    694
8    693    704    705    694    759    770    771    760
8    759    770    771    760    825    836    837    826
8    825    836    837    826    891    902    903    892
8    891    902    903    892    957    968    969    958
8    638    649    650    639    704    715    716    705
8    704    715    716    705    770    781    782    771
8    770    781    782    771    836    847    848    837
8    836    847    848    837    902    913    914    903
8    902    913    914    903    968    979    980    969
8    595    606    607    596    661    672    673    662
8    661    672    673    662    727    738    739    728
8    727    738    739    728    793    804    805    794
8    793    804    805    794    859    870    871    860
8    859    870    871    860    925    936    937    926
8    606    617    618    607    672    683    684    673
8    672    683    684    673    738    749    750    739
8    738    749    750    739    804    815    816    805
8    804    815    816    805    870    881    882    871
8    870    881    882    871    936    947    948    937
8    617    628    629    618    683    694    695    684
8    683    694    695    684    749    760    761    750
8    749    760    761    750    815    826    827    816
8    815    826    827    816    881    892    893    882
8    881    892    893    882    947    958    959    948
8    628    639    640    629    694    705    706    695
8    694    705    706    695    760    771    772    761
8    760    771    772    761    826    837    838    827
8    826    837    838    827    892    903    904    893
8    892    903    904    893    958    969    970    959
8    639    650    651    640    705    716    717    706
8    705    716    717    706    771    782    783    772
8    771    782    783    772    837    848    849    838
8    837    848    849    838    903    914    915    904
8    903    914    915    904    969    980    981    970
8    596    607    608    597    662    673    674    663
8    662    673    674    663    728    739    740    729
8    728    739    740    729    794    805    806    795
8    794    805    806    795    860    871    872    861
8    860    871    872    861    926    937    938    927
8    607    618    619    608    673    684    685    674
8    673    684    685    674    739    750    751    740
8    739    750    751    740    805    816    817    806
8    805    816    817    806    871    882    883    872
8    871    882    883    872    937    948    949    938
8    618    629    630    619    684    695    696    685
8    684    695    696    685    750    761    762    751
8    750    761    762    751    816    827    828    817
8    816    827    828    817    882    893    894    883
8    882    893    894    883    948    959    960    949
8    629    640    641    630    695    706    707    696
8    695    706    707    696    761    772    773    762
8    761    772    773    762    827    838    839    828
8    827    838    839    828    893    904    905    894
8    893    904    905    894    959    970    971    960
8    640    651    652    641    706    717    718    707
8    706    717    718    707    772    783    784    773
8    772    783    784    773    838    849    850    839
8    838    849    850    839    904    915    916    905
8    904    915    916    905    970    981    982    971
8    597    608    609    598    663    674    675    664
8    663    674    675    664    729    740    741    730
8    729    740    741    730    795    806    807    796
8    795    806    807    796    861    872    873    862
8    861    872    873    862    927    938    939    928
8    608    619    620    609    674    685    686    675
8    674    685    686    675    740    751    752    741
8    740    751    752    741    806    817    818    807
8    806    817    818    807    872    883    884    873
8    872    883    884    873    938    949    950    939
8    619    630    631    620    685    696    697    686
8    685    696    697    686    751    762    763    752
8    751    762    763    752    817    828    829    818
8    817    828    829    818    883    894    895    884
8    883    894    895    884    949    960    961    950
8    630    641    642    631    696    707    708    697
8    696    707    708    697    762    773    774    763
8    762    773    774    763    828    839    840    829
8    828    839    840    829    894    905    906    895
8    894    905    906    895    960    971    972    961
8    641    652    653    642    707    718    719    708
8    707    718    719    708    773    784    785    774
8    773    784    785    774    839    850    851    840
8    839    850    851    840    905    916    917    906
8    905    916    917    906    971    982    983    972
8    598    609    610    599    664    675    676    665
8    664    675    676    665    730    741    742    731
8    730    741    742    731    796    807    808    797
8    796    807    808    797    862    873    874    863
8    862    873    874    863    928    939    940    929
8    609    620    621    610    675    686    687    676
8    675    686    687    676    741    752    753    742
8    741    752    753    742    807    818    819    808
8    807    818    819    808    873    884    885    874
8    873    884    885    874    939    950    951    940
8    620    631    632    621    686    697    698    687
8    686    697    698    687    752    763    764    753
8    752    763    764    753    818    829    830    819
8    818    829    830    819    884    895    896    885
8    884    895    896    885    950    961    962    951
8    631    642    643    632    697    708    709    698
8    697    708    709    698    763    774    775    764
8    763    774    775    764    829    840    841    830
8    829    840    841    830    895    906    907    896
8    895    906    907    896    961    972    973    962
8    642    653    654    643    708    719    720    709
8    708    719    720    709    774    785    786    775
8    774    785    786    775    840    851    852    841
8    840    851    852    841    906    917    918    907
8    906    917    918    907    972    983    984    973
8    599    610    611    600    665    676    677    666
8    665    676    677    666    731    742    743    732
8    731    742    743    732    797    808    809    798
8    797    808    809    798    863    874    875    864
8    863    874    875    864    929    940    941    930
8    610    621    622    611    676    687    688    677
8    676    687    688    677    742    753    754    743
8    742    753    754    743    808    819    820    809
8    808    819    820    809    874    885    886    875
8    874    885    886    875    940    951    952    941
8    621    632    633    622    687    698    699    688
8    687    698    699    688    753    764    765    754
8    753    764    765    754    819    830    831    820
8    819    830    831    820    885    896    897    886
8    885    896    897    886    951    962    963    952
8    632    643    644    633    698    709    710    699
8    698    709    710    699    764    775    776    765
8    764    775    776    765    830    841    842    831
8    830    841    842    831    896    907    908    897
8    896    907    908    897    962    973    974    963
8    643    654    655    644    709    720    721    710
8    709    720    721    710    775    786    787    776
8    775    786    787    776    841    852    853    842
8    841    852    853    842    907    918    919    908
8    907    918    919    908    973    984    985    974
8    600    611    612    601    666    677    678    667
8    666    677    678    667    732    743    744    733
8    732    743    744    733    798    809    810    799
8    798    809    810    799    864    875    876    865
8    864    875    876    865    930    941    942    931
8    611    622    623    612    677    688    689    678
8    677    688    689    678    743    754    755    744
8    743    754    755    744    809    820    821    810
8    809    820    821    810    875    886    887    876
8    875    886    887    876    941    952    953    942
8    622    633    634    623    688    699    700    689
8    688    699    700    689    754    765    766    755
8    754    765    766    755    820    831    832    821
8    820    831    832    821    886    897    898    887
8    886    897    898    887    952    963    964    953
8    633    644    645    634    699    710    711    700
8    699    710    711    700    765    776    777    766
8    765    776    777    766    831    842    843    832
8    831    842    843    832    897    908    909    898
8    897    908    909    898    963    974    975    964
8    644    655    656    645    710    721    722    711
8    710    721    722    711    776    787    788    777
8    776    787    788    777    842    853    854    843
8    842    853    854    843    908    919    920    909
8    908    919    920    909    974    985    986    975
8    601    612    613    602    667    678    679    668
8    667    678    679    668    733    744    745    734
8    733    744    745    734    799    810    811    800
8    799    810    811    800    865    876    877    866
8    865    876    877    866    931    942    943    932
8    612    623    624    613    678    689    690    679
8    678    689    690    679    744    755    756    745
8    744    755    756    745    810    821    822    811
8    810    821    822    811    876    887    888    877
8    876    887    888    877    942    953    954    943
8    623    634    635    624    689    700    701    690
8    689    700    701    690    755    766    767    756
8    755    766    767    756    821    832    833    822
8    821    832    833    822    887    898    899    888
8    887    898    899    888    953    964    965    954
8    634    645    646    635    700    711    712    701
8    700    711    712    701    766    777    778    767
8    766    777    778    767    832    843    844    833
8    832    843    844    833    898    909    910    899
8    898    909    910    899    964    975    976    965
8    645    656    657    646    711    722    723    712
8    711    722    723    712    777    788    789    778
8    777    788    789    778    843    854    855    844
8    843    854    855    844    909    920    921    910
8    909    920    921    910    975    986    987    976
8    602    613    614    603    668    679    680    669
8    668    679    680    669    734    745    746    735
8    734    745    746    735    800    811    812    801
8    800    811    812    801    866    877    878    867
8    866    877    878    867    932    943    944    933
8    613    624    625    614    679    690    691    680
8    679    690    691    680    745    756    757    746
8    745    756    757    746    811    822    823    812
8    811    822    823    812    877    888    889    878
8    877    888    889    878    943    954    955    944
8    624    635    636    625    690    701    702    691
8    690    701    702    691    756    767    768    757
8    756    767    768    757    822    833    834    823
8    822    833    834    823    888    899    900    889
8    888    899    900    889    954    965    966    955
8    635    646    647    636    701    712    713    702
8    701    712    713    702    767    778    779    768
8    767    778    779    768    833    844    845    834
8    833    844    845    834    899    910    911    900
8    899    910    911    900    965    976    977    966
8    646    657    658    647    712    723    724    713
8    712    723    724    713    778    789    790    779
8    778    789    790    779    844    855    856    845
8    844    855    856    845    910    921    922    911
8    910    921    922    911    976    987    988    977
8    603    614    615    604    669    680    681    670
8    669    680    681    670    735    746    747    736
8    735    746    747    736    801    812    813    802
8    801    812    813    802    867    878    879    868
8    867    878    879    868    933    944    945    934
8    614    625    626    615    680    691    692    681
8    680    691    692    681    746    757    758    747
8    746    757    758    747    812    823    824    813
8    812    823    824    813    878    889    890    879
8    878    889    890    879    944    955    956    945
8    625    636    637    626    691    702    703    692
8    691    702    703    692    757    768    769    758
8    757    768    769    758    823    834    835    824
8    823    834    835    824    889    900    901    890
8    889    900    901    890    955    966    967    956
8    636    647    648    637    702    713    714    703
8    702    713    714    703    768    779    780    769
8    768    779    780    769    834    845    846    835
8    834    845    846    835    900    911    912    901
8    900    911    912    901    966    977    978    967
8    647    658    659    648    713    724    725    714
8    713    724    725    714    779    790    791    780
8    779    790    791    780    845    856    857    846
8    845    856    857    846    911    922    923    912
8    911    922    923    912    977    988    989    978
8    998    594    990    999   1052   1043   1044   1053
8   1052   1043   1044   1053   1106   1097   1098   1107
8   1106   1097   1098   1107   1160   1151   1152   1161
8   1160   1151   1152   1161   1214   1205   1206   1215
8   1214   1205   1206   1215   1268   1259   1260   1269
8   1007    998    999   1008   1061   1052   1053   1062
8   1061   1052   1053   1062   1115   1106   1107   1116
8   1115   1106   1107   1116   1169   1160   1161   1170
8   1169   1160   1161   1170   1223   1214   1215   1224
8   1223   1214   1215   1224   1277   1268   1269   1278
8   1016   1007   1008   1017   1070   1061   1062   1071
8   1070   1061   1062   1071   1124   1115   1116   1125
8   1124   1115   1116   1125   1178   1169   1170   1179
8   1178   1169   1170   1179   1232   1223   1224   1233
8   1232   1223   1224   1233   1286   1277   1278   1287
8   1025   1016   1017   1026   1079   1070   1071   1080
8   1079   1070   1071   1080   1133   1124   1125   1134
8   1133   1124   1125   1134   1187   1178   1179   1188
8   1187   1178   1179   1188   1241   1232   1233   1242
8   1241   1232   1233   1242   1295   1286   1287   1296
8   1034   1025   1026   1035   1088   1079   1080   1089
8   1088   1079   1080   1089   1142   1133   1134   1143
8   1142   1133   1134   1143   1196   1187   1188   1197
8   1196   1187   1188   1197   1250   1241   1242   1251
8   1250   1241   1242   1251   1304   1295   1296   1305
8    999    990    991   1000   1053   1044   1045   1054
8   1053   1044   1045   1054   1107   1098   1099   1108
8   1107   1098   1099   1108   1161   1152   1153   1162
8   1161   1152   1153   1162   1215   1206   1207   1216
8   1215   1206   1207   1216   1269   1260   1261   1270
8   1008    999   1000   1009   1062   1053   1054   1063
8   1062   1053   1054   1063   1116   1107   1108   1117
8   1116   1107   1108   1117   1170   1161   1162   1171
8   1170   1161   1162   1171   1224   1215   1216   1225
8   1224   1215   1216   1225   1278   1269   1270   1279
8   1017   1008   1009   1018   1071   1062   1063   1072
8   1071   1062   1063   1072   1125   1116   1117   1126
8   1125   1116   1117   1126   1179   1170   1171   1180
8   1179   1170   1171   1180   1233   1224   1225   1234
8   1233   1224   1225   1234   1287   1278   1279   1288
8   1026   1017   1018   1027   1080   1071   1072   1081
8   1080   1071   1072   1081   1134   1125   1126   1135
8   1134   1125   1126   1135   1188   1179   1180   1189
8   1188   1179   1180   1189   1242   1233   1234   1243
8   1242   1233   1234   1243   1296   1287   1288   1297
8   1035   1026   1027   1036   1089   1080   1081   1090
8   1089   1080   1081   1090   1143   1134   1135   1144
8   1143   1134   1135   1144   1197   1188   1189   1198
8   1197   1188   1189   1198   1251   1242   1243   1252
8   1251   1242   1243   1252   1305   1296   1297   1306
8   1000    991    992   1001   1054   1045   1046   1055
8   1054   1045   1046   1055   1108   1099   1100   1109
8   1108   1099   1100   1109   1162   1153   1154   1163
8   1162   1153   1154   1163   1216   1207   1208   1217
8   1216   1207   1208   1217   1270   1261   1262   1271
8   1009   1000   1001   1010   1063   1054   1055   1064
8   1063   1054   1055   1064   1117   1108   1109   1118
8   1117   1108   1109   1118   1171   1162   1163   1172
8   1171   1162   1163   1172   1225   1216   1217   1226
8   1225   1216   1217   1226   1279   1270   1271   1280
8   1018   1009   1010   1019   1072   1063   1064   1073
8   1072   1063   1064   1073   1126   1117   1118   1127
8   1126   1117   1118   1127   1180   1171   1172   1181
8   1180   1171   1172   1181   1234   1225   1226   1235
8   1234   1225   1226   1235   1288   1279   1280   1289
8   1027   1018   1019   1028   1081   1072   1073   1082
8   1081   1072   1073   1082   1135   1126   1127   1136
8   1135   1126   1127   1136   1189   1180   1181   1190
8   1189   1180   1181   1190   1243   1234   1235   1244
8   1243   1234   1235   1244   1297   1288   1289   1298
8   1036   1027   1028   1037   1090   1081   1082   1091
8   1090   1081   1082   1091   1144   1135   1136   1145
8   1144   1135   1136   1145   1198   1189   1190   1199
8   1198   1189   1190   1199   1252   1243   1244   1253
8   1252   1243   1244   1253   1306   1297   1298   1307
8   1001    992    993   1002   1055   1046   1047   1056
8   1055   1046   1047   1056   1109   1100   1101   1110
8   1109   1100   1101   1110   1163   1154   1155   1164
8   1163   1154   1155   1164   1217   1208   1209   1218
8   1217   1208   1209   1218   1271   1262   1263   1272
8   1010   1001   1002   1011   1064   1055   1056   1065
8   1064   1055   1056   1065   1118   1109   1110   1119
8   1118   1109   1110   1119   1172   1163   1164   1173
8   1172   1163   1164   1173   1226   1217   1218   1227
8   1226   1217   1218   1227   1280   1271   1272   1281
8   1019   1010   1011   1020   1073   1064   1065   1074
8   1073   1064   1065   1074   1127   1118   1119   1128
8   1127   1118   1119   1128   1181   1172   1173   1182
8   1181   1172   1173   1182   1235   1226   1227   1236
8   1235   1226   1227   1236   1289   1280   1281   1290
8   1028   1019   1020   1029   1082   1073   1074   1083
8   1082   1073   1074   1083   1136   1127   1128   1137
8   1136   1127   1128   1137   1190   1181   1182   1191
8   1190   1181   1182   1191   1244   1235   1236   1245
8   1244   1235   1236   1245   1298   1289   1290   1299
8   1037   1028   1029   1038   1091   1082   1083   1092
8   1091   1082   1083   1092   1145   1136   1137   1146
8   1145   1136   1137   1146   1199   1190   1191   1200
8   1199   1190   1191   1200   1253   1244   1245   1254
8   1253   1244   1245   1254   1307   1298   1299   1308
8   1002    993    994   1003   1056   1047   1048   1057
8   1056   1047   1048   1057   1110   1101   1102   1111
8   1110   1101   1102   1111   1164   1155   1156   1165
8   1164   1155   1156   1165   1218   1209   1210   1219
8   1218   1209   1210   1219   1272   1263   1264   1273
8   1011   1002   1003   1012   1065   1056   1057   1066
8   1065   1056   1057   1066   1119   1110   1111   1120
8   1119   1110   1111   1120   1173   1164   1165   1174
8   1173   1164   1165   1174   1227   1218   1219   1228
8   1227   1218   1219   1228   1281   1272   1273   1282
8   1020   1011   1012   1021   1074   1065   1066   1075
8   1074   1065   1066   1075   1128   1119   1120   1129
8   1128   1119   1120   1129   1182   1173   1174   1183
8   1182   1173   1174   1183   1236   1227   1228   1237
8   1236   1227   1228   1237   1290   1281   1282   1291
8   1029   1020   1021   1030   1083   1074   1075   1084
8   1083   1074   1075   1084   1137   1128   1129   1138
8   1137   1128   1129   1138   1191   1182   1183   1192
8   1191   1182   1183   1192   1245   1236   1237   1246
8   1245   1236   1237   1246   1299   1290   1291   1300
8   1038   1029   1030   1039   1092   1083   1084   1093
8   1092   1083   1084   1093   1146   1137   1138   1147
8   1146   1137   1138   1147   1200   1191   1192   1201
8   1200   1191   1192   1201   1254   1245   1246   1255
8   1254   1245   1246   1255   1308   1299   1300   1309
8   1003    994    995   1004   1057   1048   1049   1058
8   1057   1048   1049   1058   1111   1102   1103   1112
8   1111   1102   1103   1112   1165   1156   1157   1166
8   1165   1156   1157   1166   1219   1210   1211   1220
8   1219   1210   1211   1220   1273   1264   1265   1274
8   1012   1003   1004   1013   1066   1057   1058   1067
8   1066   1057   1058   1067   1120   1111   1112   1121
8   1120   1111   1112   1121   1174   1165   1166   1175
8   1174   1165   1166   1175   1228   1219   1220   1229
8   1228   1219   1220   1229   1282   1273   1274   1283
8   1021   1012   1013   1022   1075   1066   1067   1076
8   1075   1066   1067   1076   1129   1120   1121   1130
8   1129   1120   1121   1130   1183   1174   1175   1184
8   1183   1174   1175   1184   1237   1228   1229   1238
8   1237   1228   1229   1238   1291   1282   1283   1292
8   1030   1021   1022   1031   1084   1075   1076   1085
8   1084   1075   1076   1085   1138   1129   1130   1139
8   1138   1129   1130   1139   1192   1183   1184   1193
8   1192   1183   1184   1193   1246   1237   1238   1247
8   1246   1237   1238   1247   1300   1291   1292   1301
8   1039   1030   1031   1040   1093   1084   1085   1094
8   1093   1084   1085   1094   1147   1138   1139   1148
8   1147   1138   1139   1148   1201   1192   1193   1202
8   1201   1192   1193   1202   1255   1246   1247   1256
8   1255   1246   1247   1256   1309   1300   1301   1310
8   1004    995    996   1005   1058   1049   1050   1059
8   1058   1049   1050   1059   1112   1103   1104   1113
8   1112   1103   1104   1113   1166   1157   1158   1167
8   1166   1157   1158   1167   1220   1211   1212   1221
8   1220   1211   1212   1221   1274   1265   1266   1275
8   1013   1004   1005   1014   1067   1058   1059   1068
8   1067   1058   1059   1068   1121   1112   1113   1122
8   1121   1112   1113   1122   1175   1166   1167   1176
8   1175   1166   1167   1176   1229   1220   1221   1230
8   1229   1220   1221   1230   1283   1274   1275   1284
8   1022   1013   1014   1023   1076   1067   1068   1077
8   1076   1067   1068   1077   1130   1121   1122   1131
8   1130   1121   1122   1131   1184   1175   1176   1185
8   1184   1175   1176   1185   1238   1229   1230   1239
8   1238   1229   1230   1239   1292   1283   1284   1293
8   1031   1022   1023   1032   1085   1076   1077   1086
8   1085   1076   1077   1086   1139   1130   1131   1140
8   1139   1130   1131   1140   1193   1184   1185   1194
8   1193   1184   1185   1194   1247   1238   1239   1248
8   1247   1238   1239   1248   1301   1292   1293   1302
8   1040   1031   1032   1041   1094   1085   1086   1095
8   1094   1085   1086   1095   1148   1139   1140   1149
8   1148   1139   1140   1149   1202   1193   1194   1203
8   1202   1193   1194   1203   1256   1247   1248   1257
8   1256   1247   1248   1257   1310   1301   1302   1311
8   1005    996    997   1006   1059   1050   1051   1060
8   1059   1050   1051   1060   1113   1104   1105   1114
8   1113   1104   1105   1114   1167   1158   1159   1168
8   1167   1158   1159   1168   1221   1212   1213   1222
8   1221   1212   1213   1222   1275   1266   1267   1276
8   1014   1005   1006   1015   1068   1059   1060   1069
8   1068   1059   1060   1069   1122   1113   1114   1123
8   1122   1113   1114   1123   1176   1167   1168   1177
8   1176   1167   1168   1177   1230   1221   1222   1231
8   1230   1221   1222   1231   1284   1275   1276   1285
8   1023   1014   1015   1024   1077   1068   1069   1078
8   1077   1068   1069   1078   1131   1122   1123   1132
8   1131   1122   1123   1132   1185   1176   1177   1186
8   1185   1176   1177   1186   1239   1230   1231   1240
8   1239   1230   1231   1240   1293   1284   1285   1294
8   1032   1023   1024   1033   1086   1077   1078   1087
8   1086   1077   1078   1087   1140   1131   1132   1141
8   1140   1131   1132   1141   1194   1185   1186   1195
8   1194   1185   1186   1195   1248   1239   1240   1249
8   1248   1239   1240   1249   1302   1293   1294   1303
8   1041   1032   1033   1042   1095   1086   1087   1096
8   1095   1086   1087   1096   1149   1140   1141   1150
8   1149   1140   1141   1150   1203   1194   1195   1204
8   1203   1194   1195   1204   1257   1248   1249   1258
8   1257   1248   1249   1258   1311   1302   1303   1312
8      0   1314   1324     99      1   1315   1325    100
8     99   1324   1334    198    100   1325   1335    199
8    198   1334   1344    297    199   1335   1345    298
8    297   1344   1354    396    298   1345   1355    397
8    396   1354   1364    495    397   1355   1365    496
8    495   1364   1374    504    496   1365   1375    505
8    504   1374   1384    513    505   1375   1385    514
8    513   1384   1394    522    514   1385   1395    523
8    522   1394   1404    531    523   1395   1405    532
8    531   1404   1414    540    532   1405   1415    541
8    540   1414   1424    549    541   1415   1425    550
8    549   1424   1434    558    550   1425   1435    559
8    558   1434   1444    567    559   1435   1445    568
8    567   1444   1454    576    568   1445   1455    577
8    576   1454   1464    585    577   1455   1465    586
8     90    189   1504   1514     91    190   1505   1515
8    189    288   1494   1504    190    289   1495   1505
8    288    387   1484   1494    289    388   1485   1495
8    387    486   1474   1484    388    487   1475   1485
8    486    585   1464   1474    487    586   1465   1475
8      1   1315   1325    100      2   1316   1326    101
8    100   1325   1335    199    101   1326   1336    200
8    199   1335   1345    298    200   1336   1346    299
8    298   1345   1355    397    299   1346   1356    398
8    397   1355   1365    496    398   1356   1366    497
8    496   1365   1375    505    497   1366   1376    506
8    505   1375   1385    514    506   1376   1386    515
8    514   1385   1395    523    515   1386   1396    524
8    523   1395   1405    532    524   1396   1406    533
8    532   1405   1415    541    533   1406   1416    542
8    541   1415   1425    550    542   1416   1426    551
8    550   1425   1435    559    551   1426   1436    560
8    559   1435   1445    568    560   1436   1446    569
8    568   1445   1455    577    569   1446   1456    578
8    577   1455   1465    586    578   1456   1466    587
8     91    190   1505   1515     92    191   1506   1516
8    190    289   1495   1505    191    290   1496   1506
8    289    388   1485   1495    290    389   1486   1496
8    388    487   1475   1485    389    488   1476   1486
8    487    586   1465   1475    488    587   1466   1476
8      2   1316   1326    101      3   1317   1327    102
8    101   1326   1336    200    102   1327   1337    201
8    200   1336   1346    299    201   1337   1347    300
8    299   1346   1356    398    300   1347   1357    399
8    398   1356   1366    497    399   1357   1367    498
8    497   1366   1376    506    498   1367   1377    507
8    506   1376   1386    515    507   1377   1387    516
8    515   1386   1396    524    516   1387   1397    525
8    524   1396   1406    533    525   1397   1407    534
8    533   1406   1416    542    534   1407   1417    543
8    542   1416   1426    551    543   1417   1427    552
8    551   1426   1436    560    552   1427   1437    561
8    560   1436   1446    569    561   1437   1447    570
8    569   1446   1456    578    570   1447   1457    579
8    578   1456   1466    587    579   1457   1467    588
8     92    191   1506   1516     93    192   1507   1517
8    191    290   1496   1506    192    291   1497   1507
8    290    389   1486   1496    291    390   1487   1497
8    389    488   1476   1486    390    489   1477   1487
8    488    587   1466   1476    489    588   1467   1477
8      3   1317   1327    102      4   1318   1328    103
8    102   1327   1337    201    103   1328   1338    202
8    201   1337   1347    300    202   1338   1348    301
8    300   1347   1357    399    301   1348   1358    400
8    399   1357   1367    498    400   1358   1368    499
8    498   1367   1377    507    499   1368   1378    508
8    507   1377   1387    516    508   1378   1388    517
8    516   1387   1397    525    517   1388   1398    526
8    525   1397   1407    534    526   1398   1408    535
8    534   1407   1417    543    535   1408   1418    544
8    543   1417   1427    552    544   1418   1428    553
8    552   1427   1437    561    553   1428   1438    562
8    561   1437   1447    570    562   1438   1448    571
8    570   1447   1457    579    571   1448   1458    580
8    579   1457   1467    588    580   1458   1468    589
8     93    192   1507   1517     94    193   1508   1518
8    192    291   1497   1507    193    292   1498   1508
8    291    390   1487   1497    292    391   1488   1498
8    390    489   1477   1487    391    490   1478   1488
8    489    588   1467   1477    490    589   1468   1478
8      4   1318   1328    103      5   1319   1329    104
8    103   1328   1338    202    104   1329   1339    203
8    202   1338   1348    301    203   1339   1349    302
8    301   1348   1358    400    302   1349   1359    401
8    400   1358   1368    499    401   1359   1369    500
8    499   1368   1378    508    500   1369   1379    509
8    508   1378   1388    517    509   1379   1389    518
8    517   1388   1398    526    518   1389   1399    527
8    526   1398   1408    535    527   1399   1409    536
8    535   1408   1418    544    536   1409   1419    545
8    544   1418   1428    553    545   1419   1429    554
8    553   1428   1438    562    554   1429   1439    563
8    562   1438   1448    571    563   1439   1449    572
8    571   1448   1458    580    572   1449   1459    581
8    580   1458   1468    589    581   1459   1469    590
8     94    193   1508   1518     95    194   1509   1519
8    193    292   1498   1508    194    293   1499   1509
8    292    391   1488   1498    293    392   1489   1499
8    391    490   1478   1488    392    491   1479   1489
8    490    589   1468   1478    491    590   1469   1479
8      5   1319   1329    104      6   1320   1330    105
8    104   1329   1339    203    105   1330   1340    204
8    203   1339   1349    302    204   1340   1350    303
8    302   1349   1359    401    303   1350   1360    402
8    401   1359   1369    500    402   1360   1370    501
8    500   1369   1379    509    501   1370   1380    510
8    509   1379   1389    518    510   1380   1390    519
8    518   1389   1399    527    519   1390   1400    528
8    527   1399   1409    536    528   1400   1410    537
8    536   1409   1419    545    537   1410   1420    546
8    545   1419   1429    554    546   1420   1430    555
8    554   1429   1439    563    555   1430   1440    564
8    563   1439   1449    572    564   1440   1450    573
8    572   1449   1459    581    573   1450   1460    582
8    581   1459   1469    590    582   1460   1470    591
8     95    194   1509   1519     96    195   1510   1520
8    194    293   1499   1509    195    294   1500   1510
8    293    392   1489   1499    294    393   1490   1500
8    392    491   1479   1489    393    492   1480   1490
8    491    590   1469   1479    492    591   1470   1480
8      6   1320   1330    105      7   1321   1331    106
8    105   1330   1340    204    106   1331   1341    205
8    204   1340   1350    303    205   1341   1351    304
8    303   1350   1360    402    304   1351   1361    403
8    402   1360   1370    501    403   1361   1371    502
8    501   1370   1380    510    502   1371   1381    511
8    510   1380   1390    519    511   1381   1391    520
8    519   1390   1400    528    520   1391   1401    529
8    528   1400   1410    537    529   1401   1411    538
8    537   1410   1420    546    538   1411   1421    547
8    546   1420   1430    555    547   1421   1431    556
8    555   1430   1440    564    556   1431   1441    565
8    564   1440   1450    573    565   1441   1451    574
8    573   1450   1460    582    574   1451   1461    583
8    582   1460   1470    591    583   1461   1471    592
8     96    195   1510   1520     97    196   1511   1521
8    195    294   1500   1510    196    295   1501   1511
8    294    393   1490   1500    295    394   1491   1501
8    393    492   1480   1490    394    493   1481   1491
8    492    591   1470   1480    493    592   1471   1481
8      7   1321   1331    106      8   1322   1332    107
8    106   1331   1341    205    107   1332   1342    206
8    205   1341   1351    304    206   1342   1352    305
8    304   1351   1361    403    305   1352   1362    404
8    403   1361   1371    502    404   1362   1372    503
8    502   1371   1381    511    503   1372   1382    512
8    511   1381   1391    520    512   1382   1392    521
8    520   1391   1401    529    521   1392   1402    530
8    529   1401   1411    538    530   1402   1412    539
8    538   1411   1421    547    539   1412   1422    548
8    547   1421   1431    556    548   1422   1432    557
8    556   1431   1441    565    557   1432   1442    566
8    565   1441   1451    574    566   1442   1452    575
8    574   1451   1461    583    575   1452   1462    584
8    583   1461   1471    592    584   1462   1472    593
8     97    196   1511   1521     98    197   1512   1522
8    196    295   1501   1511    197    296   1502   1512
8    295    394   1491   1501    296    395   1492   1502
8    394    493   1481   1491    395    494   1482   1492
8    493    592   1471   1481    494    593   1472   1482
8   1523   1524      9      0   1534   1535    108     99
8   1534   1535    108     99   1545   1546    207    198
8   1545   1546    207    198   1556   1557    306    297
8   1556   1557    306    297   1567   1568    405    396
8   1567   1568    405    396   1578   1579    504    495
8   1524   1525     18      9   1535   1536    117    108
8   1535   1536    117    108   1546   1547    216    207
8   1546   1547    216    207   1557   1558    315    306
8   1557   1558    315    306   1568   1569    414    405
8   1568   1569    414    405   1579   1580    513    504
8   1525   1526     27     18   1536   1537    126    117
8   1536   1537    126    117   1547   1548    225    216
8   1547   1548    225    216   1558   1559    324    315
8   1558   1559    324    315   1569   1570    423    414
8   1569   1570    423    414   1580   1581    522    513
8   1526   1527     36     27   1537   1538    135    126
8   1537   1538    135    126   1548   1549    234    225
8   1548   1549    234    225   1559   1560    333    324
8   1559   1560    333    324   1570   1571    432    423
8   1570   1571    432    423   1581   1582    531    522
8   1527   1528     45     36   1538   1539    144    135
8   1538   1539    144    135   1549   1550    243    234
8   1549   1550    243    234   1560   1561    342    333
8   1560   1561    342    333   1571   1572    441    432
8   1571   1572    441    432   1582   1583    540    531
8   1528   1529     54     45   1539   1540    153    144
8   1539   1540    153    144   1550   1551    252    243
8   1550   1551    252    243   1561   1562    351    342
8   1561   1562    351    342   1572   1573    450    441
8   1572   1573    450    441   1583   1584    549    540
8   1529   1530     63     54   1540   1541    162    153
8   1540   1541    162    153   1551   1552    261    252
8   1551   1552    261    252   1562   1563    360    351
8   1562   1563    360    351   1573   1574    459    450
8   1573   1574    459    450   1584   1585    558    549
8   1530   1531     72     63   1541   1542    171    162
8   1541   1542    171    162   1552   1553    270    261
8   1552   1553    270    261   1563   1564    369    360
8   1563   1564    369    360   1574   1575    468    459
8   1574   1575    468    459   1585   1586    567    558
8   1531   1532     81     72   1542   1543    180    171
8   1542   1543    180    171   1553   1554    279    270
8   1553   1554    279    270   1564   1565    378    369
8   1564   1565    378    369   1575   1576    477    468
8   1575   1576    477    468   1586   1587    576    567
8   1532   1533     90     81   1543   1544    189    180
8   1543   1544    189    180   1554   1555    288    279
8   1554   1555    288    279   1565   1566    387    378
8   1565   1566    387    378   1576   1577    486    477
8   1576   1577    486    477   1587   1588    585    576
8   1523   1313   1323   1534      0   1314   1324     99
8   1534   1323   1333   1545     99   1324   1334    198
8   1545   1333   1343   1556    198   1334   1344    297
8   1556   1343   1353   1567    297   1344   1354    396
8   1567   1353   1363   1578    396   1354   1364    495
8   1578   1363   1373   1579    495   1364   1374    504
8   1579   1373   1383   1580    504   1374   1384    513
8   1580   1383   1393   1581    513   1384   1394    522
8   1581   1393   1403   1582    522   1394   1404    531
8   1582   1403   1413   1583    531   1404   1414    540
8   1583   1413   1423   1584    540   1414   1424    549
8   1584   1423   1433   1585    549   1424   1434    558
8   1585   1433   1443   1586    558   1434   1444    567
8   1586   1443   1453   1587    567   1444   1454    576
8   1587   1453   1463   1588    576   1454   1464    585
8   1533   1544   1503   1513     90    189   1504   1514
8   1544   1555   1493   1503    189    288   1494   1504
8   1555   1566   1483   1493    288    387   1484   1494
8   1566   1577   1473   1483    387    486   1474   1484
8   1577   1588   1463   1473    486    585   1464   1474
CELL_TYPES  1130
12
12
12
12
12
12
12
12
12
12
12
12
12
12
12
12
12
12
12
12
12
12
12
12
12
12
12
12
12
12
12
12
12
12
12
12
12
12
12
12
12
12
12
12
12
12
12
12
12
12
12
12
12
12
12
12
12
12
12
12
12
12
12
12
12
12
12
12
12
12
12
12
12
12
12
12
12
12
12
12
12
12
12
12
12
12
12
12
12
12
12
12
12
12
12
12
12
12
12
12
12
12
12
12
12
12
12
12
12
12
12
12
12
12
12
12
12
12
12
12
12
12
12
12
12
12
12
12
12
12
12
12
12
12
12
12
12
12
12
12
12
12
12
12
12
12
12
12
12
12
12
12
12
12
12
12
12
12
12
12
12
12
12
12
12
12
12
12
12
12
12
12
12
12
12
12
12
12
12
12
12
12
12
12
12
12
12
12
12
12
12
12
12
12
12
12
12
12
12
12
12
12
12
12
12
12
12
12
12
12
12
12
12
12
12
12
12
12
12
12
12
12
12
12
12
12
12
12
12
12
12
12
12
12
12
12
12
12
12
12
12
12
12
12
12
12
12
12
12
12
12
12
12
12
12
12
12
12
12
12
12
12
12
12
12
12
12
12
12
12
12
12
12
12
12
12
12
12
12
12
12
12
12
12
12
12
12
12
12
12
12
12
12
12
12
12
12
12
12
12
12
12
12
12
12
12
12
12
12
12
12
12
12
12
12
12
12
12
12
12
12
12
12
12
12
12
12
12
12
12
12
12
12
12
12
12
12
12
12
12
12
12
12
12
12
12
12
12
12
12
12
12
12
12
12
12
12
12
12
12
12
12
12
12
12
12
12
12
12
12
12
12
12
12
12
12
12
12
12
12
12
12
12
12
12
12
12
12
12
12
12
12
12
12
12
12
12
12
12
12
12
12
12
12
12
12
12
12
12
12
12
12
12
12
12
12
12
12
12
12
12
12
12
12
12
12
12
12
12
12
12
12
12
12
12
12
12
12
12
12
12
12
12
12
12
12
12
12
12
12
12
12
12
12
12
12
12
12
12
12
12
12
12
12
12
12
12
12
12
12
12
12
12
12
12
12
12
12
12
12
12
12
12
12
12
12
12
12
12
12
12
12
12
12
12
12
12
12
12
12
12
12
12
12
12
12
12
12
12
12
12
12
12
12
12
12
12
12
12
12
12
12
12
12
12
12
12
12
12
12
12
12
12
12
12
12
12
12
12
12
12
12
12
12
12
12
12
12
12
12
12
12
12
12
12
12
12
12
12
12
12
12
12
12
12
12
12
12
12
12
12
12
12
12
12
12
12
12
12
12
12
12
12
12
12
12
12
12
12
12
12
12
12
12
12
12
12
12
12
12
12
12
12
12
12
12
12
12
12
12
12
12
12
12
12
12
12
12
12
12
12
12
12
12
12
12
12
12
12
12
12
12
12
12
12
12
12
12
12
12
12
12
12
12
12
12
12
12
12
12
12
12
12
12
12
12
12
12
12
12
12
12
12
12
12
12
12
12
12
12
12
12
12
12
12
12
12
12
12
12
12
12
12
12
12
12
12
12
12
12
12
12
12
12
12
12
12
12
12
12
12
12
12
12
12
12
12
12
12
12
12
12
12
12
12
12
12
12
12
12
12
12
12
12
12
12
12
12
12
12
12
12
12
12
12
12
12
12
12
12
12
12
12
12
12
12
12
12
12
12
12
12
12
12
12
12
12
12
12
12
12
12
12
12
12
12
12
12
12
12
12
12
12
12
12
12
12
12
12
12
12
12
12
12
12
12
12
12
12
12
12
12
12
12
12
12
12
12
12
12
12
12
12
12
12
12
12
12
12
12
12
12
12
12
12
12
12
12
12
12
12
12
12
12
12
12
12
12
12
12
12
12
12
12
12
12
12
12
12
12
12
12
12
12
12
12
12
12
12
12
12
12
12
12
12
12
12
12
12
12
12
12
12
12
12
12
12
12
12
12
12
12
12
12
12
12
12
12
12
12
12
12
12
12
12
12
12
12
12
12
12
12
12
12
12
12
12
12
12
12
12
12
12
12
12
12
12
12
12
12
12
12
12
12
12
12
12
12
12
12
12
12
12
12
12
12
12
12
12
12
12
12
12
12
12
12
12
12
12
12
12
12
12
12
12
12
12
12
12
12
12
12
12
12
12
12
12
12
12
12
12
12
12
12
12
12
12
12
12
12
12
12
12
12
12
12
12
12
12
12
12
12
12
12
12
12
12
12
12
12
12
12
12
12
12
12
12
12
12
12
12
12
12
12
12
12
12
12
12
12
12
12
12
12
12
12
12
12
12
12
12
12
12
12
12
12
12
12
12
12
12
12
12
12
12
12
12
12
12
12
12
12
12
12
12
12
12
12
12
12
12
12
12
12
12
12
12
12
12
12
12
12
12
12
12
12
12
12
12
12
12
12
12
12
12
12
12
12
12
12
12
12
12
12
12
12
12
12
12
12
12
12
12
12
12
12
12
12
12
12
12
12
12
12
12
12
12
12
12
12
12
12
12
12
12
12
12
12
12
12
12
12
12
12
12
12
12
12
12
12
POINT_DATA      1589
VECTORS Velocities float 
     0.00000000     0.00000000     0.00000000
     0.00000000     0.00000000     0.00000000
     0.00000000     0.00000000     0.00000000
     0.00000000     0.00000000     0.00000000
     0.00000000     0.00000000     0.00000000
     0.00000000     0.00000000     0.00000000
     0.00000000     0.00000000     0.00000000
     0.00000000     0.00000000     0.00000000
     0.00000000     0.00000000     0.00000000
     0.00000000     0.00000000     0.00000000
   -23.64580613    31.83527690     0.00000000
   -49.59493563    23.18779687     0.00000000
   -59.40886531    14.39455252     0.00000000
   -62.17216098     1.79825842     0.00000000
   -58.98873238    -6.57256408     0.00000000
   -40.99365282   -19.38708650     0.00000000
   -27.83742804   -21.85214021     0.00000000
   -13.41846625    -0.22868812     0.00000000
     0.00000000     0.00000000     0.00000000
   -21.18620681    48.18730896     0.00000000
   -44.01267889    28.18856556     0.00000000
   -52.37897112     3.88842526     0.00000000
   -47.80696919   -10.51224849     0.00000000
   -40.34846885   -13.26192216     0.00000000
   -39.89708548   -10.65983649     0.00000000
   -28.09310965   -10.49307342     0.00000000
    -7.27488178     2.02092735     0.00000000
     0.00000000     0.00000000     0.00000000
    -1.91595004    35.32465521     0.00000000
     2.77762439    17.02558488     0.00000000
     4.51148278    -8.28222255     0.00000000
     0.98288482   -18.06802877     0.00000000
    -7.98317338   -19.81984473     0.00000000
   -23.65031154    -3.70084875     0.00000000
   -31.28929022     8.50811624     0.00000000
     0.05866501     1.18260785     0.00000000
     0.00000000     0.00000000     0.00000000
    16.11429669    -6.93209579     0.00000000
    44.57417204   -12.26799589     0.00000000
    56.65636735   -10.55364509     0.00000000
    44.99963770    -2.80578269     0.00000000
    16.34718868    -8.88408449     0.00000000
   -29.83778526     5.69106655     0.00000000
   -30.39571806    12.35524082     0.00000000
   -12.13982168    11.55184724     0.00000000
     0.00000000     0.00000000     0.00000000
    11.07093048   -42.78821464     0.00000000
    31.56750701   -36.30297629     0.00000000
    42.02477901    -5.07613915     0.00000000
    35.10125487    21.24336709     0.00000000
   -10.78372067    20.26914234     0.00000000
   -40.15498822    13.73703021     0.00000000
   -30.64175690    19.72938617     0.00000000
     0.00000000     0.00000000     0.00000000
     0.00000000     0.00000000     0.00000000
     0.59609143   -61.46702111     0.00000000
     1.17931379   -42.74360961     0.00000000
    -3.60089580     4.68334308     0.00000000
   -15.44279823    30.92632494     0.00000000
   -30.58809858    25.67413056     0.00000000
   -35.03541722     8.23379589     0.00000000
   -10.46314772    -0.72352803     0.00000000
    -8.63297301    10.68953083     0.00000000
     0.00000000     0.00000000     0.00000000
   -12.74881611   -66.80242058     0.00000000
   -27.53008767   -40.48819094     0.00000000
   -33.23382324     0.85156588     0.00000000
   -29.88669435    18.37736551     0.00000000
   -30.20408215    11.23138011     0.00000000
   -26.16744618     6.48249194     0.00000000
   -21.40819226    -7.30855733     0.00000000
    -0.86586031    16.82315870     0.00000000
     0.00000000     0.00000000     0.00000000
   -21.58813294   -54.99103753     0.00000000
   -42.97947101   -35.48719125     0.00000000
   -46.62350206   -17.98653628     0.00000000
   -40.29445148    -1.46548102     0.00000000
   -33.20964914     7.99378233     0.00000000
   -28.68279449    15.32898401     0.00000000
   -16.96083453    10.87833074     0.00000000
    -2.47172730     5.24771159     0.00000000
     0.00000000     0.00000000     0.00000000
   -19.81263224   -31.09080212     0.00000000
   -41.74357479   -25.23276622     0.00000000
   -51.43433528   -21.79171956     0.00000000
   -54.77111059    -7.00613138     0.00000000
   -47.87424485     6.19757902     0.00000000
   -29.31941497    22.06288128     0.00000000
   -25.11615693    24.98082069     0.00000000
   -15.46120251     9.35146406     0.00000000
     0.00000000     0.00000000     0.00000000
     0.00000000     0.00000000     0.00000000
     0.00000000     0.00000000     0.00000000
     0.00000000     0.00000000     0.00000000
     0.00000000     0.00000000     0.00000000
     0.00000000     0.00000000     0.00000000
     0.00000000     0.00000000     0.00000000
     0.00000000     0.00000000     0.00000000
     0.00000000     0.00000000     0.00000000
     0.00000000     0.00000000     0.00000000
     0.00000000     0.00000000     0.00000000
     0.00000000     0.00000000     0.00000000
     0.00000000     0.00000000     0.00000000
     0.00000000     0.00000000     0.00000000
     0.00000000     0.00000000     0.00000000
     0.00000000     0.00000000     0.00000000
     0.00000000     0.00000000     0.00000000
     0.00000000     0.00000000     0.00000000
     0.00000000     0.00000000     0.00000000
   -17.51758011    27.74958182    15.20395098
   -41.05019340    22.82543716    12.98813065
   -48.50412211    13.37642622    12.25350202
   -47.99267356     2.69805319     3.16982132
   -42.63088841    -4.10808889    -3.98068114
   -30.85507977   -14.09180349   -13.44435491
   -22.52770324   -20.99681651   -11.13290803
   -15.41133175     0.24482650     3.19172281
     0.00000000     0.00000000     0.00000000
   -15.45413728    42.63704018    14.65190534
   -38.41300560    32.48310676     5.69330167
   -44.51324479     8.43563621     7.87397368
   -34.87479542    -7.01473290     1.94116291
   -16.74348277   -14.53465764     0.90253360
    -4.13783627   -17.57002409   -11.15582507
    -7.09833412   -17.13356514   -25.57006778
   -10.02607077     1.50383820   -12.56973922
     0.00000000     0.00000000     0.00000000
     3.01634071    31.90454045    19.07807839
    10.46716374    17.44907248     4.85219091
    18.09307602    -6.29571693     2.97954337
    18.86729472   -17.33889455     2.92738948
    14.34768220   -15.45346904     9.85970841
    13.86500558   -17.95082346    12.79134942
     3.25225664    -8.28964456   -14.06082277
     4.23245392    -2.62087141   -24.99736637
     0.00000000     0.00000000     0.00000000
    19.53462018     0.16714676    16.58674629
    48.10248924   -15.15633146     8.24265942
    60.70363965   -17.10156912     3.78172871
    54.03939656   -10.65485034    -1.15187480
    41.99412833    -0.93274318     6.55907124
    27.37810739    -1.27434647     4.16351697
     9.97316612    -3.09052163   -15.83366380
    -4.56749130     7.17528348   -21.04354240
     0.00000000     0.00000000     0.00000000
    17.30210935   -34.84029095     5.41207889
    35.28949270   -39.77899722    -3.03384162
    35.02102333   -12.16693261    -8.82075241
    25.06654363     8.29859430    -8.43732773
    22.34348229    19.92377565    11.39503567
    15.65072796    14.43887687     2.37843087
    -2.34039173    15.10816806   -18.69825792
     0.00000000     0.00000000     0.00000000
     0.00000000     0.00000000     0.00000000
     5.25538204   -57.65292511     8.01141044
     3.60409503   -45.91666836     0.00494392
    -6.48463682     1.06444182    -4.13889007
   -10.68770108    24.59606636     2.77125141
     0.29327549    30.96673294    13.23109979
    -4.97762872    27.91093915    -4.43266578
     0.80686996    21.28334443   -14.89747845
    -7.99786622     7.59094782    -1.41650797
     0.00000000     0.00000000     0.00000000
    -7.45484733   -62.31856667     8.48516411
   -22.20485586   -42.34735854     5.38333872
   -25.19935436    -1.06586090    15.48541784
   -18.26080635    20.88548252    15.26552160
   -16.21124769    24.78344070    14.05235437
    -6.79631621    29.93076041    -6.96678395
    -1.95500824    17.72147979   -20.51548960
     5.22000463    20.95825380    -3.58641215
     0.00000000     0.00000000     0.00000000
   -16.60502220   -51.04554982    10.14265129
   -39.21518815   -36.62716165     4.36186479
   -41.66682137   -16.07958150     8.18965620
   -33.56238198     4.18274567     3.53940840
   -24.18090431    18.12759070    -4.76786442
   -21.50448219    28.62921547   -23.49838770
    -8.81268692    23.84086876   -26.23365095
     1.85241103    12.53841648   -17.17383863
     0.00000000     0.00000000     0.00000000
   -16.16904672   -27.79526637     8.32470646
   -38.60137329   -25.11366053     2.77521531
   -49.93352769   -20.11184439     1.52874592
   -53.29411334    -5.00355440    -2.73204438
   -47.19827730     8.86571486    -4.22597604
   -28.66001506    22.96068189    -3.07591540
   -26.05673788    26.01811961     1.43639146
   -16.55158546     9.05511835     4.05356777
     0.00000000     0.00000000     0.00000000
     0.00000000     0.00000000     0.00000000
     0.00000000     0.00000000     0.00000000
     0.00000000     0.00000000     0.00000000
     0.00000000     0.00000000     0.00000000
     0.00000000     0.00000000     0.00000000
     0.00000000     0.00000000     0.00000000
     0.00000000     0.00000000     0.00000000
     0.00000000     0.00000000     0.00000000
     0.00000000     0.00000000     0.00000000
     0.00000000     0.00000000     0.00000000
     0.00000000     0.00000000     0.00000000
     0.00000000     0.00000000     0.00000000
     0.00000000     0.00000000     0.00000000
     0.00000000     0.00000000     0.00000000
     0.00000000     0.00000000     0.00000000
     0.00000000     0.00000000     0.00000000
     0.00000000     0.00000000     0.00000000
     0.00000000     0.00000000     0.00000000
   -10.29708899    23.50082630    21.56584345
   -23.54434594    22.48017435    21.19592098
   -26.89150815    14.60664074    16.09804226
   -23.77741612     3.94972182     0.91072974
   -18.17440966    -3.57442952   -12.19131985
   -13.01372781    -9.97897005   -18.45502366
    -8.34730216   -19.94434508   -19.98619806
    -9.95948911     1.55549447     1.73784883
     0.00000000     0.00000000     0.00000000
    -7.54216552    33.67022476    23.79640899
   -21.33715345    33.51268205    13.11639334
   -27.61273500    17.36427339     6.38741163
   -18.36229856    -1.57164052     0.70678963
    -2.01402514    -7.38258543    -5.81726009
    14.13509743   -11.38591481    -9.91891642
    12.95326038   -19.25326833   -22.37413089
    -6.20980916     2.88390110   -17.55152148
     0.00000000     0.00000000     0.00000000
     4.20155080    25.15252728    27.18424825
    15.79450942    15.51338829    19.01678754
    26.65988313     1.18272499    10.62473154
    32.75912625   -12.86064138     9.60012440
    32.06059832    -7.54584470     5.60266422
    30.80619285    -9.70387363     2.69273823
    21.53126453    -8.58470911   -15.69829868
     8.22067853    -3.04483640   -30.10632555
     0.00000000     0.00000000     0.00000000
    16.18112689    -1.87459524    20.92877830
    41.47045735   -18.90762340    16.89622081
    55.18174900   -18.59333559     9.93767113
    53.63388858   -14.25948357     2.55696124
    48.03042727    -1.84029149     0.83719414
    34.83208306     6.42596160    -0.51722931
    26.36039520    -0.81856725   -15.79670130
     5.03135851     0.98377307   -32.77038510
     0.00000000     0.00000000     0.00000000
    13.25580778   -31.67320103     9.53470924
    27.30553615   -39.70460138     1.58029991
    25.09824190   -23.52030641    -9.64890000
    19.75790408   -10.31658374   -14.24525488
    17.25619574     7.00325584   -14.07285519
    27.71382833    15.90751492    -1.28103406
    18.29224328    23.75789633   -25.43237437
     0.00000000     0.00000000     0.00000000
     0.00000000     0.00000000     0.00000000
     2.33025763   -51.53721158    10.46105211
     2.23538235   -46.15395641     4.09060159
    -4.05113230   -20.97723720    -2.95834747
   -10.63430347    -3.86093201    -8.04037096
    -2.57311994     9.62259124    -5.85991243
     9.38311051    23.83602346   -10.22187707
    16.47711003    34.88394174   -23.92803222
     0.33899871    13.84895618    -5.28671832
     0.00000000     0.00000000     0.00000000
    -7.69659551   -56.00180197    12.40591369
   -17.27107691   -43.16285812     9.10491167
   -18.48891216   -16.86094459    13.17958359
   -13.04167710     3.72728148    17.00934991
   -11.13941553    14.15220585    11.01699849
    -3.05104305    31.93094392   -16.30854781
     2.90070782    31.59723019   -28.28212548
    10.35075889    28.11904638   -14.31182746
     0.00000000     0.00000000     0.00000000
   -15.03304493   -47.00031085    14.59149045
   -33.85544966   -36.10022938     9.86227083
   -37.39795332   -18.01432588     8.62414123
   -29.89870375     2.87776380     6.01778046
   -21.83700083    19.70939707    -6.57468894
   -22.65948558    33.90405803   -24.09755860
   -16.12807533    31.96446798   -26.58300151
     0.21000091    18.43439330   -19.41462374
     0.00000000     0.00000000     0.00000000
   -14.09061103   -27.06198592    12.90772175
   -33.82441099   -24.18964163     8.17098964
   -45.39137539   -18.69730000     4.89044111
   -50.53360719    -2.79865238     1.07803283
   -46.94829493    10.34597499    -3.90061920
   -29.05507215    23.75323717    -3.85354733
   -25.26279200    24.50037921     2.60849883
   -18.66062886     6.15901406     8.26043394
     0.00000000     0.00000000     0.00000000
     0.00000000     0.00000000     0.00000000
     0.00000000     0.00000000     0.00000000
     0.00000000     0.00000000     0.00000000
     0.00000000     0.00000000     0.00000000
     0.00000000     0.00000000     0.00000000
     0.00000000     0.00000000     0.00000000
     0.00000000     0.00000000     0.00000000
     0.00000000     0.00000000     0.00000000
     0.00000000     0.00000000     0.00000000
     0.00000000     0.00000000     0.00000000
     0.00000000     0.00000000     0.00000000
     0.00000000     0.00000000     0.00000000
     0.00000000     0.00000000     0.00000000
     0.00000000     0.00000000     0.00000000
     0.00000000     0.00000000     0.00000000
     0.00000000     0.00000000     0.00000000
     0.00000000     0.00000000     0.00000000
     0.00000000     0.00000000     0.00000000
    -1.98481112    15.12887979    19.86521851
    -4.77518672    15.57707780    17.24635599
    -4.01950315    11.68565510    10.99761772
    -5.28175343     2.24914419    -4.43525000
    -7.99648102    -7.16631743   -14.40357505
   -10.68543963   -10.67980957   -15.23441078
    -2.42704781   -21.67408538   -18.71205977
    -1.48142959     2.81892141    -4.06897383
     0.00000000     0.00000000     0.00000000
     2.29996151    19.73143203    26.31159968
     3.44374482    19.12178774    18.59954075
     4.43634115    13.52721771     8.87537651
     8.62945130     1.96081852     1.19282830
    10.11554468    -6.02866875    -9.08182011
    13.00888620    -9.95363914   -11.96015086
    13.03000989   -19.21397145   -19.60607246
     7.45171450     1.80018335   -15.72345274
     0.00000000     0.00000000     0.00000000
     7.38296185    14.08664249    29.53781227
    22.00713143     6.29921425    28.86444709
    34.04111016     3.86322266    20.83931271
    38.23558715    -3.25779112    14.12344008
    37.86355421    -0.67465969     5.18891283
    29.26308691    -0.51208150    -3.34218356
    19.96877403    -6.89201788   -17.36605018
    14.74279076    -2.51863957   -24.56730516
     0.00000000     0.00000000     0.00000000
    13.74362831    -4.56268961    24.47766018
    33.61588244   -15.97065102    22.66070188
    47.70178828   -13.49961150    16.94022153
    52.57314334    -7.85197605     9.18187514
    47.20108437     3.23798196    -0.27568204
    39.30249566    16.01224940    -4.15949455
    20.99718744     7.80569087   -14.34286062
    10.88422412    -2.29127130   -27.59017999
     0.00000000     0.00000000     0.00000000
    10.87805535   -27.11334112    14.63431776
    23.36172176   -35.46528850     7.86934407
    29.44747367   -29.02337028    -0.79618750
    33.83592796   -17.34753730   -10.04182645
    31.86946757     6.43081713   -16.99870586
    28.17701048    20.57846810   -13.69147686
    17.92104249    31.47625399   -19.00502490
     0.00000000     0.00000000     0.00000000
     0.00000000     0.00000000     0.00000000
     4.01804054   -41.82263709    15.13973988
     4.73250436   -43.79847846     6.82977310
     4.79064228   -34.09996134    -2.56998596
     5.43462968   -20.55174758   -14.55333260
    12.59733645     4.03886011   -22.31457379
     9.15729949    30.27824435   -21.65486828
    14.25616938    42.21653554   -24.62855574
     8.89474260    19.21913483    -5.97152626
     0.00000000     0.00000000     0.00000000
    -2.77700834   -45.36770903    17.13240833
   -10.98798828   -42.40422261     9.14074209
   -17.08942111   -30.47555582     4.26540436
   -14.63016426   -14.05392159     0.37454767
    -9.75759471     8.85653248    -9.69397147
   -10.22751039    40.07021700   -21.54440349
    -3.18980193    40.44128488   -24.88657225
     9.97525827    26.91831216   -17.23614028
     0.00000000     0.00000000     0.00000000
    -8.57432017   -39.19999297    18.49530970
   -23.78697635   -35.84362232    12.22879781
   -30.36721969   -25.50399251     9.00820410
   -29.58876243    -7.53206047     2.16535618
   -20.59628545    15.89124005    -8.86522877
   -15.85500487    38.67205217   -20.37386210
   -16.58966141    34.79637918   -17.48618482
    -6.19461092    12.81618839    -9.77602043
     0.00000000     0.00000000     0.00000000
    -8.98818455   -23.17249436    14.81736996
   -22.66945701   -22.48164423    12.01557625
   -32.22112827   -19.66705514    10.51757553
   -37.08021961    -7.21004216     7.03625687
   -36.36628744     5.79816186     1.98394506
   -21.65942417    22.25744822    -4.21349053
   -16.50903262    27.12018873    -1.42339628
   -18.41697277     2.29882816    11.08790935
     0.00000000     0.00000000     0.00000000
     0.00000000     0.00000000     0.00000000
     0.00000000     0.00000000     0.00000000
     0.00000000     0.00000000     0.00000000
     0.00000000     0.00000000     0.00000000
     0.00000000     0.00000000     0.00000000
     0.00000000     0.00000000     0.00000000
     0.00000000     0.00000000     0.00000000
     0.00000000     0.00000000     0.00000000
     0.00000000     0.00000000     0.00000000
     0.00000000     0.00000000     0.00000000
     0.00000000     0.00000000     0.00000000
     0.00000000     0.00000000     0.00000000
     0.00000000     0.00000000     0.00000000
     0.00000000     0.00000000     0.00000000
     0.00000000     0.00000000     0.00000000
     0.00000000     0.00000000     0.00000000
     0.00000000     0.00000000     0.00000000
     0.00000000     0.00000000     0.00000000
     2.59093349     5.38358275    11.40207790
     6.51098167     1.43321890     7.37640658
     5.87565312    -0.78524019     1.58728006
     1.82158233    -3.96527076    -5.52043152
    -1.38462661    -7.99587990    -9.08254029
    -5.91793687    -6.35652118    -6.49895864
    -5.61178719   -14.74453246    -7.95757103
     3.68470502     0.61281295    -4.76500010
     0.00000000     0.00000000     0.00000000
     6.83289720     6.64006213    17.52865062
    17.33695523     0.64527195    14.84410450
    20.00097436    -1.04568859     7.57756442
    19.40318197    -3.76008215     0.69476071
    13.13103193    -4.91310332    -5.16423593
     5.24053679    -5.80933065    -7.38324821
    -2.00506156   -14.79182529    -8.32859740
    10.77380565    -0.67271408   -11.54997757
     0.00000000     0.00000000     0.00000000
    10.32160702     5.74096240    21.83258724
    26.14284595     0.90466348    23.11718948
    33.20634217     2.57242780    18.12155792
    33.60674197     3.36331878    10.64935061
    29.91938618     5.74227924     2.82665790
    15.91937609     7.04266078    -1.99810105
     1.87535593    -6.95115504    -5.89039384
    12.81998308    -0.98286421   -16.51835609
     0.00000000     0.00000000     0.00000000
    13.34106246    -0.61669221    20.65957911
    31.34848115    -1.42236925    21.36369823
    39.68951489     4.41928268    17.76549783
    41.85016277    11.33161433     9.14691001
    35.66480865    17.45025961     2.37923601
    22.86953828    23.96578562    -5.09837155
     8.45034345     8.65573104    -2.33782295
     5.04811029    -1.39696585   -17.74310603
     0.00000000     0.00000000     0.00000000
    11.91308532   -11.22076778    16.18417517
    28.53443391    -9.36135019    15.08912226
    37.70541814    -2.33400057     8.69359855
    40.44654709    10.61140497    -1.64903583
    32.87071779    26.52931176    -8.62849660
    18.54563566    34.55693695    -9.56227241
     8.56323045    31.43961403    -9.62016122
     0.00000000     0.00000000     0.00000000
     0.00000000     0.00000000     0.00000000
     8.44383261   -20.69485808    15.24481311
    19.71398910   -19.35000035    12.80179731
    24.52080813   -15.47595317     3.50532314
    25.79458301    -0.85492171    -8.73200925
    20.15027921    25.30286421   -17.67035569
     9.44373333    40.43593621   -15.95283648
    -0.98549575    43.55673603   -15.48109046
    10.04162125    14.87163549    -6.20733717
     0.00000000     0.00000000     0.00000000
     4.06165690   -25.38937291    16.03088023
     7.74559572   -24.80644506    13.27943440
     5.47903562   -25.05176837     6.56260821
     0.02639349   -14.24204582    -4.46832946
    -4.95203656    14.53756366   -15.98303743
    -8.61653191    41.07748632   -15.51989247
    -7.94341809    43.74894312   -15.27214990
     5.59676572    15.56625545    -8.61922323
     0.00000000     0.00000000     0.00000000
    -0.60273424   -23.60762221    15.30453570
    -2.44533030   -23.02192502    13.79525359
    -7.33237155   -24.70232662    11.18127468
   -15.75118818   -18.38851729     5.49547105
   -22.83069182     3.04984903    -4.11974090
   -11.83897853    26.33059888   -10.85060780
    -8.09609968    34.67858265   -13.92205912
    -6.91303560     8.14178442     0.56068910
     0.00000000     0.00000000     0.00000000
    -2.62120228   -14.55780554    11.17512636
    -6.63975424   -14.50880510    10.43938105
   -10.39951469   -15.76761858    11.20113413
   -17.24862331   -11.82288195     8.69489593
   -19.69929010    -2.29197932     5.61402403
   -13.51765534     7.28333197     0.77583176
    -3.48938644    21.09526261    -8.16698940
   -11.04569360     2.14477608     7.26088253
     0.00000000     0.00000000     0.00000000
     0.00000000     0.00000000     0.00000000
     0.00000000     0.00000000     0.00000000
     0.00000000     0.00000000     0.00000000
     0.00000000     0.00000000     0.00000000
     0.00000000     0.00000000     0.00000000
     0.00000000     0.00000000     0.00000000
     0.00000000     0.00000000     0.00000000
     0.00000000     0.00000000     0.00000000
     0.00000000     0.00000000     0.00000000
     0.00000000     0.00000000     0.00000000
     0.00000000     0.00000000     0.00000000
     0.00000000     0.00000000     0.00000000
     0.00000000     0.00000000     0.00000000
     0.00000000     0.00000000     0.00000000
     0.00000000     0.00000000     0.00000000
     0.00000000     0.00000000     0.00000000
     0.00000000     0.00000000     0.00000000
     0.00000000     0.00000000     0.00000000
     0.00000000     0.00000000     0.00000000
     0.00000000     0.00000000     0.00000000
     0.00000000     0.00000000     0.00000000
     0.00000000     0.00000000     0.00000000
     0.00000000     0.00000000     0.00000000
     0.00000000     0.00000000     0.00000000
     0.00000000     0.00000000     0.00000000
     0.00000000     0.00000000     0.00000000
     0.00000000     0.00000000     0.00000000
     0.00000000     0.00000000     0.00000000
     0.00000000     0.00000000     0.00000000
     0.00000000     0.00000000     0.00000000
     0.00000000     0.00000000     0.00000000
     0.00000000     0.00000000     0.00000000
     0.00000000     0.00000000     0.00000000
     0.00000000     0.00000000     0.00000000
     0.00000000     0.00000000     0.00000000
     0.00000000     0.00000000     0.00000000
     0.00000000     0.00000000     0.00000000
     0.00000000     0.00000000     0.00000000
     0.00000000     0.00000000     0.00000000
     0.00000000     0.00000000     0.00000000
     0.00000000     0.00000000     0.00000000
     0.00000000     0.00000000     0.00000000
     0.00000000     0.00000000     0.00000000
     0.00000000     0.00000000     0.00000000
     0.00000000     0.00000000     0.00000000
     0.00000000     0.00000000     0.00000000
     0.00000000     0.00000000     0.00000000
     0.00000000     0.00000000     0.00000000
     0.00000000     0.00000000     0.00000000
     0.00000000     0.00000000     0.00000000
     0.00000000     0.00000000     0.00000000
     0.00000000     0.00000000     0.00000000
     0.00000000     0.00000000     0.00000000
     0.00000000     0.00000000     0.00000000
     0.00000000     0.00000000     0.00000000
     0.00000000     0.00000000     0.00000000
     0.00000000     0.00000000     0.00000000
     0.00000000     0.00000000     0.00000000
     0.00000000     0.00000000     0.00000000
     0.00000000     0.00000000     0.00000000
     0.00000000     0.00000000     0.00000000
     0.00000000     0.00000000     0.00000000
     0.00000000     0.00000000     0.00000000
     0.00000000     0.00000000     0.00000000
     0.00000000     0.00000000     0.00000000
     0.00000000     0.00000000     0.00000000
     0.00000000     0.00000000     0.00000000
     0.00000000     0.00000000     0.00000000
     0.00000000     0.00000000     0.00000000
     0.00000000     0.00000000     0.00000000
     0.00000000     0.00000000     0.00000000
     0.00000000     0.00000000     0.00000000
     0.00000000     0.00000000     0.00000000
     0.00000000     0.00000000     0.00000000
     0.00000000     0.00000000     0.00000000
     0.00000000     0.00000000     0.00000000
     0.00000000     0.00000000     0.00000000
     0.00000000     0.00000000     0.00000000
     0.00000000     0.00000000     0.00000000
     0.00000000     0.00000000     0.00000000
     0.00000000     0.00000000     0.00000000
     0.00000000     0.00000000     0.00000000
     0.00000000     0.00000000     0.00000000
     0.00000000     0.00000000     0.00000000
     0.00000000     0.00000000     0.00000000
     0.00000000     0.00000000     0.00000000
     0.00000000     0.00000000     0.00000000
     0.00000000     0.00000000     0.00000000
     0.00000000     0.00000000     0.00000000
     0.00000000     0.00000000     0.00000000
     0.00000000     0.00000000     0.00000000
     0.00000000     0.00000000     0.00000000
     0.00000000     0.00000000     0.00000000
     0.00000000     0.00000000     0.00000000
     0.00000000     0.00000000     0.00000000
     0.00000000     0.00000000     0.00000000
     0.00000000     0.00000000     0.00000000
     0.00000000     0.00000000     0.00000000
     0.00000000     0.00000000     0.00000000
     0.00000000     0.00000000     0.00000000
     0.00000000     0.00000000     0.00000000
     0.00000000     0.00000000     0.00000000
     0.00000000     0.00000000     0.00000000
     0.00000000     0.00000000     0.00000000
     0.00000000     0.00000000     0.00000000
     0.00000000     0.00000000     0.00000000
     0.00000000     0.00000000     0.00000000
     0.00000000     0.00000000     0.00000000
     0.00000000     0.00000000     0.00000000
     0.00000000     0.00000000     0.00000000
     0.00000000     0.00000000     0.00000000
     0.00000000     0.00000000     0.00000000
     0.00000000     0.00000000     0.00000000
     0.00000000     0.00000000     0.00000000
     0.00000000     0.00000000     0.00000000
     0.00000000     0.00000000     0.00000000
     0.00000000     0.00000000     0.00000000
     0.00000000     0.00000000     0.00000000
    -7.26520182    -4.08768995     0.00000000
   -26.22701440    -0.87953100     0.00000000
   -30.41337877    -5.22862344     0.00000000
   -31.94556967    -6.89509845     0.00000000
   -31.36266810   -11.60120870     0.00000000
   -27.16329014   -14.03249510     0.00000000
   -20.88128063   -16.47338672     0.00000000
   -12.34829742   -15.95598336     0.00000000
    -4.97299997   -12.33440185     0.00000000
    -0.44208874    -5.24166374     0.00000000
     0.00000000     0.00000000     0.00000000
   -28.09958768    17.19259640     0.00000000
   -27.64883983     8.72973696     0.00000000
   -26.13551037     3.90443153     0.00000000
   -22.31952814    -0.13764188     0.00000000
   -18.40031532    -7.47966726     0.00000000
   -13.74221237   -16.07371864     0.00000000
    -9.07550214   -25.38399451     0.00000000
    -4.55299305   -31.66380222     0.00000000
    -0.69971768   -31.60552904     0.00000000
     2.34937304   -21.62359412     0.00000000
     0.00000000     0.00000000     0.00000000
    16.69205400    31.39175583     0.00000000
    15.77093257    35.91121601     0.00000000
    11.04553167    30.63041824     0.00000000
     8.84200661    20.95478243     0.00000000
     8.97227244    10.00763159     0.00000000
    14.35777625    -2.48389211     0.00000000
    19.23988856   -13.88923954     0.00000000
    21.86527385   -23.09509703     0.00000000
    18.80340393   -28.82503612     0.00000000
    10.94238263   -25.25373209     0.00000000
     0.00000000     0.00000000     0.00000000
   -10.09889312    18.02244084     0.00000000
     4.82638097    21.10145421     0.00000000
    17.23196811    24.56763579     0.00000000
    30.40385057    22.88435998     0.00000000
    40.04446802    18.64001008     0.00000000
    44.07757796    11.92772578     0.00000000
    42.22354557     5.29770753     0.00000000
    35.03931186    -1.08936330     0.00000000
    23.65830443    -6.17798925     0.00000000
     9.30004278    -7.86229288     0.00000000
     0.00000000     0.00000000     0.00000000
     0.00000000     0.00000000     0.00000000
     0.00000000     0.00000000     0.00000000
     0.00000000     0.00000000     0.00000000
     0.00000000     0.00000000     0.00000000
     0.00000000     0.00000000     0.00000000
     0.00000000     0.00000000     0.00000000
     0.00000000     0.00000000     0.00000000
     0.00000000     0.00000000     0.00000000
     0.00000000     0.00000000     0.00000000
     0.00000000     0.00000000     0.00000000
     0.00000000     0.00000000     0.00000000
     0.00000000     0.00000000     0.00000000
     0.00000000     0.00000000     0.00000000
     0.00000000     0.00000000     0.00000000
     0.00000000     0.00000000     0.00000000
     0.00000000     0.00000000     0.00000000
     0.00000000     0.00000000     0.00000000
     0.00000000     0.00000000     0.00000000
     0.00000000     0.00000000     0.00000000
     0.00000000     0.00000000     0.00000000
     0.00000000     0.00000000     0.00000000
     0.00000000     0.00000000     0.00000000
    -5.51980532    -5.57795631     1.88949464
   -25.16472888    -0.14583093     2.47771532
   -28.73710469    -4.43033192     0.63659449
   -31.52008785    -6.38865721     0.32906714
   -30.55664056   -10.84817670     0.49498499
   -27.47257486   -13.31080275     0.41339665
   -20.66081894   -15.56087518     0.68864366
   -12.84623906   -15.13051691     0.67446294
    -4.86801620   -11.58105381     0.40825010
    -0.79024507    -4.95711687    -0.03727489
     0.00000000     0.00000000     0.00000000
   -26.32015545    17.36374597     7.21750438
   -28.03455976     8.77627490    -3.78248355
   -26.96725111     3.76851316    -6.36588982
   -24.12763233    -0.47863053    -6.70334067
   -19.26645958    -7.58195722    -6.61104565
   -14.85496569   -16.18305993    -5.08099963
    -9.55519714   -24.92560172    -2.72449612
    -5.03716860   -30.96389757     0.31354239
    -0.99163359   -30.52290931     2.44521377
     2.09247305   -20.60793985     2.44507301
     0.00000000     0.00000000     0.00000000
    17.74024938    31.88895298    -2.51403051
    15.94575568    36.27809502     0.13936414
    12.07806729    30.97024151    -1.44876034
     9.34544848    20.43435790    -4.06462599
    11.99150531     9.70748135    -6.92157721
    16.60650811    -2.92833491    -7.85797755
    21.55343877   -13.91500877    -6.36253545
    22.50527709   -22.97138787    -2.17468040
    19.12460481   -28.17652290     3.02997738
    10.44782130   -24.32234016     5.36255241
     0.00000000     0.00000000     0.00000000
   -12.08748496    18.80459899     0.14130041
     4.08763545    20.16189835    -0.28188744
    16.98467908    23.44051501     0.44242956
    31.19697885    21.64392516     0.39462619
    40.47827939    17.33327682     1.06636189
    44.43653027    10.65210200     1.33511628
    42.08963028     4.17272167     1.94096293
    34.99037838    -1.93963624     2.88158293
    23.31635702    -6.76324119     5.14151668
     9.32372563    -8.04580048     6.86244171
     0.00000000     0.00000000     0.00000000
     0.00000000     0.00000000     0.00000000
     0.00000000     0.00000000     0.00000000
     0.00000000     0.00000000     0.00000000
     0.00000000     0.00000000     0.00000000
     0.00000000     0.00000000     0.00000000
     0.00000000     0.00000000     0.00000000
     0.00000000     0.00000000     0.00000000
     0.00000000     0.00000000     0.00000000
     0.00000000     0.00000000     0.00000000
     0.00000000     0.00000000     0.00000000
     0.00000000     0.00000000     0.00000000
     0.00000000     0.00000000     0.00000000
     0.00000000     0.00000000     0.00000000
     0.00000000     0.00000000     0.00000000
     0.00000000     0.00000000     0.00000000
     0.00000000     0.00000000     0.00000000
     0.00000000     0.00000000     0.00000000
     0.00000000     0.00000000     0.00000000
     0.00000000     0.00000000     0.00000000
     0.00000000     0.00000000     0.00000000
     0.00000000     0.00000000     0.00000000
     0.00000000     0.00000000     0.00000000
    -1.93414840    -8.48742675     4.97407045
   -20.85415094     2.12851152     3.06043162
   -24.76765174    -2.39756975     2.04486980
   -28.30567521    -4.36245739     1.17228001
   -29.52464615    -8.39738566     1.13575595
   -26.55056160   -10.81829880     0.73168213
   -21.12378307   -13.08836517     1.20181132
   -12.88387829   -12.80950080     0.99025084
    -5.46013393    -9.91556682     0.64797941
    -0.67996922    -4.22329760    -0.18952288
     0.00000000     0.00000000     0.00000000
   -16.73529955    17.97620646    11.96540633
   -25.44532390    10.96424393    -2.89756714
   -27.69620398     4.64634246   -10.61653145
   -25.93595187    -0.52841452   -11.22039234
   -22.91286644    -8.61179261   -11.18967804
   -17.99914993   -16.35270763    -8.94028146
   -12.81734103   -23.87722128    -4.52942832
    -7.69367083   -28.11896473     0.43633464
    -2.89700506   -26.64460035     3.93278768
     1.03332536   -17.10765954     3.83592524
     0.00000000     0.00000000     0.00000000
    15.02589393    33.77773217    -3.58867518
    15.66149247    36.73361066     0.72754118
    12.08491882    29.59127119    -2.86365908
    12.54615488    18.30335708    -8.23165870
    14.36570149     6.08642186   -12.54945652
    18.52007968    -6.21002017   -13.11122139
    20.08134133   -16.51180392    -8.93979362
    19.22255859   -24.12835863    -1.36417843
    14.74894121   -27.23009436     6.83802688
     8.27508754   -21.37982518     9.54499625
     0.00000000     0.00000000     0.00000000
   -14.23948788    20.27919322     0.55047754
     3.09121911    20.03136252    -0.89399242
    18.39068470    21.97547513    -0.47436491
    32.80494937    19.36724519     0.49952640
    41.62022541    14.30615017     1.64768551
    44.20563262     7.54909698     2.01605649
    40.86050408     1.22056496     3.02799794
    32.29112612    -4.42846761     5.16118522
    20.22946425    -8.59458922     9.56862047
     7.55623382    -8.75523413    11.84694514
     0.00000000     0.00000000     0.00000000
     0.00000000     0.00000000     0.00000000
     0.00000000     0.00000000     0.00000000
     0.00000000     0.00000000     0.00000000
     0.00000000     0.00000000     0.00000000
     0.00000000     0.00000000     0.00000000
     0.00000000     0.00000000     0.00000000
     0.00000000     0.00000000     0.00000000
     0.00000000     0.00000000     0.00000000
     0.00000000     0.00000000     0.00000000
     0.00000000     0.00000000     0.00000000
     0.00000000     0.00000000     0.00000000
     0.00000000     0.00000000     0.00000000
     0.00000000     0.00000000     0.00000000
     0.00000000     0.00000000     0.00000000
     0.00000000     0.00000000     0.00000000
     0.00000000     0.00000000     0.00000000
     0.00000000     0.00000000     0.00000000
     0.00000000     0.00000000     0.00000000
     0.00000000     0.00000000     0.00000000
     0.00000000     0.00000000     0.00000000
     0.00000000     0.00000000     0.00000000
     0.00000000     0.00000000     0.00000000
     2.23557820    -7.75626925     0.61826382
   -11.14027724     5.16944041     2.71732117
   -16.72791942     1.27497381     4.45914325
   -22.58984718    -0.77819282     2.40799845
   -24.58700290    -4.05887347     1.59579942
   -24.26706514    -6.86910931     1.25607053
   -19.62204917    -8.49215368     0.97032874
   -12.82627756    -8.59399765     0.97274101
    -5.35071141    -6.42205388     0.42928246
    -1.05249768    -2.79630966    -0.33438947
     0.00000000     0.00000000     0.00000000
    -3.04689219    15.91872094     6.59734761
   -15.42367380    14.35549362     1.55083881
   -19.94286887     7.57349436    -7.44235482
   -24.88346457     0.16039881    -9.76272756
   -24.13652732    -7.62488998   -10.64578875
   -22.14641759   -14.76770230    -8.32218104
   -17.83028807   -19.94034202    -4.65207784
   -12.28281593   -22.10005838     0.14740709
    -6.11908814   -19.48213328     3.22952603
    -0.70477969   -11.40928489     3.03766137
     0.00000000     0.00000000     0.00000000
     8.19931165    27.06336930    -5.71505989
    14.03373810    34.16444753    -0.43349971
    13.72037094    26.44337978    -2.97412936
    12.72722883    13.63356579    -8.85542809
    12.82066126     1.35657826   -13.22162680
    10.44922310   -10.29842332   -11.61849291
     7.98064371   -18.96701753    -6.56033495
     5.27790503   -23.78821216     1.31557769
     4.14185668   -23.26224287     7.89388692
     3.02879274   -15.62607450     8.66259777
     0.00000000     0.00000000     0.00000000
   -14.99844497    16.22641716     1.00101749
     3.95221955    18.22942002    -2.71087461
    20.44412677    17.09103958    -0.98012406
    32.74912152    13.97271795     0.81941060
    38.81827432     8.96972444     1.85257216
    38.25725016     3.13112625     2.52638627
    31.13234814    -2.54300766     3.90906856
    20.54311420    -7.64112407     6.78858930
     9.86389218   -10.76525912    10.99486538
     3.54409573    -8.94002030    11.39798667
     0.00000000     0.00000000     0.00000000
     0.00000000     0.00000000     0.00000000
     0.00000000     0.00000000     0.00000000
     0.00000000     0.00000000     0.00000000
     0.00000000     0.00000000     0.00000000
     0.00000000     0.00000000     0.00000000
     0.00000000     0.00000000     0.00000000
     0.00000000     0.00000000     0.00000000
     0.00000000     0.00000000     0.00000000
     0.00000000     0.00000000     0.00000000
     0.00000000     0.00000000     0.00000000
     0.00000000     0.00000000     0.00000000
     0.00000000     0.00000000     0.00000000
     0.00000000     0.00000000     0.00000000
     0.00000000     0.00000000     0.00000000
     0.00000000     0.00000000     0.00000000
     0.00000000     0.00000000     0.00000000
     0.00000000     0.00000000     0.00000000
     0.00000000     0.00000000     0.00000000
     0.00000000     0.00000000     0.00000000
     0.00000000     0.00000000     0.00000000
     0.00000000     0.00000000     0.00000000
     0.00000000     0.00000000     0.00000000
     3.42713131    -5.15156443    -2.94494462
    -4.01859142     4.17827058     1.62426649
    -8.36199946     2.61464735     4.66334254
   -11.03659647     1.92277375     2.12495519
   -15.18137127    -1.23881077     2.16039227
   -15.96633192    -2.84063330     0.84773864
   -14.28161354    -4.13593310     0.68264343
    -9.53544290    -3.84805419     0.05199200
    -4.12637425    -2.83389019    -0.11941576
    -0.58601869    -1.08501055    -0.38282898
     0.00000000     0.00000000     0.00000000
     2.06525210     4.05404946     0.27495082
    -4.35536247    12.31769824     0.97611279
    -8.01061617     8.86024446     0.84310728
   -13.02754767     3.22259829    -4.25600905
   -16.92098352    -2.86708152    -3.49208458
   -18.45453707    -7.70813377    -3.78507890
   -17.18391216   -10.89126042    -2.12403550
   -13.08630963   -11.79093112    -0.65957433
    -6.94886100    -9.74171991     0.78587368
    -1.58725725    -4.86302416     0.71942875
     0.00000000     0.00000000     0.00000000
    -2.69878195     7.54992241    -1.97715913
     8.50741709    21.14610211    -3.40813719
     9.18728288    14.43120009    -0.58844126
    11.14637239     6.73963403    -5.02345554
     5.44466662    -1.46619723    -5.08833483
    -0.87421123    -8.92136354    -4.56462845
    -5.94463586   -14.00199031    -1.47598485
    -6.77702775   -15.82981781     1.36353732
    -4.17057786   -13.99859916     3.81184086
    -0.25111834    -8.35640767     3.19097809
     0.00000000     0.00000000     0.00000000
   -11.01442258     5.41955646     3.65729671
     2.86452025    10.30804933    -3.68906353
    16.07146951     6.84190121    -0.45029680
    23.16858827     6.14673896     1.22237562
    24.57356607     3.10384545     1.92259438
    19.57125912    -0.16047058     2.88767856
    11.66909334    -3.98478572     3.62726390
     3.91641627    -6.97769317     5.23756057
     0.22478914    -8.26758264     6.55221503
     0.28380508    -6.13897115     5.72149418
     0.00000000     0.00000000     0.00000000
     0.00000000     0.00000000     0.00000000
     0.00000000     0.00000000     0.00000000
     0.00000000     0.00000000     0.00000000
     0.00000000     0.00000000     0.00000000
     0.00000000     0.00000000     0.00000000
     0.00000000     0.00000000     0.00000000
     0.00000000     0.00000000     0.00000000
     0.00000000     0.00000000     0.00000000
     0.00000000     0.00000000     0.00000000
     0.00000000     0.00000000     0.00000000
     0.00000000     0.00000000     0.00000000
     0.00000000     0.00000000     0.00000000
     0.00000000     0.00000000     0.00000000
     0.00000000     0.00000000     0.00000000
     0.00000000     0.00000000     0.00000000
     0.00000000     0.00000000     0.00000000
     0.00000000     0.00000000     0.00000000
     0.00000000     0.00000000     0.00000000
     0.00000000     0.00000000     0.00000000
     0.00000000     0.00000000     0.00000000
     0.00000000     0.00000000     0.00000000
     0.00000000     0.00000000     0.00000000
     0.00000000     0.00000000     0.00000000
     0.00000000     0.00000000     0.00000000
     0.00000000     0.00000000     0.00000000
     0.00000000     0.00000000     0.00000000
     0.00000000     0.00000000     0.00000000
     0.00000000     0.00000000     0.00000000
     0.00000000     0.00000000     0.00000000
     0.00000000     0.00000000     0.00000000
     0.00000000     0.00000000     0.00000000
     0.00000000     0.00000000     0.00000000
     0.00000000     0.00000000     0.00000000
     0.00000000     0.00000000     0.00000000
     0.00000000     0.00000000     0.00000000
     0.00000000     0.00000000     0.00000000
     0.00000000     0.00000000     0.00000000
     0.00000000     0.00000000     0.00000000
     0.00000000     0.00000000     0.00000000
     0.00000000     0.00000000     0.00000000
     0.00000000     0.00000000     0.00000000
     0.00000000     0.00000000     0.00000000
     0.00000000     0.00000000     0.00000000
     0.00000000     0.00000000     0.00000000
     0.00000000     0.00000000     0.00000000
     0.00000000     0.00000000     0.00000000
     0.00000000     0.00000000     0.00000000
     0.00000000     0.00000000     0.00000000
     0.00000000     0.00000000     0.00000000
     0.00000000     0.00000000     0.00000000
     0.00000000     0.00000000     0.00000000
     0.00000000     0.00000000     0.00000000
     0.00000000     0.00000000     0.00000000
     0.00000000     0.00000000     0.00000000
     0.00000000     0.00000000     0.00000000
     0.00000000     0.00000000     0.00000000
     0.00000000     0.00000000     0.00000000
     0.00000000     0.00000000     0.00000000
     0.00000000     0.00000000     0.00000000
     0.00000000     0.00000000     0.00000000
     0.00000000     0.00000000     0.00000000
     0.00000000     0.00000000     0.00000000
     0.00000000     0.00000000     0.00000000
     0.00000000     0.00000000     0.00000000
     0.00000000     0.00000000     0.00000000
     0.00000000     0.00000000     0.00000000
     0.00000000     0.00000000     0.00000000
     0.00000000     0.00000000     0.00000000
     0.00000000     0.00000000     0.00000000
     0.00000000     0.00000000     0.00000000
     0.00000000     0.00000000     0.00000000
     0.00000000     0.00000000     0.00000000
     0.00000000     0.00000000     0.00000000
     0.00000000     0.00000000     0.00000000
     0.00000000     0.00000000     0.00000000
     0.00000000     0.00000000     0.00000000
     0.00000000     0.00000000     0.00000000
     0.00000000     0.00000000     0.00000000
     0.00000000     0.00000000     0.00000000
     0.00000000     0.00000000     0.00000000
     0.00000000     0.00000000     0.00000000
     0.00000000     0.00000000     0.00000000
     0.00000000     0.00000000     0.00000000
     0.00000000     0.00000000     0.00000000
     0.00000000     0.00000000     0.00000000
    13.23445843   -10.68896594     0.00000000
    -2.72749361    -7.74713137     0.00000000
   -13.69583447    -2.54309482     0.00000000
   -21.97026436     3.04963727     0.00000000
   -23.91662500     7.09006610     0.00000000
   -20.09564480    11.64824629     0.00000000
   -10.77573919    14.09407150     0.00000000
    -1.41570250    10.27845496     0.00000000
     0.61819300    -0.16564400     0.00000000
     7.02620003   -11.25754802     0.00000000
    -6.69459202   -27.29147166     0.00000000
   -16.84362875   -17.07214025     0.00000000
   -17.45512923    -6.98511705     0.00000000
    -8.81851282     3.11547243     0.00000000
     2.97890897    12.36396852     0.00000000
     8.97083231    20.25936133     0.00000000
     8.10205824    21.13851599     0.00000000
     0.92728900    -0.24846600     0.00000000
     4.11753985   -20.89817213     0.00000000
   -14.59548888   -33.90524263     0.00000000
   -12.27685033   -27.83156827     0.00000000
    -2.03880572   -14.31472947     0.00000000
    12.72475462    -2.34449164     0.00000000
    23.69405920     6.44821496     0.00000000
    26.29305583    12.21554992     0.00000000
    15.21375236    14.79594973     0.00000000
     0.92728900    -0.24846600     0.00000000
   -17.66155359   -12.29838009     0.00000000
     1.68224658   -18.27717120     0.00000000
    18.87132672   -21.35336947     0.00000000
    33.78664188   -16.46014100     0.00000000
    37.40885252    -9.53131832     0.00000000
    34.86785803    -4.39666141     0.00000000
    24.56681259     0.88682719     0.00000000
    10.32071080     2.02547071     0.00000000
     0.61819300    -0.16564400     0.00000000
     0.00000000     0.00000000     0.00000000
     0.00000000     0.00000000     0.00000000
     0.00000000     0.00000000     0.00000000
     0.00000000     0.00000000     0.00000000
     0.00000000     0.00000000     0.00000000
     0.00000000     0.00000000     0.00000000
     0.00000000     0.00000000     0.00000000
     0.00000000     0.00000000     0.00000000
     0.00000000     0.00000000     0.00000000
     0.00000000     0.00000000     0.00000000
     0.00000000     0.00000000     0.00000000
     0.00000000     0.00000000     0.00000000
     0.00000000     0.00000000     0.00000000
     0.00000000     0.00000000     0.00000000
     0.00000000     0.00000000     0.00000000
     0.00000000     0.00000000     0.00000000
     0.00000000     0.00000000     0.00000000
     0.00000000     0.00000000     0.00000000
    12.58726972    -9.82271823     4.17749892
     0.58473778    -8.76033001     0.88298202
   -13.04520061    -2.92472526     3.01605798
   -21.67694430     2.45543518     0.81067929
   -24.21156689     6.40037259     0.54292721
   -20.69625580    10.70901687     1.23083108
   -11.69676356    12.77829951     2.08508396
    -1.88243367     8.99222433     2.10409684
     0.58380200    -0.15642900     0.00000000
     4.97150455    -9.40854202     5.32318233
    -7.19557144   -27.42872661     2.49797904
   -18.46465438   -16.38495210    -1.32047033
   -18.75209204    -5.39168174    -6.35730948
   -10.76903289     4.21749069    -6.80254702
    -0.18755501    13.46722744    -4.37084299
     6.21884689    19.89660248     0.65971123
     6.14409166    19.67929528     4.93045629
     0.88344100    -0.23671700     0.00000000
     1.04775291   -19.06878749     3.86050288
   -16.56041442   -32.43623420     2.49627146
    -9.45598269   -25.96872700    -3.03921988
     2.35565132   -12.80370801    -6.53240726
    15.49676955    -0.48968960    -7.40909827
    23.49978173     7.67041299    -5.12998272
    23.68997014    13.22208553    -0.41371993
    13.25789477    14.36465674     6.41163067
     0.88344100    -0.23671700     0.00000000
   -18.28651162   -12.78683041     1.60644475
     1.85076980   -15.59587465     1.80756278
    20.44854856   -19.51401950     2.92730763
    33.35297430   -13.85729614     1.69964087
    37.67485654    -8.35385471     0.87644054
    32.34453445    -2.89763558     0.59408618
    23.15027384     1.44176416     2.03493202
     8.20468780     3.06329412     5.56844855
     0.58380200    -0.15642900     0.00000000
     0.00000000     0.00000000     0.00000000
     0.00000000     0.00000000     0.00000000
     0.00000000     0.00000000     0.00000000
     0.00000000     0.00000000     0.00000000
     0.00000000     0.00000000     0.00000000
     0.00000000     0.00000000     0.00000000
     0.00000000     0.00000000     0.00000000
     0.00000000     0.00000000     0.00000000
     0.00000000     0.00000000     0.00000000
     0.00000000     0.00000000     0.00000000
     0.00000000     0.00000000     0.00000000
     0.00000000     0.00000000     0.00000000
     0.00000000     0.00000000     0.00000000
     0.00000000     0.00000000     0.00000000
     0.00000000     0.00000000     0.00000000
     0.00000000     0.00000000     0.00000000
     0.00000000     0.00000000     0.00000000
     0.00000000     0.00000000     0.00000000
    12.38474688    -6.23575556     0.46540327
     5.51474736   -10.28640491     4.49881036
   -11.28355690    -4.79432349     6.08540745
   -19.92958798     1.20412368     1.06248701
   -23.92868001     4.58957585     1.50455922
   -21.63928710     8.54505817     1.33768406
   -12.88620857     9.15959737     3.47061761
    -3.27475818     6.24332664     2.92208642
     0.49677600    -0.13311100     0.00000000
     1.09407067    -2.77388901     2.90550525
    -9.49450930   -27.65457459     6.52494653
   -19.21765081   -14.66340967    -2.30755959
   -20.15605762    -3.36918663    -8.60828085
   -15.83769120     6.23132143    -9.73047730
    -7.81532657    13.58095002    -5.66327248
    -2.18436268    17.66788808     1.43622774
     2.24000515    14.81855103     7.09294018
     0.75733200    -0.20292700     0.00000000
   -11.34965097   -12.73750879     5.44346576
   -18.14009251   -25.83479497     1.98735093
    -2.72728339   -21.41891397    -5.88308225
     8.40886543    -8.28653063    -9.91103714
    15.81642648     2.67367839   -10.80560165
    17.24384307    10.24141877    -6.87443670
    14.02062112    14.56933785     0.45034945
     7.41276775    13.03032698     9.11682507
     0.75733200    -0.20292700     0.00000000
   -15.49967284   -11.12723011     4.63335385
     5.02931796   -10.48041708     2.02821838
    20.79154231   -13.70042895     4.49363773
    33.68644392    -9.65222998     2.13794186
    33.52189958    -4.76292777     1.51120575
    27.54076147    -0.72932807     1.04288533
    15.51200587     3.79479881     3.87582364
     5.88126213     4.43691650     8.13074923
     0.49677600    -0.13311100     0.00000000
     0.00000000     0.00000000     0.00000000
     0.00000000     0.00000000     0.00000000
     0.00000000     0.00000000     0.00000000
     0.00000000     0.00000000     0.00000000
     0.00000000     0.00000000     0.00000000
     0.00000000     0.00000000     0.00000000
     0.00000000     0.00000000     0.00000000
     0.00000000     0.00000000     0.00000000
     0.00000000     0.00000000     0.00000000
     0.00000000     0.00000000     0.00000000
     0.00000000     0.00000000     0.00000000
     0.00000000     0.00000000     0.00000000
     0.00000000     0.00000000     0.00000000
     0.00000000     0.00000000     0.00000000
     0.00000000     0.00000000     0.00000000
     0.00000000     0.00000000     0.00000000
     0.00000000     0.00000000     0.00000000
     0.00000000     0.00000000     0.00000000
    10.06192821    -0.72958435    -9.10296439
     4.76897932    -9.48668695     9.58386661
    -7.74644273    -7.84525795     5.80773319
   -15.00426842     0.16235477     2.45637771
   -20.69779107     2.53556296     1.20860794
   -19.34843899     5.60901427     1.30531392
   -13.26892199     4.82138313     2.97562812
    -3.48756800     2.66706109     2.37579255
     0.36351800    -0.09740400     0.00000000
    -0.02464071     4.12775919    -0.26591127
   -10.05646231   -22.81280358     5.06838687
   -14.74798408   -12.74564902    -0.12134174
   -17.62485593    -2.00058189    -6.95082145
   -18.09872995     5.65311986    -6.94860403
   -15.51040495    10.75579046    -4.27233408
    -9.68327999    11.70930339     1.73399027
    -2.46834334     8.27150851     5.36093151
     0.55796400    -0.14950600     0.00000000
   -16.80080816    -2.78036677     4.57352029
   -14.06768320   -16.64082284    -1.48129334
     4.07826295   -14.58703257    -5.57631080
     8.66767332    -4.57616596    -8.16551129
     8.51126687     4.33596744    -8.57062520
     3.54766753    10.02184074    -4.56046984
     0.27989278    12.65579852     1.03931618
     0.83223067     9.10227915     6.70804096
     0.55796400    -0.14950600     0.00000000
   -10.16053979    -5.79027998     8.52449771
     8.29393914    -2.35398552    -0.13928360
    20.12840904    -8.67141462     4.82480832
    27.45665388    -4.54716340     1.09044861
    25.43804780    -2.63303523     1.94740543
    15.74002529     1.78322888     1.37811391
     6.85744682     4.82064567     4.27112980
     1.18743235     5.20691542     6.65091381
     0.36351800    -0.09740400     0.00000000
     0.00000000     0.00000000     0.00000000
     0.00000000     0.00000000     0.00000000
     0.00000000     0.00000000     0.00000000
     0.00000000     0.00000000     0.00000000
     0.00000000     0.00000000     0.00000000
     0.00000000     0.00000000     0.00000000
     0.00000000     0.00000000     0.00000000
     0.00000000     0.00000000     0.00000000
     0.00000000     0.00000000     0.00000000
     0.00000000     0.00000000     0.00000000
     0.00000000     0.00000000     0.00000000
     0.00000000     0.00000000     0.00000000
     0.00000000     0.00000000     0.00000000
     0.00000000     0.00000000     0.00000000
     0.00000000     0.00000000     0.00000000
     0.00000000     0.00000000     0.00000000
     0.00000000     0.00000000     0.00000000
     0.00000000     0.00000000     0.00000000
     9.37763884     1.01756674    -6.94864821
    -0.81539185    -4.96147709     6.35742520
    -2.07131011    -7.21386822     4.10429798
    -8.31225361     0.22520845     2.02723359
   -11.20406543     0.59434430     0.87121040
   -12.90993113     3.21615864     0.76134910
    -8.53210619     1.53122729     1.23221229
    -2.93098342     0.52425428     1.01961186
     0.19380200    -0.05192900     0.00000000
     2.04727823     5.70442339    -0.76766983
    -4.30654906   -13.33439702     2.00419478
    -8.07138774    -7.87639964     0.94408023
    -7.85619190    -2.47607918    -2.34693349
   -13.31156804     3.18603885    -2.16821082
   -13.06317847     4.97843785    -1.60592474
   -10.78653550     5.13111470     0.74011283
    -3.05165496     2.14329083     1.73414940
     0.29947400    -0.08024400     0.00000000
    -8.01955132     2.61920618     3.56028525
    -5.04211834    -6.16291759    -3.39449046
     5.70783414    -7.39254310    -1.63611648
     4.56086337    -1.60645725    -3.73578066
     0.97584683     2.77334381    -2.50440104
    -5.46113146     6.14986999    -1.51205086
    -5.76690221     6.55497532     0.62852274
    -2.51367885     4.12492730     1.99957413
     0.29947400    -0.08024400     0.00000000
    -4.74120986     0.26612453     5.67306155
     9.96562168     0.09318991    -0.79649521
    10.22463073    -3.61004788     2.74515298
    17.17760410    -2.03407469     0.14079195
    10.34625674    -0.92411363     1.81375516
     5.56294628     1.59879724     0.91795768
    -0.99009047     3.45488290     2.57535999
    -0.14000528     3.07882276     2.79591879
     0.19380200    -0.05192900     0.00000000
     0.00000000     0.00000000     0.00000000
     0.00000000     0.00000000     0.00000000
     0.00000000     0.00000000     0.00000000
     0.00000000     0.00000000     0.00000000
     0.00000000     0.00000000     0.00000000
     0.00000000     0.00000000     0.00000000
     0.00000000     0.00000000     0.00000000
     0.00000000     0.00000000     0.00000000
     0.00000000     0.00000000     0.00000000
     0.00000000     0.00000000     0.00000000
     0.00000000     0.00000000     0.00000000
     0.00000000     0.00000000     0.00000000
     0.00000000     0.00000000     0.00000000
     0.00000000     0.00000000     0.00000000
     0.00000000     0.00000000     0.00000000
     0.00000000     0.00000000     0.00000000
     0.00000000     0.00000000     0.00000000
     0.00000000     0.00000000     0.00000000
     0.00000000     0.00000000     0.00000000
     0.00000000     0.00000000     0.00000000
     0.00000000     0.00000000     0.00000000
     0.00000000     0.00000000     0.00000000
     0.00000000     0.00000000     0.00000000
     0.00000000     0.00000000     0.00000000
     0.00000000     0.00000000     0.00000000
     0.00000000     0.00000000     0.00000000
     0.00000000     0.00000000     0.00000000
     0.00000000     0.00000000     0.00000000
     0.00000000     0.00000000     0.00000000
     0.00000000     0.00000000     0.00000000
     0.00000000     0.00000000     0.00000000
     0.00000000     0.00000000     0.00000000
     0.00000000     0.00000000     0.00000000
     0.00000000     0.00000000     0.00000000
     0.00000000     0.00000000     0.00000000
     0.00000000     0.00000000     0.00000000
     0.00000000     0.00000000     0.00000000
     0.00000000     0.00000000     0.00000000
     0.00000000     0.00000000     0.00000000
     0.00000000     0.00000000     0.00000000
     0.00000000     0.00000000     0.00000000
     0.00000000     0.00000000     0.00000000
     0.00000000     0.00000000     0.00000000
     0.00000000     0.00000000     0.00000000
     0.00000000     0.00000000     0.00000000
     0.00000000     0.00000000     0.00000000
     0.00000000     0.00000000     0.00000000
     0.00000000     0.00000000     0.00000000
     0.00000000     0.00000000     0.00000000
     0.00000000     0.00000000     0.00000000
     0.00000000     0.00000000     0.00000000
     0.00000000     0.00000000     0.00000000
     0.00000000     0.00000000     0.00000000
     0.00000000     0.00000000     0.00000000
     0.00000000     0.00000000     0.00000000
     0.00000000     0.00000000     0.00000000
     0.00000000     0.00000000     0.00000000
     0.00000000     0.00000000     0.00000000
     0.00000000     0.00000000     0.00000000
     0.00000000     0.00000000     0.00000000
     0.00000000     0.00000000     0.00000000
     0.00000000     0.00000000     0.00000000
     0.00000000     0.00000000     0.00000000
     0.00000000     0.00000000     0.00000000
     0.00000000     0.00000000     0.00000000
     0.00000000     0.00000000     0.00000000
     0.00000000     0.00000000     0.00000000
     0.00000000     0.00000000     0.00000000
     0.00000000     0.00000000     0.00000000
     0.00000000     0.00000000     0.00000000
     0.00000000     0.00000000     0.00000000
     0.00000000     0.00000000     0.00000000
     0.00000000     0.00000000     0.00000000
     0.00000000     0.00000000     0.00000000
     0.00000000     0.00000000     0.00000000
     0.00000000     0.00000000     0.00000000
     0.00000000     0.00000000     0.00000000
     0.00000000     0.00000000     0.00000000
     0.00000000     0.00000000     0.00000000
     0.00000000     0.00000000     0.00000000
     0.00000000     0.00000000     0.00000000
     0.00000000     0.00000000     0.00000000
     0.00000000     0.00000000     0.00000000
     0.00000000     0.00000000     0.00000000
     0.00000000     0.00000000     0.00000000
     0.00000000     0.00000000     0.00000000
     0.00000000     0.00000000     0.00000000
     0.00000000     0.00000000     0.00000000
     0.00000000     0.00000000     0.00000000
     0.00000000     0.00000000     0.00000000
     0.00000000     0.00000000     0.00000000
     0.00000000     0.00000000     0.00000000
     0.00000000     0.00000000     0.00000000
     0.00000000     0.00000000     0.00000000
     0.00000000     0.00000000     0.00000000
     0.00000000     0.00000000     0.00000000
     0.00000000     0.00000000     0.00000000
     0.00000000     0.00000000     0.00000000
     0.00000000     0.00000000     0.00000000
     0.00000000     0.00000000     0.00000000
     0.00000000     0.00000000     0.00000000
     0.00000000     0.00000000     0.00000000
     0.00000000     0.00000000     0.00000000
     0.00000000     0.00000000     0.00000000
     0.00000000     0.00000000     0.00000000
     0.00000000     0.00000000     0.00000000
     0.00000000     0.00000000     0.00000000
     0.00000000     0.00000000     0.00000000
     0.00000000     0.00000000     0.00000000
     0.00000000     0.00000000     0.00000000
     0.00000000     0.00000000     0.00000000
     0.00000000     0.00000000     0.00000000
     0.00000000     0.00000000     0.00000000
     0.00000000     0.00000000     0.00000000
     0.00000000     0.00000000     0.00000000
     0.00000000     0.00000000     0.00000000
     0.00000000     0.00000000     0.00000000
     0.00000000     0.00000000     0.00000000
     0.00000000     0.00000000     0.00000000
     0.00000000     0.00000000     0.00000000
     0.00000000     0.00000000     0.00000000
     0.00000000     0.00000000     0.00000000
     0.00000000     0.00000000     0.00000000
     0.00000000     0.00000000     0.00000000
     0.00000000     0.00000000     0.00000000
     0.00000000     0.00000000     0.00000000
     0.00000000     0.00000000     0.00000000
     0.00000000     0.00000000     0.00000000
     0.00000000     0.00000000     0.00000000
     0.00000000     0.00000000     0.00000000
     0.00000000     0.00000000     0.00000000
     0.00000000     0.00000000     0.00000000
     0.00000000     0.00000000     0.00000000
     0.00000000     0.00000000     0.00000000
     0.00000000     0.00000000     0.00000000
     0.00000000     0.00000000     0.00000000
     0.00000000     0.00000000     0.00000000
     0.00000000     0.00000000     0.00000000
     0.00000000     0.00000000     0.00000000
     0.00000000     0.00000000     0.00000000
     0.00000000     0.00000000     0.00000000
     0.00000000     0.00000000     0.00000000
     0.00000000     0.00000000     0.00000000
     0.00000000     0.00000000     0.00000000
     0.00000000     0.00000000     0.00000000
     0.00000000     0.00000000     0.00000000
     0.00000000     0.00000000     0.00000000
     0.00000000     0.00000000     0.00000000
     0.00000000     0.00000000     0.00000000
     0.00000000     0.00000000     0.00000000
     0.00000000     0.00000000     0.00000000
     0.00000000     0.00000000     0.00000000
     0.00000000     0.00000000     0.00000000
     0.00000000     0.00000000     0.00000000
     0.00000000     0.00000000     0.00000000
     0.00000000     0.00000000     0.00000000
     0.00000000     0.00000000     0.00000000
     0.00000000     0.00000000     0.00000000
     0.00000000     0.00000000     0.00000000
     0.00000000     0.00000000     0.00000000
     0.00000000     0.00000000     0.00000000
     0.00000000     0.00000000     0.00000000
     0.00000000     0.00000000     0.00000000
     0.00000000     0.00000000     0.00000000
     0.00000000     0.00000000     0.00000000
     0.00000000     0.00000000     0.00000000
     0.00000000     0.00000000     0.00000000
     0.00000000     0.00000000     0.00000000
     0.00000000     0.00000000     0.00000000
     0.00000000     0.00000000     0.00000000
     0.00000000     0.00000000     0.00000000
     0.00000000     0.00000000     0.00000000
     0.00000000     0.00000000     0.00000000
     0.00000000     0.00000000     0.00000000
     0.00000000     0.00000000     0.00000000
     0.00000000     0.00000000     0.00000000
     0.00000000     0.00000000     0.00000000
     0.00000000     0.00000000     0.00000000
     0.00000000     0.00000000     0.00000000
     0.00000000     0.00000000     0.00000000
     0.00000000     0.00000000     0.00000000
     0.00000000     0.00000000     0.00000000
     0.00000000     0.00000000     0.00000000
     0.00000000     0.00000000     0.00000000
     0.00000000     0.00000000     0.00000000
     0.00000000     0.00000000     0.00000000
     0.00000000     0.00000000     0.00000000
     0.00000000     0.00000000     0.00000000
     0.00000000     0.00000000     0.00000000
     0.00000000     0.00000000     0.00000000
     0.00000000     0.00000000     0.00000000
     0.00000000     0.00000000     0.00000000
     0.00000000     0.00000000     0.00000000
     0.00000000     0.00000000     0.00000000
     0.00000000     0.00000000     0.00000000
     0.00000000     0.00000000     0.00000000
     0.00000000     0.00000000     0.00000000
     0.00000000     0.00000000     0.00000000
     0.00000000     0.00000000     0.00000000
     0.00000000     0.00000000     0.00000000
     0.00000000     0.00000000     0.00000000
     0.00000000     0.00000000     0.00000000
     0.00000000     0.00000000     0.00000000
     0.00000000     0.00000000     0.00000000
     0.00000000     0.00000000     0.00000000
     0.00000000     0.00000000     0.00000000
     0.00000000     0.00000000     0.00000000
     0.00000000     0.00000000     0.00000000
     0.00000000     0.00000000     0.00000000
     0.00000000     0.00000000     0.00000000
     0.00000000     0.00000000     0.00000000
     0.00000000     0.00000000     0.00000000
     0.00000000     0.00000000     0.00000000
     0.00000000     0.00000000     0.00000000
     0.00000000     0.00000000     0.00000000
     0.00000000     0.00000000     0.00000000
     0.00000000     0.00000000     0.00000000
     0.00000000     0.00000000     0.00000000
     0.00000000     0.00000000     0.00000000
     0.00000000     0.00000000     0.00000000
     0.00000000     0.00000000     0.00000000
     0.00000000     0.00000000     0.00000000
     0.00000000     0.00000000     0.00000000
     0.00000000     0.00000000     0.00000000
     0.00000000     0.00000000     0.00000000
     0.00000000     0.00000000     0.00000000
     0.00000000     0.00000000     0.00000000
     0.00000000     0.00000000     0.00000000
     0.00000000     0.00000000     0.00000000
     0.00000000     0.00000000     0.00000000
     0.00000000     0.00000000     0.00000000
     0.00000000     0.00000000     0.00000000
     0.00000000     0.00000000     0.00000000
     0.00000000     0.00000000     0.00000000
     0.00000000     0.00000000     0.00000000
     0.00000000     0.00000000     0.00000000
     0.00000000     0.00000000     0.00000000
     0.00000000     0.00000000     0.00000000
     0.00000000     0.00000000     0.00000000
     0.00000000     0.00000000     0.00000000
     0.00000000     0.00000000     0.00000000
     0.00000000     0.00000000     0.00000000
     0.00000000     0.00000000     0.00000000
     0.00000000     0.00000000     0.00000000
     0.00000000     0.00000000     0.00000000
     0.00000000     0.00000000     0.00000000
     0.00000000     0.00000000     0.00000000
     0.00000000     0.00000000     0.00000000
     0.00000000     0.00000000     0.00000000
     0.00000000     0.00000000     0.00000000
     0.00000000     0.00000000     0.00000000
     0.00000000     0.00000000     0.00000000
     0.00000000     0.00000000     0.00000000
     0.00000000     0.00000000     0.00000000
     0.00000000     0.00000000     0.00000000
     0.00000000     0.00000000     0.00000000
     0.00000000     0.00000000     0.00000000
     0.00000000     0.00000000     0.00000000
     0.00000000     0.00000000     0.00000000
     0.00000000     0.00000000     0.00000000
     0.00000000     0.00000000     0.00000000
     0.00000000     0.00000000     0.00000000
     0.00000000     0.00000000     0.00000000
     0.00000000     0.00000000     0.00000000
     0.00000000     0.00000000     0.00000000
     0.00000000     0.00000000     0.00000000
     0.00000000     0.00000000     0.00000000
     0.00000000     0.00000000     0.00000000
     0.00000000     0.00000000     0.00000000
     0.00000000     0.00000000     0.00000000
     0.00000000     0.00000000     0.00000000
     0.00000000     0.00000000     0.00000000
     0.00000000     0.00000000     0.00000000
     0.00000000     0.00000000     0.00000000
     0.00000000     0.00000000     0.00000000
     0.00000000     0.00000000     0.00000000
     0.00000000     0.00000000     0.00000000
     0.00000000     0.00000000     0.00000000
     0.00000000     0.00000000     0.00000000
     0.00000000     0.00000000     0.00000000
     0.00000000     0.00000000     0.00000000
     0.00000000     0.00000000     0.00000000
     0.00000000     0.00000000     0.00000000
     0.00000000     0.00000000     0.00000000
     0.00000000     0.00000000     0.00000000
     0.00000000     0.00000000     0.00000000
     0.00000000     0.00000000     0.00000000
     0.00000000     0.00000000     0.00000000
     0.00000000     0.00000000     0.00000000
     0.00000000     0.00000000     0.00000000
     0.00000000     0.00000000     0.00000000
     0.00000000     0.00000000     0.00000000
     0.00000000     0.00000000     0.00000000
     0.00000000     0.00000000     0.00000000
     0.00000000     0.00000000     0.00000000
     0.00000000     0.00000000     0.00000000
     0.00000000     0.00000000     0.00000000
     0.00000000     0.00000000     0.00000000
     0.00000000     0.00000000     0.00000000
     0.00000000     0.00000000     0.00000000
     0.00000000     0.00000000     0.00000000
     0.00000000     0.00000000     0.00000000
     0.00000000     0.00000000     0.00000000
     0.00000000     0.00000000     0.00000000
     0.00000000     0.00000000     0.00000000
     0.00000000     0.00000000     0.00000000
     0.00000000     0.00000000     0.00000000
     0.00000000     0.00000000     0.00000000
     0.00000000     0.00000000     0.00000000
     0.00000000     0.00000000     0.00000000
     0.00000000     0.00000000     0.00000000
     0.00000000     0.00000000     0.00000000
     0.00000000     0.00000000     0.00000000
     0.00000000     0.00000000     0.00000000
     0.00000000     0.00000000     0.00000000
     0.00000000     0.00000000     0.00000000
     0.00000000     0.00000000     0.00000000
     0.00000000     0.00000000     0.00000000
     0.00000000     0.00000000     0.00000000
     0.00000000     0.00000000     0.00000000
     0.00000000     0.00000000     0.00000000
     0.00000000     0.00000000     0.00000000
     0.00000000     0.00000000     0.00000000
     0.00000000     0.00000000     0.00000000
     0.00000000     0.00000000     0.00000000
     0.00000000     0.00000000     0.00000000
     0.00000000     0.00000000     0.00000000
     0.00000000     0.00000000     0.00000000
     0.00000000     0.00000000     0.00000000
     0.00000000     0.00000000     0.00000000
     0.00000000     0.00000000     0.00000000
     0.00000000     0.00000000     0.00000000
     0.00000000     0.00000000     0.00000000
     0.00000000     0.00000000     0.00000000
     0.00000000     0.00000000     0.00000000
     0.00000000     0.00000000     0.00000000
     0.00000000     0.00000000     0.00000000
     0.00000000     0.00000000     0.00000000
     0.00000000     0.00000000     0.00000000
SCALARS Temperatures float
LOOKUP_TABLE default
     0.00000000
     0.00000000
     0.00000000
     0.00000000
     0.00000000
     0.00000000
     0.00000000
     0.00000000
     0.00000000
     0.00000000
     0.00000000
     0.00000000
     0.00000000
     0.00000000
     0.00000000
     0.00000000
     0.00000000
     0.00000000
     0.00000000
     0.00000000
     0.00000000
     0.00000000
     0.00000000
     0.00000000
     0.00000000
     0.00000000
     0.00000000
     0.00000000
     0.00000000
     0.00000000
     0.00000000
     0.00000000
     0.00000000
     0.00000000
     0.00000000
     0.00000000
     0.00000000
     0.00000000
     0.00000000
     0.00000000
     0.00000000
     0.00000000
     0.00000000
     0.00000000
     0.00000000
     0.00000000
     0.00000000
     0.00000000
     0.00000000
     0.00000000
     0.00000000
     0.00000000
     0.00000000
     0.00000000
     0.00000000
     0.00000000
     0.00000000
     0.00000000
     0.00000000
     0.00000000
     0.00000000
     0.00000000
     0.00000000
     0.00000000
     0.00000000
     0.00000000
     0.00000000
     0.00000000
     0.00000000
     0.00000000
     0.00000000
     0.00000000
     0.00000000
     0.00000000
     0.00000000
     0.00000000
     0.00000000
     0.00000000
     0.00000000
     0.00000000
     0.00000000
     0.00000000
     0.00000000
     0.00000000
     0.00000000
     0.00000000
     0.00000000
     0.00000000
     0.00000000
     0.00000000
     0.00000000
     0.00000000
     0.00000000
     0.00000000
     0.00000000
     0.00000000
     0.00000000
     0.00000000
     0.00000000
     0.00000000
     0.00000000
     0.00000000
     0.00000000
     0.00000000
     0.00000000
     0.00000000
     0.00000000
     0.00000000
     0.00000000
     0.00000000
     0.00000000
     0.00000000
     0.00000000
     0.00000000
     0.00000000
     0.00000000
     0.00000000
     0.00000000
     0.00000000
     0.00000000
     0.00000000
     0.00000000
     0.00000000
     0.00000000
     0.00000000
     0.00000000
     0.00000000
     0.00000000
     0.00000000
     0.00000000
     0.00000000
     0.00000000
     0.00000000
     0.00000000
     0.00000000
     0.00000000
     0.00000000
     0.00000000
     0.00000000
     0.00000000
     0.00000000
     0.00000000
     0.00000000
     0.00000000
     0.00000000
     0.00000000
     0.00000000
     0.00000000
     0.00000000
     0.00000000
     0.00000000
     0.00000000
     0.00000000
     0.00000000
     0.00000000
     0.00000000
     0.00000000
     0.00000000
     0.00000000
     0.00000000
     0.00000000
     0.00000000
     0.00000000
     0.00000000
     0.00000000
     0.00000000
     0.00000000
     0.00000000
     0.00000000
     0.00000000
     0.00000000
     0.00000000
     0.00000000
     0.00000000
     0.00000000
     0.00000000
     0.00000000
     0.00000000
     0.00000000
     0.00000000
     0.00000000
     0.00000000
     0.00000000
     0.00000000
     0.00000000
     0.00000000
     0.00000000
     0.00000000
     0.00000000
     0.00000000
     0.00000000
     0.00000000
     0.00000000
     0.00000000
     0.00000000
     0.00000000
     0.00000000
     0.00000000
     0.00000000
     0.00000000
     0.00000000
     0.00000000
     0.00000000
     0.00000000
     0.00000000
     0.00000000
     0.00000000
     0.00000000
     0.00000000
     0.00000000
     0.00000000
     0.00000000
     0.00000000
     0.00000000
     0.00000000
     0.00000000
     0.00000000
     0.00000000
     0.00000000
     0.00000000
     0.00000000
     0.00000000
     0.00000000
     0.00000000
     0.00000000
     0.00000000
     0.00000000
     0.00000000
     0.00000000
     0.00000000
     0.00000000
     0.00000000
     0.00000000
     0.00000000
     0.00000000
     0.00000000
     0.00000000
     0.00000000
     0.00000000
     0.00000000
     0.00000000
     0.00000000
     0.00000000
     0.00000000
     0.00000000
     0.00000000
     0.00000000
     0.00000000
     0.00000000
     0.00000000
     0.00000000
     0.00000000
     0.00000000
     0.00000000
     0.00000000
     0.00000000
     0.00000000
     0.00000000
     0.00000000
     0.00000000
     0.00000000
     0.00000000
     0.00000000
     0.00000000
     0.00000000
     0.00000000
     0.00000000
     0.00000000
     0.00000000
     0.00000000
     0.00000000
     0.00000000
     0.00000000
     0.00000000
     0.00000000
     0.00000000
     0.00000000
     0.00000000
     0.00000000
     0.00000000
     0.00000000
     0.00000000
     0.00000000
     0.00000000
     0.00000000
     0.00000000
     0.00000000
     0.00000000
     0.00000000
     0.00000000
     0.00000000
     0.00000000
     0.00000000
     0.00000000
     0.00000000
     0.00000000
     0.00000000
     0.00000000
     0.00000000
     0.00000000
     0.00000000
     0.00000000
     0.00000000
     0.00000000
     0.00000000
     0.00000000
     0.00000000
     0.00000000
     0.00000000
     0.00000000
     0.00000000
     0.00000000
     0.00000000
     0.00000000
     0.00000000
     0.00000000
     0.00000000
     0.00000000
     0.00000000
     0.00000000
     0.00000000
     0.00000000
     0.00000000
     0.00000000
     0.00000000
     0.00000000
     0.00000000
     0.00000000
     0.00000000
     0.00000000
     0.00000000
     0.00000000
     0.00000000
     0.00000000
     0.00000000
     0.00000000
     0.00000000
     0.00000000
     0.00000000
     0.00000000
     0.00000000
     0.00000000
     0.00000000
     0.00000000
     0.00000000
     0.00000000
     0.00000000
     0.00000000
     0.00000000
     0.00000000
     0.00000000
     0.00000000
     0.00000000
     0.00000000
     0.00000000
     0.00000000
     0.00000000
     0.00000000
     0.00000000
     0.00000000
     0.00000000
     0.00000000
     0.00000000
     0.00000000
     0.00000000
     0.00000000
     0.00000000
     0.00000000
     0.00000000
     0.00000000
     0.00000000
     0.00000000
     0.00000000
     0.00000000
     0.00000000
     0.00000000
     0.00000000
     0.00000000
     0.00000000
     0.00000000
     0.00000000
     0.00000000
     0.00000000
     0.00000000
     0.00000000
     0.00000000
     0.00000000
     0.00000000
     0.00000000
     0.00000000
     0.00000000
     0.00000000
     0.00000000
     0.00000000
     0.00000000
     0.00000000
     0.00000000
     0.00000000
     0.00000000
     0.00000000
     0.00000000
     0.00000000
     0.00000000
     0.00000000
     0.00000000
     0.00000000
     0.00000000
     0.00000000
     0.00000000
     0.00000000
     0.00000000
     0.00000000
     0.00000000
     0.00000000
     0.00000000
     0.00000000
     0.00000000
     0.00000000
     0.00000000
     0.00000000
     0.00000000
     0.00000000
     0.00000000
     0.00000000
     0.00000000
     0.00000000
     0.00000000
     0.00000000
     0.00000000
     0.00000000
     0.00000000
     0.00000000
     0.00000000
     0.00000000
     0.00000000
     0.00000000
     0.00000000
     0.00000000
     0.00000000
     0.00000000
     0.00000000
     0.00000000
     0.00000000
     0.00000000
     0.00000000
     0.00000000
     0.00000000
     0.00000000
     0.00000000
     0.00000000
     0.00000000
     0.00000000
     0.00000000
     0.00000000
     0.00000000
     0.00000000
     0.00000000
     0.00000000
     0.00000000
     0.00000000
     0.00000000
     0.00000000
     0.00000000
     0.00000000
     0.00000000
     0.00000000
     0.00000000
     0.00000000
     0.00000000
     0.00000000
     0.00000000
     0.00000000
     0.00000000
     0.00000000
     0.00000000
     0.00000000
     0.00000000
     0.00000000
     0.00000000
     0.00000000
     0.00000000
     0.00000000
     0.00000000
     0.00000000
     0.00000000
     0.00000000
     0.00000000
     0.00000000
     0.00000000
     0.00000000
     0.00000000
     0.00000000
     0.00000000
     0.00000000
     0.00000000
     0.00000000
     0.00000000
     0.00000000
     0.00000000
     0.00000000
     0.00000000
     0.00000000
     0.00000000
     0.00000000
     0.00000000
     0.00000000
     0.00000000
     0.00000000
     0.00000000
     0.00000000
     0.00000000
     0.00000000
     0.00000000
     0.00000000
     0.00000000
     0.00000000
     0.00000000
     0.00000000
     0.00000000
     0.00000000
     0.00000000
     0.00000000
     0.00000000
     0.00000000
     0.00000000
     0.00000000
     0.00000000
     0.00000000
     0.00000000
     0.00000000
     0.00000000
     0.00000000
     0.00000000
     0.00000000
     0.00000000
     0.00000000
     0.00000000
     0.00000000
     0.00000000
     0.00000000
     0.00000000
     0.00000000
     0.00000000
     0.00000000
     0.00000000
     0.00000000
     0.00000000
     0.00000000
     0.00000000
     0.00000000
     0.00000000
     0.00000000
     0.00000000
     0.00000000
     0.00000000
     0.00000000
     0.00000000
     0.00000000
     0.00000000
     0.00000000
     0.00000000
     0.00000000
     0.00000000
     0.00000000
     0.00000000
     0.00000000
     0.00000000
     0.00000000
     0.00000000
     0.00000000
     0.00000000
     0.00000000
     0.00000000
     0.00000000
     0.00000000
     0.00000000
     0.00000000
     0.00000000
     0.00000000
     0.00000000
     0.00000000
     0.00000000
     0.00000000
     0.00000000
     0.00000000
     0.00000000
     0.00000000
     0.00000000
     0.00000000
     0.00000000
     0.00000000
     0.00000000
     0.00000000
     0.00000000
     0.00000000
     0.00000000
     0.00000000
     0.00000000
     0.00000000
     0.00000000
     0.00000000
     0.00000000
     0.00000000
     0.00000000
     0.00000000
     0.00000000
     0.00000000
     0.00000000
     0.00000000
     0.00000000
     0.00000000
     0.00000000
     0.00000000
     0.00000000
     0.00000000
     0.00000000
     0.00000000
     0.00000000
     0.00000000
     0.00000000
     0.00000000
     0.00000000
     0.00000000
     0.00000000
     0.00000000
     0.00000000
     0.00000000
     0.00000000
     0.00000000
     0.00000000
     0.00000000
     0.00000000
     0.00000000
     0.00000000
     0.00000000
     0.00000000
     0.00000000
     0.00000000
     0.00000000
     0.00000000
     0.00000000
     0.00000000
     0.00000000
     0.00000000
     0.00000000
     0.00000000
     0.00000000
     0.00000000
     0.00000000
     0.00000000
     0.00000000
     0.00000000
     0.00000000
     0.00000000
     0.00000000
     0.00000000
     0.00000000
     0.00000000
     0.00000000
     0.00000000
     0.00000000
     0.00000000
     0.00000000
     0.00000000
     0.00000000
     0.00000000
     0.00000000
     0.00000000
     0.00000000
     0.00000000
     0.00000000
     0.00000000
     0.00000000
     0.00000000
     0.00000000
     0.00000000
     0.00000000
     0.00000000
     0.00000000
     0.00000000
     0.00000000
     0.00000000
     0.00000000
     0.00000000
     0.00000000
     0.00000000
     0.00000000
     0.00000000
     0.00000000
     0.00000000
     0.00000000
     0.00000000
     0.00000000
     0.00000000
     0.00000000
     0.00000000
     0.00000000
     0.00000000
     0.00000000
     0.00000000
     0.00000000
     0.00000000
     0.00000000
     0.00000000
     0.00000000
     0.00000000
     0.00000000
     0.00000000
     0.00000000
     0.00000000
     0.00000000
     0.00000000
     0.00000000
     0.00000000
     0.00000000
     0.00000000
     0.00000000
     0.00000000
     0.00000000
     0.00000000
     0.00000000
     0.00000000
     0.00000000
     0.00000000
     0.00000000
     0.00000000
     0.00000000
     0.00000000
     0.00000000
     0.00000000
     0.00000000
     0.00000000
     0.00000000
     0.00000000
     0.00000000
     0.00000000
     0.00000000
     0.00000000
     0.00000000
     0.00000000
     0.00000000
     0.00000000
     0.00000000
     0.00000000
     0.00000000
     0.00000000
     0.00000000
     0.00000000
     0.00000000
     0.00000000
     0.00000000
     0.00000000
     0.00000000
     0.00000000
     0.00000000
     0.00000000
     0.00000000
     0.00000000
     0.00000000
     0.00000000
     0.00000000
     0.00000000
     0.00000000
     0.00000000
     0.00000000
     0.00000000
     0.00000000
     0.00000000
     0.00000000
     0.00000000
     0.00000000
     0.00000000
     0.00000000
     0.00000000
     0.00000000
     0.00000000
     0.00000000
     0.00000000
     0.00000000
     0.00000000
     0.00000000
     0.00000000
     0.00000000
     0.00000000
     0.00000000
     0.00000000
     0.00000000
     0.00000000
     0.00000000
     0.00000000
     0.00000000
     0.00000000
     0.00000000
     0.00000000
     0.00000000
     0.00000000
     0.00000000
     0.00000000
     0.00000000
     0.00000000
     0.00000000
     0.00000000
     0.00000000
     0.00000000
     0.00000000
     0.00000000
     0.00000000
     0.00000000
     0.00000000
     0.00000000
     0.00000000
     0.00000000
     0.00000000
     0.00000000
     0.00000000
     0.00000000
     0.00000000
     0.00000000
     0.00000000
     0.00000000
     0.00000000
     0.00000000
     0.00000000
     0.00000000
     0.00000000
     0.00000000
     0.00000000
     0.00000000
     0.00000000
     0.00000000
     0.00000000
     0.00000000
     0.00000000
     0.00000000
     0.00000000
     0.00000000
     0.00000000
     0.00000000
     0.00000000
     0.00000000
     0.00000000
     0.00000000
     0.00000000
     0.00000000
     0.00000000
     0.00000000
     0.00000000
     0.00000000
     0.00000000
     0.00000000
     0.00000000
     0.00000000
     0.00000000
     0.00000000
     0.00000000
     0.00000000
     0.00000000
     0.00000000
     0.00000000
     0.00000000
     0.00000000
     0.00000000
     0.00000000
     0.00000000
     0.00000000
     0.00000000
     0.00000000
     0.00000000
     0.00000000
     0.00000000
     0.00000000
     0.00000000
     0.00000000
     0.00000000
     0.00000000
     0.00000000
     0.00000000
     0.00000000
     0.00000000
     0.00000000
     0.00000000
     0.00000000
     0.00000000
     0.00000000
     0.00000000
     0.00000000
     0.00000000
     0.00000000
     0.00000000
     0.00000000
     0.00000000
     0.00000000
     0.00000000
     0.00000000
     0.00000000
     0.00000000
     0.00000000
     0.00000000
     0.00000000
     0.00000000
     0.00000000
     0.00000000
     0.00000000
     0.00000000
     0.00000000
     0.00000000
     0.00000000
     0.00000000
     0.00000000
     0.00000000
     0.00000000
     0.00000000
     0.00000000
     0.00000000
     0.00000000
     0.00000000
     0.00000000
     0.00000000
     0.00000000
     0.00000000
     0.00000000
     0.00000000
     0.00000000
     0.00000000
     0.00000000
     0.00000000
     0.00000000
     0.00000000
     0.00000000
     0.00000000
     0.00000000
     0.00000000
     0.00000000
     0.00000000
     0.00000000
     0.00000000
     0.00000000
     0.00000000
     0.00000000
     0.00000000
     0.00000000
     0.00000000
     0.00000000
     0.00000000
     0.00000000
     0.00000000
     0.00000000
     0.00000000
     0.00000000
     0.00000000
     0.00000000
     0.00000000
     0.00000000
     0.00000000
     0.00000000
     0.00000000
     0.00000000
     0.00000000
     0.00000000
     0.00000000
     0.00000000
     0.00000000
     0.00000000
     0.00000000
     0.00000000
     0.00000000
     0.00000000
     0.00000000
     0.00000000
     0.00000000
     0.00000000
     0.00000000
     0.00000000
     0.00000000
     0.00000000
     0.00000000
     0.00000000
     0.00000000
     0.00000000
     0.00000000
     0.00000000
     0.00000000
     0.00000000
     0.00000000
     0.00000000
     0.00000000
     0.00000000
     0.00000000
     0.00000000
     0.00000000
     0.00000000
     0.00000000
     0.00000000
     0.00000000
     0.00000000
     0.00000000
     0.00000000
     0.00000000
     0.00000000
     0.00000000
     0.00000000
     0.00000000
     0.00000000
     0.00000000
     0.00000000
     0.00000000
     0.00000000
     0.00000000
     0.00000000
     0.00000000
     0.00000000
     0.00000000
     0.00000000
     0.00000000
     0.00000000
     0.00000000
     0.00000000
     0.00000000
     0.00000000
     0.00000000
     0.00000000
     0.00000000
     0.00000000
     0.00000000
     0.00000000
     0.00000000
     0.00000000
     0.00000000
     0.00000000
     0.00000000
     0.00000000
     0.00000000
     0.00000000
     0.00000000
     0.00000000
     0.00000000
     0.00000000
     0.00000000
     0.00000000
     0.00000000
     0.00000000
     0.00000000
     0.00000000
     0.00000000
     0.00000000
     0.00000000
     0.00000000
     0.00000000
     0.00000000
     0.00000000
     0.00000000
     0.00000000
     0.00000000
     0.00000000
     0.00000000
     0.00000000
     0.00000000
     0.00000000
     0.00000000
     0.00000000
     0.00000000
     0.00000000
     0.00000000
     0.00000000
     0.00000000
     0.00000000
     0.00000000
     0.00000000
     0.00000000
     0.00000000
     0.00000000
     0.00000000
     0.00000000
     0.00000000
     0.00000000
     0.00000000
     0.00000000
     0.00000000
     0.00000000
     0.00000000
     0.00000000
     0.00000000
     0.00000000
     0.00000000
     0.00000000
     0.00000000
     0.00000000
     0.00000000
     0.00000000
     0.00000000
     0.00000000
     0.00000000
     0.00000000
     0.00000000
     0.00000000
     0.00000000
     0.00000000
     0.00000000
     0.00000000
     0.00000000
     0.00000000
     0.00000000
     0.00000000
     0.00000000
     0.00000000
     0.00000000
     0.00000000
     0.00000000
     0.00000000
     0.00000000
     0.00000000
     0.00000000
     0.00000000
     0.00000000
     0.00000000
     0.00000000
     0.00000000
     0.00000000
     0.00000000
     0.00000000
     0.00000000
     0.00000000
     0.00000000
     0.00000000
     0.00000000
     0.00000000
     0.00000000
     0.00000000
     0.00000000
     0.00000000
     0.00000000
     0.00000000
     0.00000000
     0.00000000
     0.00000000
     0.00000000
     0.00000000
     0.00000000
     0.00000000
     0.00000000
     0.00000000
     0.00000000
     0.00000000
     0.00000000
     0.00000000
     0.00000000
     0.00000000
     0.00000000
     0.00000000
     0.00000000
     0.00000000
     0.00000000
     0.00000000
     0.00000000
     0.00000000
     0.00000000
     0.00000000
     0.00000000
     0.00000000
     0.00000000
     0.00000000
     0.00000000
     0.00000000
     0.00000000
     0.00000000
     0.00000000
     0.00000000
     0.00000000
     0.00000000
     0.00000000
     0.00000000
     0.00000000
     0.00000000
     0.00000000
     0.00000000
     0.00000000
     0.00000000
     0.00000000
     0.00000000
     0.00000000
     0.00000000
     0.00000000
     0.00000000
     0.00000000
     0.00000000
     0.00000000
     0.00000000
     0.00000000
     0.00000000
     0.00000000
     0.00000000
     0.00000000
     0.00000000
     0.00000000
     0.00000000
     0.00000000
     0.00000000
     0.00000000
     0.00000000
     0.00000000
     0.00000000
     0.00000000
     0.00000000
     0.00000000
     0.00000000
     0.00000000
     0.00000000
     0.00000000
     0.00000000
     0.00000000
     0.00000000
     0.00000000
     0.00000000
     0.00000000
     0.00000000
     0.00000000
     0.00000000
     0.00000000
     0.00000000
     0.00000000
     0.00000000
     0.00000000
     0.00000000
     0.00000000
     0.00000000
     0.00000000
     0.00000000
     0.00000000
     0.00000000
     0.00000000
     0.00000000
     0.00000000
     0.00000000
     0.00000000
     0.00000000
     0.00000000
     0.00000000
     0.00000000
     0.00000000
     0.00000000
     0.00000000
     0.00000000
     0.00000000
     0.00000000
     0.00000000
     0.00000000
     0.00000000
     0.00000000
     0.00000000
     0.00000000
     0.00000000
     0.00000000
     0.00000000
     0.00000000
     0.00000000
     0.00000000
     0.00000000
     0.00000000
     0.00000000
     0.00000000
     0.00000000
     0.00000000
     0.00000000
     0.00000000
     0.00000000
     0.00000000
     0.00000000
     0.00000000
     0.00000000
     0.00000000
     0.00000000
     0.00000000
     0.00000000
     0.00000000
     0.00000000
     0.00000000
     0.00000000
     0.00000000
     0.00000000
     0.00000000
     0.00000000
     0.00000000
     0.00000000
     0.00000000
     0.00000000
     0.00000000
     0.00000000
     0.00000000
     0.00000000
     0.00000000
     0.00000000
     0.00000000
     0.00000000
     0.00000000
     0.00000000
     0.00000000
     0.00000000
     0.00000000
     0.00000000
     0.00000000
     0.00000000
     0.00000000
     0.00000000
     0.00000000
     0.00000000
     0.00000000
     0.00000000
     0.00000000
     0.00000000
     0.00000000
     0.00000000
     0.00000000
     0.00000000
     0.00000000
     0.00000000
     0.00000000
     0.00000000
     0.00000000
     0.00000000
     0.00000000
     0.00000000
     0.00000000
     0.00000000
     0.00000000
     0.00000000
     0.00000000
     0.00000000
     0.00000000
     0.00000000
     0.00000000
     0.00000000
     0.00000000
     0.00000000
     0.00000000
     0.00000000
     0.00000000
     0.00000000
     0.00000000
     0.00000000
     0.00000000
     0.00000000
     0.00000000
     0.00000000
     0.00000000
     0.00000000
     0.00000000
     0.00000000
     0.00000000
     0.00000000
     0.00000000
     0.00000000
     0.00000000
     0.00000000
     0.00000000
     0.00000000
     0.00000000
     0.00000000
     0.00000000
     0.00000000
     0.00000000
     0.00000000
     0.00000000
     0.00000000
     0.00000000
     0.00000000
     0.00000000
     0.00000000
     0.00000000
     0.00000000
     0.00000000
     0.00000000
     0.00000000
     0.00000000
     0.00000000
     0.00000000
     0.00000000
     0.00000000
     0.00000000
     0.00000000
     0.00000000
     0.00000000
     0.00000000
     0.00000000
     0.00000000
     0.00000000
     0.00000000
     0.00000000
     0.00000000
     0.00000000
     0.00000000
     0.00000000
     0.00000000
     0.00000000
     0.00000000
     0.00000000
     0.00000000
     0.00000000
     0.00000000
     0.00000000
     0.00000000
     0.00000000
     0.00000000
     0.00000000
     0.00000000
     0.00000000
     0.00000000
     0.00000000
     0.00000000
     0.00000000
     0.00000000
     0.00000000
     0.00000000
     0.00000000
     0.00000000
     0.00000000
     0.00000000
     0.00000000
     0.00000000
     0.00000000
     0.00000000
     0.00000000
     0.00000000
     0.00000000
     0.00000000
     0.00000000
     0.00000000
     0.00000000
     0.00000000
     0.00000000
     0.00000000
     0.00000000
     0.00000000
     0.00000000
     0.00000000
     0.00000000
     0.00000000
     0.00000000
     0.00000000
     0.00000000
     0.00000000
     0.00000000
     0.00000000
     0.00000000
     0.00000000
     0.00000000
     0.00000000
     0.00000000
     0.00000000
     0.00000000
     0.00000000
     0.00000000
     0.00000000
     0.00000000
     0.00000000
     0.00000000
     0.00000000
     0.00000000
     0.00000000
     0.00000000
     0.00000000
     0.00000000
     0.00000000
     0.00000000
     0.00000000
     0.00000000
     0.00000000
     0.00000000
     0.00000000
     0.00000000
     0.00000000
     0.00000000
     0.00000000
     0.00000000
     0.00000000
     0.00000000
     0.00000000
     0.00000000
     0.00000000
     0.00000000
     0.00000000
     0.00000000
     0.00000000
     0.00000000
     0.00000000
     0.00000000
     0.00000000
     0.00000000
     0.00000000
     0.00000000
     0.00000000
     0.00000000
     0.00000000
     0.00000000
     0.00000000
     0.00000000
     0.00000000
     0.00000000
     0.00000000
     0.00000000
     0.00000000
     0.00000000
     0.00000000
     0.00000000
     0.00000000
     0.00000000
     0.00000000
     0.00000000
     0.00000000
     0.00000000
     0.00000000
     0.00000000
     0.00000000
     0.00000000
     0.00000000
     0.00000000
     0.00000000
     0.00000000
     0.00000000
     0.00000000
     0.00000000
     0.00000000
     0.00000000
     0.00000000
     0.00000000
     0.00000000
     0.00000000
     0.00000000
     0.00000000
     0.00000000
     0.00000000
     0.00000000
     0.00000000
     0.00000000
     0.00000000
     0.00000000
     0.00000000
     0.00000000
     0.00000000
     0.00000000
     0.00000000
     0.00000000
     0.00000000
     0.00000000
     0.00000000
     0.00000000
     0.00000000
     0.00000000
     0.00000000
     0.00000000
     0.00000000
     0.00000000
     0.00000000
     0.00000000
     0.00000000
     0.00000000
     0.00000000
     0.00000000
     0.00000000
     0.00000000
     0.00000000
     0.00000000
     0.00000000
     0.00000000
     0.00000000
     0.00000000
     0.00000000
     0.00000000
     0.00000000
     0.00000000
     0.00000000
     0.00000000
     0.00000000
     0.00000000
     0.00000000
     0.00000000
     0.00000000
     0.00000000
     0.00000000
     0.00000000
     0.00000000
     0.00000000
     0.00000000
     0.00000000
     0.00000000
     0.00000000
     0.00000000
     0.00000000
     0.00000000
     0.00000000
VECTORS ShearStress float 
    -0.00287660     0.00487781     0.00055495
    -0.02855024     0.02555302     0.00345858
    -0.03625198     0.02029020     0.00216760
    -0.03693798     0.01186673     0.00146036
    -0.03510237     0.00394472     0.00027396
    -0.03173358    -0.00265794    -0.00060146
    -0.02459855    -0.01102373    -0.00173046
    -0.02259690    -0.01508760    -0.00177673
    -0.02347891    -0.01135567     0.00089141
    -0.00009515     0.02109961     0.00204487
     0.00000000     0.00000000     0.00000000
     0.00000000     0.00000000     0.00000000
     0.00000000     0.00000000     0.00000000
     0.00000000     0.00000000     0.00000000
     0.00000000     0.00000000     0.00000000
     0.00000000     0.00000000     0.00000000
     0.00000000     0.00000000     0.00000000
     0.00000000     0.00000000     0.00000000
    -0.00015711     0.03230474     0.00233810
     0.00000000     0.00000000     0.00000000
     0.00000000     0.00000000     0.00000000
     0.00000000     0.00000000     0.00000000
     0.00000000     0.00000000     0.00000000
     0.00000000     0.00000000     0.00000000
     0.00000000     0.00000000     0.00000000
     0.00000000     0.00000000     0.00000000
     0.00000000     0.00000000     0.00000000
    -0.00011046     0.02354188     0.00287901
     0.00000000     0.00000000     0.00000000
     0.00000000     0.00000000     0.00000000
     0.00000000     0.00000000     0.00000000
     0.00000000     0.00000000     0.00000000
     0.00000000     0.00000000     0.00000000
     0.00000000     0.00000000     0.00000000
     0.00000000     0.00000000     0.00000000
     0.00000000     0.00000000     0.00000000
     0.00002194    -0.00376552     0.00248562
     0.00000000     0.00000000     0.00000000
     0.00000000     0.00000000     0.00000000
     0.00000000     0.00000000     0.00000000
     0.00000000     0.00000000     0.00000000
     0.00000000     0.00000000     0.00000000
     0.00000000     0.00000000     0.00000000
     0.00000000     0.00000000     0.00000000
     0.00000000     0.00000000     0.00000000
     0.00015514    -0.02964377     0.00109399
     0.00000000     0.00000000     0.00000000
     0.00000000     0.00000000     0.00000000
     0.00000000     0.00000000     0.00000000
     0.00000000     0.00000000     0.00000000
     0.00000000     0.00000000     0.00000000
     0.00000000     0.00000000     0.00000000
     0.00000000     0.00000000     0.00000000
    -0.02513841     0.00852832    -0.00627574
     0.00022867    -0.04444597     0.00123788
     0.00000000     0.00000000     0.00000000
     0.00000000     0.00000000     0.00000000
     0.00000000     0.00000000     0.00000000
     0.00000000     0.00000000     0.00000000
     0.00000000     0.00000000     0.00000000
     0.00000000     0.00000000     0.00000000
     0.00000000     0.00000000     0.00000000
     0.00000000     0.00000000     0.00000000
     0.00028003    -0.04790572     0.00135837
     0.00000000     0.00000000     0.00000000
     0.00000000     0.00000000     0.00000000
     0.00000000     0.00000000     0.00000000
     0.00000000     0.00000000     0.00000000
     0.00000000     0.00000000     0.00000000
     0.00000000     0.00000000     0.00000000
     0.00000000     0.00000000     0.00000000
     0.00000000     0.00000000     0.00000000
     0.00028519    -0.03903346     0.00152172
     0.00000000     0.00000000     0.00000000
     0.00000000     0.00000000     0.00000000
     0.00000000     0.00000000     0.00000000
     0.00000000     0.00000000     0.00000000
     0.00000000     0.00000000     0.00000000
     0.00000000     0.00000000     0.00000000
     0.00000000     0.00000000     0.00000000
     0.00000000     0.00000000     0.00000000
     0.00021158    -0.02134782     0.00117053
     0.00000000     0.00000000     0.00000000
     0.00000000     0.00000000     0.00000000
     0.00000000     0.00000000     0.00000000
     0.00000000     0.00000000     0.00000000
     0.00000000     0.00000000     0.00000000
     0.00000000     0.00000000     0.00000000
     0.00000000     0.00000000     0.00000000
     0.00000000     0.00000000     0.00000000
    -0.00261578    -0.00467604     0.00032187
    -0.02614464    -0.02418923     0.00202910
    -0.03295206    -0.01904183     0.00068334
    -0.03445807    -0.01156821     0.00032427
    -0.03226433    -0.00406484    -0.00030640
    -0.02727139     0.00207021    -0.00062408
    -0.02086971     0.01161366    -0.00058331
    -0.02123517     0.01617305     0.00005635
    -0.02174316     0.01171479     0.00067283
    -0.00245083     0.00450329     0.00252236
    -0.02445743     0.02425249     0.01551109
    -0.03237097     0.01983739     0.01081997
    -0.03228725     0.01153397     0.00733991
    -0.02938795     0.00359733     0.00162240
    -0.02529026    -0.00251948    -0.00286052
    -0.01976265    -0.00991276    -0.00795282
    -0.01985292    -0.01464589    -0.00862853
    -0.02463534    -0.01227510     0.00297596
    -0.00007143     0.01882672     0.00906973
     0.00000000     0.00000000     0.00000000
     0.00000000     0.00000000     0.00000000
     0.00000000     0.00000000     0.00000000
     0.00000000     0.00000000     0.00000000
     0.00000000     0.00000000     0.00000000
     0.00000000     0.00000000     0.00000000
     0.00000000     0.00000000     0.00000000
     0.00000000     0.00000000     0.00000000
    -0.00011674     0.02893239     0.01055800
     0.00000000     0.00000000     0.00000000
     0.00000000     0.00000000     0.00000000
     0.00000000     0.00000000     0.00000000
     0.00000000     0.00000000     0.00000000
     0.00000000     0.00000000     0.00000000
     0.00000000     0.00000000     0.00000000
     0.00000000     0.00000000     0.00000000
     0.00000000     0.00000000     0.00000000
    -0.00008630     0.02163515     0.01274607
     0.00000000     0.00000000     0.00000000
     0.00000000     0.00000000     0.00000000
     0.00000000     0.00000000     0.00000000
     0.00000000     0.00000000     0.00000000
     0.00000000     0.00000000     0.00000000
     0.00000000     0.00000000     0.00000000
     0.00000000     0.00000000     0.00000000
     0.00000000     0.00000000     0.00000000
     0.00001662    -0.00084546     0.01082416
     0.00000000     0.00000000     0.00000000
     0.00000000     0.00000000     0.00000000
     0.00000000     0.00000000     0.00000000
     0.00000000     0.00000000     0.00000000
     0.00000000     0.00000000     0.00000000
     0.00000000     0.00000000     0.00000000
     0.00000000     0.00000000     0.00000000
     0.00000000     0.00000000     0.00000000
     0.00013929    -0.02552380     0.00491712
     0.00000000     0.00000000     0.00000000
     0.00000000     0.00000000     0.00000000
     0.00000000     0.00000000     0.00000000
     0.00000000     0.00000000     0.00000000
     0.00000000     0.00000000     0.00000000
     0.00000000     0.00000000     0.00000000
     0.00000000     0.00000000     0.00000000
    -0.01357018     0.00477709    -0.02911830
     0.00021148    -0.04160002     0.00543396
     0.00000000     0.00000000     0.00000000
     0.00000000     0.00000000     0.00000000
     0.00000000     0.00000000     0.00000000
     0.00000000     0.00000000     0.00000000
     0.00000000     0.00000000     0.00000000
     0.00000000     0.00000000     0.00000000
     0.00000000     0.00000000     0.00000000
     0.00000000     0.00000000     0.00000000
     0.00026290    -0.04501596     0.00603529
     0.00000000     0.00000000     0.00000000
     0.00000000     0.00000000     0.00000000
     0.00000000     0.00000000     0.00000000
     0.00000000     0.00000000     0.00000000
     0.00000000     0.00000000     0.00000000
     0.00000000     0.00000000     0.00000000
     0.00000000     0.00000000     0.00000000
     0.00000000     0.00000000     0.00000000
     0.00028172    -0.03658866     0.00677651
     0.00000000     0.00000000     0.00000000
     0.00000000     0.00000000     0.00000000
     0.00000000     0.00000000     0.00000000
     0.00000000     0.00000000     0.00000000
     0.00000000     0.00000000     0.00000000
     0.00000000     0.00000000     0.00000000
     0.00000000     0.00000000     0.00000000
     0.00000000     0.00000000     0.00000000
     0.00020198    -0.01970949     0.00522960
     0.00000000     0.00000000     0.00000000
     0.00000000     0.00000000     0.00000000
     0.00000000     0.00000000     0.00000000
     0.00000000     0.00000000     0.00000000
     0.00000000     0.00000000     0.00000000
     0.00000000     0.00000000     0.00000000
     0.00000000     0.00000000     0.00000000
     0.00000000     0.00000000     0.00000000
    -0.00240939    -0.00448595     0.00143718
    -0.02433541    -0.02394442     0.00863696
    -0.03271689    -0.01958234     0.00327831
    -0.03504875    -0.01207734     0.00127385
    -0.03320648    -0.00406905    -0.00127608
    -0.02851385     0.00253037    -0.00255441
    -0.02189385     0.01249675    -0.00220354
    -0.02277536     0.01766914     0.00076327
    -0.02408891     0.01321292     0.00425776
    -0.00176807     0.00414906     0.00408201
    -0.01755716     0.02396582     0.02645773
    -0.02294080     0.01921516     0.02007470
    -0.02151046     0.01071105     0.01198843
    -0.01772965     0.00238140     0.00083965
    -0.01382452    -0.00335696    -0.00767623
    -0.01102764    -0.00866325    -0.01350395
    -0.01253850    -0.01375600    -0.01782740
    -0.01778091    -0.01059169     0.00029201
    -0.00002869     0.01537082     0.01326593
     0.00000000     0.00000000     0.00000000
     0.00000000     0.00000000     0.00000000
     0.00000000     0.00000000     0.00000000
     0.00000000     0.00000000     0.00000000
     0.00000000     0.00000000     0.00000000
     0.00000000     0.00000000     0.00000000
     0.00000000     0.00000000     0.00000000
     0.00000000     0.00000000     0.00000000
    -0.00004957     0.02253865     0.01675961
     0.00000000     0.00000000     0.00000000
     0.00000000     0.00000000     0.00000000
     0.00000000     0.00000000     0.00000000
     0.00000000     0.00000000     0.00000000
     0.00000000     0.00000000     0.00000000
     0.00000000     0.00000000     0.00000000
     0.00000000     0.00000000     0.00000000
     0.00000000     0.00000000     0.00000000
    -0.00005160     0.01662598     0.01873651
     0.00000000     0.00000000     0.00000000
     0.00000000     0.00000000     0.00000000
     0.00000000     0.00000000     0.00000000
     0.00000000     0.00000000     0.00000000
     0.00000000     0.00000000     0.00000000
     0.00000000     0.00000000     0.00000000
     0.00000000     0.00000000     0.00000000
     0.00000000     0.00000000     0.00000000
     0.00003500    -0.00174667     0.01495093
     0.00000000     0.00000000     0.00000000
     0.00000000     0.00000000     0.00000000
     0.00000000     0.00000000     0.00000000
     0.00000000     0.00000000     0.00000000
     0.00000000     0.00000000     0.00000000
     0.00000000     0.00000000     0.00000000
     0.00000000     0.00000000     0.00000000
     0.00000000     0.00000000     0.00000000
     0.00014319    -0.02260379     0.00809812
     0.00000000     0.00000000     0.00000000
     0.00000000     0.00000000     0.00000000
     0.00000000     0.00000000     0.00000000
     0.00000000     0.00000000     0.00000000
     0.00000000     0.00000000     0.00000000
     0.00000000     0.00000000     0.00000000
     0.00000000     0.00000000     0.00000000
     0.00821513    -0.00268756    -0.05060443
     0.00019279    -0.03665005     0.00796932
     0.00000000     0.00000000     0.00000000
     0.00000000     0.00000000     0.00000000
     0.00000000     0.00000000     0.00000000
     0.00000000     0.00000000     0.00000000
     0.00000000     0.00000000     0.00000000
     0.00000000     0.00000000     0.00000000
     0.00000000     0.00000000     0.00000000
     0.00000000     0.00000000     0.00000000
     0.00022675    -0.03986246     0.00922130
     0.00000000     0.00000000     0.00000000
     0.00000000     0.00000000     0.00000000
     0.00000000     0.00000000     0.00000000
     0.00000000     0.00000000     0.00000000
     0.00000000     0.00000000     0.00000000
     0.00000000     0.00000000     0.00000000
     0.00000000     0.00000000     0.00000000
     0.00000000     0.00000000     0.00000000
     0.00027340    -0.03306108     0.01028559
     0.00000000     0.00000000     0.00000000
     0.00000000     0.00000000     0.00000000
     0.00000000     0.00000000     0.00000000
     0.00000000     0.00000000     0.00000000
     0.00000000     0.00000000     0.00000000
     0.00000000     0.00000000     0.00000000
     0.00000000     0.00000000     0.00000000
     0.00000000     0.00000000     0.00000000
     0.00019673    -0.01847040     0.00820417
     0.00000000     0.00000000     0.00000000
     0.00000000     0.00000000     0.00000000
     0.00000000     0.00000000     0.00000000
     0.00000000     0.00000000     0.00000000
     0.00000000     0.00000000     0.00000000
     0.00000000     0.00000000     0.00000000
     0.00000000     0.00000000     0.00000000
     0.00000000     0.00000000     0.00000000
    -0.00233310    -0.00482300     0.00254702
    -0.02368432    -0.02765324     0.01637142
    -0.03264399    -0.02231885     0.00874667
    -0.03610928    -0.01399543     0.00445783
    -0.03553760    -0.00484822     0.00039607
    -0.03186465     0.00333988    -0.00304008
    -0.02448423     0.01470814    -0.00358180
    -0.02481045     0.02066167     0.00163843
    -0.02876710     0.01627044     0.01112649
    -0.00071281     0.00330605     0.00466223
    -0.00690565     0.02112943     0.03193897
    -0.00838526     0.01542811     0.02282750
    -0.00673020     0.00771453     0.01192054
    -0.00640585    -0.00036954    -0.00248013
    -0.00772997    -0.00611277    -0.01192491
    -0.00954865    -0.01110260    -0.01528835
    -0.01011584    -0.01770319    -0.02358208
    -0.00471588    -0.00764585    -0.01079433
     0.00000921     0.00975267     0.01243784
     0.00000000     0.00000000     0.00000000
     0.00000000     0.00000000     0.00000000
     0.00000000     0.00000000     0.00000000
     0.00000000     0.00000000     0.00000000
     0.00000000     0.00000000     0.00000000
     0.00000000     0.00000000     0.00000000
     0.00000000     0.00000000     0.00000000
     0.00000000     0.00000000     0.00000000
    -0.00001614     0.01335373     0.01772451
     0.00000000     0.00000000     0.00000000
     0.00000000     0.00000000     0.00000000
     0.00000000     0.00000000     0.00000000
     0.00000000     0.00000000     0.00000000
     0.00000000     0.00000000     0.00000000
     0.00000000     0.00000000     0.00000000
     0.00000000     0.00000000     0.00000000
     0.00000000     0.00000000     0.00000000
    -0.00001085     0.00933151     0.01989471
     0.00000000     0.00000000     0.00000000
     0.00000000     0.00000000     0.00000000
     0.00000000     0.00000000     0.00000000
     0.00000000     0.00000000     0.00000000
     0.00000000     0.00000000     0.00000000
     0.00000000     0.00000000     0.00000000
     0.00000000     0.00000000     0.00000000
     0.00000000     0.00000000     0.00000000
     0.00006668    -0.00316980     0.01684061
     0.00000000     0.00000000     0.00000000
     0.00000000     0.00000000     0.00000000
     0.00000000     0.00000000     0.00000000
     0.00000000     0.00000000     0.00000000
     0.00000000     0.00000000     0.00000000
     0.00000000     0.00000000     0.00000000
     0.00000000     0.00000000     0.00000000
     0.00000000     0.00000000     0.00000000
     0.00014574    -0.01834800     0.01114411
     0.00000000     0.00000000     0.00000000
     0.00000000     0.00000000     0.00000000
     0.00000000     0.00000000     0.00000000
     0.00000000     0.00000000     0.00000000
     0.00000000     0.00000000     0.00000000
     0.00000000     0.00000000     0.00000000
     0.00000000     0.00000000     0.00000000
     0.02651715    -0.00819356    -0.05279562
     0.00019641    -0.02871177     0.01076951
     0.00000000     0.00000000     0.00000000
     0.00000000     0.00000000     0.00000000
     0.00000000     0.00000000     0.00000000
     0.00000000     0.00000000     0.00000000
     0.00000000     0.00000000     0.00000000
     0.00000000     0.00000000     0.00000000
     0.00000000     0.00000000     0.00000000
     0.00000000     0.00000000     0.00000000
     0.00018972    -0.03139839     0.01191413
     0.00000000     0.00000000     0.00000000
     0.00000000     0.00000000     0.00000000
     0.00000000     0.00000000     0.00000000
     0.00000000     0.00000000     0.00000000
     0.00000000     0.00000000     0.00000000
     0.00000000     0.00000000     0.00000000
     0.00000000     0.00000000     0.00000000
     0.00000000     0.00000000     0.00000000
     0.00021205    -0.02682585     0.01239735
     0.00000000     0.00000000     0.00000000
     0.00000000     0.00000000     0.00000000
     0.00000000     0.00000000     0.00000000
     0.00000000     0.00000000     0.00000000
     0.00000000     0.00000000     0.00000000
     0.00000000     0.00000000     0.00000000
     0.00000000     0.00000000     0.00000000
     0.00000000     0.00000000     0.00000000
     0.00017243    -0.01545105     0.00925607
     0.00000000     0.00000000     0.00000000
     0.00000000     0.00000000     0.00000000
     0.00000000     0.00000000     0.00000000
     0.00000000     0.00000000     0.00000000
     0.00000000     0.00000000     0.00000000
     0.00000000     0.00000000     0.00000000
     0.00000000     0.00000000     0.00000000
     0.00000000     0.00000000     0.00000000
    -0.00201556    -0.00510719     0.00354779
    -0.02060374    -0.03242678     0.02471692
    -0.02924987    -0.02629629     0.01638184
    -0.03369660    -0.01790544     0.01165328
    -0.03448632    -0.00771763     0.00620856
    -0.03223507     0.00243230     0.00049107
    -0.02481293     0.01659589    -0.00506362
    -0.02536170     0.02544985    -0.00239082
    -0.03340293     0.01936585     0.01988715
     0.00044603     0.00199561     0.00422278
     0.00513480     0.01391947     0.03063821
     0.00934590     0.00457661     0.01747357
     0.00746234    -0.00043529     0.00437310
     0.00186837    -0.00531774    -0.00751432
    -0.00320584    -0.00935042    -0.01378984
    -0.00902852    -0.01241937    -0.01227007
    -0.01284546    -0.02390560    -0.01974666
     0.00606541    -0.00633625    -0.02170641
     0.00000625     0.00371967     0.00726622
     0.00000000     0.00000000     0.00000000
     0.00000000     0.00000000     0.00000000
     0.00000000     0.00000000     0.00000000
     0.00000000     0.00000000     0.00000000
     0.00000000     0.00000000     0.00000000
     0.00000000     0.00000000     0.00000000
     0.00000000     0.00000000     0.00000000
     0.00000000     0.00000000     0.00000000
     0.00000156     0.00489583     0.01148539
     0.00000000     0.00000000     0.00000000
     0.00000000     0.00000000     0.00000000
     0.00000000     0.00000000     0.00000000
     0.00000000     0.00000000     0.00000000
     0.00000000     0.00000000     0.00000000
     0.00000000     0.00000000     0.00000000
     0.00000000     0.00000000     0.00000000
     0.00000000     0.00000000     0.00000000
     0.00002555     0.00377205     0.01393978
     0.00000000     0.00000000     0.00000000
     0.00000000     0.00000000     0.00000000
     0.00000000     0.00000000     0.00000000
     0.00000000     0.00000000     0.00000000
     0.00000000     0.00000000     0.00000000
     0.00000000     0.00000000     0.00000000
     0.00000000     0.00000000     0.00000000
     0.00000000     0.00000000     0.00000000
     0.00005885    -0.00102744     0.01314367
     0.00000000     0.00000000     0.00000000
     0.00000000     0.00000000     0.00000000
     0.00000000     0.00000000     0.00000000
     0.00000000     0.00000000     0.00000000
     0.00000000     0.00000000     0.00000000
     0.00000000     0.00000000     0.00000000
     0.00000000     0.00000000     0.00000000
     0.00000000     0.00000000     0.00000000
     0.00009712    -0.00824260     0.01046532
     0.00000000     0.00000000     0.00000000
     0.00000000     0.00000000     0.00000000
     0.00000000     0.00000000     0.00000000
     0.00000000     0.00000000     0.00000000
     0.00000000     0.00000000     0.00000000
     0.00000000     0.00000000     0.00000000
     0.00000000     0.00000000     0.00000000
     0.02459112    -0.00355539    -0.04035953
     0.00013634    -0.01438035     0.00978562
     0.00000000     0.00000000     0.00000000
     0.00000000     0.00000000     0.00000000
     0.00000000     0.00000000     0.00000000
     0.00000000     0.00000000     0.00000000
     0.00000000     0.00000000     0.00000000
     0.00000000     0.00000000     0.00000000
     0.00000000     0.00000000     0.00000000
     0.00000000     0.00000000     0.00000000
     0.00014363    -0.01711159     0.01012876
     0.00000000     0.00000000     0.00000000
     0.00000000     0.00000000     0.00000000
     0.00000000     0.00000000     0.00000000
     0.00000000     0.00000000     0.00000000
     0.00000000     0.00000000     0.00000000
     0.00000000     0.00000000     0.00000000
     0.00000000     0.00000000     0.00000000
     0.00000000     0.00000000     0.00000000
     0.00012236    -0.01550981     0.00962799
     0.00000000     0.00000000     0.00000000
     0.00000000     0.00000000     0.00000000
     0.00000000     0.00000000     0.00000000
     0.00000000     0.00000000     0.00000000
     0.00000000     0.00000000     0.00000000
     0.00000000     0.00000000     0.00000000
     0.00000000     0.00000000     0.00000000
     0.00000000     0.00000000     0.00000000
     0.00009553    -0.00932633     0.00674203
     0.00000000     0.00000000     0.00000000
     0.00000000     0.00000000     0.00000000
     0.00000000     0.00000000     0.00000000
     0.00000000     0.00000000     0.00000000
     0.00000000     0.00000000     0.00000000
     0.00000000     0.00000000     0.00000000
     0.00000000     0.00000000     0.00000000
     0.00000000     0.00000000     0.00000000
    -0.00131789    -0.00494355     0.00408191
    -0.01322614    -0.03522748     0.03116439
    -0.01807001    -0.02811564     0.02361962
    -0.02237200    -0.02229565     0.02034051
    -0.02816976    -0.01367577     0.01445636
    -0.02922411    -0.00205962     0.00749360
    -0.02240515     0.01381543    -0.00095829
    -0.01941477     0.02921231    -0.01298387
    -0.03245071     0.02199019     0.02100261
     0.00048807     0.00101697     0.00211833
     0.00398525     0.00637812     0.01311264
     0.00585394     0.00162366     0.00715134
     0.00442933    -0.00085356     0.00137036
     0.00136444    -0.00329443    -0.00346208
    -0.00107920    -0.00540649    -0.00596163
    -0.00389040    -0.00655779    -0.00497756
    -0.00594791    -0.01459132    -0.00968682
     0.00432471    -0.00376837    -0.01289439
     0.00110383     0.00196589     0.00383783
     0.01110596     0.01446710     0.02659032
     0.01434173     0.00397031     0.01479555
     0.01089507    -0.00162618     0.00359437
     0.00478483    -0.00702399    -0.00521314
    -0.00008979    -0.01145853    -0.00969285
    -0.00534035    -0.01317019    -0.00822668
    -0.00814233    -0.02936461    -0.01764526
     0.01299247    -0.00961058    -0.03557736
     0.00146974     0.00159795     0.00382223
     0.01496368     0.01078903     0.02371451
     0.02077596     0.00247433     0.01633329
     0.01948469    -0.00050654     0.00750415
     0.01641242    -0.00256714     0.00062048
     0.01110614    -0.00387004    -0.00371175
     0.00483979    -0.00579829    -0.00588668
    -0.00060268    -0.01850760    -0.01399258
     0.02366195    -0.00698193    -0.05379090
     0.00168102     0.00104972     0.00372016
     0.01703543     0.00682155     0.02102650
     0.02402235     0.00224240     0.01693565
     0.02423126     0.00255178     0.01005565
     0.02166904     0.00320055     0.00383922
     0.01748825     0.00429621    -0.00051451
     0.00995202     0.00441315    -0.00322202
     0.00345850    -0.00553166    -0.01001042
     0.02880586    -0.00240093    -0.06205419
     0.00165563    -0.00014783     0.00324075
     0.01671904    -0.00056484     0.01733385
     0.02317769    -0.00080512     0.01480234
     0.02415211     0.00250760     0.00919106
     0.02245242     0.00602157     0.00375345
     0.01830003     0.00954618    -0.00048817
     0.01218459     0.01326023    -0.00386549
     0.00552125     0.01067512    -0.00817474
     0.02426932     0.00134148    -0.05343482
     0.00132902    -0.00177622     0.00259813
     0.01344243    -0.01003600     0.01378464
     0.01881109    -0.00663325     0.01195221
     0.02028951    -0.00144822     0.00722532
     0.01964151     0.00517981     0.00228295
     0.01606690     0.01267736    -0.00196632
     0.01023117     0.01962311    -0.00572947
     0.00536712     0.03035232    -0.01061853
     0.00621353     0.01506238    -0.01315471
     0.00100202    -0.00337252     0.00253676
     0.01000889    -0.01978329     0.01394942
     0.01330329    -0.01422680     0.01116260
     0.01327305    -0.00824264     0.00630303
     0.01265860     0.00093860     0.00134427
     0.01035092     0.01346570    -0.00377134
     0.00575572     0.02442086    -0.00792583
     0.00176038     0.04323579    -0.01418708
     0.01102101     0.05212187    -0.02620807
     0.00061963    -0.00462186     0.00289980
     0.00591383    -0.02867618     0.01704136
     0.00618561    -0.02184269     0.01233692
     0.00322473    -0.01609053     0.00730432
    -0.00004390    -0.00598321     0.00233597
    -0.00209843     0.01078484    -0.00374814
    -0.00377653     0.02767724    -0.00873558
    -0.00476339     0.04798973    -0.01584344
     0.00376253     0.05943073    -0.02811209
     0.00010087    -0.00535921     0.00335900
     0.00054247    -0.03605047     0.02173619
    -0.00192317    -0.02839521     0.01530958
    -0.00687034    -0.02288004     0.01078868
    -0.01302049    -0.01314385     0.00613114
    -0.01620588     0.00464578    -0.00052576
    -0.01079686     0.02414178    -0.00832284
    -0.00990493     0.04647996    -0.01664167
    -0.01546893     0.04977157    -0.00306292
    -0.00041667    -0.00528645     0.00369257
    -0.00482485    -0.03939867     0.02675314
    -0.01011271    -0.03226195     0.01891319
    -0.01577433    -0.02711080     0.01569759
    -0.02370305    -0.01763205     0.01116569
    -0.02626295    -0.00280479     0.00604801
    -0.01901850     0.01528090    -0.00073616
    -0.01428184     0.04096297    -0.01491430
    -0.03731507     0.03833297     0.02919742
    -0.00049565    -0.00268002     0.00208428
    -0.00392380    -0.01685462     0.01336114
    -0.00618095    -0.01381209     0.01003595
    -0.00848811    -0.01158702     0.00877824
    -0.01196939    -0.00763173     0.00645206
    -0.01327242    -0.00165684     0.00377041
    -0.01043538     0.00676830     0.00009573
    -0.00849964     0.01777041    -0.00751138
    -0.01630544     0.01306307     0.01214506
     0.01487696    -0.01349444     0.00236869
    -0.04474724    -0.03322525     0.00546590
    -0.08629375    -0.02302342     0.00121511
    -0.09280656    -0.02482322     0.00054140
    -0.09348295    -0.02507865    -0.00036860
    -0.08457616    -0.02276033    -0.00120441
    -0.06853652    -0.01852082    -0.00192185
    -0.04587087    -0.01247786    -0.00229302
    -0.02317191    -0.00637807    -0.00207577
    -0.00648210    -0.00182898    -0.00113035
     0.00044259    -0.00383670    -0.00012574
     0.00000000     0.00000000     0.00000000
     0.00000000     0.00000000     0.00000000
     0.00000000     0.00000000     0.00000000
     0.00000000     0.00000000     0.00000000
     0.00000000     0.00000000     0.00000000
     0.00000000     0.00000000     0.00000000
     0.00000000     0.00000000     0.00000000
     0.00000000     0.00000000     0.00000000
     0.00000000     0.00000000     0.00000000
     0.00000000     0.00000000     0.00000000
     0.01199182    -0.04475426     0.00036917
     0.00000000     0.00000000     0.00000000
     0.00000000     0.00000000     0.00000000
     0.00000000     0.00000000     0.00000000
     0.00000000     0.00000000     0.00000000
     0.00000000     0.00000000     0.00000000
     0.00000000     0.00000000     0.00000000
     0.00000000     0.00000000     0.00000000
     0.00000000     0.00000000     0.00000000
     0.00000000     0.00000000     0.00000000
     0.00000000     0.00000000     0.00000000
     0.04007061    -0.14954507     0.00404435
     0.00000000     0.00000000     0.00000000
     0.00000000     0.00000000     0.00000000
     0.00000000     0.00000000     0.00000000
     0.00000000     0.00000000     0.00000000
     0.00000000     0.00000000     0.00000000
     0.00000000     0.00000000     0.00000000
     0.00000000     0.00000000     0.00000000
     0.00000000     0.00000000     0.00000000
     0.00000000     0.00000000     0.00000000
     0.00000000     0.00000000     0.00000000
     0.04894941    -0.18268105     0.00846334
     0.00000000     0.00000000     0.00000000
     0.00000000     0.00000000     0.00000000
     0.00000000     0.00000000     0.00000000
     0.00000000     0.00000000     0.00000000
     0.00000000     0.00000000     0.00000000
     0.00000000     0.00000000     0.00000000
     0.00000000     0.00000000     0.00000000
     0.00000000     0.00000000     0.00000000
     0.00000000     0.00000000     0.00000000
     0.00000000     0.00000000     0.00000000
     0.02116635    -0.07899388     0.00958838
    -0.05930524     0.04452320    -0.00147831
    -0.01173371     0.03166885    -0.00426943
     0.06420964     0.01752963    -0.00398948
     0.09924110     0.02682660    -0.00288162
     0.12222675     0.03283544    -0.00104133
     0.12851696     0.03436709     0.00084584
     0.11851302     0.03154575     0.00257715
     0.09446019     0.02496913     0.00419122
     0.05981509     0.01554961     0.00586474
     0.02203364     0.00543166     0.00579700
     0.00410557    -0.00707734     0.00181806
    -0.01244229    -0.01620420     0.00845048
    -0.04525472    -0.03099350     0.01678557
    -0.08636628    -0.02230338     0.00427002
    -0.09533217    -0.02510662     0.00218493
    -0.09635240    -0.02575147     0.00043737
    -0.08858322    -0.02403656    -0.00132668
    -0.07143086    -0.01969195    -0.00246141
    -0.04837998    -0.01368999    -0.00329344
    -0.02394873    -0.00713754    -0.00335368
    -0.00703891    -0.00234027    -0.00219068
     0.00031120    -0.00365084    -0.00028016
     0.00000000     0.00000000     0.00000000
     0.00000000     0.00000000     0.00000000
     0.00000000     0.00000000     0.00000000
     0.00000000     0.00000000     0.00000000
     0.00000000     0.00000000     0.00000000
     0.00000000     0.00000000     0.00000000
     0.00000000     0.00000000     0.00000000
     0.00000000     0.00000000     0.00000000
     0.00000000     0.00000000     0.00000000
     0.00000000     0.00000000     0.00000000
     0.01125134    -0.04199032     0.00158143
     0.00000000     0.00000000     0.00000000
     0.00000000     0.00000000     0.00000000
     0.00000000     0.00000000     0.00000000
     0.00000000     0.00000000     0.00000000
     0.00000000     0.00000000     0.00000000
     0.00000000     0.00000000     0.00000000
     0.00000000     0.00000000     0.00000000
     0.00000000     0.00000000     0.00000000
     0.00000000     0.00000000     0.00000000
     0.00000000     0.00000000     0.00000000
     0.03799782    -0.14181001     0.01832173
     0.00000000     0.00000000     0.00000000
     0.00000000     0.00000000     0.00000000
     0.00000000     0.00000000     0.00000000
     0.00000000     0.00000000     0.00000000
     0.00000000     0.00000000     0.00000000
     0.00000000     0.00000000     0.00000000
     0.00000000     0.00000000     0.00000000
     0.00000000     0.00000000     0.00000000
     0.00000000     0.00000000     0.00000000
     0.00000000     0.00000000     0.00000000
     0.04701367    -0.17545741     0.03897836
     0.00000000     0.00000000     0.00000000
     0.00000000     0.00000000     0.00000000
     0.00000000     0.00000000     0.00000000
     0.00000000     0.00000000     0.00000000
     0.00000000     0.00000000     0.00000000
     0.00000000     0.00000000     0.00000000
     0.00000000     0.00000000     0.00000000
     0.00000000     0.00000000     0.00000000
     0.00000000     0.00000000     0.00000000
     0.00000000     0.00000000     0.00000000
     0.02115042    -0.07893487     0.04403019
    -0.06695565     0.05096230    -0.00172874
    -0.01395190     0.03514824    -0.00915601
     0.06674155     0.01949669    -0.00760775
     0.10545903     0.02925768    -0.00467835
     0.12928751     0.03467748     0.00015819
     0.13539658     0.03541811     0.00460895
     0.12397938     0.03147383     0.00910408
     0.09852854     0.02367715     0.01418744
     0.06200892     0.01263214     0.02101207
     0.02337695     0.00216116     0.02195136
     0.00428383    -0.00757815     0.00781614
    -0.00938649    -0.02046880     0.01578545
    -0.04319490    -0.02130488     0.02913247
    -0.08492626    -0.01852547     0.01173759
    -0.09855951    -0.02369158     0.00747429
    -0.10448869    -0.02678578     0.00333640
    -0.09753927    -0.02644440    -0.00088067
    -0.08056945    -0.02291803    -0.00361869
    -0.05411356    -0.01664961    -0.00588776
    -0.02707133    -0.00950122    -0.00618269
    -0.00732829    -0.00350856    -0.00429918
     0.00016995    -0.00321690    -0.00062764
     0.00000000     0.00000000     0.00000000
     0.00000000     0.00000000     0.00000000
     0.00000000     0.00000000     0.00000000
     0.00000000     0.00000000     0.00000000
     0.00000000     0.00000000     0.00000000
     0.00000000     0.00000000     0.00000000
     0.00000000     0.00000000     0.00000000
     0.00000000     0.00000000     0.00000000
     0.00000000     0.00000000     0.00000000
     0.00000000     0.00000000     0.00000000
     0.00933729    -0.03484682     0.00176032
     0.00000000     0.00000000     0.00000000
     0.00000000     0.00000000     0.00000000
     0.00000000     0.00000000     0.00000000
     0.00000000     0.00000000     0.00000000
     0.00000000     0.00000000     0.00000000
     0.00000000     0.00000000     0.00000000
     0.00000000     0.00000000     0.00000000
     0.00000000     0.00000000     0.00000000
     0.00000000     0.00000000     0.00000000
     0.00000000     0.00000000     0.00000000
     0.03131021    -0.11685120     0.02882744
     0.00000000     0.00000000     0.00000000
     0.00000000     0.00000000     0.00000000
     0.00000000     0.00000000     0.00000000
     0.00000000     0.00000000     0.00000000
     0.00000000     0.00000000     0.00000000
     0.00000000     0.00000000     0.00000000
     0.00000000     0.00000000     0.00000000
     0.00000000     0.00000000     0.00000000
     0.00000000     0.00000000     0.00000000
     0.00000000     0.00000000     0.00000000
     0.04059754    -0.15151239     0.06627340
     0.00000000     0.00000000     0.00000000
     0.00000000     0.00000000     0.00000000
     0.00000000     0.00000000     0.00000000
     0.00000000     0.00000000     0.00000000
     0.00000000     0.00000000     0.00000000
     0.00000000     0.00000000     0.00000000
     0.00000000     0.00000000     0.00000000
     0.00000000     0.00000000     0.00000000
     0.00000000     0.00000000     0.00000000
     0.00000000     0.00000000     0.00000000
     0.02052808    -0.07661153     0.07437011
    -0.08279397     0.06541350    -0.00215865
    -0.01799582     0.04649255    -0.02119634
     0.07857974     0.02739706    -0.01755379
     0.12404718     0.03629396    -0.00849850
     0.14939982     0.03929074     0.00210237
     0.15236129     0.03687166     0.01104682
     0.13539927     0.02919357     0.01985602
     0.10272435     0.01677661     0.03027376
     0.06141920     0.00132303     0.04300745
     0.02279168    -0.00852891     0.04194650
     0.00424189    -0.00890477     0.01373529
    -0.00026439    -0.01950877     0.00108412
    -0.03107105     0.00097356     0.03166741
    -0.07550517    -0.00648039     0.02510759
    -0.09925451    -0.01672005     0.01795245
    -0.11160230    -0.02414276     0.01040454
    -0.11100126    -0.02770717     0.00363262
    -0.09333341    -0.02615762    -0.00214532
    -0.06390397    -0.02030803    -0.00582990
    -0.03086811    -0.01220962    -0.00721267
    -0.00842457    -0.00514129    -0.00531189
    -0.00021108    -0.00233850    -0.00085075
     0.00000000     0.00000000     0.00000000
     0.00000000     0.00000000     0.00000000
     0.00000000     0.00000000     0.00000000
     0.00000000     0.00000000     0.00000000
     0.00000000     0.00000000     0.00000000
     0.00000000     0.00000000     0.00000000
     0.00000000     0.00000000     0.00000000
     0.00000000     0.00000000     0.00000000
     0.00000000     0.00000000     0.00000000
     0.00000000     0.00000000     0.00000000
     0.00595389    -0.02221986     0.00036228
     0.00000000     0.00000000     0.00000000
     0.00000000     0.00000000     0.00000000
     0.00000000     0.00000000     0.00000000
     0.00000000     0.00000000     0.00000000
     0.00000000     0.00000000     0.00000000
     0.00000000     0.00000000     0.00000000
     0.00000000     0.00000000     0.00000000
     0.00000000     0.00000000     0.00000000
     0.00000000     0.00000000     0.00000000
     0.00000000     0.00000000     0.00000000
     0.02049819    -0.07649901     0.02350845
     0.00000000     0.00000000     0.00000000
     0.00000000     0.00000000     0.00000000
     0.00000000     0.00000000     0.00000000
     0.00000000     0.00000000     0.00000000
     0.00000000     0.00000000     0.00000000
     0.00000000     0.00000000     0.00000000
     0.00000000     0.00000000     0.00000000
     0.00000000     0.00000000     0.00000000
     0.00000000     0.00000000     0.00000000
     0.00000000     0.00000000     0.00000000
     0.02863966    -0.10688446     0.05995996
     0.00000000     0.00000000     0.00000000
     0.00000000     0.00000000     0.00000000
     0.00000000     0.00000000     0.00000000
     0.00000000     0.00000000     0.00000000
     0.00000000     0.00000000     0.00000000
     0.00000000     0.00000000     0.00000000
     0.00000000     0.00000000     0.00000000
     0.00000000     0.00000000     0.00000000
     0.00000000     0.00000000     0.00000000
     0.00000000     0.00000000     0.00000000
     0.01749360    -0.06528652     0.07085731
    -0.09475945     0.07675025     0.00301117
    -0.01449419     0.06142377    -0.03869228
     0.10105088     0.03966472    -0.02322294
     0.15261797     0.04423885    -0.00633108
     0.17463321     0.04178284     0.00900628
     0.16635339     0.03267262     0.02166531
     0.13225834     0.01713734     0.03351019
     0.08531492    -0.00285107     0.04733722
     0.04126993    -0.02145624     0.06026127
     0.01453047    -0.02406159     0.05210957
     0.00324581    -0.00984184     0.01447847
     0.00946298    -0.01714835    -0.02035968
    -0.01886202     0.01673155     0.02508313
    -0.06039994     0.00998872     0.03411202
    -0.08166742    -0.00213868     0.02564357
    -0.10751569    -0.01502001     0.01787299
    -0.11357813    -0.02395153     0.00836206
    -0.10134930    -0.02600815     0.00142811
    -0.06961660    -0.02178831    -0.00413044
    -0.03288136    -0.01359011    -0.00626325
    -0.00748689    -0.00558069    -0.00469684
    -0.00035345    -0.00127460    -0.00079156
     0.00000000     0.00000000     0.00000000
     0.00000000     0.00000000     0.00000000
     0.00000000     0.00000000     0.00000000
     0.00000000     0.00000000     0.00000000
     0.00000000     0.00000000     0.00000000
     0.00000000     0.00000000     0.00000000
     0.00000000     0.00000000     0.00000000
     0.00000000     0.00000000     0.00000000
     0.00000000     0.00000000     0.00000000
     0.00000000     0.00000000     0.00000000
     0.00240424    -0.00897270    -0.00129331
     0.00000000     0.00000000     0.00000000
     0.00000000     0.00000000     0.00000000
     0.00000000     0.00000000     0.00000000
     0.00000000     0.00000000     0.00000000
     0.00000000     0.00000000     0.00000000
     0.00000000     0.00000000     0.00000000
     0.00000000     0.00000000     0.00000000
     0.00000000     0.00000000     0.00000000
     0.00000000     0.00000000     0.00000000
     0.00000000     0.00000000     0.00000000
     0.00881367    -0.03289263     0.00772901
     0.00000000     0.00000000     0.00000000
     0.00000000     0.00000000     0.00000000
     0.00000000     0.00000000     0.00000000
     0.00000000     0.00000000     0.00000000
     0.00000000     0.00000000     0.00000000
     0.00000000     0.00000000     0.00000000
     0.00000000     0.00000000     0.00000000
     0.00000000     0.00000000     0.00000000
     0.00000000     0.00000000     0.00000000
     0.00000000     0.00000000     0.00000000
     0.01441695    -0.05380430     0.02564103
     0.00000000     0.00000000     0.00000000
     0.00000000     0.00000000     0.00000000
     0.00000000     0.00000000     0.00000000
     0.00000000     0.00000000     0.00000000
     0.00000000     0.00000000     0.00000000
     0.00000000     0.00000000     0.00000000
     0.00000000     0.00000000     0.00000000
     0.00000000     0.00000000     0.00000000
     0.00000000     0.00000000     0.00000000
     0.00000000     0.00000000     0.00000000
     0.01041292    -0.03886121     0.03644458
    -0.08750659     0.06232696     0.02689658
    -0.00423961     0.06429452    -0.04530674
     0.11342717     0.04146238    -0.01474349
     0.16384669     0.04083419     0.00375720
     0.17301483     0.03198157     0.01855805
     0.14162203     0.01481426     0.03006886
     0.08829065    -0.00699074     0.03997538
     0.03572972    -0.02904650     0.05056444
     0.00673682    -0.04162056     0.05708200
     0.00198982    -0.03338814     0.04473695
     0.00136761    -0.00812336     0.00954248
     0.00659415    -0.00978619    -0.01302836
    -0.01073295     0.01261183     0.01221760
    -0.03228877     0.01043935     0.01594444
    -0.04343199     0.00358723     0.01263955
    -0.05834484    -0.00513928     0.00874376
    -0.06191257    -0.01154502     0.00420279
    -0.05551980    -0.01416429     0.00063632
    -0.03793590    -0.01276399    -0.00211370
    -0.01767400    -0.00859592    -0.00316330
    -0.00377669    -0.00369432    -0.00221767
    -0.00032625    -0.00058699    -0.00037170
     0.02420692    -0.01865871    -0.03381183
    -0.03153023     0.04829431     0.02813098
    -0.08240679     0.03557387     0.02963952
    -0.11245735     0.01506007     0.02354782
    -0.14957774    -0.01231193     0.01510256
    -0.15871802    -0.03254548     0.00620279
    -0.14240463    -0.04292413    -0.00115045
    -0.09823208    -0.04106964    -0.00631488
    -0.04643829    -0.02975474    -0.00788768
    -0.01026780    -0.01349105    -0.00503610
    -0.00049483    -0.00222775    -0.00072235
     0.00433082     0.04955940    -0.01264713
    -0.02724236     0.11314860     0.00898574
    -0.04538497     0.05876116     0.01071125
    -0.07365405     0.01941102     0.00587942
    -0.10186094    -0.02071227     0.00125775
    -0.11547344    -0.05340766    -0.00292243
    -0.11064899    -0.07326504    -0.00585533
    -0.08532253    -0.07724795    -0.00731768
    -0.04667396    -0.06254133    -0.00663394
    -0.01277550    -0.03228426    -0.00372197
    -0.00016763    -0.00662049     0.00027811
    -0.02465316     0.08164052    -0.01389521
     0.01529550     0.16469127    -0.05533444
     0.05952677     0.09022428    -0.01111799
     0.06704560     0.04760722    -0.00454392
     0.03674328    -0.00247891     0.00188883
    -0.00302218    -0.04906485     0.00746819
    -0.03473466    -0.08389442     0.01187425
    -0.04232475    -0.09905517     0.01430651
    -0.02703972    -0.09029962     0.01398178
    -0.00446489    -0.05452351     0.00924081
     0.00129671    -0.01146842     0.00350907
    -0.10214084     0.08895722     0.04221156
     0.00462560     0.12849249    -0.05932492
     0.14966279     0.07277746    -0.01526431
     0.21498516     0.05682011     0.00166674
     0.22131076     0.02841517     0.01661719
     0.17324506    -0.00669141     0.02756161
     0.10017700    -0.04444836     0.03657269
     0.03387703    -0.07621020     0.04392744
     0.00346496    -0.08893738     0.04673133
     0.00339373    -0.06521991     0.03475208
     0.00157420    -0.01149001     0.00767466
    -0.04464843     0.03271604     0.01780763
     0.00037637     0.04026436    -0.02370253
     0.06189451     0.02456410    -0.00656882
     0.08961177     0.02149353     0.00215295
     0.09393961     0.01386304     0.00940222
     0.07523231     0.00241180     0.01473923
     0.04502475    -0.01107429     0.01921662
     0.01637348    -0.02378326     0.02345496
     0.00217125    -0.03003864     0.02555304
     0.00110199    -0.02295973     0.01944153
     0.00035371    -0.00411387     0.00357796
     0.00152245    -0.00072073     0.00383832
    -0.04884589     0.01274769     0.00418177
    -0.08555059     0.02277626     0.00181062
    -0.09811936     0.02626373     0.00033228
    -0.08801141     0.02364614    -0.00078417
    -0.05622191     0.01518442    -0.00147265
    -0.01858632     0.00506982    -0.00109996
     0.00078772     0.00579501     0.00015384
     0.00000000     0.00000000     0.00000000
     0.00000000     0.00000000     0.00000000
     0.00000000     0.00000000     0.00000000
     0.00000000     0.00000000     0.00000000
     0.00000000     0.00000000     0.00000000
     0.00000000     0.00000000     0.00000000
     0.00000000     0.00000000     0.00000000
     0.00000000     0.00000000     0.00000000
     0.01504873     0.05616202     0.00277555
     0.00000000     0.00000000     0.00000000
     0.00000000     0.00000000     0.00000000
     0.00000000     0.00000000     0.00000000
     0.00000000     0.00000000     0.00000000
     0.00000000     0.00000000     0.00000000
     0.00000000     0.00000000     0.00000000
     0.00000000     0.00000000     0.00000000
     0.00000000     0.00000000     0.00000000
     0.03187977     0.11897785     0.00613147
     0.00000000     0.00000000     0.00000000
     0.00000000     0.00000000     0.00000000
     0.00000000     0.00000000     0.00000000
     0.00000000     0.00000000     0.00000000
     0.00000000     0.00000000     0.00000000
     0.00000000     0.00000000     0.00000000
     0.00000000     0.00000000     0.00000000
     0.00000000     0.00000000     0.00000000
     0.02673106     0.09976301     0.00788346
     0.00000000     0.00000000     0.00000000
     0.00000000     0.00000000     0.00000000
     0.00000000     0.00000000     0.00000000
     0.00000000     0.00000000     0.00000000
     0.00000000     0.00000000     0.00000000
     0.00000000     0.00000000     0.00000000
     0.00000000     0.00000000     0.00000000
     0.00000000     0.00000000     0.00000000
     0.00876248     0.03270163     0.00643242
    -0.06555931    -0.01272819    -0.00140256
     0.02407481    -0.00675339    -0.00371371
     0.09477780    -0.02559037    -0.00239393
     0.14359981    -0.03853324    -0.00068794
     0.15310687    -0.04094849     0.00094924
     0.13514979    -0.03603170     0.00223367
     0.09205015    -0.02432415     0.00417548
     0.03862611    -0.00990260     0.00548780
     0.00554677     0.00161816     0.00140485
     0.04682943    -0.01632330     0.00535367
     0.01096462    -0.00534497     0.01220009
    -0.04815487     0.00996980     0.01534958
    -0.08845256     0.02247273     0.00642696
    -0.10349146     0.02718441     0.00288855
    -0.09398186     0.02494232     0.00178754
    -0.06093430     0.01600251     0.00253024
    -0.02041185     0.00510624     0.00270231
     0.00040970     0.00503338     0.00155176
     0.00000000     0.00000000     0.00000000
     0.00000000     0.00000000     0.00000000
     0.00000000     0.00000000     0.00000000
     0.00000000     0.00000000     0.00000000
     0.00000000     0.00000000     0.00000000
     0.00000000     0.00000000     0.00000000
     0.00000000     0.00000000     0.00000000
     0.00000000     0.00000000     0.00000000
     0.01318449     0.04920480     0.01228985
     0.00000000     0.00000000     0.00000000
     0.00000000     0.00000000     0.00000000
     0.00000000     0.00000000     0.00000000
     0.00000000     0.00000000     0.00000000
     0.00000000     0.00000000     0.00000000
     0.00000000     0.00000000     0.00000000
     0.00000000     0.00000000     0.00000000
     0.00000000     0.00000000     0.00000000
     0.02911965     0.10867583     0.02724487
     0.00000000     0.00000000     0.00000000
     0.00000000     0.00000000     0.00000000
     0.00000000     0.00000000     0.00000000
     0.00000000     0.00000000     0.00000000
     0.00000000     0.00000000     0.00000000
     0.00000000     0.00000000     0.00000000
     0.00000000     0.00000000     0.00000000
     0.00000000     0.00000000     0.00000000
     0.02530610     0.09444415     0.03500851
     0.00000000     0.00000000     0.00000000
     0.00000000     0.00000000     0.00000000
     0.00000000     0.00000000     0.00000000
     0.00000000     0.00000000     0.00000000
     0.00000000     0.00000000     0.00000000
     0.00000000     0.00000000     0.00000000
     0.00000000     0.00000000     0.00000000
     0.00000000     0.00000000     0.00000000
     0.00907737     0.03387694     0.02866223
    -0.07038153    -0.01415110     0.00260238
     0.02496598    -0.00728788    -0.00197422
     0.10161086    -0.02694263     0.00267568
     0.14880714    -0.03924326     0.00387740
     0.15823105    -0.04144282     0.00502134
     0.13327792    -0.03433686     0.00698693
     0.08930873    -0.02122455     0.01418704
     0.03450503    -0.00522714     0.02184555
     0.00509230     0.00243227     0.00598440
     0.05456916    -0.01945947    -0.01134302
     0.02799973    -0.01863665     0.03120190
    -0.04582443     0.00002289     0.03470976
    -0.09325838     0.02004247     0.01385340
    -0.11566906     0.02797961     0.00849605
    -0.10872010     0.02796240     0.00347058
    -0.07188057     0.01712562     0.00640463
    -0.02576917     0.00530041     0.00491276
    -0.00062927     0.00330346     0.00228662
     0.00000000     0.00000000     0.00000000
     0.00000000     0.00000000     0.00000000
     0.00000000     0.00000000     0.00000000
     0.00000000     0.00000000     0.00000000
     0.00000000     0.00000000     0.00000000
     0.00000000     0.00000000     0.00000000
     0.00000000     0.00000000     0.00000000
     0.00000000     0.00000000     0.00000000
     0.00870474     0.03248548     0.01739274
     0.00000000     0.00000000     0.00000000
     0.00000000     0.00000000     0.00000000
     0.00000000     0.00000000     0.00000000
     0.00000000     0.00000000     0.00000000
     0.00000000     0.00000000     0.00000000
     0.00000000     0.00000000     0.00000000
     0.00000000     0.00000000     0.00000000
     0.00000000     0.00000000     0.00000000
     0.02130317     0.07950301     0.03902786
     0.00000000     0.00000000     0.00000000
     0.00000000     0.00000000     0.00000000
     0.00000000     0.00000000     0.00000000
     0.00000000     0.00000000     0.00000000
     0.00000000     0.00000000     0.00000000
     0.00000000     0.00000000     0.00000000
     0.00000000     0.00000000     0.00000000
     0.00000000     0.00000000     0.00000000
     0.02086655     0.07787456     0.04992626
     0.00000000     0.00000000     0.00000000
     0.00000000     0.00000000     0.00000000
     0.00000000     0.00000000     0.00000000
     0.00000000     0.00000000     0.00000000
     0.00000000     0.00000000     0.00000000
     0.00000000     0.00000000     0.00000000
     0.00000000     0.00000000     0.00000000
     0.00000000     0.00000000     0.00000000
     0.00928223     0.03464186     0.04181597
    -0.06695614    -0.01333224     0.01059419
     0.03513703    -0.01033386    -0.00223031
     0.11424450    -0.02822612     0.00717886
     0.16399190    -0.04086931     0.00884966
     0.16151875    -0.03886010     0.01238846
     0.12669842    -0.02840856     0.01550216
     0.07189779    -0.00925883     0.02843271
     0.02721675     0.00568476     0.03744841
     0.00448500     0.00404884     0.00937889
     0.05763550    -0.01063965    -0.04845109
     0.02884483    -0.03667610     0.05347634
    -0.03925428    -0.01796238     0.05247963
    -0.09340198     0.01186704     0.02418910
    -0.12657138     0.02646882     0.01366970
    -0.12400376     0.02959533     0.00672649
    -0.08651134     0.01771784     0.01023622
    -0.03033740     0.00442813     0.00698261
    -0.00158392     0.00120582     0.00219692
     0.00000000     0.00000000     0.00000000
     0.00000000     0.00000000     0.00000000
     0.00000000     0.00000000     0.00000000
     0.00000000     0.00000000     0.00000000
     0.00000000     0.00000000     0.00000000
     0.00000000     0.00000000     0.00000000
     0.00000000     0.00000000     0.00000000
     0.00000000     0.00000000     0.00000000
     0.00347854     0.01298236     0.01406931
     0.00000000     0.00000000     0.00000000
     0.00000000     0.00000000     0.00000000
     0.00000000     0.00000000     0.00000000
     0.00000000     0.00000000     0.00000000
     0.00000000     0.00000000     0.00000000
     0.00000000     0.00000000     0.00000000
     0.00000000     0.00000000     0.00000000
     0.00000000     0.00000000     0.00000000
     0.01098873     0.04100974     0.02999993
     0.00000000     0.00000000     0.00000000
     0.00000000     0.00000000     0.00000000
     0.00000000     0.00000000     0.00000000
     0.00000000     0.00000000     0.00000000
     0.00000000     0.00000000     0.00000000
     0.00000000     0.00000000     0.00000000
     0.00000000     0.00000000     0.00000000
     0.00000000     0.00000000     0.00000000
     0.01309683     0.04887737     0.03793582
     0.00000000     0.00000000     0.00000000
     0.00000000     0.00000000     0.00000000
     0.00000000     0.00000000     0.00000000
     0.00000000     0.00000000     0.00000000
     0.00000000     0.00000000     0.00000000
     0.00000000     0.00000000     0.00000000
     0.00000000     0.00000000     0.00000000
     0.00000000     0.00000000     0.00000000
     0.00772965     0.02884769     0.03422513
    -0.05242725    -0.00315668     0.02855954
     0.05322471    -0.01269828     0.00272831
     0.13202368    -0.02834961     0.01318064
     0.17173748    -0.03870627     0.01347914
     0.15559553    -0.03110267     0.01948217
     0.09875036    -0.01382435     0.02325151
     0.04246006     0.00862377     0.03713521
     0.01020778     0.01928568     0.04124451
     0.00252684     0.00527153     0.00893228
     0.05916546    -0.00420831    -0.05769458
     0.00659261    -0.04194073     0.05283486
    -0.02356513    -0.03874236     0.05885932
    -0.08236667     0.00198103     0.02632087
    -0.11431530     0.01819430     0.01620580
    -0.12637461     0.02799596     0.00769210
    -0.08712303     0.01534579     0.01051096
    -0.03317566     0.00334405     0.00729307
    -0.00239167     0.00001318     0.00146433
     0.00000000     0.00000000     0.00000000
     0.00000000     0.00000000     0.00000000
     0.00000000     0.00000000     0.00000000
     0.00000000     0.00000000     0.00000000
     0.00000000     0.00000000     0.00000000
     0.00000000     0.00000000     0.00000000
     0.00000000     0.00000000     0.00000000
     0.00000000     0.00000000     0.00000000
     0.00026529     0.00099034     0.00617070
     0.00000000     0.00000000     0.00000000
     0.00000000     0.00000000     0.00000000
     0.00000000     0.00000000     0.00000000
     0.00000000     0.00000000     0.00000000
     0.00000000     0.00000000     0.00000000
     0.00000000     0.00000000     0.00000000
     0.00000000     0.00000000     0.00000000
     0.00000000     0.00000000     0.00000000
     0.00276185     0.01030776     0.01121542
     0.00000000     0.00000000     0.00000000
     0.00000000     0.00000000     0.00000000
     0.00000000     0.00000000     0.00000000
     0.00000000     0.00000000     0.00000000
     0.00000000     0.00000000     0.00000000
     0.00000000     0.00000000     0.00000000
     0.00000000     0.00000000     0.00000000
     0.00000000     0.00000000     0.00000000
     0.00512866     0.01914043     0.01381450
     0.00000000     0.00000000     0.00000000
     0.00000000     0.00000000     0.00000000
     0.00000000     0.00000000     0.00000000
     0.00000000     0.00000000     0.00000000
     0.00000000     0.00000000     0.00000000
     0.00000000     0.00000000     0.00000000
     0.00000000     0.00000000     0.00000000
     0.00000000     0.00000000     0.00000000
     0.00408089     0.01523006     0.01507530
    -0.02946211     0.01136689     0.03669516
     0.07990287    -0.01363691     0.00989785
     0.11849816    -0.02191181     0.01303641
     0.16142684    -0.03252333     0.01400005
     0.11473740    -0.01554883     0.01994115
     0.05860571     0.00128248     0.02227069
     0.00236775     0.02355971     0.03190568
    -0.00153646     0.02372867     0.03089414
     0.00110100     0.00430648     0.00544920
     0.03212446     0.00220016    -0.02855227
     0.00018617    -0.02774337     0.02319390
    -0.01331178    -0.03001301     0.02792513
    -0.04449487    -0.00250592     0.01204277
    -0.06145513     0.00690174     0.00793147
    -0.06892444     0.01449383     0.00334714
    -0.04743965     0.00740298     0.00447826
    -0.01834587     0.00139524     0.00299026
    -0.00181364    -0.00005244     0.00052806
     0.09907814     0.01401527    -0.09195656
    -0.00596942    -0.08182886     0.04274797
    -0.04305459    -0.08899301     0.05205698
    -0.11345669    -0.01130519     0.02179894
    -0.15757485     0.01655820     0.01392687
    -0.17387920     0.03924677     0.00463846
    -0.12151745     0.02225588     0.00633341
    -0.04645979     0.00559947     0.00416393
    -0.00334784     0.00011273     0.00106619
     0.03037263     0.03293559    -0.03252570
    -0.03586235    -0.09482672     0.01684760
    -0.05927204    -0.07477595     0.01498262
    -0.07144163    -0.01821463     0.00597345
    -0.11265439     0.02850080     0.00068879
    -0.12084424     0.04825983    -0.00195298
    -0.09661904     0.04447558    -0.00190274
    -0.03473110     0.01975709    -0.00076178
    -0.00187237     0.00247131     0.00097793
    -0.03742185     0.01467409     0.01383028
    -0.02819214    -0.05452169    -0.00814323
     0.04056962    -0.06451152    -0.00724328
     0.04286018    -0.02278696    -0.00134788
     0.00367305     0.01935851     0.00323463
    -0.04593160     0.04973624     0.00598488
    -0.05347239     0.05752091     0.00727241
    -0.02368996     0.03789182     0.00569859
    -0.00074348     0.00573112     0.00192884
    -0.04028786     0.01706803     0.03989212
     0.10163185    -0.01529166     0.00820497
     0.14895451    -0.03684176     0.00393823
     0.20581374    -0.03355237     0.01204218
     0.13621408    -0.00621377     0.01606599
     0.06159602     0.02295351     0.02025771
    -0.00881660     0.05136980     0.02553968
    -0.00451096     0.04503750     0.02312487
     0.00117205     0.00649923     0.00419377
    -0.01412573     0.00772249     0.01801749
     0.04631749    -0.00534380     0.00580317
     0.06281886    -0.01136360     0.00472443
     0.08722732    -0.01491064     0.00698297
     0.05903041    -0.00494725     0.00906675
     0.02916548     0.00497756     0.01059326
    -0.00134584     0.01722276     0.01406949
    -0.00099032     0.01591015     0.01308195
     0.00054328     0.00257373     0.00229696
     0.00000000     0.00000000     0.00000000
     0.00000000     0.00000000     0.00000000
     0.00000000     0.00000000     0.00000000
     0.00000000     0.00000000     0.00000000
     0.00000000     0.00000000     0.00000000
     0.00000000     0.00000000     0.00000000
     0.00000000     0.00000000     0.00000000
     0.00000000     0.00000000     0.00000000
     0.00000000     0.00000000     0.00000000
     0.00000000     0.00000000     0.00000000
     0.00000000     0.00000000     0.00000000
     0.00000000     0.00000000     0.00000000
     0.00000000     0.00000000     0.00000000
     0.00000000     0.00000000     0.00000000
     0.00000000     0.00000000     0.00000000
     0.00000000     0.00000000     0.00000000
     0.00000000     0.00000000     0.00000000
     0.00000000     0.00000000     0.00000000
     0.00000000     0.00000000     0.00000000
     0.00000000     0.00000000     0.00000000
     0.00000000     0.00000000     0.00000000
     0.00000000     0.00000000     0.00000000
     0.00000000     0.00000000     0.00000000
     0.00000000     0.00000000     0.00000000
     0.00000000     0.00000000     0.00000000
     0.00000000     0.00000000     0.00000000
     0.00000000     0.00000000     0.00000000
     0.00000000     0.00000000     0.00000000
     0.00000000     0.00000000     0.00000000
     0.00000000     0.00000000     0.00000000
     0.00000000     0.00000000     0.00000000
     0.00000000     0.00000000     0.00000000
     0.00000000     0.00000000     0.00000000
     0.00000000     0.00000000     0.00000000
     0.00000000     0.00000000     0.00000000
     0.00000000     0.00000000     0.00000000
     0.00000000     0.00000000     0.00000000
     0.00000000     0.00000000     0.00000000
     0.00000000     0.00000000     0.00000000
     0.00000000     0.00000000     0.00000000
     0.00000000     0.00000000     0.00000000
     0.00000000     0.00000000     0.00000000
     0.00000000     0.00000000     0.00000000
     0.00000000     0.00000000     0.00000000
     0.00000000     0.00000000     0.00000000
     0.00000000     0.00000000     0.00000000
     0.00000000     0.00000000     0.00000000
     0.00000000     0.00000000     0.00000000
     0.00000000     0.00000000     0.00000000
     0.00000000     0.00000000     0.00000000
     0.00000000     0.00000000     0.00000000
     0.00000000     0.00000000     0.00000000
     0.00000000     0.00000000     0.00000000
     0.00000000     0.00000000     0.00000000
     0.00000000     0.00000000     0.00000000
     0.00000000     0.00000000     0.00000000
     0.00000000     0.00000000     0.00000000
     0.00000000     0.00000000     0.00000000
     0.00000000     0.00000000     0.00000000
     0.00000000     0.00000000     0.00000000
     0.00000000     0.00000000     0.00000000
     0.00000000     0.00000000     0.00000000
     0.00000000     0.00000000     0.00000000
     0.00000000     0.00000000     0.00000000
     0.00000000     0.00000000     0.00000000
     0.00000000     0.00000000     0.00000000
     0.00000000     0.00000000     0.00000000
     0.00000000     0.00000000     0.00000000
     0.00000000     0.00000000     0.00000000
     0.00000000     0.00000000     0.00000000
     0.00000000     0.00000000     0.00000000
     0.00000000     0.00000000     0.00000000
     0.00000000     0.00000000     0.00000000
     0.00000000     0.00000000     0.00000000
     0.00000000     0.00000000     0.00000000
     0.00000000     0.00000000     0.00000000
     0.00000000     0.00000000     0.00000000
     0.00000000     0.00000000     0.00000000
     0.00000000     0.00000000     0.00000000
     0.00000000     0.00000000     0.00000000
     0.00000000     0.00000000     0.00000000
     0.00000000     0.00000000     0.00000000
     0.00000000     0.00000000     0.00000000
     0.00000000     0.00000000     0.00000000
     0.00000000     0.00000000     0.00000000
     0.00000000     0.00000000     0.00000000
     0.00000000     0.00000000     0.00000000
     0.00000000     0.00000000     0.00000000
     0.00000000     0.00000000     0.00000000
     0.00000000     0.00000000     0.00000000
     0.00000000     0.00000000     0.00000000
     0.00000000     0.00000000     0.00000000
     0.00000000     0.00000000     0.00000000
     0.00000000     0.00000000     0.00000000
     0.00000000     0.00000000     0.00000000
     0.00000000     0.00000000     0.00000000
     0.00000000     0.00000000     0.00000000
     0.00000000     0.00000000     0.00000000
     0.00000000     0.00000000     0.00000000
     0.00000000     0.00000000     0.00000000
     0.00000000     0.00000000     0.00000000
     0.00000000     0.00000000     0.00000000
     0.00000000     0.00000000     0.00000000
     0.00000000     0.00000000     0.00000000
     0.00000000     0.00000000     0.00000000
     0.00000000     0.00000000     0.00000000
     0.00000000     0.00000000     0.00000000
     0.00000000     0.00000000     0.00000000
     0.00000000     0.00000000     0.00000000
     0.00000000     0.00000000     0.00000000
     0.00000000     0.00000000     0.00000000
     0.00000000     0.00000000     0.00000000
     0.00000000     0.00000000     0.00000000
     0.00000000     0.00000000     0.00000000
     0.00000000     0.00000000     0.00000000
     0.00000000     0.00000000     0.00000000
     0.00000000     0.00000000     0.00000000
     0.00000000     0.00000000     0.00000000
     0.00000000     0.00000000     0.00000000
     0.00000000     0.00000000     0.00000000
     0.00000000     0.00000000     0.00000000
     0.00000000     0.00000000     0.00000000
     0.00000000     0.00000000     0.00000000
     0.00000000     0.00000000     0.00000000
     0.00000000     0.00000000     0.00000000
     0.00000000     0.00000000     0.00000000
     0.00000000     0.00000000     0.00000000
     0.00000000     0.00000000     0.00000000
     0.00000000     0.00000000     0.00000000
     0.00000000     0.00000000     0.00000000
     0.00000000     0.00000000     0.00000000
     0.00000000     0.00000000     0.00000000
     0.00000000     0.00000000     0.00000000
     0.00000000     0.00000000     0.00000000
     0.00000000     0.00000000     0.00000000
     0.00000000     0.00000000     0.00000000
     0.00000000     0.00000000     0.00000000
     0.00000000     0.00000000     0.00000000
     0.00000000     0.00000000     0.00000000
     0.00000000     0.00000000     0.00000000
     0.00000000     0.00000000     0.00000000
     0.00000000     0.00000000     0.00000000
     0.00000000     0.00000000     0.00000000
     0.00000000     0.00000000     0.00000000
     0.00000000     0.00000000     0.00000000
     0.00000000     0.00000000     0.00000000
     0.00000000     0.00000000     0.00000000
     0.00000000     0.00000000     0.00000000
     0.00000000     0.00000000     0.00000000
     0.00000000     0.00000000     0.00000000
     0.00000000     0.00000000     0.00000000
     0.00000000     0.00000000     0.00000000
     0.00000000     0.00000000     0.00000000
     0.00000000     0.00000000     0.00000000
     0.00000000     0.00000000     0.00000000
     0.00000000     0.00000000     0.00000000
     0.00000000     0.00000000     0.00000000
     0.00000000     0.00000000     0.00000000
     0.00000000     0.00000000     0.00000000
     0.00000000     0.00000000     0.00000000
     0.00000000     0.00000000     0.00000000
     0.00000000     0.00000000     0.00000000
     0.00000000     0.00000000     0.00000000
     0.00000000     0.00000000     0.00000000
     0.00000000     0.00000000     0.00000000
     0.00000000     0.00000000     0.00000000
     0.00000000     0.00000000     0.00000000
     0.00000000     0.00000000     0.00000000
     0.00000000     0.00000000     0.00000000
     0.00000000     0.00000000     0.00000000
     0.00000000     0.00000000     0.00000000
     0.00000000     0.00000000     0.00000000
     0.00000000     0.00000000     0.00000000
     0.00000000     0.00000000     0.00000000
     0.00000000     0.00000000     0.00000000
     0.00000000     0.00000000     0.00000000
     0.00000000     0.00000000     0.00000000
     0.00000000     0.00000000     0.00000000
     0.00000000     0.00000000     0.00000000
     0.00000000     0.00000000     0.00000000
     0.00000000     0.00000000     0.00000000
     0.00000000     0.00000000     0.00000000
     0.00000000     0.00000000     0.00000000
     0.00000000     0.00000000     0.00000000
     0.00000000     0.00000000     0.00000000
     0.00000000     0.00000000     0.00000000
     0.00000000     0.00000000     0.00000000
     0.00000000     0.00000000     0.00000000
     0.00000000     0.00000000     0.00000000
     0.00000000     0.00000000     0.00000000
     0.00000000     0.00000000     0.00000000
     0.00000000     0.00000000     0.00000000
     0.00000000     0.00000000     0.00000000
     0.00000000     0.00000000     0.00000000
     0.00000000     0.00000000     0.00000000
     0.00000000     0.00000000     0.00000000
     0.00000000     0.00000000     0.00000000
     0.00000000     0.00000000     0.00000000
     0.00000000     0.00000000     0.00000000
     0.00000000     0.00000000     0.00000000
     0.00000000     0.00000000     0.00000000
     0.00000000     0.00000000     0.00000000
     0.00000000     0.00000000     0.00000000
     0.00000000     0.00000000     0.00000000
     0.00000000     0.00000000     0.00000000
     0.00000000     0.00000000     0.00000000
     0.00000000     0.00000000     0.00000000
     0.00000000     0.00000000     0.00000000
     0.00000000     0.00000000     0.00000000
     0.00000000     0.00000000     0.00000000
     0.00000000     0.00000000     0.00000000
     0.00000000     0.00000000     0.00000000
     0.00000000     0.00000000     0.00000000
     0.00000000     0.00000000     0.00000000
     0.00000000     0.00000000     0.00000000
     0.00000000     0.00000000     0.00000000
     0.00000000     0.00000000     0.00000000
     0.00000000     0.00000000     0.00000000
     0.00000000     0.00000000     0.00000000
     0.00000000     0.00000000     0.00000000
     0.00000000     0.00000000     0.00000000
     0.00000000     0.00000000     0.00000000
     0.00000000     0.00000000     0.00000000
     0.00000000     0.00000000     0.00000000
     0.00000000     0.00000000     0.00000000
     0.00000000     0.00000000     0.00000000
     0.00000000     0.00000000     0.00000000
     0.00000000     0.00000000     0.00000000
     0.00000000     0.00000000     0.00000000
     0.00000000     0.00000000     0.00000000
     0.00000000     0.00000000     0.00000000
     0.00000000     0.00000000     0.00000000
     0.00000000     0.00000000     0.00000000
     0.00000000     0.00000000     0.00000000
     0.00000000     0.00000000     0.00000000
     0.00000000     0.00000000     0.00000000
     0.00000000     0.00000000     0.00000000
     0.00000000     0.00000000     0.00000000
     0.00000000     0.00000000     0.00000000
     0.00000000     0.00000000     0.00000000
     0.00000000     0.00000000     0.00000000
     0.00000000     0.00000000     0.00000000
     0.00000000     0.00000000     0.00000000
     0.00000000     0.00000000     0.00000000
     0.00000000     0.00000000     0.00000000
     0.00000000     0.00000000     0.00000000
     0.00000000     0.00000000     0.00000000
     0.00000000     0.00000000     0.00000000
     0.00000000     0.00000000     0.00000000
     0.00000000     0.00000000     0.00000000
     0.00000000     0.00000000     0.00000000
     0.00000000     0.00000000     0.00000000
     0.00000000     0.00000000     0.00000000
     0.00000000     0.00000000     0.00000000
     0.00000000     0.00000000     0.00000000
     0.00000000     0.00000000     0.00000000
     0.00000000     0.00000000     0.00000000
     0.00000000     0.00000000     0.00000000
     0.00000000     0.00000000     0.00000000
     0.00000000     0.00000000     0.00000000
     0.00000000     0.00000000     0.00000000
     0.00000000     0.00000000     0.00000000
     0.00000000     0.00000000     0.00000000
     0.00000000     0.00000000     0.00000000
     0.00000000     0.00000000     0.00000000
     0.00000000     0.00000000     0.00000000
     0.00000000     0.00000000     0.00000000
     0.00000000     0.00000000     0.00000000
     0.00000000     0.00000000     0.00000000
     0.00000000     0.00000000     0.00000000
     0.00000000     0.00000000     0.00000000
     0.00000000     0.00000000     0.00000000
     0.00000000     0.00000000     0.00000000
     0.00000000     0.00000000     0.00000000
     0.00000000     0.00000000     0.00000000
     0.00000000     0.00000000     0.00000000
SCALARS Pressures float
LOOKUP_TABLE default
  2347.99792063
  4677.29269516
  4651.32531500
  4647.94781071
  4642.03563887
  4635.55736256
  4628.28914976
  4645.98589993
  6287.16924604
  4716.66821778
  9367.82986900
  9300.82380888
  9294.60159367
  9282.25584558
  9266.49484131
  9261.02753663
  9282.33753300
  9322.67206764
  4727.58011818
  9376.21589407
  9297.33389255
  9290.45485306
  9277.08586106
  9263.13586423
  9258.63464332
  9266.08760166
  9201.87983847
  4723.77650547
  9371.78680825
  9294.42680454
  9285.10899562
  9273.27580553
  9265.71177638
  9259.53740501
  9264.88595057
  9230.60837984
  4722.79078436
  9371.60436308
  9292.51737297
  9280.29584652
  9271.58757132
  9267.98245752
  9270.66214347
  9299.20261717
  9279.43705249
  4722.67133284
  9372.33986962
  9290.52552879
  9276.59882402
  9269.55458474
  9267.97402263
  9277.77134222
  9322.62506354
  9297.38191706
  4723.00279701
  9372.65009856
  9290.19825888
  9275.09276564
  9269.32719512
  9264.84456646
  9262.57632262
  9268.53428555
  9287.83930367
  4722.78709877
  9374.27500236
  9293.20680499
  9277.70035954
  9269.35031910
  9263.35827899
  9247.97468185
  9232.35758549
  9253.65506393
  4723.85485864
  9377.10232061
  9300.03111917
  9285.36062479
  9274.54838455
  9269.92242610
  9258.19098103
  9248.73005170
  9256.77535933
  4711.99262118
  9368.13382262
  9305.96931165
  9294.18934429
  9286.14895236
  9288.82477331
  9288.53301048
  9287.26100564
  9319.42880583
  2352.66929722
  4679.50000036
  4653.54630029
  4649.04721642
  4646.00085640
  4650.92101574
  4656.49073601
  4660.92668223
  6243.25032775
  2348.81058949
  4678.95083964
  4651.98712915
  4646.97788709
  4640.55419153
  4632.00413489
  4627.50739333
  4644.19054052
  6288.13404401
  4709.68068260
  9363.50221221
  9302.68727724
  9292.81898355
  9279.63419561
  9261.35471784
  9256.47856602
  9277.83286449
  9321.76672006
  4714.64967632
  9367.14273719
  9300.43381809
  9289.28206486
  9275.78288697
  9260.90052243
  9255.55053303
  9260.94638681
  9195.53418446
  4714.29098427
  9366.16391647
  9297.94956166
  9284.79067418
  9273.39013651
  9264.03903386
  9257.27856395
  9258.78535098
  9226.18592781
  4714.60506701
  9366.75623959
  9295.27883697
  9280.04112336
  9272.04209700
  9265.86283112
  9267.18674767
  9295.21754414
  9283.50564593
  4714.39650345
  9367.37467033
  9292.56263375
  9275.87878114
  9269.22780687
  9266.03477114
  9275.01401016
  9318.92518121
  9297.03207222
  4713.52211016
  9366.88345838
  9292.34650567
  9274.16377688
  9268.12414262
  9263.18378265
  9260.07194088
  9266.43888056
  9285.52808377
  4712.28347659
  9368.14475024
  9296.12748709
  9276.95051301
  9268.28963415
  9261.99054335
  9248.05122952
  9229.63948885
  9249.68976143
  4712.55330539
  9370.01962987
  9302.62513283
  9284.17326033
  9273.53009731
  9267.75880894
  9257.30138806
  9242.78767273
  9246.60044274
  4706.72662213
  9365.55021057
  9307.13995767
  9292.67267525
  9284.70045286
  9285.36269581
  9283.62496758
  9278.26132309
  9310.27692199
  2353.23752066
  4680.98285514
  4653.79549471
  4648.47351462
  4645.20881057
  4649.07168198
  4652.82933426
  4653.86318386
  6236.91001813
  2348.08512685
  4677.87689289
  4652.61385894
  4645.57390496
  4638.12625608
  4628.35040486
  4625.41795203
  4634.08199361
  6284.75074935
  4700.71212336
  9357.13102016
  9304.99114671
  9290.47744553
  9275.45941664
  9257.65791065
  9254.61164251
  9271.96846953
  9321.49209315
  4701.23160052
  9358.05673498
  9304.49643496
  9288.07895119
  9274.22628663
  9260.28989163
  9257.52785358
  9266.88519353
  9197.52901429
  4702.59344351
  9359.49105853
  9302.41976652
  9284.61244544
  9273.82142574
  9262.92680344
  9257.63812259
  9258.04061592
  9230.36922884
  4705.00069380
  9361.38406682
  9299.22697946
  9280.55563149
  9272.37417793
  9265.21726513
  9264.60827428
  9287.81420767
  9297.15833861
  4705.25467348
  9361.32169032
  9296.45336443
  9276.55772847
  9268.91786844
  9265.54556057
  9271.27197537
  9308.88863653
  9299.40330791
  4704.48132294
  9360.17262012
  9296.07832816
  9274.58103120
  9266.41503313
  9261.76154612
  9258.82342665
  9265.46057296
  9280.08095300
  4702.99410474
  9360.25239086
  9299.00330985
  9277.10905150
  9266.13163888
  9259.32095356
  9249.26515578
  9226.01249337
  9240.35295534
  4703.02880704
  9361.35811323
  9303.74954739
  9283.32295457
  9271.08213142
  9262.88465142
  9254.25340274
  9229.97354126
  9226.07739162
  4701.62563649
  9360.70219195
  9306.80076495
  9290.27416247
  9280.70211419
  9277.12823060
  9271.14983851
  9259.05809593
  9292.00786042
  2351.35243043
  4680.04992378
  4653.50320354
  4646.91835999
  4642.80857870
  4644.07569966
  4643.30582547
  4639.75280225
  6225.62224817
  2344.20221695
  4675.50215772
  4652.88783896
  4644.87059582
  4637.19261394
  4630.36760303
  4626.23409063
  4629.93648785
  6268.62071570
  4697.18857971
  9354.50497779
  9305.51977881
  9289.59576221
  9274.90695747
  9262.53464085
  9258.92223588
  9273.61105305
  9326.38593471
  4699.12747151
  9357.09734344
  9305.24867508
  9287.97394969
  9275.52740751
  9265.01131579
  9263.61056361
  9284.26369786
  9224.34850770
  4700.55126470
  9358.31915861
  9303.05414307
  9285.30915123
  9275.17144048
  9266.01361805
  9265.38336349
  9272.38821214
  9248.08878750
  4703.53051978
  9359.92647010
  9300.54500812
  9282.41557407
  9273.49745917
  9268.04926813
  9270.15414453
  9286.62877035
  9309.50425056
  4702.98412007
  9359.43378401
  9299.07411855
  9279.39946413
  9270.29400563
  9268.54703078
  9271.28093639
  9301.03826112
  9299.02852693
  4701.95794290
  9357.77576405
  9298.33253932
  9277.38653031
  9267.51833501
  9263.82343671
  9259.35513601
  9264.19200981
  9274.13354069
  4700.70775807
  9356.98767936
  9299.12119040
  9278.74561191
  9266.46141511
  9259.02288327
  9249.87164420
  9227.52901566
  9237.83472526
  4700.86947203
  9357.40686166
  9301.47235477
  9283.06682968
  9269.82417718
  9259.51638183
  9250.99908715
  9222.97053397
  9221.05546063
  4698.61593324
  9356.08814234
  9303.89531808
  9287.56777833
  9276.73035152
  9267.58118980
  9257.03375748
  9235.88019586
  9278.95849305
  2350.36003262
  4677.62514514
  4652.17813267
  4644.90428825
  4640.00417741
  4636.93135725
  4632.13891551
  4622.45523798
  6213.05222813
  2343.77728222
  4675.03355736
  4653.08986344
  4644.47826335
  4638.21376664
  4633.30522398
  4629.52267208
  4633.23220597
  6243.40358909
  4695.15524020
  9352.34074186
  9305.45064148
  9289.04066381
  9277.25694579
  9268.15282727
  9263.29686563
  9277.50584070
  9324.71340358
  4697.09165952
  9354.28467954
  9304.27502504
  9288.11750162
  9277.92203152
  9270.25896958
  9268.91301247
  9289.21353424
  9258.13279855
  4699.05563068
  9355.52936792
  9302.05131714
  9286.40287827
  9277.49742156
  9270.52159715
  9275.32847625
  9288.94700390
  9266.99120778
  4700.41346314
  9355.80883598
  9300.10813351
  9284.21806692
  9276.44664371
  9270.86210118
  9277.68889092
  9300.12711227
  9316.84830937
  4699.50232228
  9354.95770135
  9298.79253113
  9281.87451294
  9273.80334213
  9270.91786848
  9272.38706915
  9296.27933216
  9303.75004971
  4699.04058272
  9353.82901651
  9297.96679510
  9280.18021007
  9271.21155141
  9267.37076281
  9259.82434529
  9261.70138800
  9280.92937383
  4698.08057132
  9352.89220366
  9298.19427513
  9280.15735581
  9269.84014650
  9262.45623641
  9248.83848244
  9231.32217598
  9260.15488780
  4697.54660456
  9352.53779919
  9299.34684313
  9281.98471228
  9270.51570129
  9260.41287965
  9246.42399180
  9218.01073015
  9245.48463044
  4696.35390663
  9351.40176227
  9301.03612845
  9284.20949395
  9273.98234199
  9261.72134580
  9245.84206614
  9213.45718336
  9274.18423185
  2350.27807896
  4675.62788849
  4650.73823310
  4642.70615055
  4638.07050340
  4631.55993791
  4623.32004705
  4605.22656548
  6194.46130228
  1563.79808391
  3116.13840065
  3101.98854903
  3096.23678768
  3092.81471558
  3089.41676291
  3087.12495338
  3088.24016156
  4672.47630262
  2347.33221014
  4675.37950651
  4652.64663657
  4644.40416041
  4639.30313214
  4635.16879988
  4633.02147456
  4639.19915919
  6212.51850104
  2348.33617131
  4676.20928092
  4651.75591311
  4644.16786480
  4639.38095421
  4636.20495510
  4636.59709108
  4643.93244392
  6182.29205322
  2348.69507796
  4676.43075550
  4650.68078120
  4643.46999611
  4639.39517307
  4636.25163686
  4640.07337391
  4648.25703198
  6184.51988165
  2348.67396232
  4676.31237464
  4649.76995437
  4642.46492423
  4639.07505113
  4636.15849583
  4640.28734474
  4655.69631404
  6214.28703698
  2348.71203866
  4675.64087214
  4648.87190765
  4641.45340815
  4637.97669044
  4635.86863844
  4636.24976908
  4646.51705813
  6207.71162268
  2349.54325110
  4675.66746348
  4648.46520771
  4640.75731690
  4636.64770447
  4634.54737280
  4630.50885636
  4630.79821336
  6193.69113894
  2349.47699079
  4675.14966610
  4648.55230998
  4640.42046215
  4635.89589567
  4632.44290285
  4624.16810542
  4616.34495759
  6186.41451788
  2349.08006350
  4675.02058120
  4649.01446251
  4640.74788923
  4635.51775050
  4630.98355335
  4621.47240984
  4606.59109056
  6176.39173114
  2348.63329833
  4674.53251263
  4649.78627348
  4641.33787498
  4636.32812798
  4630.31807745
  4620.59968483
  4602.00426316
  6182.22810686
  1565.82347296
  3115.75974955
  3100.05461256
  3094.36042118
  3091.55536310
  3086.79080828
  3079.87065434
  3065.49904935
  4637.61970210
  9205.76030385
  9236.61920500
  9188.97114372
  9179.96574211
  9194.66950417
  9179.96214294
  9195.62506104
  9187.79157352
  9198.10096335
  9190.30539276
  8983.58007577
  9343.07406604
  9273.24509287
  9174.56138420
  9176.04771709
  9177.33775043
  9179.44418621
  9184.24258947
  9187.61654735
  9191.09593320
  9189.09707225
  9173.92210700
  9322.81118631
  9262.75404048
  9151.93764782
  9145.45802116
  9146.05682564
  9154.24074364
  9167.14749384
  9179.48174262
  9185.37031686
  9188.76143825
  9193.31051588
  9301.02183843
  9245.21257567
  9136.00219369
  9114.48133612
  9118.37656116
  9141.12195110
  9165.07453156
  9183.79555416
  9192.28638649
  9196.39075732
  9201.05188513
  9394.47216600
  9317.78241962
  9191.16438508
  9165.43479204
  9155.61626720
  9167.72844696
  9186.57313919
  9199.88118792
  9207.51168642
  9206.17672173
  9190.65936005
  9495.68416917
  9360.77678812
  9254.04805374
  9220.69326210
  9206.58706665
  9182.76824951
  9204.43208504
  9203.69323158
  9217.10033055
  9209.20605357
  9001.57184339
  9335.51700127
  9229.94615960
  9188.43739319
  9177.16030407
  9191.66466141
  9179.67460155
  9194.35225868
  9187.45188427
  9196.93574631
  9189.70372310
  8989.33124928
  9335.29144663
  9267.74131942
  9173.49100447
  9174.15894127
  9175.91952276
  9178.43098021
  9183.63704944
  9186.95603985
  9190.40183261
  9188.49610172
  9171.93082239
  9318.87711012
  9258.63311446
  9148.50315809
  9143.48531675
  9144.95667458
  9153.99829626
  9167.25557351
  9179.24154705
  9185.03842410
  9188.24646440
  9193.38018370
  9295.07828128
  9241.62052596
  9131.18073666
  9112.97633266
  9119.42138529
  9141.97160101
  9165.61371708
  9183.37642264
  9191.54725897
  9195.29452705
  9200.53804898
  9390.30005416
  9315.18734512
  9187.86740935
  9163.02897978
  9154.92524242
  9167.18627548
  9186.02222490
  9198.54578197
  9205.95554202
  9204.46313937
  9187.92613274
  9493.13187402
  9358.86338800
  9251.83504581
  9215.91834927
  9200.74667931
  9181.23858261
  9202.40632248
  9202.36161733
  9215.02549539
  9207.54167310
  9007.00613940
  9304.49471205
  9213.39339298
  9184.19904327
  9171.81935501
  9186.37458134
  9179.26296043
  9191.62591743
  9186.60722733
  9194.30779123
  9188.39235687
  9012.02426624
  9317.41375265
  9251.82950565
  9168.97832251
  9169.12615871
  9172.66827059
  9176.60936069
  9182.39401150
  9185.88181013
  9188.99096797
  9187.35944990
  9168.52850676
  9307.17690957
  9244.84954166
  9141.09277105
  9139.20115805
  9143.28513050
  9154.42355013
  9167.67380428
  9178.98618740
  9184.30753276
  9187.05485205
  9192.06283283
  9284.85524583
  9232.83022213
  9123.98349690
  9112.23782277
  9122.28147745
  9145.09552860
  9166.24612141
  9182.16391563
  9189.34788489
  9192.58304954
  9197.69666386
  9385.49649394
  9311.42154813
  9180.76370025
  9156.46305299
  9153.16654444
  9166.92575550
  9183.88747543
  9195.06161672
  9201.65313411
  9200.55151570
  9181.15934896
  9485.30352211
  9356.61611700
  9241.98834705
  9200.41981411
  9189.37843513
  9178.55179310
  9197.46821105
  9198.61138403
  9209.55141926
  9203.72009349
  9026.01828861
  9275.05634409
  9198.52884215
  9172.52312708
  9169.88858080
  9180.42516327
  9179.44036484
  9188.00997257
  9186.68713713
  9191.49391949
  9187.34231973
  9077.18147017
  9292.93297902
  9227.25082120
  9157.61716425
  9162.70990109
  9169.36436319
  9174.72489548
  9181.12521362
  9185.10477340
  9187.85196952
  9186.36976377
  9170.77643681
  9291.04098928
  9226.89219809
  9132.32566488
  9135.84803534
  9144.61077976
  9156.46876717
  9169.10515058
  9179.10733390
  9184.02825139
  9185.87886421
  9189.59181130
  9288.58910507
  9234.78402638
  9122.37250042
  9116.07691669
  9129.64171600
  9149.86051226
  9167.74179876
  9180.78716910
  9187.31944752
  9189.70719719
  9193.62239695
  9389.84175712
  9311.74071777
  9169.95314360
  9148.44990492
  9153.10493946
  9166.09975344
  9180.82631004
  9190.41999501
  9196.91561890
  9196.42034292
  9181.21098399
  9473.77766871
  9351.72497869
  9217.10141468
  9180.91082573
  9177.84444332
  9175.40659058
  9190.13886905
  9193.95790994
  9203.03882599
  9199.78681207
  9089.98939323
  9257.89449185
  9178.77640021
  9157.93753171
  9165.37694275
  9174.44404674
  9177.69805789
  9184.50401235
  9186.56870353
  9189.41334930
  9186.52098711
  9127.51906596
  9280.76736125
  9197.55516644
  9144.24155128
  9157.09481131
  9165.03821927
  9172.04919660
  9179.18355024
  9184.07595283
  9186.85098617
  9186.05320729
  9173.27587443
  9302.02687979
  9214.25230207
  9125.06525266
  9135.16475014
  9145.43796211
  9158.06412339
  9170.20535427
  9178.89333981
  9183.79886028
  9185.94554839
  9188.13229203
  9329.43962690
  9243.45364392
  9119.36151862
  9123.07814956
  9136.17681265
  9154.34451532
  9169.32992023
  9180.00661749
  9186.06295121
  9188.62598526
  9191.01946378
  9405.95599911
  9298.04617131
  9150.46981084
  9143.13948411
  9150.08815494
  9164.71202627
  9177.47553745
  9187.11230385
  9193.42502198
  9193.73270324
  9179.87410826
  9453.44627333
  9321.35572624
  9181.80151892
  9161.63948953
  9163.06621701
  9170.46293336
  9182.83885485
  9190.41485023
  9198.03323907
  9196.51910526
  9134.94119013
  9252.94099057
  9164.00878787
  9151.32325315
  9160.26056790
  9172.12711096
  9175.65424681
  9183.16045809
  9185.86539245
  9188.68391281
  9186.03999507
  9129.64130127
  9282.98744255
  9182.03015581
  9138.78479433
  9154.75197241
  9162.18295825
  9170.44954944
  9177.87318683
  9183.41044676
  9186.27223721
  9186.19065565
  9172.11635095
  9321.38256621
  9209.90710285
  9122.59604931
  9135.52313337
  9144.36810219
  9158.28196383
  9170.18436277
  9178.54303515
  9183.44975197
  9186.51158190
  9187.75677562
  9362.27681118
  9244.97120309
  9115.58575058
  9127.00678205
  9137.16693878
  9156.33781242
  9169.51558316
  9179.80943692
  9185.37464571
  9188.80537844
  9190.16324854
  9417.09352952
  9282.86173272
  9137.99030137
  9141.68209684
  9146.06530219
  9164.43195266
  9175.60209507
  9186.29747510
  9191.92567676
  9192.97819502
  9174.45204104
  9439.36467457
  9295.54374123
  9163.75486469
  9151.15351939
  9154.29412568
  9167.50735605
  9179.95583379
  9189.10664558
  9196.14100444
  9195.02748073
  9129.49973561
  8682.00409889
  8634.53413391
  8625.35336304
  8691.40023804
  8740.83892441
  8797.63385773
  8811.45776652
  8533.57302663
  8971.69921696
  8654.12343681
  8602.99172664
  8606.87503052
  8656.27369738
  8720.90074778
  8777.22838354
  8803.35300445
  8789.93767069
  8896.84135878
  8578.48804510
  8524.82788622
  8528.17085969
  8600.38146162
  8684.90233326
  8749.50499773
  8789.83414507
  8807.94209671
  8899.67507458
  8584.45736647
  8460.59095466
  8474.91759145
  8589.03763199
  8687.92426825
  8749.03025222
  8789.11700177
  8809.40491009
  9197.07615206
  8851.05531427
  8594.63069153
  8551.93357658
  8633.43376255
  8713.20941067
  8766.62270713
  8794.43827742
  8782.11381042
  9507.29777282
  9063.92921108
  8746.28592682
  8621.97699165
  8668.40802765
  8719.41238022
  8777.37199593
  8795.06259906
  8514.99967933
  9029.97134137
  8645.06906664
  8621.25933325
  8621.78505182
  8687.04665470
  8741.67945766
  8792.99258256
  8811.63466121
  8582.60311557
  8958.27479342
  8625.75746319
  8592.58642250
  8602.89928448
  8652.26536965
  8717.74028063
  8774.57211483
  8802.02645576
  8790.93088008
  8884.58117178
  8556.70248607
  8508.13109106
  8521.86428434
  8599.58234596
  8681.08590484
  8746.31171131
  8785.88394630
  8804.49300027
  8880.01545227
  8558.14440763
  8451.42068118
  8478.78307837
  8593.36251640
  8686.98668063
  8744.75017536
  8782.88340688
  8801.85627174
  9195.44151627
  8843.63355695
  8591.04065681
  8556.69818568
  8637.11686492
  8713.05621088
  8763.04605496
  8789.30502781
  8781.57310359
  9513.43622610
  9077.93741104
  8731.58862162
  8615.54526615
  8669.18930435
  8720.50976658
  8773.06353474
  8792.19288413
  8569.16101965
  8970.09929991
  8578.39154947
  8605.31442773
  8617.58463001
  8673.84415817
  8740.15811348
  8783.08769441
  8811.04456368
  8690.53907615
  8934.84492400
  8566.04465911
  8569.58234864
  8594.21597123
  8643.35969973
  8711.35543466
  8767.99003422
  8799.27183206
  8797.01636687
  8863.36909994
  8506.04160205
  8474.82274187
  8515.61609435
  8603.08438516
  8675.77811074
  8739.68780065
  8778.13285935
  8792.75140548
  8847.46292669
  8505.82665527
  8440.20169735
  8498.73589873
  8606.25460815
  8686.84433281
  8736.27769589
  8770.59399521
  8787.00874519
  9193.34817064
  8820.05680847
  8579.52542019
  8568.22640109
  8646.40026069
  8712.29126132
  8754.99530196
  8778.45238093
  8769.57854968
  9518.91813970
  9086.84574175
  8694.44265985
  8599.36588097
  8673.58483410
  8719.89732265
  8763.91843939
  8784.48338968
  8647.14876235
  8979.34914142
  8536.57917202
  8601.01941156
  8612.56980038
  8655.98159075
  8730.01433659
  8774.19186854
  8808.56506606
  8642.92136184
  8922.74847016
  8511.21890652
  8547.37132716
  8582.68738592
  8635.59047604
  8705.51498556
  8760.79158747
  8796.24654923
  8778.75453182
  8840.01793951
  8458.00256282
  8461.57433832
  8527.95398951
  8614.38981676
  8679.38410664
  8738.18170506
  8774.21892667
  8791.22929037
  8838.44120640
  8479.16181040
  8453.40296006
  8532.97110045
  8624.64137149
  8691.39593601
  8734.43327659
  8764.07962030
  8780.41194248
  9185.31664830
  8778.78553843
  8556.66606581
  8580.20173693
  8654.40861559
  8710.39275336
  8748.28427297
  8769.53441751
  8753.83179247
  9507.63896394
  9029.39394069
  8635.95164537
  8597.56428051
  8673.11476040
  8715.74621344
  8756.67409647
  8775.41941535
  8614.71057892
  8969.71825522
  8506.61303687
  8568.89635909
  8590.20483363
  8640.94174349
  8714.66893727
  8764.62423700
  8802.84026701
  8651.09281100
  8904.47098532
  8478.24167991
  8524.03051811
  8570.74591514
  8630.86503842
  8701.62907788
  8755.93076238
  8793.27510441
  8778.16759479
  8837.15322918
  8435.82482564
  8468.00857091
  8547.94028053
  8624.54191896
  8688.69999868
  8744.06444120
  8775.49422159
  8787.42874471
  8870.43934810
  8485.60358465
  8473.25564045
  8558.61752069
  8637.54303473
  8696.99216944
  8740.12935024
  8765.64705717
  8779.90560113
  9173.16145924
  8719.98589557
  8524.32506430
  8585.89162575
  8654.07565235
  8708.59911694
  8744.69470197
  8766.10304180
  8726.31165048
  9440.52696520
  8890.54395020
  8558.99131238
  8599.14177451
  8661.36073980
  8712.02467385
  8750.02229810
  8768.19047063
  8562.42720955
  8923.20547891
  8488.71679425
  8538.39821792
  8572.22258592
  8634.91555047
  8707.10543740
  8758.68881834
  8798.82797337
  8765.78784609
  8888.28450847
  8468.74337542
  8510.30196083
  8565.62546247
  8629.01148230
  8700.35924047
  8754.34257215
  8791.90086740
  8800.93477023
  8848.68779445
  8432.81080270
  8471.07965302
  8555.64706177
  8627.68974441
  8692.91852915
  8748.02264869
  8776.88256101
  8776.85781582
  8898.56630683
  8492.70541024
  8477.85834777
  8566.11607265
  8640.62514198
  8698.83203948
  8743.47744060
  8767.67305217
  8778.69717427
  9168.57908267
  8686.30253160
  8506.91821527
  8586.36978504
  8651.33462760
  8708.09223869
  8743.34205914
  8765.87023224
  8703.08441862
  9384.03760254
  8804.04589152
  8518.07333732
  8592.77320927
  8653.69104594
  8710.74441320
  8745.77820849
  8765.18572071
  8566.40842597
     0.00000000
     0.00000000
     0.00000000
     0.00000000
     0.00000000
     0.00000000
     0.00000000
     0.00000000
     0.00000000
     0.00000000
     0.00000000
     0.00000000
     0.00000000
     0.00000000
     0.00000000
     0.00000000
     0.00000000
     0.00000000
     0.00000000
     0.00000000
     0.00000000
     0.00000000
     0.00000000
     0.00000000
     0.00000000
     0.00000000
     0.00000000
     0.00000000
     0.00000000
     0.00000000
     0.00000000
     0.00000000
     0.00000000
     0.00000000
     0.00000000
     0.00000000
     0.00000000
     0.00000000
     0.00000000
     0.00000000
     0.00000000
     0.00000000
     0.00000000
     0.00000000
     0.00000000
     0.00000000
     0.00000000
     0.00000000
     0.00000000
     0.00000000
     0.00000000
     0.00000000
     0.00000000
     0.00000000
     0.00000000
     0.00000000
     0.00000000
     0.00000000
     0.00000000
     0.00000000
     0.00000000
     0.00000000
     0.00000000
     0.00000000
     0.00000000
     0.00000000
     0.00000000
     0.00000000
     0.00000000
     0.00000000
     0.00000000
     0.00000000
     0.00000000
     0.00000000
     0.00000000
     0.00000000
     0.00000000
     0.00000000
     0.00000000
     0.00000000
     0.00000000
     0.00000000
     0.00000000
     0.00000000
     0.00000000
     0.00000000
     0.00000000
     0.00000000
     0.00000000
     0.00000000
     0.00000000
     0.00000000
     0.00000000
     0.00000000
     0.00000000
     0.00000000
     0.00000000
     0.00000000
     0.00000000
     0.00000000
     0.00000000
     0.00000000
     0.00000000
     0.00000000
     0.00000000
     0.00000000
     0.00000000
     0.00000000
     0.00000000
     0.00000000
     0.00000000
     0.00000000
     0.00000000
     0.00000000
     0.00000000
     0.00000000
     0.00000000
     0.00000000
     0.00000000
     0.00000000
     0.00000000
     0.00000000
     0.00000000
     0.00000000
     0.00000000
     0.00000000
     0.00000000
     0.00000000
     0.00000000
     0.00000000
     0.00000000
     0.00000000
     0.00000000
     0.00000000
     0.00000000
     0.00000000
     0.00000000
     0.00000000
     0.00000000
     0.00000000
     0.00000000
     0.00000000
     0.00000000
     0.00000000
     0.00000000
     0.00000000
     0.00000000
     0.00000000
     0.00000000
     0.00000000
     0.00000000
     0.00000000
     0.00000000
     0.00000000
     0.00000000
     0.00000000
     0.00000000
     0.00000000
     0.00000000
     0.00000000
     0.00000000
     0.00000000
     0.00000000
     0.00000000
     0.00000000
     0.00000000
     0.00000000
     0.00000000
     0.00000000
     0.00000000
     0.00000000
     0.00000000
     0.00000000
     0.00000000
     0.00000000
     0.00000000
     0.00000000
     0.00000000
     0.00000000
     0.00000000
     0.00000000
     0.00000000
     0.00000000
     0.00000000
     0.00000000
     0.00000000
     0.00000000
     0.00000000
     0.00000000
     0.00000000
     0.00000000
     0.00000000
     0.00000000
     0.00000000
     0.00000000
     0.00000000
     0.00000000
     0.00000000
     0.00000000
     0.00000000
     0.00000000
     0.00000000
     0.00000000
     0.00000000
     0.00000000
     0.00000000
     0.00000000
     0.00000000
     0.00000000
     0.00000000
     0.00000000
     0.00000000
     0.00000000
     0.00000000
     0.00000000
     0.00000000
     0.00000000
     0.00000000
     0.00000000
     0.00000000
     0.00000000
     0.00000000
     0.00000000
     0.00000000
     0.00000000
     0.00000000
     0.00000000
     0.00000000
     0.00000000
     0.00000000
     0.00000000
     0.00000000
     0.00000000
     0.00000000
     0.00000000
     0.00000000
     0.00000000
     0.00000000
     0.00000000
     0.00000000
     0.00000000
     0.00000000
     0.00000000
     0.00000000
     0.00000000
     0.00000000
     0.00000000
     0.00000000
     0.00000000
     0.00000000
     0.00000000
     0.00000000
     0.00000000
     0.00000000
     0.00000000
     0.00000000
     0.00000000
     0.00000000
     0.00000000
     0.00000000
     0.00000000
     0.00000000
     0.00000000
     0.00000000
     0.00000000
     0.00000000
     0.00000000
     0.00000000
     0.00000000
     0.00000000
     0.00000000
     0.00000000
     0.00000000
     0.00000000
     0.00000000
     0.00000000
VECTORS Displacements float 
     4.43538742    -0.41392240     0.00000000
     3.82990644    -0.48991958     0.00000000
     3.22484603    -0.52402991     0.00000000
     2.61494047    -0.52413645     0.00000000
     2.00384725    -0.48898222     0.00000000
     1.38513901    -0.40153596     0.00000000
     0.76116275    -0.26766212     0.00000000
     0.32567738    -0.05694721     0.00000000
     0.00000000     0.00000000    -0.00000000
     4.43199288    -0.34994487    -0.00911108
     3.75751813    -0.41852744     0.00000000
     3.12027526    -0.44243418     0.00000000
     2.48328358    -0.43960949     0.00000000
     1.84472910    -0.40267186     0.00000000
     1.21392046    -0.32050159     0.00000000
     0.61075306    -0.18532126     0.00000000
     0.27708366     0.01016421     0.00000000
     0.11833808     0.03693161     0.00000000
     4.42707737    -0.28831354    -0.01158077
     3.72610375    -0.34770638     0.00000000
     3.05109240    -0.36129789     0.00000000
     2.39021404    -0.35220723     0.00000000
     1.74512722    -0.31601857     0.00000000
     1.13288793    -0.24179751     0.00000000
     0.59158491    -0.12257300     0.00000000
     0.29975178     0.01600419     0.00000000
     0.17533916     0.01926561     0.00000000
     4.42303447    -0.22645492    -0.01386708
     3.70405929    -0.26932229     0.00000000
     3.00723080    -0.27569368     0.00000000
     2.33136512    -0.26450036     0.00000000
     1.68507852    -0.23383660     0.00000000
     1.08882473    -0.17624398     0.00000000
     0.57943515    -0.09120312     0.00000000
     0.29973398    -0.00444551     0.00000000
     0.18235604    -0.00532981     0.00000000
     4.41871846    -0.16516658    -0.01511824
     3.68962435    -0.18662830     0.00000000
     2.97935967    -0.18640947     0.00000000
     2.29493696    -0.17638663     0.00000000
     1.64752946    -0.15545770     0.00000000
     1.05725830    -0.12017884     0.00000000
     0.55649694    -0.07320459     0.00000000
     0.26258400    -0.02524079     0.00000000
     0.13017460    -0.01615171     0.00000000
     4.41444171    -0.10402415    -0.01618082
     3.67895533    -0.10147161     0.00000000
     2.96227386    -0.09491215     0.00000000
     2.27304074    -0.08790935     0.00000000
     1.62449671    -0.07884933     0.00000000
     1.03678606    -0.06808831     0.00000000
     0.54119007    -0.05940784     0.00000000
     0.21327966    -0.01938281     0.00000000
     0.00000000     0.00000000     0.00000000
     4.41020433    -0.04292690    -0.01644763
     3.67356760    -0.01563539     0.00000000
     2.95550310    -0.00292653     0.00000000
     2.26600401     0.00045087     0.00000000
     1.61949925    -0.00359526     0.00000000
     1.04081162    -0.01844199     0.00000000
     0.57137879    -0.05663828     0.00000000
     0.31313373    -0.05068773     0.00000000
     0.17413037    -0.03928501     0.00000000
     4.40620058     0.01821132    -0.01637233
     3.67201166     0.06909723     0.00000000
     2.95997525     0.08774854     0.00000000
     2.27323224     0.08830266     0.00000000
     1.62546759     0.07196802     0.00000000
     1.04399597     0.02993729     0.00000000
     0.57561598    -0.05482470     0.00000000
     0.36972623    -0.09300468     0.00000000
     0.28140963    -0.05246322     0.00000000
     4.40102643     0.08023522    -0.01452025
     3.67747714     0.15038281     0.00000000
     2.98065423     0.17534997     0.00000000
     2.30204473     0.17626779     0.00000000
     1.64715303     0.15191009     0.00000000
     1.04068996     0.08855229     0.00000000
     0.53418052    -0.03614405     0.00000000
     0.34510333    -0.12413611     0.00000000
     0.28539168    -0.07025569     0.00000000
     4.39493396     0.14208258    -0.01151670
     3.69132572     0.22404543     0.00000000
     3.02882975     0.25880825     0.00000000
     2.36805236     0.26521008     0.00000000
     1.70890141     0.23963858     0.00000000
     1.06199658     0.16777364     0.00000000
     0.46637276     0.02565219     0.00000000
     0.24926066    -0.12412120     0.00000000
     0.16419699    -0.05554990     0.00000000
     4.38488221     0.20655308     0.00000000
     3.74870224     0.29802058     0.00000000
     3.11485361     0.34280004     0.00000000
     2.48051843     0.35272457     0.00000000
     1.84469332     0.33056543     0.00000000
     1.20171380     0.25842912     0.00000000
     0.54351910     0.13176226     0.00000000
     0.19776607    -0.04600868    -0.00000000
     0.00000000     0.00000000    -0.00000000
     4.43523942    -0.40975398     0.15740775
     3.83039740    -0.48602677     0.20938634
     3.22598560    -0.51827876     0.23896403
     2.61705257    -0.51828171     0.25475668
     2.00688761    -0.48317313     0.25931408
     1.39000620    -0.39653880     0.25317623
     0.76767857    -0.26408618     0.23778088
     0.33337918    -0.05678551     0.18259909
     0.00000000     0.00000000     0.00000000
     4.43187940    -0.34867018     0.17441285
     3.76259825    -0.41645186     0.23518770
     3.12783518    -0.43978143     0.26622179
     2.49398784    -0.43661949     0.28411568
     1.85826181    -0.40013708     0.28782089
     1.22931916    -0.31904661     0.27600416
     0.62498406    -0.18770598     0.23573556
     0.28067644     0.00450289     0.15656866
     0.10882218     0.03496300    -0.03195549
     4.42793012    -0.28762426     0.18609175
     3.73224573    -0.34664574     0.25566316
     3.06114925    -0.36032559     0.29000650
     2.40442066    -0.35122371     0.30634193
     1.76177287    -0.31567037     0.30591775
     1.14854652    -0.24266311     0.28403153
     0.59999242    -0.12634372     0.23597166
     0.29580924     0.01258187     0.15307582
     0.15897696     0.01945334    -0.04655992
     4.42388680    -0.22652772     0.19428060
     3.71102308    -0.26896537     0.26989275
     3.01794097    -0.27562774     0.30555124
     2.34622874    -0.26456907     0.32136207
     1.70191801    -0.23430483     0.31764719
     1.10389222    -0.17729499     0.29221738
     0.58644403    -0.09281833     0.24138957
     0.29313149    -0.00425942     0.15275151
     0.16362755    -0.00301050    -0.05206007
     4.41949732    -0.16487423     0.19818580
     3.69573473    -0.18653977     0.27731330
     2.98979689    -0.18661092     0.31345540
     2.30939862    -0.17680298     0.32893933
     1.66401901    -0.15609065     0.32391341
     1.07288584    -0.12067162     0.29822959
     0.56644897    -0.07263093     0.24678368
     0.25995173    -0.02307373     0.15688974
     0.11424222    -0.01289953    -0.04449894
     4.41463474    -0.10382405     0.19783638
     3.68533270    -0.10146131     0.27726777
     2.97222593    -0.09509002     0.31361597
     2.28676727    -0.08828290     0.32867411
     1.63994854    -0.07939320     0.32273345
     1.05152694    -0.06809256     0.29569372
     0.55184361    -0.05790744     0.24666748
     0.21918126    -0.01981847     0.15430914
     0.00000000     0.00000000     0.00000000
     4.41068116    -0.04295635     0.19768329
     3.67938945    -0.01573112     0.27860890
     2.96554613    -0.00305456     0.31527241
     2.27951208     0.00022785     0.33000055
     1.63373675    -0.00381728     0.32222230
     1.05181666    -0.01777470     0.29045696
     0.57288491    -0.05278155     0.23134381
     0.30536557    -0.04770103     0.13225700
     0.16049678    -0.03463134    -0.03646388
     4.40665439     0.01857428     0.19344688
     3.67867532     0.06853714     0.27242984
     2.97004049     0.08747434     0.30931887
     2.28658849     0.08802245     0.32412936
     1.63886678     0.07211899     0.31609254
     1.05262275     0.03186187     0.28286810
     0.57226777    -0.04773008     0.21777405
     0.35422017    -0.08702840     0.11765516
     0.26115405    -0.04710105    -0.05296046
     4.40166446     0.07971756     0.18546807
     3.68361013     0.14885060     0.25916427
     2.99039622     0.17431681     0.29564656
     2.31520864     0.17525748     0.31162757
     1.66121727     0.15173357     0.30736854
     1.05115608     0.09088468     0.27704608
     0.53355048    -0.02655742     0.21209524
     0.33167818    -0.11590067     0.11685799
     0.26597710    -0.06607297    -0.05256404
     4.39478396     0.14111015     0.17473226
     3.69708455     0.22100286     0.23915904
     3.03668074     0.25624714     0.27314907
     2.37892673     0.26219599     0.29191813
     1.72251170     0.23733398     0.29465727
     1.07690196     0.16717687     0.27787331
     0.47742897     0.03335718     0.21574284
     0.24652471    -0.11520866     0.12571820
     0.15310825    -0.05350295    -0.03024395
     4.38534160     0.20266348     0.15871140
     3.74996375     0.29283167     0.21424993
     3.11670272     0.33692393     0.24568014
     2.48352275     0.34657734     0.26274808
     1.84882842     0.32430734     0.26708798
     1.20770030     0.25324735     0.26001307
     0.55188116     0.12874504     0.23024957
     0.20746313    -0.04395610     0.15164752
     0.00000000     0.00000000     0.00000000
     4.43504046    -0.39806514     0.31294770
     3.83201280    -0.47218215     0.41402238
     3.22940386    -0.50165072     0.47160874
     2.62303958    -0.50085343     0.50239267
     2.01612700    -0.46607902     0.51084612
     1.40320108    -0.38200167     0.49773818
     0.79179691    -0.25377415     0.46132927
     0.36340055    -0.05532807     0.35032997
     0.00000000     0.00000000     0.00000000
     4.43221546    -0.34104843     0.34820465
     3.77317957    -0.40547594     0.46543974
     3.14667201    -0.42806091     0.52719236
     2.52073254    -0.42389976     0.56185997
     1.89353882    -0.38878416     0.56883537
     1.27183598    -0.31061855     0.54510113
     0.66726099    -0.19108364     0.46806077
     0.29515936    -0.00864319     0.32278483
     0.08736251     0.03030957    -0.05160873
     4.42955845    -0.28255611     0.37510444
     3.74614430    -0.33801009     0.50734680
     3.08761373    -0.35182985     0.57462402
     2.44271936    -0.34294820     0.60744516
     1.80870174    -0.30968054     0.60757420
     1.19611998    -0.24088803     0.56723014
     0.63335389    -0.13356097     0.47560346
     0.29708377     0.00250624     0.32334126
     0.12196742     0.01794818    -0.07512444
     4.42600239    -0.22253240     0.39397814
     3.72617866    -0.26314997     0.53676476
     3.04772655    -0.27024694     0.60634543
     2.38882184    -0.25990088     0.63871984
     1.75229989    -0.23187755     0.63299668
     1.15236308    -0.17772756     0.58571053
     0.61831905    -0.09704380     0.48950083
     0.28969790    -0.00686274     0.32661978
     0.12036783     0.00058567    -0.08361042
     4.42050181    -0.16314544     0.40489433
     3.71157150    -0.18334900     0.55212201
     3.02037200    -0.18412850     0.62320519
     2.35273885    -0.17512344     0.65496061
     1.71516643    -0.15601716     0.64662876
     1.12324305    -0.12157805     0.59776297
     0.60504081    -0.07290321     0.49981260
     0.26667063    -0.02070705     0.33391519
     0.07921050    -0.00680443    -0.07088063
     4.41564687    -0.10341965     0.40434516
     3.70046437    -0.10117805     0.55348735
     3.00229867    -0.09526532     0.62464390
     2.32902888    -0.08911076     0.65579532
     1.68903367    -0.08119765     0.64568213
     1.09899116    -0.06895295     0.59382430
     0.58841945    -0.05577823     0.49831810
     0.23971287    -0.02188433     0.31897636
     0.00000000     0.00000000     0.00000000
     4.41108827    -0.04376191     0.40491995
     3.69497323    -0.01856526     0.55467476
     2.99594924    -0.00581046     0.62677826
     2.32150353    -0.00283935     0.65753038
     1.67985380    -0.00665123     0.64465289
     1.08972478    -0.01756646     0.58565557
     0.58630223    -0.04389884     0.47362664
     0.29017399    -0.03985287     0.28795425
     0.12567348    -0.02165754    -0.06425236
     4.40791436     0.01536256     0.39407222
     3.69336329     0.06265996     0.54185113
     2.99953655     0.08188327     0.61371841
     2.32713358     0.08278202     0.64475801
     1.68227749     0.06877697     0.63174236
     1.08416977     0.03486528     0.57066924
     0.57334394    -0.03002793     0.44808348
     0.31744963    -0.06841416     0.26320382
     0.20615938    -0.03081317    -0.09114095
     4.40271141     0.07538123     0.37559105
     3.69737596     0.13949519     0.51461358
     3.01675819     0.16563737     0.58554852
     2.35237689     0.16694096     0.61827951
     1.70342569     0.14654263     0.61175668
     1.08600776     0.09414108     0.55652507
     0.54224096    -0.00342774     0.43318698
     0.30270125    -0.09158541     0.25766911
     0.21544478    -0.05291268    -0.08992187
     4.39543122     0.13403350     0.34949072
     3.70882152     0.20874335     0.47396659
     3.05668285     0.24415750     0.54071884
     2.40692011     0.24918066     0.57726281
     1.75927705     0.22642351     0.58233478
     1.11944476     0.16229075     0.55031749
     0.51364518     0.04934050     0.43408742
     0.24376811    -0.09151504     0.27088457
     0.12679439    -0.04942395    -0.05073614
     4.38689630     0.19138620     0.31516024
     3.75345545     0.27737351     0.42262711
     3.12222959     0.31959869     0.48501562
     2.49207796     0.32830111     0.51803622
     1.86086302     0.30612054     0.52689562
     1.22559257     0.23833025     0.51042408
     0.58486621     0.11937282     0.44951260
     0.24371367    -0.03909389     0.29383950
     0.00000000     0.00000000     0.00000000
     4.43502509    -0.37927647     0.46045275
     3.83467840    -0.44797688     0.60828678
     3.23474627    -0.47479481     0.69200354
     2.63228341    -0.47249452     0.73609507
     2.03057867    -0.43866105     0.74750308
     1.42646591    -0.35911742     0.72344604
     0.82951969    -0.23721489     0.65962583
     0.40570820    -0.05197475     0.49597205
     0.00000000     0.00000000     0.00000000
     4.43381039    -0.32711786     0.51505311
     3.78798421    -0.38539382     0.68522345
     3.17520367    -0.40708810     0.77755661
     2.56128460    -0.40181919     0.82740759
     1.94653312    -0.36892488     0.83587909
     1.33904265    -0.29681012     0.80005597
     0.74065306    -0.18894634     0.69070195
     0.33296201    -0.02315895     0.49898653
     0.06394178     0.02272628    -0.05621419
     4.43219958    -0.27182306     0.55838649
     3.76455677    -0.32172447     0.74873617
     3.12886259    -0.33539834     0.84834920
     2.50357510    -0.32716679     0.89822007
     1.88413225    -0.29724573     0.89938413
     1.27956295    -0.23600497     0.84483836
     0.70519769    -0.13997701     0.71725228
     0.32583085    -0.01083284     0.51423166
     0.08286569     0.01484267    -0.08136226
     4.42727324    -0.21650705     0.59102144
     3.74788885    -0.25161387     0.79364022
     3.09577636    -0.25903523     0.89758380
     2.45961047    -0.25011253     0.94774711
     1.83808778    -0.22509634     0.94212558
     1.24274529    -0.17760608     0.87797152
     0.69310937    -0.10316376     0.74421134
     0.31871285    -0.01273888     0.52603273
     0.07710639     0.00275890    -0.09076983
     4.42250843    -0.16022328     0.60778764
     3.73454816    -0.17724644     0.81899655
     3.07118779    -0.17841182     0.92500895
     2.42725839    -0.17081703     0.97489474
     1.80433288    -0.15412847     0.96548789
     1.21811136    -0.12369709     0.89724852
     0.68725139    -0.07622096     0.75893993
     0.30970728    -0.02164484     0.53458849
     0.04959601    -0.00264484    -0.07883391
     4.41758776    -0.10294257     0.60986269
     3.72376312    -0.10056774     0.82343884
     3.05356850    -0.09511376     0.92998679
     2.40368229    -0.08996502     0.97934000
     1.77711480    -0.08338162     0.96772752
     1.18992128    -0.07238307     0.89520467
     0.66306466    -0.05435179     0.75732311
     0.28640567    -0.02467587     0.50160666
     0.00000000     0.00000000     0.00000000
     4.41273755    -0.04571223     0.60825598
     3.71796567    -0.02355136     0.82251110
     3.04752915    -0.01132679     0.93020953
     2.39591937    -0.00842176     0.97957370
     1.76503361    -0.01201922     0.96562777
     1.17021844    -0.02022181     0.88691650
     0.63473594    -0.03348596     0.73180403
     0.29549946    -0.03025249     0.47977797
     0.08401100    -0.00629936    -0.07793365
     4.40838431     0.01047090     0.59201440
     3.71539668     0.05166490     0.80063134
     3.04910200     0.07083068     0.90804666
     2.39900820     0.07239586     0.95772013
     1.76316034     0.06087232     0.94409847
     1.15640799     0.03479066     0.86424815
     0.60480373    -0.00929387     0.69707809
     0.29419146    -0.04483893     0.45224623
     0.13357594    -0.00772403    -0.10332776
     4.40476678     0.06571055     0.55982167
     3.71558327     0.12316200     0.75868689
     3.05912351     0.14905621     0.86346560
     2.41426289     0.15146917     0.91415287
     1.77652808     0.13522085     0.90754779
     1.15568076     0.09482084     0.83583937
     0.57668072     0.02278171     0.66685324
     0.28051071    -0.05580607     0.43520777
     0.14562003    -0.03059348    -0.10029582
     4.39747602     0.12096167     0.51735592
     3.72431683     0.18819319     0.69734385
     3.08615090     0.22245145     0.79680784
     2.44893986     0.22700067     0.84961129
     1.81344881     0.20779798     0.85554260
     1.18607427     0.15451087     0.80998925
     0.57648105     0.06465076     0.65296219
     0.25645818    -0.05986374     0.44199082
     0.09558617    -0.03841953    -0.05842459
     4.38952470     0.17295184     0.46358405
     3.75886482     0.25219912     0.62038316
     3.13086329     0.29143860     0.71138720
     2.50528559     0.29858205     0.75914967
     1.88068072     0.27725806     0.77123033
     1.25618516     0.21449204     0.74432553
     0.63347961     0.10478119     0.64597389
     0.28661720    -0.03421428     0.43120370
     0.00000000     0.00000000     0.00000000
     4.43603005    -0.35308828     0.59570748
     3.83744580    -0.41524817     0.78729771
     3.24144850    -0.43844283     0.89451517
     2.64345194    -0.43438627     0.95026466
     2.04917242    -0.40228277     0.96243665
     1.45541099    -0.32909756     0.92492709
     0.87372130    -0.21542637     0.82722036
     0.45426502    -0.05207038     0.62060346
     0.00000000     0.00000000     0.00000000
     4.43614169    -0.30656540     0.67292539
     3.80813419    -0.35866292     0.89113563
     3.21230565    -0.37753918     1.01228237
     2.61097471    -0.37146890     1.07555188
     2.01201370    -0.34323160     1.08337796
     1.42072395    -0.27375537     1.03263743
     0.84630097    -0.18658369     0.89523525
     0.40326733    -0.04203373     0.67549367
     0.04039160     0.01716792    -0.04382777
     4.43281831    -0.25879363     0.73697666
     3.79177231    -0.29946230     0.97557166
     3.18674203    -0.31152452     1.10767057
     2.58286843    -0.30475092     1.17421773
     1.98366552    -0.28049023     1.17562094
     1.39360701    -0.22006304     1.10877935
     0.82946350    -0.15236089     0.94972658
     0.39367591    -0.03327870     0.72116003
     0.05075981     0.01620418    -0.06595468
     4.42930444    -0.20858193     0.78197202
     3.77911577    -0.23595179     1.03743111
     3.16553309    -0.24195019     1.17568764
     2.55780574    -0.23500312     1.24505479
     1.95743970    -0.21605533     1.24025411
     1.37403587    -0.16779679     1.16218945
     0.82873259    -0.11731245     0.99446355
     0.39038949    -0.02860055     0.74877574
     0.04687401     0.00764657    -0.07526995
     4.42573252    -0.15589610     0.80784011
     3.76857373    -0.16927422     1.07399086
     3.14803622    -0.16928733     1.21627678
     2.53539735    -0.16344157     1.28589702
     1.93461014    -0.15047300     1.27815984
     1.35565601    -0.12036544     1.19134897
     0.83381323    -0.08699273     1.01460700
     0.39637344    -0.02761669     0.75931216
     0.03425845    -0.00459025    -0.07311666
     4.42117921    -0.10261230     0.81375692
     3.75911887    -0.09985945     1.08419217
     3.13306417    -0.09520669     1.22762503
     2.51595169    -0.08973109     1.29756130
     1.91090400    -0.08479462     1.28770167
     1.32888248    -0.07344963     1.19649190
     0.80330750    -0.06172128     1.01927372
     0.37240334    -0.02570909     0.70872027
     0.00000000     0.00000000     0.00000000
     4.41618785    -0.04923897     0.80876806
     3.75287399    -0.03061080     1.07834747
     3.12606906    -0.02037309     1.22261154
     2.50713655    -0.01600326     1.29310553
     1.89723581    -0.01751329     1.28212163
     1.30485573    -0.02507838     1.18838932
     0.75946051    -0.03255272     0.99901296
     0.34070256    -0.01482993     0.71901991
     0.04613703     0.01244412    -0.07195542
     4.41075473     0.00325930     0.78386173
     3.74793108     0.03677736     1.04545132
     3.12264846     0.05298118     1.18887536
     2.50185910     0.05712705     1.25860197
     1.88833139     0.04980890     1.24901355
     1.28260817     0.02620858     1.15679433
     0.71660502     0.00385047     0.95790643
     0.30533931    -0.01398743     0.70026778
     0.06847223     0.00485213    -0.08565894
     4.40601371     0.05344993     0.73941408
     3.74596236     0.10107802     0.98740623
     3.12244373     0.12452923     1.12538111
     2.50168737     0.12796439     1.19443454
     1.88426686     0.11729940     1.18853514
     1.27215045     0.07936388     1.10726694
     0.68312498     0.04201767     0.90785168
     0.28554107    -0.01523345     0.65837532
     0.07502303    -0.01466655    -0.07905320
     4.40142257     0.10139588     0.67570466
     3.74633082     0.16180727     0.90454058
     3.12625054     0.19255245     1.03432121
     2.50222634     0.19661504     1.10125779
     1.88379993     0.18323774     1.10547878
     1.26964393     0.13347097     1.04608674
     0.67559181     0.07730538     0.85812279
     0.27928391    -0.01353612     0.63461376
     0.06066985    -0.02640343    -0.04936895
     4.39374828     0.14760087     0.59946056
     3.76529463     0.21854315     0.80362859
     3.14168694     0.25361075     0.91997361
     2.52170223     0.25919095     0.98094607
     1.90545569     0.23926643     0.99595837
     1.29212249     0.18342268     0.95584499
     0.68939195     0.08677658     0.82491621
     0.33980862    -0.02163606     0.56680697
     0.00000000     0.00000000     0.00000000
     4.43742300    -0.31982115     0.71623270
     3.84011110    -0.37523761     0.94674412
     3.24808826    -0.39368364     1.07435874
     2.65566751    -0.38825934     1.13998621
     2.06740999    -0.35819335     1.15106368
     1.48635467    -0.29280465     1.09586070
     0.92037307    -0.19088197     0.96691324
     0.50419950    -0.05234074     0.72481638
     0.00000000     0.00000000     0.00000000
     4.43568484    -0.28356516     0.82166670
     3.84234822    -0.32814573     1.08217820
     3.25423540    -0.34217832     1.22783429
     2.66594116    -0.33567454     1.30166755
     2.08452829    -0.30795583     1.30791926
     1.51119727    -0.25150670     1.23806133
     0.95876322    -0.16439997     1.07589791
     0.55327511    -0.05151705     0.81496701
     0.00000000     0.00000000     0.00000000
     4.43395251    -0.24276846     0.90554497
     3.84349372    -0.27551404     1.19233337
     3.25739137    -0.28533079     1.35072613
     2.67454535    -0.27812234     1.43231243
     2.09578913    -0.25339107     1.43175398
     1.53188457    -0.20766521     1.35090117
     0.98203163    -0.13502907     1.16033529
     0.59412079    -0.05020668     0.87650254
     0.00000000     0.00000000     0.00000000
     4.43256940    -0.19751878     0.96663894
     3.84194309    -0.21950125     1.27283482
     3.25853982    -0.22384344     1.44266264
     2.67691046    -0.21743573     1.52690446
     2.10331583    -0.19622008     1.52342602
     1.53929376    -0.16204539     1.43159229
     0.99979919    -0.10574817     1.22055186
     0.61791355    -0.04350561     0.91402976
     0.00000000     0.00000000     0.00000000
     4.43006896    -0.15066207     1.00370312
     3.83864645    -0.15978724     1.32345744
     3.25470824    -0.16086300     1.49922882
     2.67532497    -0.15309100     1.58739482
     2.10059378    -0.13959952     1.57792579
     1.54085906    -0.11366640     1.48446992
     0.98971515    -0.07691832     1.24876006
     0.63280824    -0.03493404     0.92156896
     0.00000000     0.00000000     0.00000000
     4.42624152    -0.10198266     1.01678319
     3.83253531    -0.10006426     1.34176987
     3.24716118    -0.09477407     1.52118389
     2.66647622    -0.08994170     1.60977485
     2.09143535    -0.07965868     1.60009094
     1.52907705    -0.06941263     1.50013400
     0.98145753    -0.04376969     1.26553064
     0.59797750    -0.02228145     0.86584375
     0.00000000     0.00000000     0.00000000
     4.42127648    -0.05431881     1.00534313
     3.82378636    -0.03888268     1.32782459
     3.23549531    -0.03064505     1.50710075
     2.65104939    -0.02419996     1.59526032
     2.07467210    -0.02393484     1.58629196
     1.50895487    -0.02082401     1.48610258
     0.95524273    -0.02115502     1.24383459
     0.58662061    -0.00246416     0.90736509
     0.00000000     0.00000000     0.00000000
     4.41531111    -0.00700366     0.96910008
     3.81344034     0.01959962     1.28249013
     3.21885091     0.03381306     1.45606273
     2.63176909     0.03806024     1.54513263
     2.04695525     0.03363296     1.53483050
     1.48105278     0.02188188     1.44132063
     0.91361331     0.00338483     1.19159257
     0.56165457    -0.00028523     0.89689730
     0.00000000     0.00000000     0.00000000
     4.40927628     0.03763022     0.90919764
     3.80077704     0.07594851     1.20497012
     3.20065842     0.09477482     1.37139218
     2.60422482     0.09900093     1.45597170
     2.01567537     0.08805173     1.45115691
     1.43759264     0.06395443     1.36257372
     0.86846179     0.02406591     1.13174648
     0.50912210    -0.00056075     0.84215718
     0.00000000     0.00000000     0.00000000
     4.40438865     0.07854027     0.82515005
     3.78802048     0.12809013     1.09824310
     3.17857071     0.15197031     1.25175690
     2.57521201     0.15564043     1.33109312
     1.97466611     0.13894778     1.33275301
     1.38804838     0.10335188     1.25691332
     0.80579778     0.03895103     1.05348645
     0.45218242    -0.00825907     0.77199364
     0.00000000     0.00000000     0.00000000
     4.40009301     0.11501812     0.71964025
     3.77264860     0.18002859     0.96022164
     3.15478483     0.20824361     1.09927962
     2.53972484     0.21243214     1.17074670
     1.92937594     0.19377919     1.18318168
     1.32715865     0.14564281     1.12626741
     0.73368212     0.06457295     0.95836420
     0.38007712    -0.01697289     0.70560518
     0.00000000     0.00000000     0.00000000
     0.00000000     0.00000000     0.00000000
     0.00000000     0.00000000     0.00000000
     0.00000000     0.00000000     0.00000000
     0.00000000     0.00000000     0.00000000
     0.00000000     0.00000000     0.00000000
     0.00000000     0.00000000     0.00000000
     0.00000000     0.00000000     0.00000000
     0.00000000     0.00000000     0.00000000
     0.00000000     0.00000000     0.00000000
     0.00000000     0.00000000     0.00000000
     0.00000000     0.00000000     0.00000000
     0.08655880    -0.01489891     0.00000000
     0.12883004     0.02360243     0.00000000
     0.13026958     0.00256444     0.00000000
     0.11873188     0.00352435     0.00000000
     0.10367526     0.00284132     0.00000000
     0.08714332     0.00069349     0.00000000
     0.07028408    -0.00249406     0.00000000
     0.05346602    -0.00619504     0.00000000
     0.03683389    -0.00981320     0.00000000
     0.02043788    -0.01307570     0.00000000
     0.00000000     0.00000000     0.00000000
     0.26041752    -0.02237396     0.00000000
     0.26567732     0.02710958     0.00000000
     0.25417167     0.03046729     0.00000000
     0.22257244     0.03357030     0.00000000
     0.18644617     0.03171832     0.00000000
     0.15064057     0.02590078     0.00000000
     0.11604360     0.01861855     0.00000000
     0.08288448     0.01078939     0.00000000
     0.05144448     0.00284606     0.00000000
     0.02248473    -0.00279972     0.00000000
     0.00000000     0.00000000     0.00000000
     0.31648605    -0.05202345     0.00000000
     0.29687223     0.00605520     0.00000000
     0.26474309     0.05325004     0.00000000
     0.22400835     0.06269043     0.00000000
     0.18459881     0.05842993     0.00000000
     0.14698230     0.05094569     0.00000000
     0.11151318     0.04222407     0.00000000
     0.07794059     0.03327385     0.00000000
     0.04626411     0.02456626     0.00000000
     0.01811772     0.01460138     0.00000000
     0.00000000     0.00000000     0.00000000
     0.16089161    -0.03622212     0.00000000
     0.18072888    -0.01661669     0.00000000
     0.13356605     0.04749498     0.00000000
     0.10979112     0.04780319     0.00000000
     0.09001182     0.04555965     0.00000000
     0.07254176     0.04122576     0.00000000
     0.05622116     0.03664911     0.00000000
     0.04051604     0.03205627     0.00000000
     0.02529514     0.02721513     0.00000000
     0.01043049     0.02197598     0.00000000
     0.00000000     0.00000000     0.00000000
     0.00000000     0.00000000     0.00000000
     0.00000000     0.00000000     0.00000000
     0.00000000     0.00000000     0.00000000
     0.00000000     0.00000000     0.00000000
     0.00000000     0.00000000     0.00000000
     0.00000000     0.00000000     0.00000000
     0.00000000     0.00000000     0.00000000
     0.00000000     0.00000000     0.00000000
     0.00000000     0.00000000     0.00000000
     0.00000000     0.00000000     0.00000000
     0.00000000     0.00000000     0.00000000
     0.00000000     0.00000000     0.00000000
     0.00000000     0.00000000     0.00000000
     0.00000000     0.00000000     0.00000000
     0.00000000     0.00000000     0.00000000
     0.00000000     0.00000000     0.00000000
     0.00000000     0.00000000     0.00000000
     0.00000000     0.00000000     0.00000000
     0.00000000     0.00000000     0.00000000
     0.00000000     0.00000000     0.00000000
     0.00000000     0.00000000     0.00000000
     0.00000000     0.00000000     0.00000000
     0.07806104    -0.01478098    -0.00488868
     0.12069195     0.02165426    -0.01014731
     0.12090248     0.00154675     0.00239116
     0.10992397     0.00280216     0.00574863
     0.09611745     0.00231987     0.00669727
     0.08103127     0.00047779     0.00681054
     0.06563882    -0.00237450     0.00665995
     0.05021929    -0.00575275     0.00642608
     0.03489489    -0.00910195     0.00600274
     0.01962188    -0.01229851     0.00490208
     0.00000000     0.00000000     0.00000000
     0.24137273    -0.02178431    -0.02373036
     0.25118296     0.02512158    -0.01229307
     0.23932426     0.02822700     0.00574127
     0.20892266     0.03116934     0.01334207
     0.17491820     0.02954128     0.01566433
     0.14157737     0.02421698     0.01557171
     0.10946993     0.01751737     0.01473668
     0.07863253     0.01024642     0.01358075
     0.04921590     0.00278065     0.01164526
     0.02175677    -0.00262330     0.00773238
     0.00000000     0.00000000     0.00000000
     0.29513662    -0.04958651    -0.02733727
     0.28152423     0.00517555    -0.01065898
     0.24964346     0.05040426     0.00637702
     0.21036256     0.05916830     0.01477623
     0.17319805     0.05508733     0.01682398
     0.13813907     0.04809344     0.01634181
     0.10521158     0.03998260     0.01520019
     0.07397573     0.03164570     0.01385379
     0.04430529     0.02350865     0.01181723
     0.01757989     0.01407750     0.00784440
     0.00000000     0.00000000     0.00000000
     0.14605670    -0.03233694    -0.00987823
     0.16897670    -0.01601034    -0.00664869
     0.12301217     0.04443598     0.00708264
     0.10094421     0.04435089     0.00833371
     0.08294100     0.04241528     0.00777032
     0.06714939     0.03848026     0.00696051
     0.05236296     0.03431745     0.00636200
     0.03802752     0.03011711     0.00595706
     0.02403265     0.02567183     0.00551986
     0.01013034     0.02091305     0.00454335
     0.00000000     0.00000000     0.00000000
     0.00000000     0.00000000     0.00000000
     0.00000000     0.00000000     0.00000000
     0.00000000     0.00000000     0.00000000
     0.00000000     0.00000000     0.00000000
     0.00000000     0.00000000     0.00000000
     0.00000000     0.00000000     0.00000000
     0.00000000     0.00000000     0.00000000
     0.00000000     0.00000000     0.00000000
     0.00000000     0.00000000     0.00000000
     0.00000000     0.00000000     0.00000000
     0.00000000     0.00000000     0.00000000
     0.00000000     0.00000000     0.00000000
     0.00000000     0.00000000     0.00000000
     0.00000000     0.00000000     0.00000000
     0.00000000     0.00000000     0.00000000
     0.00000000     0.00000000     0.00000000
     0.00000000     0.00000000     0.00000000
     0.00000000     0.00000000     0.00000000
     0.00000000     0.00000000     0.00000000
     0.00000000     0.00000000     0.00000000
     0.00000000     0.00000000     0.00000000
     0.00000000     0.00000000     0.00000000
     0.05768104    -0.01591424    -0.00481234
     0.09985190     0.01605107    -0.01589126
     0.09690712    -0.00105831     0.00471974
     0.08767897     0.00089954     0.00959212
     0.07726047     0.00105560     0.01083228
     0.06590154     0.00009437     0.01093750
     0.05417294    -0.00193163     0.01070241
     0.04228152    -0.00454519     0.01039456
     0.03016701    -0.00715524     0.00983002
     0.01770487    -0.01015670     0.00825953
     0.00000000     0.00000000     0.00000000
     0.18935137    -0.02039223    -0.03577198
     0.21042673     0.01885303    -0.02141967
     0.19701453     0.02175023     0.01091834
     0.17016601     0.02432952     0.02295524
     0.14236766     0.02349392     0.02604322
     0.11607826     0.01968594     0.02553715
     0.09095317     0.01459472     0.02411871
     0.06663369     0.00886772     0.02237732
     0.04286613     0.00274874     0.01949513
     0.01970438    -0.00193868     0.01331755
     0.00000000     0.00000000     0.00000000
     0.23577334    -0.04164265    -0.04323994
     0.23784556     0.00321758    -0.01891662
     0.20641462     0.04207972     0.01240219
     0.17152610     0.04891991     0.02574950
     0.14103185     0.04538141     0.02814494
     0.11337071     0.03981923     0.02689022
     0.08759070     0.03342865     0.02493085
     0.06289987     0.02684747     0.02286763
     0.03883200     0.02030513     0.01981786
     0.01617593     0.01240023     0.01353891
     0.00000000     0.00000000     0.00000000
     0.10851600    -0.02237916    -0.01206166
     0.13866342    -0.01373661    -0.01066851
     0.09639690     0.03630328     0.01231302
     0.07887073     0.03573282     0.01365053
     0.06555376     0.03461182     0.01240852
     0.05410238     0.03163848     0.01103930
     0.04307690     0.02849903     0.01013627
     0.03211883     0.02531437     0.00958142
     0.02112007     0.02175604     0.00900974
     0.00960051     0.01816466     0.00764399
     0.00000000     0.00000000     0.00000000
     0.00000000     0.00000000     0.00000000
     0.00000000     0.00000000     0.00000000
     0.00000000     0.00000000     0.00000000
     0.00000000     0.00000000     0.00000000
     0.00000000     0.00000000     0.00000000
     0.00000000     0.00000000     0.00000000
     0.00000000     0.00000000     0.00000000
     0.00000000     0.00000000     0.00000000
     0.00000000     0.00000000     0.00000000
     0.00000000     0.00000000     0.00000000
     0.00000000     0.00000000     0.00000000
     0.00000000     0.00000000     0.00000000
     0.00000000     0.00000000     0.00000000
     0.00000000     0.00000000     0.00000000
     0.00000000     0.00000000     0.00000000
     0.00000000     0.00000000     0.00000000
     0.00000000     0.00000000     0.00000000
     0.00000000     0.00000000     0.00000000
     0.00000000     0.00000000     0.00000000
     0.00000000     0.00000000     0.00000000
     0.00000000     0.00000000     0.00000000
     0.00000000     0.00000000     0.00000000
     0.02861731    -0.01800723     0.00498440
     0.06882765     0.00750322    -0.01474579
     0.06204400    -0.00435882     0.00634057
     0.05640062    -0.00151027     0.00993820
     0.05100173    -0.00014729     0.01084618
     0.04468304    -0.00025291     0.01092630
     0.03783457    -0.00131086     0.01072172
     0.03064536    -0.00290090     0.01046603
     0.02324651    -0.00471830     0.01015339
     0.01466299    -0.00704774     0.00909713
     0.00000000     0.00000000     0.00000000
     0.11368199    -0.01990971    -0.02590473
     0.14726758     0.00877158    -0.02330127
     0.13104703     0.01150954     0.01448229
     0.11104400     0.01375347     0.02476493
     0.09372148     0.01474338     0.02662102
     0.07823485     0.01299807     0.02572326
     0.06334146     0.01014734     0.02429492
     0.04848540     0.00662888     0.02279534
     0.03323445     0.00242668     0.02055249
     0.01636256    -0.00100489     0.01500284
     0.00000000     0.00000000     0.00000000
     0.14614172    -0.02982494    -0.03567169
     0.16860598    -0.00006845    -0.02114731
     0.13781881     0.02835647     0.01696111
     0.11133397     0.03280260     0.02827353
     0.09258259     0.03054250     0.02895040
     0.07641488     0.02732550     0.02718112
     0.06116561     0.02355733     0.02518298
     0.04602343     0.01956838     0.02335631
     0.03037967     0.01557082     0.02095172
     0.01379781     0.00977237     0.01530349
     0.00000000     0.00000000     0.00000000
     0.05937131    -0.01171118    -0.00279259
     0.09548893    -0.00995836    -0.01057178
     0.05889099     0.02477660     0.01438064
     0.04829218     0.02393104     0.01379981
     0.04207071     0.02352046     0.01208195
     0.03618783     0.02196345     0.01081269
     0.03001270     0.02019058     0.01001829
     0.02347508     0.01830825     0.00957143
     0.01668893     0.01631169     0.00926686
     0.00862604     0.01400547     0.00841341
     0.00000000     0.00000000     0.00000000
     0.00000000     0.00000000     0.00000000
     0.00000000     0.00000000     0.00000000
     0.00000000     0.00000000     0.00000000
     0.00000000     0.00000000     0.00000000
     0.00000000     0.00000000     0.00000000
     0.00000000     0.00000000     0.00000000
     0.00000000     0.00000000     0.00000000
     0.00000000     0.00000000     0.00000000
     0.00000000     0.00000000     0.00000000
     0.00000000     0.00000000     0.00000000
     0.00000000     0.00000000     0.00000000
     0.00000000     0.00000000     0.00000000
     0.00000000     0.00000000     0.00000000
     0.00000000     0.00000000     0.00000000
     0.00000000     0.00000000     0.00000000
     0.00000000     0.00000000     0.00000000
     0.00000000     0.00000000     0.00000000
     0.00000000     0.00000000     0.00000000
     0.00000000     0.00000000     0.00000000
     0.00000000     0.00000000     0.00000000
     0.00000000     0.00000000     0.00000000
     0.00000000     0.00000000     0.00000000
    -0.00707873    -0.02753382     0.02846807
     0.02852423     0.00056294    -0.00663000
     0.02218212    -0.00550935     0.00496423
     0.02261136    -0.00104999     0.00624543
     0.02245574    -0.00035542     0.00674794
     0.02105315    -0.00015466     0.00678698
     0.01897218    -0.00052716     0.00668438
     0.01648906    -0.00115370     0.00660613
     0.01379255    -0.00159556     0.00636393
     0.01134964    -0.00354807     0.00668892
     0.00000000     0.00000000     0.00000000
     0.02259756    -0.01842164     0.01536597
     0.06579743    -0.00289477    -0.01388476
     0.04959677     0.00045808     0.01236720
     0.04306262     0.00401716     0.01513728
     0.03915658     0.00576802     0.01594579
     0.03551577     0.00566658     0.01531660
     0.03121070     0.00491671     0.01465078
     0.02625137     0.00375988     0.01405750
     0.02059400     0.00201050     0.01303706
     0.01290416     0.00004623     0.01159236
     0.00000000     0.00000000     0.00000000
     0.03278529    -0.01134451     0.00968711
     0.07661326    -0.00544713    -0.01236861
     0.05041894     0.00978650     0.01500248
     0.04140572     0.01285391     0.01734129
     0.03791034     0.01300998     0.01725849
     0.03437556     0.01274809     0.01615560
     0.03011988     0.01182053     0.01518837
     0.02510473     0.01051848     0.01443096
     0.01918732     0.00918084     0.01332648
     0.01139336     0.00684198     0.01186246
     0.00000000     0.00000000     0.00000000
     0.00109336     0.00432375     0.02091312
     0.04278423    -0.00755034    -0.00454735
     0.01570859     0.01017300     0.01070955
     0.01732205     0.00896680     0.00785528
     0.01743495     0.01060882     0.00717763
     0.01667776     0.01060961     0.00646190
     0.01499772     0.01030335     0.00611101
     0.01280127     0.00975489     0.00595883
     0.01048040     0.00881839     0.00574435
     0.00761888     0.00926579     0.00615288
     0.00000000     0.00000000     0.00000000
     0.00000000     0.00000000     0.00000000
     0.00000000     0.00000000     0.00000000
     0.00000000     0.00000000     0.00000000
     0.00000000     0.00000000     0.00000000
     0.00000000     0.00000000     0.00000000
     0.00000000     0.00000000     0.00000000
     0.00000000     0.00000000     0.00000000
     0.00000000     0.00000000     0.00000000
     0.00000000     0.00000000     0.00000000
     0.00000000     0.00000000     0.00000000
     0.00000000     0.00000000     0.00000000
     0.00000000     0.00000000     0.00000000
     0.00000000     0.00000000     0.00000000
     0.00000000     0.00000000     0.00000000
     0.00000000     0.00000000     0.00000000
     0.00000000     0.00000000     0.00000000
     0.00000000     0.00000000     0.00000000
     0.00000000     0.00000000     0.00000000
     0.00000000     0.00000000     0.00000000
     0.00000000     0.00000000     0.00000000
     0.00000000     0.00000000     0.00000000
     0.00000000     0.00000000     0.00000000
     0.00000000     0.00000000     0.00000000
     0.00000000     0.00000000     0.00000000
     0.00000000     0.00000000     0.00000000
     0.00000000     0.00000000     0.00000000
     0.00000000     0.00000000     0.00000000
     0.00000000     0.00000000     0.00000000
     0.00000000     0.00000000     0.00000000
     0.00000000     0.00000000     0.00000000
     0.00000000     0.00000000     0.00000000
     0.00000000     0.00000000     0.00000000
     0.00000000     0.00000000     0.00000000
     0.00000000     0.00000000     0.00000000
     0.00000000     0.00000000     0.00000000
     0.00000000     0.00000000     0.00000000
     0.00000000     0.00000000     0.00000000
     0.00000000     0.00000000     0.00000000
     0.00000000     0.00000000     0.00000000
     0.00000000     0.00000000     0.00000000
     0.00000000     0.00000000     0.00000000
     0.00000000     0.00000000     0.00000000
     0.00000000     0.00000000     0.00000000
     0.00000000     0.00000000     0.00000000
     0.00000000     0.00000000     0.00000000
     0.00000000     0.00000000     0.00000000
     0.00000000     0.00000000     0.00000000
     0.00000000     0.00000000     0.00000000
     0.00000000     0.00000000     0.00000000
     0.00000000     0.00000000     0.00000000
     0.00000000     0.00000000     0.00000000
     0.00000000     0.00000000     0.00000000
     0.00000000     0.00000000     0.00000000
     0.00000000     0.00000000     0.00000000
     0.00000000     0.00000000     0.00000000
     0.00000000     0.00000000     0.00000000
     0.00000000     0.00000000     0.00000000
     0.00000000     0.00000000     0.00000000
     0.00000000     0.00000000     0.00000000
     0.00000000     0.00000000     0.00000000
     0.00000000     0.00000000     0.00000000
     0.00000000     0.00000000     0.00000000
     0.00000000     0.00000000     0.00000000
     0.00000000     0.00000000     0.00000000
     0.00000000     0.00000000     0.00000000
     0.00000000     0.00000000     0.00000000
     0.00000000     0.00000000     0.00000000
     0.00000000     0.00000000     0.00000000
     0.00000000     0.00000000     0.00000000
     0.00000000     0.00000000     0.00000000
     0.00000000     0.00000000     0.00000000
     0.00000000     0.00000000     0.00000000
     0.00000000     0.00000000     0.00000000
     0.00000000     0.00000000     0.00000000
     0.00000000     0.00000000     0.00000000
     0.00000000     0.00000000     0.00000000
     0.00000000     0.00000000     0.00000000
     0.00000000     0.00000000     0.00000000
     0.00000000     0.00000000     0.00000000
     0.00000000     0.00000000     0.00000000
     0.00000000     0.00000000     0.00000000
     0.00000000     0.00000000     0.00000000
     0.00000000     0.00000000     0.00000000
     0.00000000     0.00000000     0.00000000
     0.00000000     0.00000000     0.00000000
     0.16646367    -0.02558718     0.00000000
     0.15540868    -0.03024689     0.00000000
     0.12476420    -0.02324311     0.00000000
     0.09517165    -0.01644252     0.00000000
     0.07069991    -0.01030389     0.00000000
     0.05031632    -0.00506416     0.00000000
     0.03251055    -0.00055107     0.00000000
     0.01657770     0.00418750     0.00000000
     0.00000000     0.00000000     0.00000000
     0.22937568    -0.03124557     0.00000000
     0.21360508    -0.04960240     0.00000000
     0.17462197    -0.04489439     0.00000000
     0.13504219    -0.03484461     0.00000000
     0.10013323    -0.02492583     0.00000000
     0.06969043    -0.01616163     0.00000000
     0.04249825    -0.00829627     0.00000000
     0.01808112    -0.00163577     0.00000000
     0.00000000     0.00000000     0.00000000
     0.21984904    -0.02395580     0.00000000
     0.19650427    -0.05638235     0.00000000
     0.15879695    -0.05325115     0.00000000
     0.12314585    -0.04332560     0.00000000
     0.09175184    -0.03344308     0.00000000
     0.06394052    -0.02461159     0.00000000
     0.03851527    -0.01689216     0.00000000
     0.01547540    -0.00951917     0.00000000
     0.00000000     0.00000000     0.00000000
     0.13663473    -0.01522898     0.00000000
     0.10827522    -0.04080304     0.00000000
     0.08720249    -0.03648711     0.00000000
     0.06904194    -0.03121467     0.00000000
     0.05323911    -0.02566814     0.00000000
     0.03864078    -0.02077937     0.00000000
     0.02471097    -0.01619123     0.00000000
     0.01100256    -0.01244497     0.00000000
     0.00000000     0.00000000     0.00000000
     0.00000000     0.00000000     0.00000000
     0.00000000     0.00000000     0.00000000
     0.00000000     0.00000000     0.00000000
     0.00000000     0.00000000     0.00000000
     0.00000000     0.00000000     0.00000000
     0.00000000     0.00000000     0.00000000
     0.00000000     0.00000000     0.00000000
     0.00000000     0.00000000     0.00000000
     0.00000000     0.00000000     0.00000000
     0.00000000     0.00000000     0.00000000
     0.00000000     0.00000000     0.00000000
     0.00000000     0.00000000     0.00000000
     0.00000000     0.00000000     0.00000000
     0.00000000     0.00000000     0.00000000
     0.00000000     0.00000000     0.00000000
     0.00000000     0.00000000     0.00000000
     0.00000000     0.00000000     0.00000000
     0.00000000     0.00000000     0.00000000
     0.14881680    -0.02387809    -0.01372703
     0.13658539    -0.02624877     0.00825508
     0.11076823    -0.02106304     0.01049717
     0.08593019    -0.01514771     0.00818720
     0.06483090    -0.00970226     0.00592808
     0.04673988    -0.00489757     0.00452589
     0.03057642    -0.00070658     0.00373266
     0.01584507     0.00379738     0.00303880
     0.00000000     0.00000000     0.00000000
     0.20892163    -0.02991082    -0.02061897
     0.19217100    -0.04480869     0.00776386
     0.15770003    -0.04063582     0.01272033
     0.12318621    -0.03191960     0.01154538
     0.09245917    -0.02313276     0.00913941
     0.06513924    -0.01520604     0.00733213
     0.04023584    -0.00793763     0.00600259
     0.01737723    -0.00165984     0.00408523
     0.00000000     0.00000000     0.00000000
     0.20126561    -0.02359635    -0.02048957
     0.17750819    -0.05141994     0.00653988
     0.14404171    -0.04829648     0.01189392
     0.11279182    -0.03964110     0.01044290
     0.08500261    -0.03094590     0.00831739
     0.05992255    -0.02303550     0.00676951
     0.03654928    -0.01599358     0.00564335
     0.01492777    -0.00910177     0.00388526
     0.00000000     0.00000000     0.00000000
     0.12423739    -0.01563779    -0.01045619
     0.09684965    -0.03684264     0.00543285
     0.07881673    -0.03281856     0.00641269
     0.06320483    -0.02839223     0.00515109
     0.04930430    -0.02360243     0.00402607
     0.03614686    -0.01928953     0.00338717
     0.02339389    -0.01514922     0.00304268
     0.01063664    -0.01175382     0.00265780
     0.00000000     0.00000000     0.00000000
     0.00000000     0.00000000     0.00000000
     0.00000000     0.00000000     0.00000000
     0.00000000     0.00000000     0.00000000
     0.00000000     0.00000000     0.00000000
     0.00000000     0.00000000     0.00000000
     0.00000000     0.00000000     0.00000000
     0.00000000     0.00000000     0.00000000
     0.00000000     0.00000000     0.00000000
     0.00000000     0.00000000     0.00000000
     0.00000000     0.00000000     0.00000000
     0.00000000     0.00000000     0.00000000
     0.00000000     0.00000000     0.00000000
     0.00000000     0.00000000     0.00000000
     0.00000000     0.00000000     0.00000000
     0.00000000     0.00000000     0.00000000
     0.00000000     0.00000000     0.00000000
     0.00000000     0.00000000     0.00000000
     0.00000000     0.00000000     0.00000000
     0.10830497    -0.01959127    -0.01713776
     0.09328448    -0.01713923     0.01242599
     0.07862453    -0.01592065     0.01556726
     0.06466880    -0.01226347     0.01224669
     0.05117310    -0.00840231     0.00907011
     0.03833281    -0.00458268     0.00710770
     0.02599585    -0.00117389     0.00602108
     0.01415345     0.00271311     0.00508151
     0.00000000     0.00000000     0.00000000
     0.15841574    -0.02673286    -0.02918550
     0.13899337    -0.03271850     0.01243073
     0.11521558    -0.02988057     0.01971892
     0.09311544    -0.02460112     0.01770790
     0.07271435    -0.01864095     0.01416936
     0.05323179    -0.01279208     0.01162744
     0.03419674    -0.00705232     0.00980919
     0.01549269    -0.00181947     0.00693953
     0.00000000     0.00000000     0.00000000
     0.15557197    -0.02314226    -0.03050725
     0.13062647    -0.03911138     0.01080437
     0.10703726    -0.03588701     0.01852976
     0.08657788    -0.03028408     0.01612259
     0.06769483    -0.02448579     0.01296415
     0.04946827    -0.01886734     0.01078425
     0.03135780    -0.01354485     0.00925512
     0.01352557    -0.00790496     0.00662285
     0.00000000     0.00000000     0.00000000
     0.09519164    -0.01668123    -0.01487408
     0.07058505    -0.02768730     0.00848965
     0.05939420    -0.02451266     0.00970853
     0.04969836    -0.02184424     0.00785868
     0.04010151    -0.01873605     0.00625665
     0.03026507    -0.01573975     0.00537772
     0.02029235    -0.01261203     0.00493847
     0.00986941    -0.01001439     0.00446459
     0.00000000     0.00000000     0.00000000
     0.00000000     0.00000000     0.00000000
     0.00000000     0.00000000     0.00000000
     0.00000000     0.00000000     0.00000000
     0.00000000     0.00000000     0.00000000
     0.00000000     0.00000000     0.00000000
     0.00000000     0.00000000     0.00000000
     0.00000000     0.00000000     0.00000000
     0.00000000     0.00000000     0.00000000
     0.00000000     0.00000000     0.00000000
     0.00000000     0.00000000     0.00000000
     0.00000000     0.00000000     0.00000000
     0.00000000     0.00000000     0.00000000
     0.00000000     0.00000000     0.00000000
     0.00000000     0.00000000     0.00000000
     0.00000000     0.00000000     0.00000000
     0.00000000     0.00000000     0.00000000
     0.00000000     0.00000000     0.00000000
     0.00000000     0.00000000     0.00000000
     0.06319910    -0.01298916    -0.00923944
     0.04667001    -0.00793767     0.01120004
     0.04375327    -0.00997862     0.01354389
     0.04019088    -0.00876478     0.01098379
     0.03429013    -0.00647073     0.00849084
     0.02710395    -0.00391559     0.00691920
     0.01960104    -0.00149669     0.00610374
     0.01162148     0.00132540     0.00553628
     0.00000000     0.00000000     0.00000000
     0.09705788    -0.02139399    -0.02234230
     0.07546175    -0.01796700     0.01267701
     0.06459302    -0.01703433     0.01817879
     0.05666216    -0.01579532     0.01614382
     0.04782048    -0.01285923     0.01326031
     0.03741679    -0.00946483     0.01130261
     0.02588834    -0.00566092     0.01004151
     0.01272401    -0.00193510     0.00770404
     0.00000000     0.00000000     0.00000000
     0.09848115    -0.02163776    -0.02634361
     0.07326143    -0.02336417     0.01176805
     0.06174429    -0.02079918     0.01722895
     0.05398554    -0.01885621     0.01486360
     0.04533151    -0.01632885     0.01223774
     0.03526780    -0.01332654     0.01055864
     0.02403432    -0.01021557     0.00952682
     0.01137858    -0.00618801     0.00739620
     0.00000000     0.00000000     0.00000000
     0.06030322    -0.01637635    -0.01230087
     0.04018677    -0.01684202     0.00843462
     0.03645985    -0.01473344     0.00878057
     0.03288295    -0.01389990     0.00729051
     0.02787539    -0.01258409     0.00600934
     0.02193165    -0.01096773     0.00531031
     0.01567194    -0.00921035     0.00504207
     0.00857429    -0.00754277     0.00489439
     0.00000000     0.00000000     0.00000000
     0.00000000     0.00000000     0.00000000
     0.00000000     0.00000000     0.00000000
     0.00000000     0.00000000     0.00000000
     0.00000000     0.00000000     0.00000000
     0.00000000     0.00000000     0.00000000
     0.00000000     0.00000000     0.00000000
     0.00000000     0.00000000     0.00000000
     0.00000000     0.00000000     0.00000000
     0.00000000     0.00000000     0.00000000
     0.00000000     0.00000000     0.00000000
     0.00000000     0.00000000     0.00000000
     0.00000000     0.00000000     0.00000000
     0.00000000     0.00000000     0.00000000
     0.00000000     0.00000000     0.00000000
     0.00000000     0.00000000     0.00000000
     0.00000000     0.00000000     0.00000000
     0.00000000     0.00000000     0.00000000
     0.00000000     0.00000000     0.00000000
     0.02657730    -0.00639574     0.00185209
     0.01543261    -0.00256203     0.00573182
     0.01773946    -0.00508740     0.00720321
     0.01873110    -0.00474660     0.00603708
     0.01725175    -0.00368911     0.00497979
     0.01438734    -0.00242203     0.00427415
     0.01111725    -0.00145033     0.00382761
     0.00857392     0.00004847     0.00398273
     0.00000000     0.00000000     0.00000000
     0.03999403    -0.01641756    -0.00605281
     0.02325150    -0.00471222     0.00795145
     0.02326041    -0.00723413     0.00963267
     0.02460050    -0.00754978     0.00872123
     0.02328771    -0.00670454     0.00755590
     0.01982641    -0.00535001     0.00682243
     0.01534362    -0.00369085     0.00627515
     0.00961710    -0.00188200     0.00580925
     0.00000000     0.00000000     0.00000000
     0.04223844    -0.01884274    -0.01091895
     0.02369684    -0.00738448     0.00815377
     0.02317519    -0.00802343     0.00914330
     0.02413770    -0.00852102     0.00813110
     0.02251876    -0.00819348     0.00704289
     0.01900591    -0.00711831     0.00642933
     0.01453008    -0.00588100     0.00598462
     0.00893078    -0.00417871     0.00562467
     0.00000000     0.00000000     0.00000000
     0.02671829    -0.01389615    -0.00556037
     0.01526582    -0.00630843     0.00539710
     0.01635051    -0.00623347     0.00479240
     0.01604235    -0.00656340     0.00420296
     0.01435086    -0.00634295     0.00360910
     0.01182071    -0.00574896     0.00332789
     0.00917583    -0.00481975     0.00316415
     0.00684885    -0.00474565     0.00354077
     0.00000000     0.00000000     0.00000000
     0.00000000     0.00000000     0.00000000
     0.00000000     0.00000000     0.00000000
     0.00000000     0.00000000     0.00000000
     0.00000000     0.00000000     0.00000000
     0.00000000     0.00000000     0.00000000
     0.00000000     0.00000000     0.00000000
     0.00000000     0.00000000     0.00000000
     0.00000000     0.00000000     0.00000000
     0.00000000     0.00000000     0.00000000
     0.00000000     0.00000000     0.00000000
     0.00000000     0.00000000     0.00000000
     0.00000000     0.00000000     0.00000000
     0.00000000     0.00000000     0.00000000
     0.00000000     0.00000000     0.00000000
     0.00000000     0.00000000     0.00000000
     0.00000000     0.00000000     0.00000000
     0.00000000     0.00000000     0.00000000
     0.00000000     0.00000000     0.00000000
     0.00000000     0.00000000     0.00000000
     0.00000000     0.00000000     0.00000000
     0.00000000     0.00000000     0.00000000
     0.00000000     0.00000000     0.00000000
     0.00000000     0.00000000     0.00000000
     0.00000000     0.00000000     0.00000000
     0.00000000     0.00000000     0.00000000
     0.00000000     0.00000000     0.00000000
     0.00000000     0.00000000     0.00000000
     0.00000000     0.00000000     0.00000000
     0.00000000     0.00000000     0.00000000
     0.00000000     0.00000000     0.00000000
     0.00000000     0.00000000     0.00000000
     0.00000000     0.00000000     0.00000000
     0.00000000     0.00000000     0.00000000
     0.00000000     0.00000000     0.00000000
     0.00000000     0.00000000     0.00000000
     0.00000000     0.00000000     0.00000000
     0.00000000     0.00000000     0.00000000
     0.00000000     0.00000000     0.00000000
     0.00000000     0.00000000     0.00000000
     0.00000000     0.00000000     0.00000000
     0.00000000     0.00000000     0.00000000
     0.00000000     0.00000000     0.00000000
     0.00000000     0.00000000     0.00000000
     0.00000000     0.00000000     0.00000000
     0.00000000     0.00000000     0.00000000
     0.00000000     0.00000000     0.00000000
     0.00000000     0.00000000     0.00000000
     0.00000000     0.00000000     0.00000000
     0.00000000     0.00000000     0.00000000
     0.00000000     0.00000000     0.00000000
     0.00000000     0.00000000     0.00000000
     0.00000000     0.00000000     0.00000000
     0.00000000     0.00000000     0.00000000
     0.00000000     0.00000000     0.00000000
     0.00000000     0.00000000     0.00000000
     0.00000000     0.00000000     0.00000000
     0.00000000     0.00000000     0.00000000
     0.00000000     0.00000000     0.00000000
     0.00000000     0.00000000     0.00000000
     0.00000000     0.00000000     0.00000000
     0.00000000     0.00000000     0.00000000
     0.00000000     0.00000000     0.00000000
     0.00000000     0.00000000     0.00000000
     4.89815956    -0.40993927     0.00000000
     4.43643465    -0.56498961     0.00000000
     3.83071524    -0.64635811     0.00000000
     3.22093570    -0.68801693     0.00000000
     2.60957068    -0.69766793     0.00000000
     1.99912667    -0.67059843     0.00000000
     1.38494682    -0.60811435     0.00000000
     0.77855678    -0.47028380     0.00000000
     0.35528308    -0.37063422     0.00000000
     0.00000000     0.00000000     0.00000000
     4.89852041    -0.40575893     0.15412862
     4.43723430    -0.55847625     0.23625938
     3.83166811    -0.63922375     0.28654285
     3.22239673    -0.68008798     0.31848058
     2.61179598    -0.68920555     0.33620679
     2.00198912    -0.66227954     0.34304571
     1.38917287    -0.60041061     0.34124965
     0.78416276    -0.46439525     0.33089572
     0.35989486    -0.36455235     0.31023765
     0.00000000     0.00000000     0.22650701
     4.89907072    -0.39404330     0.30341914
     4.43868531    -0.54047833     0.46477897
     3.83423019    -0.61843679     0.56643278
     3.22677759    -0.65666768     0.62780169
     2.61827162    -0.66419241     0.66239185
     2.01083371    -0.63755920     0.67529760
     1.40183580    -0.57702723     0.67028831
     0.80333222    -0.44667507     0.64876341
     0.38037555    -0.34794374     0.60021982
     0.00000000     0.00000000     0.42740575
     4.89935260    -0.37521074     0.44632627
     4.44046380    -0.51175485     0.68258278
     3.83829369    -0.58450500     0.83137607
     3.23370094    -0.61873978     0.91988899
     2.62855820    -0.62379137     0.96906327
     2.02558336    -0.59730611     0.98597516
     1.42436881    -0.53824394     0.97670669
     0.83640005    -0.41843379     0.93531892
     0.41227918    -0.32155223     0.84723224
     0.00000000     0.00000000     0.59128587
     4.90008794    -0.34925026     0.57848207
     4.44224970    -0.47274641     0.88385219
     3.84318088    -0.53850651     1.07443359
     3.24260614    -0.56770919     1.18722454
     2.64166325    -0.56956360     1.24828660
     2.04485664    -0.54380661     1.26556458
     1.45220649    -0.48671644     1.24912233
     0.87223528    -0.37993145     1.17768154
     0.44536834    -0.28539754     1.04240828
     0.00000000     0.00000000     0.70616605
     4.90067581    -0.31794513     0.69579022
     4.44339552    -0.42629920     1.06207984
     3.84856459    -0.48150646     1.29019589
     3.25192739    -0.50550430     1.42375252
     2.65654426    -0.50394900     1.49330857
     2.06501494    -0.47959724     1.50983457
     1.47999484    -0.42611857     1.47804331
     0.90399170    -0.33220564     1.37468537
     0.47373182    -0.24775879     1.18444567
     0.00000000     0.00000000     0.77356890
     4.89906432    -0.28263606     0.79677576
     4.44514790    -0.37122248     1.21419760
     3.85280583    -0.41592081     1.47380536
     3.26109094    -0.43384745     1.62429581
     2.66983285    -0.43007226     1.70132455
     2.08477195    -0.40701200     1.71362333
     1.50600254    -0.35829843     1.66025914
     0.93563109    -0.28039628     1.52676913
     0.49572651    -0.20197816     1.28504400
     0.00000000     0.00000000     0.80788285
     4.89690067    -0.24107278     0.87964325
     4.44481703    -0.30976290     1.33769862
     3.85599581    -0.34257590     1.62143171
     3.26686518    -0.35550686     1.78567251
     2.68132205    -0.34951736     1.86778816
     2.09893758    -0.32903972     1.87563750
     1.52927074    -0.28674424     1.79755327
     0.96012219    -0.22443478     1.64173299
     0.50866086    -0.15856218     1.34764650
     0.00000000     0.00000000     0.78763757
     4.89483896    -0.19735420     0.93911963
     4.44316967    -0.24222841     1.42880631
     3.85566785    -0.26482365     1.73043102
     3.26982560    -0.27083556     1.90504004
     2.68590744    -0.26536871     1.99039190
     2.10857647    -0.24693998     1.99361289
     1.53969893    -0.21469483     1.90120568
     0.97465381    -0.16709303     1.72136790
     0.50451002    -0.11947580     1.38638149
     0.00000000     0.00000000     0.73397981
     4.89254379    -0.14968179     0.97566193
     4.43945341    -0.17334339     1.48459066
     3.85237682    -0.18190289     1.79872420
     3.26658212    -0.18402856     1.98043427
     2.68513588    -0.17659960     2.06662562
     2.10697191    -0.16494218     2.06853171
     1.54237506    -0.13979533     1.96586081
     0.96189491    -0.11047657     1.78168443
     0.48036329    -0.08445394     1.39501961
     0.00000000     0.00000000     0.67021523
     4.88919257    -0.10306218     0.98814119
     4.43384184    -0.10066648     1.50501120
     3.84480417    -0.09879832     1.82475792
     3.25801780    -0.09334340     2.00970513
     2.67557934    -0.08862471     2.09690839
     2.09723883    -0.07871536     2.09769733
     1.52995142    -0.06885567     1.99182098
     0.95556327    -0.04843271     1.80398270
     0.42300171    -0.05152249     1.38552414
     0.00000000     0.00000000     0.57289248
     4.88501200    -0.05431865     0.97662297
     4.42614436    -0.03015823     1.48929243
     3.83313682    -0.01356506     1.80797126
     3.24368784    -0.00432599     1.99215310
     2.65777227     0.00232034     2.08016713
     2.07795959     0.00380379     2.08202429
     1.50760165     0.00742512     1.97563832
     0.92984676     0.00347775     1.78819079
     0.46505632    -0.00593757     1.40656436
     0.00000000     0.00000000     0.77561445
     4.88054378    -0.00874425     0.94128254
     4.41634880     0.04063957     1.43755724
     3.81853353     0.06852350     1.74816822
     3.22288020     0.08521273     1.92827190
     2.63390767     0.08985497     2.01562582
     2.04600943     0.08919393     2.02204678
     1.47392466     0.07730165     1.91712352
     0.89026100     0.06311537     1.74054960
     0.47200333     0.02462144     1.38976013
     0.00000000     0.00000000     0.83673767
     4.87587220     0.03593046     0.88203634
     4.40613524     0.10660731     1.35059172
     3.80029367     0.14855875     1.64674669
     3.19894559     0.17042349     1.81796577
     2.60039670     0.17653160     1.90482649
     2.00873118     0.17076061     1.91459123
     1.42518751     0.14868567     1.83056737
     0.84148659     0.11985942     1.66419731
     0.45096649     0.05859216     1.36312773
     0.00000000     0.00000000     0.89169864
     4.87231602     0.07572279     0.80050647
     4.39457068     0.16787907     1.23062403
     3.78125873     0.22259982     1.50502369
     3.17033772     0.25093718     1.66459398
     2.56555919     0.25803670     1.74721708
     1.96554169     0.24897485     1.76918352
     1.37736879     0.21788892     1.70696525
     0.78917389     0.17243134     1.56839615
     0.42481088     0.10050101     1.32358707
     0.00000000     0.00000000     0.93802622
     4.86835449     0.11030671     0.69812655
     4.38474103     0.22056915     1.08035838
     3.76380118     0.28663336     1.32623496
     3.14594103     0.32066239     1.46767220
     2.53223751     0.32988541     1.54341199
     1.92396369     0.31786787     1.56529155
     1.32445733     0.27875739     1.52819669
     0.73263378     0.21420385     1.40871119
     0.37698176     0.13927914     1.21639015
     0.00000000     0.00000000     0.89497011
     4.86383349     0.13994397     0.58102565
     4.37978449     0.26841296     0.89760543
     3.75310739     0.34772050     1.10105275
     3.13066045     0.38617806     1.22068187
     2.51148668     0.39796737     1.28657115
     1.89813603     0.38342154     1.30529463
     1.29069694     0.34046272     1.28275441
     0.69549666     0.25445298     1.19643453
     0.35499378     0.16765364     1.07289275
     0.00000000     0.00000000     0.79672753
     4.85928690     0.16621569     0.44808800
     4.37357809     0.30925177     0.69289240
     3.74336562     0.39630791     0.85260746
     3.11670475     0.44017970     0.94639481
     2.49235839     0.45526066     0.99946593
     1.87163116     0.44187791     1.01774823
     1.25552743     0.39683006     1.00281905
     0.65181839     0.29662300     0.95951418
     0.31879308     0.21898775     0.87752951
     0.00000000     0.00000000     0.65082272
     4.85652121     0.18488624     0.30465336
     4.36852634     0.33873073     0.47232765
     3.73588548     0.43208370     0.58126172
     3.10597451     0.47999231     0.64617649
     2.47764903     0.49777996     0.68334211
     1.85065565     0.48607796     0.69749421
     1.22405880     0.43940111     0.68985051
     0.60896527     0.33076733     0.67023565
     0.28745794     0.25712883     0.62219350
     0.00000000     0.00000000     0.46212335
     4.85441577     0.19640659     0.15479618
     4.36549675     0.35682544     0.24025307
     3.73106871     0.45404949     0.29442964
     3.09919634     0.50467631     0.32775317
     2.46840298     0.52437907     0.34703570
     1.83829786     0.51340913     0.35439613
     1.20642782     0.46664703     0.35129316
     0.58434086     0.35350360     0.34355964
     0.27280699     0.28406585     0.32113500
     0.00000000     0.00000000     0.24036842
     4.85344902     0.20058539     0.00000000
     4.36454769     0.36300690     0.00000000
     3.72936293     0.46142120     0.00000000
     3.09695829     0.51299843     0.00000000
     2.46516148     0.53349104     0.00000000
     1.83442909     0.52251370     0.00000000
     1.20043401     0.47584762     0.00000000
     0.57851727     0.36202216     0.00000000
     0.27108412     0.29480535     0.00000000
     0.00000000     0.00000000     0.00000000
     5.00367046    -0.25397518     0.00000000
     5.01471684    -0.22397677     0.00000000
     5.02262104    -0.19449605     0.00000000
     5.02776537    -0.16436220     0.00000000
     5.02986856    -0.13426947     0.00000000
     5.02903531    -0.10410787     0.00000000
     5.02567680    -0.07397744     0.00000000
     5.01976313    -0.04402398     0.00000000
     5.01138578    -0.01394086     0.00000000
     5.00062050     0.01545742     0.00000000
     4.98642949     0.04548478     0.00000000
     5.00379444    -0.25216614     0.07407384
     5.01391123    -0.22342983     0.08155793
     5.02148413    -0.19417953     0.08736961
     5.02623533    -0.16445099     0.09152142
     5.02834737    -0.13415674     0.09341480
     5.02759189    -0.10402587     0.09321923
     5.02418956    -0.07399364     0.09293473
     5.01825757    -0.04380590     0.09047632
     5.01030020    -0.01417131     0.08586586
     4.99985343     0.01506052     0.08004807
     4.98669221     0.04380402     0.07307713
     5.00381598    -0.24682561     0.14859661
     5.01214777    -0.21988635     0.16577574
     5.01836066    -0.19177504     0.17894547
     5.02240687    -0.16255450     0.18807606
     5.02388157    -0.13335293     0.19306587
     5.02323673    -0.10385102     0.19239748
     5.01986620    -0.07438274     0.19250327
     5.01469254    -0.04531805     0.18687648
     5.00748968    -0.01613193     0.17722650
     4.99845872     0.01194569     0.16400631
     4.98721343     0.03881239     0.14718680
     5.00367395    -0.23783319     0.21995988
     5.00963199    -0.21307108     0.24695345
     5.01399951    -0.18649424     0.26848911
     5.01608382    -0.15952707     0.28435775
     5.01689530    -0.13188262     0.29213078
     5.01594419    -0.10360988     0.29269129
     5.01307197    -0.07532694     0.29147300
     5.00868536    -0.04768622     0.28304499
     5.00360449    -0.02069044     0.26652429
     4.99661627     0.00590651     0.24480728
     4.98797275     0.03040302     0.21832949
     5.00365575    -0.22502580     0.28567858
     5.00653406    -0.20292672     0.32395929
     5.00748891    -0.17984213     0.35554586
     5.00770501    -0.15548034     0.37777302
     5.00717245    -0.12977424     0.39025492
     5.00599708    -0.10337577     0.39274227
     5.00358288    -0.07707220     0.38960310
     5.00074633    -0.05125747     0.37644648
     4.99757643    -0.02674943     0.35356376
     4.99425315    -0.00350334     0.32154118
     4.98915225     0.01843225     0.28354656
     5.00339642    -0.20896888     0.34461205
     5.00169898    -0.19137575     0.39610656
     4.99951887    -0.17172089     0.43776320
     4.99727604    -0.15026326     0.46796699
     4.99517491    -0.12686807     0.48671003
     4.99336644    -0.10351131     0.49276914
     4.99192018    -0.07929204     0.48608953
     4.99102190    -0.05652918     0.46718267
     4.99044488    -0.03469417     0.43619286
     4.99031120    -0.01489441     0.39404952
     4.99025590     0.00276776     0.34231963
