# vtk DataFile Version 3.0
Example VTK
ASCII
DATASET UNSTRUCTURED_GRID
POINTS  1589 float
 -0.121505350839E+02 -0.417486432753E+01  0.393758226914E-27
 -0.101462184918E+02 -0.572075811292E+01  0.128756983918E-26
 -0.812536509267E+01 -0.666208590480E+01  0.151638159182E-26
 -0.610245008503E+01 -0.725916003046E+01  0.165291387203E-26
 -0.407457879545E+01 -0.758322663554E+01  0.172284739844E-26
 -0.204443087906E+01 -0.766822498383E+01  0.172241843412E-26
 -0.126822909572E-01 -0.751888538337E+01  0.139241580837E-26
  0.128650493461E+01 -0.709503528544E+01  0.955126118062E-27
  0.255688000000E+01 -0.652469000000E+01  0.644542496066E-27
 -0.121577099962E+02 -0.333978131141E+01  0.930502723360E-02
 -0.101292360937E+02 -0.459073435531E+01  0.000000000000E+00
 -0.812855470798E+01 -0.534992345655E+01  0.000000000000E+00
 -0.612315078340E+01 -0.582929827071E+01  0.000000000000E+00
 -0.411696048321E+01 -0.608933862676E+01  0.000000000000E+00
 -0.211143277483E+01 -0.615416991387E+01  0.000000000000E+00
 -0.108282169224E+00 -0.603524960662E+01  0.000000000000E+00
  0.123648448884E+01 -0.580103021628E+01  0.000000000000E+00
  0.258954837815E+01 -0.545001786129E+01  0.000000000000E+00
 -0.121568393076E+02 -0.250509445977E+01  0.874353975415E-02
 -0.101318122078E+02 -0.345238180183E+01  0.000000000000E+00
 -0.813376006376E+01 -0.402940318853E+01  0.000000000000E+00
 -0.614074753013E+01 -0.439225689405E+01  0.000000000000E+00
 -0.414966259581E+01 -0.458650779717E+01  0.000000000000E+00
 -0.216098009389E+01 -0.463186367886E+01  0.000000000000E+00
 -0.177453925090E+00 -0.453292753302E+01  0.000000000000E+00
  0.124399270401E+01 -0.448460988487E+01  0.000000000000E+00
  0.266573068023E+01 -0.435614287034E+01  0.000000000000E+00
 -0.121608559346E+02 -0.167121575158E+01  0.691850315975E-02
 -0.101342711009E+02 -0.231431760928E+01  0.000000000000E+00
 -0.813941093648E+01 -0.270630248352E+01  0.000000000000E+00
 -0.615232709316E+01 -0.295147805243E+01  0.000000000000E+00
 -0.416773200234E+01 -0.308066613669E+01  0.000000000000E+00
 -0.218217205532E+01 -0.310599259831E+01  0.000000000000E+00
 -0.193847643220E+00 -0.302789386003E+01  0.000000000000E+00
  0.130757729842E+01 -0.316623475725E+01  0.000000000000E+00
  0.281402025114E+01 -0.325836097170E+01  0.000000000000E+00
 -0.121616737557E+02 -0.837539603353E+00  0.545687107500E-02
 -0.101367157193E+02 -0.117732014292E+01  0.000000000000E+00
 -0.814271666930E+01 -0.138256523909E+01  0.000000000000E+00
 -0.615780818245E+01 -0.150997266239E+01  0.000000000000E+00
 -0.417330835592E+01 -0.157547498457E+01  0.000000000000E+00
 -0.218130365181E+01 -0.158450859134E+01  0.000000000000E+00
 -0.172287929669E+00 -0.153411582233E+01  0.000000000000E+00
  0.142528288799E+01 -0.186486297346E+01  0.000000000000E+00
  0.302508404484E+01 -0.217358995830E+01  0.000000000000E+00
 -0.121612303585E+02 -0.411359512832E-02  0.489972568510E-02
 -0.101360728649E+02 -0.408050990499E-01  0.000000000000E+00
 -0.814302991524E+01 -0.584477683920E-01  0.000000000000E+00
 -0.615971802528E+01 -0.677694431340E-01  0.000000000000E+00
 -0.417604330624E+01 -0.712855206381E-01  0.000000000000E+00
 -0.218088854392E+01 -0.672162392498E-01  0.000000000000E+00
 -0.160241818667E+00 -0.554245147704E-01  0.000000000000E+00
  0.157189759099E+01 -0.604671667658E+00  0.000000000000E+00
  0.333333000000E+01 -0.112691000000E+01  0.184259571488E-26
 -0.121591273499E+02  0.829294916218E+00  0.506531255151E-02
 -0.101335063069E+02  0.109621346832E+01  0.000000000000E+00
 -0.814184999636E+01  0.126745794222E+01  0.000000000000E+00
 -0.616283854585E+01  0.137721632376E+01  0.000000000000E+00
 -0.418822011642E+01  0.143730376178E+01  0.000000000000E+00
 -0.221102865626E+01  0.145445547244E+01  0.000000000000E+00
 -0.225871606787E+00  0.143819955503E+01  0.000000000000E+00
  0.132098994548E+01  0.925754586975E+00  0.000000000000E+00
  0.288628448135E+01  0.435837047102E+00  0.000000000000E+00
 -0.121558086702E+02  0.166277102165E+01  0.596689074730E-02
 -0.101276961222E+02  0.223462857225E+01  0.000000000000E+00
 -0.813539469953E+01  0.259631569576E+01  0.000000000000E+00
 -0.615662789407E+01  0.282667127362E+01  0.000000000000E+00
 -0.418493912924E+01  0.295284087450E+01  0.000000000000E+00
 -0.221626688308E+01  0.298903699894E+01  0.000000000000E+00
 -0.245356454696E+00  0.294536789652E+01  0.000000000000E+00
  0.112757586335E+01  0.246855723322E+01  0.000000000000E+00
  0.252106504212E+01  0.197180400902E+01  0.000000000000E+00
 -0.121512637549E+02  0.249635676878E+01  0.671367544633E-02
 -0.101206389533E+02  0.337474125619E+01  0.000000000000E+00
 -0.812413730213E+01  0.392801685119E+01  0.000000000000E+00
 -0.613911219534E+01  0.427912367419E+01  0.000000000000E+00
 -0.415898777028E+01  0.447218933600E+01  0.000000000000E+00
 -0.218119223001E+01  0.452799158187E+01  0.000000000000E+00
 -0.203619945129E+00  0.445667669842E+01  0.000000000000E+00
  0.102032146744E+01  0.400628037097E+01  0.000000000000E+00
  0.225209938576E+01  0.350414576012E+01  0.000000000000E+00
 -0.121457246487E+02  0.333085399022E+01  0.692772700591E-02
 -0.101123071316E+02  0.451811315494E+01  0.000000000000E+00
 -0.811338177010E+01  0.526070844717E+01  0.000000000000E+00
 -0.611406262545E+01  0.573091494298E+01  0.000000000000E+00
 -0.411464706164E+01  0.598967546313E+01  0.000000000000E+00
 -0.211341786462E+01  0.606223145266E+01  0.000000000000E+00
 -0.106173062707E+00  0.595948913001E+01  0.000000000000E+00
  0.989607779118E+00  0.553167654969E+01  0.000000000000E+00
  0.209764275706E+01  0.501012366880E+01  0.000000000000E+00
 -0.121358200631E+02  0.416517601584E+01  0.348697757648E-27
 -0.101276884708E+02  0.565625636621E+01  0.121092011119E-26
 -0.810993333515E+01  0.658638292055E+01  0.146063310073E-26
 -0.608909437743E+01  0.717658771742E+01  0.159513346685E-26
 -0.406397162878E+01  0.749975714361E+01  0.165488434215E-26
 -0.203735540059E+01  0.758903492187E+01  0.164556731118E-26
 -0.875597241950E-02  0.745043185109E+01  0.122501232846E-26
  0.981615281415E+00  0.704643671973E+01  0.825081225601E-27
  0.195297000000E+01  0.652469000000E+01  0.625965246358E-27
 -0.121503335547E+02 -0.412359870045E+01  0.660532152208E+00
 -0.101455364896E+02 -0.564805964293E+01  0.898445052888E+00
 -0.812580981877E+01 -0.658124601511E+01  0.104524828251E+01
 -0.610257233113E+01 -0.717071118141E+01  0.113845766602E+01
 -0.407436285827E+01 -0.749075349558E+01  0.118869381845E+01
 -0.204409037956E+01 -0.757470287458E+01  0.120190408393E+01
 -0.123877284118E-01 -0.742713479030E+01  0.118031575565E+01
  0.129179392499E+01 -0.701662359561E+01  0.106069514406E+01
  0.256440000000E+01 -0.647239000000E+01  0.677093000000E+00
 -0.121565500543E+02 -0.331717228887E+01  0.732748208973E+00
 -0.101299485012E+02 -0.455657163964E+01  0.997143367680E+00
 -0.812787380771E+01 -0.531338187496E+01  0.116320198098E+01
 -0.612142592068E+01 -0.578963554827E+01  0.126656372107E+01
 -0.411340945937E+01 -0.604708697136E+01  0.132429740219E+01
 -0.210537463886E+01 -0.611171882835E+01  0.134190112034E+01
 -0.982305951115E-01 -0.599273172937E+01  0.132142250642E+01
  0.125171237056E+01 -0.576632100714E+01  0.119364581482E+01
  0.260330856649E+01 -0.543449903236E+01  0.791144611600E+00
 -0.121590733825E+02 -0.249955266656E+01  0.789074977536E+00
 -0.101327297139E+02 -0.344142019209E+01  0.107432635523E+01
 -0.813267518910E+01 -0.401873047201E+01  0.125311751166E+01
 -0.613799895810E+01 -0.438059673188E+01  0.136635508356E+01
 -0.414406519432E+01 -0.457418016190E+01  0.142941357623E+01
 -0.215082654231E+01 -0.461970030134E+01  0.145001989864E+01
 -0.160793548559E+00 -0.452087624884E+01  0.142740877228E+01
  0.126522505881E+01 -0.447721991002E+01  0.129259017785E+01
  0.268347923792E+01 -0.435857093410E+01  0.870910992233E+00
 -0.121606127385E+02 -0.167282444626E+01  0.825933335190E+00
 -0.101350623402E+02 -0.231439778321E+01  0.112612963167E+01
 -0.813822296782E+01 -0.270688761171E+01  0.131458888248E+01
 -0.614901729381E+01 -0.295217876416E+01  0.143374370190E+01
 -0.416137183707E+01 -0.308152625784E+01  0.150021804967E+01
 -0.217153161696E+01 -0.310750493782E+01  0.152082933308E+01
 -0.177289714853E+00 -0.303013860380E+01  0.149716786244E+01
  0.132862940686E+01 -0.317147723308E+01  0.135509585228E+01
  0.283188388698E+01 -0.326505731735E+01  0.906025857682E+00
 -0.121615556094E+02 -0.840040512653E+00  0.843159523330E+00
 -0.101366655078E+02 -0.117901159708E+01  0.115118961188E+01
 -0.814126935953E+01 -0.138455329140E+01  0.134403998421E+01
 -0.615433647233E+01 -0.151208739347E+01  0.146573542596E+01
 -0.416729755015E+01 -0.157790405013E+01  0.153332135942E+01
 -0.217253948430E+01 -0.158769894092E+01  0.155235969118E+01
 -0.160658974356E+00 -0.153845257756E+01  0.152685900153E+01
  0.144042735909E+01 -0.187130575296E+01  0.137918466374E+01
  0.303898719079E+01 -0.217745592312E+01  0.894883809471E+00
 -0.121610287223E+02 -0.413763851723E-02  0.840408965059E+00
 -0.101360762500E+02 -0.395351965528E-01  0.114784364250E+01
 -0.814142539836E+01 -0.566875880026E-01  0.134023138687E+01
 -0.615623037925E+01 -0.657105396116E-01  0.146151026041E+01
 -0.417039246482E+01 -0.692178235526E-01  0.152839799867E+01
 -0.217362817321E+01 -0.657316876227E-01  0.154654958712E+01
 -0.152891374048E+00 -0.546717028290E-01  0.151525793326E+01
  0.157617734067E+01 -0.603951513704E+00  0.135159770402E+01
  0.333333000000E+01 -0.112691000000E+01  0.833333000000E+00
 -0.121588694827E+02  0.831602567891E+00  0.842573928106E+00
 -0.101332513105E+02  0.110054627301E+01  0.115036542729E+01
 -0.814016138224E+01  0.127292328584E+01  0.134286036945E+01
 -0.615905229549E+01  0.138343870273E+01  0.146487804152E+01
 -0.418167808564E+01  0.144380988766E+01  0.153309821416E+01
 -0.220137850026E+01  0.146077224087E+01  0.155439786906E+01
 -0.212697795194E+00  0.144304587263E+01  0.152851934153E+01
  0.133332249193E+01  0.929420633550E+00  0.140246519967E+01
  0.289883537438E+01  0.415359490772E+00  0.980883168371E+00
 -0.121553875030E+02  0.166418102879E+01  0.824408028942E+00
 -0.101277434535E+02  0.223756333670E+01  0.112429472732E+01
 -0.813378591287E+01  0.260013492295E+01  0.131148414484E+01
 -0.615281067927E+01  0.283111618488E+01  0.143089598259E+01
 -0.417783133867E+01  0.295754402116E+01  0.149794771710E+01
 -0.220482828394E+01  0.299351706926E+01  0.151940357372E+01
 -0.228639875518E+00  0.294787838112E+01  0.149715343412E+01
  0.114600383593E+01  0.247269244613E+01  0.139496083255E+01
  0.253930880602E+01  0.195519632258E+01  0.106042914984E+01
 -0.121511236830E+02  0.249067491614E+01  0.786785280503E+00
 -0.101208442213E+02  0.336752490350E+01  0.107045516752E+01
 -0.812302247308E+01  0.391988326025E+01  0.124722714752E+01
 -0.613594918034E+01  0.427045153045E+01  0.136048311401E+01
 -0.415279442126E+01  0.446320908820E+01  0.142375043956E+01
 -0.217099069641E+01  0.451852722575E+01  0.144439487192E+01
 -0.188572863298E+00  0.444535821893E+01  0.142330752923E+01
  0.103853236245E+01  0.400130409419E+01  0.133142614841E+01
  0.226923896875E+01  0.349565858503E+01  0.105157700755E+01
 -0.121452861995E+02  0.330807307902E+01  0.729790296407E+00
 -0.101135177507E+02  0.448788096772E+01  0.990736237875E+00
 -0.811312046191E+01  0.522557747004E+01  0.115382747743E+01
 -0.611230521352E+01  0.569297832586E+01  0.125691851203E+01
 -0.411103872803E+01  0.595011668036E+01  0.131477620655E+01
 -0.210780059194E+01  0.602195634520E+01  0.133189512645E+01
 -0.981890790322E-01  0.591848997230E+01  0.131128071834E+01
  0.100238582622E+01  0.550035538722E+01  0.121505617056E+01
  0.210973655532E+01  0.499393997116E+01  0.948903565988E+00
 -0.121359753298E+02  0.411384236134E+01  0.656578748496E+00
 -0.101280843267E+02  0.558710995107E+01  0.888613669000E+00
 -0.811015927638E+01  0.650596484709E+01  0.103482226207E+01
 -0.608905489687E+01  0.708918647563E+01  0.112648976556E+01
 -0.406390491500E+01  0.740860886017E+01  0.117659599996E+01
 -0.203732306681E+01  0.749669040368E+01  0.119124924371E+01
 -0.847518536493E-02  0.735935607019E+01  0.117070951400E+01
  0.989246076474E+00  0.696394080444E+01  0.106252767815E+01
  0.196387000000E+01  0.646426000000E+01  0.786055000000E+00
 -0.121503862479E+02 -0.397101015343E+01  0.130160728261E+01
 -0.101454850998E+02 -0.543760979108E+01  0.177260391928E+01
 -0.812682463344E+01 -0.633927593283E+01  0.206432750939E+01
 -0.610260484176E+01 -0.690738829010E+01  0.224804960743E+01
 -0.407368783904E+01 -0.721580897841E+01  0.234633107642E+01
 -0.204345136046E+01 -0.729679615074E+01  0.237384540776E+01
 -0.116651853142E-01 -0.715415527525E+01  0.233118517415E+01
  0.130725597464E+01 -0.678356511493E+01  0.209486877745E+01
  0.258678000000E+01 -0.631679000000E+01  0.133751000000E+01
 -0.121556424537E+02 -0.321397289770E+01  0.144963166800E+01
 -0.101315135227E+02 -0.441161487900E+01  0.197617381361E+01
 -0.812766650935E+01 -0.514658932760E+01  0.230408763168E+01
 -0.611829489410E+01 -0.560810221544E+01  0.250881874778E+01
 -0.410603032740E+01 -0.585763613203E+01  0.262319258713E+01
 -0.209186937960E+01 -0.592053754690E+01  0.265705206847E+01
 -0.756010661660E-01 -0.580281517260E+01  0.261463437659E+01
  0.129115936035E+01 -0.560605669369E+01  0.236019233368E+01
  0.264389699545E+01 -0.533602149665E+01  0.156197525733E+01
 -0.121585967484E+02 -0.243351776599E+01  0.156363344524E+01
 -0.101336130943E+02 -0.334710154499E+01  0.213461669099E+01
 -0.813119512561E+01 -0.390924090666E+01  0.248924135836E+01
 -0.613184930895E+01 -0.426151887986E+01  0.271348199228E+01
 -0.413054224618E+01 -0.445026013707E+01  0.283750182573E+01
 -0.212668867917E+01 -0.449487556226E+01  0.287643540708E+01
 -0.121570507824E+00 -0.439764490080E+01  0.282974294131E+01
  0.132006530953E+01 -0.437679797484E+01  0.255886487828E+01
  0.273640024207E+01 -0.430077300327E+01  0.171943722459E+01
 -0.121603537049E+02 -0.163452276891E+01  0.164105545724E+01
 -0.101353679208E+02 -0.225776911918E+01  0.224282218432E+01
 -0.813531045462E+01 -0.264042572058E+01  0.261709340071E+01
 -0.614055823733E+01 -0.287989852170E+01  0.285345403440E+01
 -0.414514976401E+01 -0.300661039814E+01  0.298466948948E+01
 -0.214479909634E+01 -0.303293886966E+01  0.302384110567E+01
 -0.136420497607E+00 -0.295856983614E+01  0.297468591348E+01
  0.138369867709E+01 -0.311726120113E+01  0.268792058327E+01
  0.288446825007E+01 -0.323501946666E+01  0.179093072110E+01
 -0.121611225288E+02 -0.822600001688E+00  0.167951241473E+01
 -0.101366557252E+02 -0.115131163118E+01  0.229705306399E+01
 -0.813770147658E+01 -0.135128155468E+01  0.268104541245E+01
 -0.614504682901E+01 -0.147558621420E+01  0.292286704058E+01
 -0.415115216788E+01 -0.154035759217E+01  0.305703870367E+01
 -0.214917564202E+01 -0.155132211627E+01  0.309452347246E+01
 -0.130348446938E+00 -0.150529061571E+01  0.304228974908E+01
  0.148012112865E+01 -0.184950045481E+01  0.274388051820E+01
  0.307753388084E+01 -0.216613548088E+01  0.177422005848E+01
 -0.121603774827E+02 -0.437873900111E-02  0.167767528429E+01
 -0.101351278777E+02 -0.362435707916E-01  0.229483056974E+01
 -0.813750412421E+01 -0.515732448509E-01  0.267864619834E+01
 -0.614674658256E+01 -0.594321673380E-01  0.292010059341E+01
 -0.415465372937E+01 -0.628416990066E-01  0.305346860294E+01
 -0.215307896044E+01 -0.605480127608E-01  0.309005274520E+01
 -0.131378602058E+00 -0.508559073021E-01  0.302930366860E+01
  0.158912434457E+01 -0.600688726969E+00  0.270405408449E+01
  0.333333000000E+01 -0.112691000000E+01  0.166667000000E+01
 -0.121578076671E+02  0.813760809034E+00  0.167846037093E+01
 -0.101321013021E+02  0.107956580752E+01  0.229565734810E+01
 -0.813603098473E+01  0.124988136314E+01  0.267891523567E+01
 -0.614879973115E+01  0.135923961622E+01  0.292122031076E+01
 -0.416329619758E+01  0.141855521155E+01  0.305640690062E+01
 -0.217371536682E+01  0.143466573059E+01  0.309772308672E+01
 -0.174492896414E+00  0.141427406633E+01  0.304566565124E+01
  0.137406140873E+01  0.900610434170E+00  0.279373654326E+01
  0.293302356184E+01  0.367121117421E+00  0.195333660948E+01
 -0.121544353811E+02  0.162529112496E+01  0.163871642901E+01
 -0.101268826595E+02  0.218763228097E+01  0.223917381215E+01
 -0.813031182506E+01  0.254314874670E+01  0.261149466056E+01
 -0.614319888224E+01  0.276972523251E+01  0.284815297891E+01
 -0.415913703591E+01  0.289342800873E+01  0.298015564750E+01
 -0.217415727537E+01  0.292781211878E+01  0.302116913034E+01
 -0.183419726264E+00  0.287869836836E+01  0.297539306932E+01
  0.120376390014E+01  0.240901270757E+01  0.276949526784E+01
  0.259548386773E+01  0.188480245678E+01  0.210262125308E+01
 -0.121501356800E+02  0.242420018701E+01  0.155979416103E+01
 -0.101209300781E+02  0.327966581369E+01  0.212727882136E+01
 -0.812112279309E+01  0.381820325152E+01  0.247834450699E+01
 -0.612880218782E+01  0.416003921887E+01  0.270252504132E+01
 -0.413780141987E+01  0.434807756202E+01  0.282690712580E+01
 -0.214587710961E+01  0.440090969558E+01  0.286656025392E+01
 -0.151054693213E+00  0.432461703619E+01  0.282338721582E+01
  0.109322288658E+01  0.389508443124E+01  0.263885511019E+01
  0.232651632631E+01  0.341022181544E+01  0.208045046196E+01
 -0.121445885031E+02  0.320447584861E+01  0.144458757882E+01
 -0.101155483001E+02  0.434911619809E+01  0.196309556396E+01
 -0.811328680141E+01  0.506430900587E+01  0.228646210927E+01
 -0.610896773102E+01  0.551767278121E+01  0.249068469493E+01
 -0.410332856099E+01  0.576747546757E+01  0.260503209244E+01
 -0.209510265835E+01  0.583666076148E+01  0.263875401673E+01
 -0.799537491685E-01  0.573250851279E+01  0.259677767657E+01
  0.103990065125E+01  0.533733611246E+01  0.240606546421E+01
  0.215132341345E+01  0.488125097411E+01  0.187735387417E+01
 -0.121368386620E+02  0.396092477057E+01  0.129570765010E+01
 -0.101291249150E+02  0.538123618922E+01  0.175496027026E+01
 -0.811095550088E+01  0.626709744641E+01  0.204328076159E+01
 -0.608900031691E+01  0.682937108968E+01  0.222460646841E+01
 -0.406399124521E+01  0.713761102498E+01  0.232435114114E+01
 -0.203725215701E+01  0.722217577039E+01  0.235331859621E+01
 -0.788393381775E-02  0.708875490132E+01  0.231257431086E+01
  0.101175640367E+01  0.671896815261E+01  0.209866740027E+01
  0.199630000000E+01  0.628446000000E+01  0.155276000000E+01
 -0.121512351663E+02 -0.372077143893E+01  0.191009510125E+01
 -0.101465848579E+02 -0.509563176308E+01  0.260240019728E+01
 -0.812810373711E+01 -0.594190307112E+01  0.303121624796E+01
 -0.610240815190E+01 -0.647600216649E+01  0.329936698058E+01
 -0.407334343462E+01 -0.676691563968E+01  0.344599826847E+01
 -0.204278561638E+01 -0.684252433499E+01  0.348734819368E+01
 -0.107505527240E-01 -0.670670052826E+01  0.342502024474E+01
  0.133119563058E+01 -0.640206894353E+01  0.307768701670E+01
  0.262348000000E+01 -0.606170000000E+01  0.196500000000E+01
 -0.121548435189E+02 -0.303310874006E+01  0.214031238920E+01
 -0.101339883433E+02 -0.416179034460E+01  0.291989961458E+01
 -0.812905391375E+01 -0.485485867536E+01  0.340132186816E+01
 -0.611474358142E+01 -0.529223251121E+01  0.370392330660E+01
 -0.409604513960E+01 -0.552908660939E+01  0.387108395260E+01
 -0.207467379787E+01 -0.558826495586E+01  0.391978034423E+01
 -0.487853050067E-01 -0.547294661874E+01  0.385456728654E+01
  0.134272793410E+01 -0.532594116991E+01  0.347858772581E+01
  0.270276434879E+01 -0.515789921084E+01  0.229778622843E+01
 -0.121575619742E+02 -0.230957853386E+01  0.231992927984E+01
 -0.101336174267E+02 -0.317383451088E+01  0.316877883829E+01
 -0.812954077687E+01 -0.370538056897E+01  0.369206293625E+01
 -0.612395000360E+01 -0.404085672866E+01  0.402258943554E+01
 -0.411348831591E+01 -0.422045839510E+01  0.420400299786E+01
 -0.209742151843E+01 -0.426278272551E+01  0.425847893924E+01
 -0.767982958626E-01 -0.416881029592E+01  0.418728048374E+01
  0.138675946824E+01 -0.418639626221E+01  0.378254032639E+01
  0.280981957016E+01 -0.418418323651E+01  0.253198172781E+01
 -0.121596125215E+02 -0.155766685243E+01  0.244429195794E+01
 -0.101353913637E+02 -0.214784802006E+01  0.334132938894E+01
 -0.813155662776E+01 -0.250994515365E+01  0.389602376747E+01
 -0.612957263529E+01 -0.273834316530E+01  0.424567049361E+01
 -0.412418046690E+01 -0.285916251430E+01  0.443873155891E+01
 -0.211146169815E+01 -0.288507311868E+01  0.449397388733E+01
 -0.885605005442E-01 -0.281528558330E+01  0.441798002923E+01
  0.144947489818E+01 -0.300244471696E+01  0.398735682445E+01
  0.295385838440E+01 -0.316827064064E+01  0.264484010731E+01
 -0.121608140315E+02 -0.786086782386E+00  0.251030752055E+01
 -0.101368210236E+02 -0.109614366751E+01  0.343287107754E+01
 -0.813332818618E+01 -0.128398809931E+01  0.400398417546E+01
 -0.613272544788E+01 -0.140226751760E+01  0.436282677809E+01
 -0.412890063037E+01 -0.146406417887E+01  0.456202676332E+01
 -0.211736228092E+01 -0.147546365549E+01  0.461759421206E+01
 -0.911624326946E-01 -0.143361798824E+01  0.453806475411E+01
  0.152801754078E+01 -0.179556590122E+01  0.408847107176E+01
  0.312455474881E+01 -0.213785386856E+01  0.263359988400E+01
 -0.121578722374E+02 -0.484305443674E-02  0.251545945645E+01
 -0.101351569856E+02 -0.313600073962E-01  0.344074128215E+01
 -0.813284375077E+01 -0.425048997538E-01  0.401297110217E+01
 -0.613388591755E+01 -0.486584207089E-01  0.437249070731E+01
 -0.413176343994E+01 -0.516446040022E-01  0.457159373269E+01
 -0.212137841246E+01 -0.502409051509E-01  0.462737828344E+01
 -0.967509335236E-01 -0.419981127117E-01  0.454069346031E+01
  0.161131213825E+01 -0.593295295081E+00  0.405794142094E+01
  0.333333000000E+01 -0.112691000000E+01  0.250000000000E+01
 -0.121553837286E+02  0.776233661720E+00  0.250852853149E+01
 -0.101322353432E+02  0.103452133548E+01  0.343111196941E+01
 -0.813169919682E+01  0.120034071083E+01  0.400085391304E+01
 -0.613502156433E+01  0.130684129919E+01  0.436024680281E+01
 -0.413700751983E+01  0.136346305924E+01  0.456041952411E+01
 -0.213345371748E+01  0.137862079326E+01  0.461988476912E+01
 -0.119381282250E+00  0.135595578557E+01  0.454153706955E+01
  0.143516906447E+01  0.844375973337E+00  0.416501896481E+01
  0.298447523003E+01  0.294898993282E+00  0.291028511741E+01
 -0.121517596695E+02  0.154768243185E+01  0.244073782832E+01
 -0.101278646256E+02  0.208780685286E+01  0.333624243140E+01
 -0.812721918308E+01  0.242870116218E+01  0.388823768901E+01
 -0.613100789504E+01  0.264662736380E+01  0.423825104615E+01
 -0.413355937341E+01  0.276434366052E+01  0.443169707642E+01
 -0.213150672560E+01  0.279629413386E+01  0.448951624029E+01
 -0.121477710887E+00  0.274495840168E+01  0.441880960521E+01
  0.128621917128E+01  0.228591599229E+01  0.410881595062E+01
  0.268012989187E+01  0.176701582575E+01  0.311133931334E+01
 -0.121491334215E+02  0.229936829393E+01  0.231454481241E+01
 -0.101221711014E+02  0.311479157761E+01  0.315870354613E+01
 -0.811997129365E+01  0.362717190421E+01  0.367790982307E+01
 -0.612024838790E+01  0.395366901021E+01  0.400822584162E+01
 -0.411792679310E+01  0.413175937719E+01  0.419027016518E+01
 -0.211195633545E+01  0.418050321621E+01  0.424663039648E+01
 -0.100870135521E+00  0.410276830865E+01  0.418050322633E+01
  0.117234320535E+01  0.369643993921E+01  0.390356152991E+01
  0.241681159156E+01  0.325225882083E+01  0.306619444248E+01
 -0.121440963856E+02  0.302316748445E+01  0.213357431301E+01
 -0.101178305228E+02  0.410592538358E+01  0.290160071743E+01
 -0.811419717960E+01  0.478177175399E+01  0.337745355884E+01
 -0.610474155799E+01  0.521187267338E+01  0.367902883246E+01
 -0.409247793844E+01  0.544753488318E+01  0.384689803567E+01
 -0.207764490099E+01  0.551192435508E+01  0.389618617478E+01
 -0.550001768786E-01  0.540869311819E+01  0.383283254876E+01
  0.109657194410E+01  0.504788327882E+01  0.355303774309E+01
  0.221679846546E+01  0.467569950235E+01  0.276815399407E+01
 -0.121384276808E+02  0.371063850298E+01  0.190268989837E+01
 -0.101302048254E+02  0.504369865973E+01  0.257887661701E+01
 -0.811211867669E+01  0.587602957410E+01  0.300138252318E+01
 -0.608959229076E+01  0.640407578031E+01  0.326791199565E+01
 -0.406424926417E+01  0.669393024305E+01  0.341588766329E+01
 -0.203729125354E+01  0.677272300630E+01  0.345896655423E+01
 -0.771141162583E-02  0.664550160014E+01  0.339820852624E+01
  0.104883369307E+01  0.631876541557E+01  0.308328934505E+01
  0.204947000000E+01  0.598972000000E+01  0.228122000000E+01
 -0.121524093553E+02 -0.337935228634E+01  0.247079282090E+01
 -0.101493204028E+02 -0.462811015217E+01  0.336727891554E+01
 -0.812962538270E+01 -0.540025516008E+01  0.392158691074E+01
 -0.610375321531E+01 -0.588755844156E+01  0.426962210458E+01
 -0.407376116108E+01 -0.615058730611E+01  0.446146893604E+01
 -0.204198872222E+01 -0.621733827046E+01  0.451580430197E+01
 -0.938041500302E-02 -0.609211672255E+01  0.443443487071E+01
  0.136476376070E+01 -0.587986192350E+01  0.398485039454E+01
  0.267357000000E+01 -0.571343000000E+01  0.254410000000E+01
 -0.121547216471E+02 -0.277963091444E+01  0.279312269968E+01
 -0.101386179651E+02 -0.381130879750E+01  0.381154466211E+01
 -0.813184125705E+01 -0.444733073165E+01  0.443505659862E+01
 -0.611062123541E+01 -0.485004453460E+01  0.482843540275E+01
 -0.408566851456E+01 -0.506652936483E+01  0.504567715857E+01
 -0.205841774031E+01 -0.511869935436E+01  0.510860002344E+01
 -0.233175491895E-01 -0.501173690816E+01  0.502132521000E+01
  0.139713549918E+01 -0.493541691182E+01  0.453294641088E+01
  0.277121828211E+01 -0.490357349204E+01  0.298921618963E+01
 -0.121565391473E+02 -0.213112207616E+01  0.304813296070E+01
 -0.101366892576E+02 -0.292483770526E+01  0.416320532317E+01
 -0.813134058479E+01 -0.341497523011E+01  0.484577066596E+01
 -0.611629326251E+01 -0.372395350160E+01  0.527683994394E+01
 -0.409485769988E+01 -0.388964957496E+01  0.551269064762E+01
 -0.206900327500E+01 -0.392809419177E+01  0.558070780727E+01
 -0.356407724384E-01 -0.384254329016E+01  0.548624114431E+01
  0.144826341497E+01 -0.391195698908E+01  0.495682118627E+01
  0.288770957309E+01 -0.400904489781E+01  0.330506235743E+01
 -0.121586471147E+02 -0.144458848603E+01  0.322996907475E+01
 -0.101369259018E+02 -0.198645144395E+01  0.441260126123E+01
 -0.813187959411E+01 -0.232122495652E+01  0.513918740627E+01
 -0.611919236041E+01 -0.253239853006E+01  0.559701035935E+01
 -0.410094856615E+01 -0.264401822800E+01  0.585006762667E+01
 -0.207660986001E+01 -0.266765789594E+01  0.591995227940E+01
 -0.418401844166E-01 -0.260611196940E+01  0.581741042020E+01
  0.150833640323E+01 -0.282961588721E+01  0.525224090935E+01
  0.302351770552E+01 -0.306122135067E+01  0.346992477452E+01
 -0.121598284562E+02 -0.731809923189E+00  0.333301472126E+01
 -0.101374919274E+02 -0.101322867258E+01  0.455421615011E+01
 -0.813188088780E+01 -0.118600214970E+01  0.530515665059E+01
 -0.612003161812E+01 -0.129473596302E+01  0.577641926907E+01
 -0.410348425076E+01 -0.135171111841E+01  0.603963994852E+01
 -0.208082841268E+01 -0.136239259496E+01  0.611366483750E+01
 -0.465347074562E-01 -0.132567630085E+01  0.600767024121E+01
  0.157656681860E+01 -0.170907729384E+01  0.541291275817E+01
  0.316744851416E+01 -0.209154515540E+01  0.347911288802E+01
 -0.121597836178E+02 -0.578301110963E-02  0.335405091126E+01
 -0.101365538594E+02 -0.228056817527E-01  0.458389506744E+01
 -0.813105920914E+01 -0.295469414001E-01  0.533996494563E+01
 -0.611995355763E+01 -0.338037028577E-01  0.581433982151E+01
 -0.410416511086E+01 -0.355671367402E-01  0.607861622858E+01
 -0.208202843250E+01 -0.339506900893E-01  0.615403937694E+01
 -0.497119615320E-01 -0.274751918507E-01  0.604626186671E+01
  0.164172618048E+01 -0.582701370992E+00  0.541493332647E+01
  0.333333000000E+01 -0.112691000000E+01  0.333333000000E+01
 -0.121575537958E+02  0.720179111291E+00  0.332997499177E+01
 -0.101351281481E+02  0.968020688986E+00  0.455059836832E+01
 -0.813043257784E+01  0.112745379130E+01  0.530065192509E+01
 -0.612069367667E+01  0.122791230546E+01  0.577237252279E+01
 -0.410668719678E+01  0.128190806602E+01  0.603624715534E+01
 -0.208688946096E+01  0.129593351550E+01  0.611243751147E+01
 -0.550273114170E-01  0.127343653151E+01  0.600734302658E+01
  0.150815536901E+01  0.762249611735E+00  0.551135256618E+01
  0.304419836254E+01  0.206293150942E+00  0.385066623850E+01
 -0.121539142826E+02  0.143302019938E+01  0.322456636548E+01
 -0.101316762506E+02  0.194160217831E+01  0.440470418922E+01
 -0.812809612173E+01  0.226323537282E+01  0.512871822730E+01
 -0.611833400524E+01  0.246649472134E+01  0.558705989841E+01
 -0.410420510221E+01  0.257586581473E+01  0.583907955344E+01
 -0.208408434734E+01  0.260455133812E+01  0.591128574528E+01
 -0.541410835149E-01  0.255540181587E+01  0.581477909663E+01
  0.137623617815E+01  0.211279836806E+01  0.540649665077E+01
  0.277657661851E+01  0.160813002329E+01  0.408204637111E+01
 -0.121500577184E+02  0.211995624043E+01  0.304131031629E+01
 -0.101288005156E+02  0.287971615542E+01  0.415066676114E+01
 -0.812439594178E+01  0.335653481546E+01  0.482887046940E+01
 -0.611198943244E+01  0.365819115404E+01  0.526035032930E+01
 -0.409593753758E+01  0.382305614371E+01  0.549633231435E+01
 -0.207430324102E+01  0.386591860940E+01  0.556716446550E+01
 -0.443827689598E-01  0.379278046708E+01  0.547713076884E+01
  0.126263605446E+01  0.342110342122E+01  0.511158998260E+01
  0.252225564149E+01  0.302916766194E+01  0.400020624409E+01
 -0.121451554689E+02  0.276899138692E+01  0.278532731042E+01
 -0.101248364412E+02  0.376396840261E+01  0.379171956246E+01
 -0.811875610240E+01  0.438687426961E+01  0.440956720056E+01
 -0.610092099661E+01  0.478278400837E+01  0.480196955402E+01
 -0.408135902925E+01  0.499750549338E+01  0.502106472953E+01
 -0.205890527598E+01  0.505369938351E+01  0.508529455139E+01
 -0.257284286156E-01  0.495820658348E+01  0.500025123642E+01
  0.117159130299E+01  0.465052097750E+01  0.463608654240E+01
  0.230269343015E+01  0.438085176995E+01  0.360771584981E+01
 -0.121404045616E+02  0.336908402893E+01  0.246239569843E+01
 -0.101318736890E+02  0.458301637168E+01  0.333764287910E+01
 -0.811392086781E+01  0.534142970486E+01  0.388440522043E+01
 -0.609120167996E+01  0.582276570196E+01  0.423125870305E+01
 -0.406516867675E+01  0.608447055998E+01  0.442371512078E+01
 -0.203739888853E+01  0.615438903297E+01  0.447959168074E+01
 -0.791274558221E-02  0.603822657526E+01  0.440044448336E+01
  0.109926272053E+01  0.577345111110E+01  0.399177299700E+01
  0.212207000000E+01  0.558730000000E+01  0.295352000000E+01
 -0.121541187076E+02 -0.295561025641E+01  0.297034373280E+01
 -0.101503674347E+02 -0.404847397060E+01  0.404934585550E+01
 -0.813265560535E+01 -0.472417755737E+01  0.471300385792E+01
 -0.610525308832E+01 -0.515056154435E+01  0.513317435826E+01
 -0.407443854796E+01 -0.538058155933E+01  0.536370472143E+01
 -0.204087144805E+01 -0.543824345918E+01  0.542920475348E+01
 -0.785825831300E-02 -0.532689150293E+01  0.533308294208E+01
  0.141021967478E+01 -0.523045989241E+01  0.479290802442E+01
  0.273585000000E+01 -0.528053000000E+01  0.306056000000E+01
 -0.121545120947E+02 -0.245947112267E+01  0.339700355932E+01
 -0.101523266239E+02 -0.336883702163E+01  0.463242808897E+01
 -0.813328725533E+01 -0.393407688653E+01  0.538924034408E+01
 -0.610701962908E+01 -0.429135891493E+01  0.586643316520E+01
 -0.407477179496E+01 -0.448210392763E+01  0.613043285420E+01
 -0.203991210571E+01 -0.452848373804E+01  0.620640800660E+01
 -0.527026155193E-02 -0.443359808623E+01  0.609857248007E+01
  0.146023747259E+01 -0.444446062735E+01  0.550232932968E+01
  0.283639000000E+01 -0.458160000000E+01  0.363581000000E+01
 -0.121553538451E+02 -0.190264068487E+01  0.374084742030E+01
 -0.101549584061E+02 -0.260537414475E+01  0.510040148660E+01
 -0.813384424466E+01 -0.304425382978E+01  0.593473212487E+01
 -0.610575061097E+01 -0.332366466335E+01  0.646057448979E+01
 -0.407571969380E+01 -0.347460829241E+01  0.674742318580E+01
 -0.203804624116E+01 -0.350891443590E+01  0.683066372853E+01
 -0.319876956035E-02 -0.343108782463E+01  0.671430918367E+01
  0.151533967814E+01 -0.356154383619E+01  0.606660143899E+01
  0.295176000000E+01 -0.377956000000E+01  0.404840000000E+01
 -0.121561442097E+02 -0.129792856644E+01  0.399277574793E+01
 -0.101566341123E+02 -0.177818181102E+01  0.544184228579E+01
 -0.813472168554E+01 -0.207827021342E+01  0.633310999795E+01
 -0.610509213205E+01 -0.226761426908E+01  0.689518234968E+01
 -0.407225639158E+01 -0.237231719031E+01  0.720463974416E+01
 -0.203672369330E+01 -0.239929485473E+01  0.729106200827E+01
 -0.204909145846E-02 -0.234162265464E+01  0.716524287160E+01
  0.157372774740E+01 -0.260496955817E+01  0.647192686632E+01
  0.307680000000E+01 -0.291030000000E+01  0.427989000000E+01
 -0.121563383743E+02 -0.660707676067E+00  0.414614007409E+01
 -0.101571358628E+02 -0.906526854460E+00  0.564938633524E+01
 -0.813509913316E+01 -0.105970074499E+01  0.657372030512E+01
 -0.610463735149E+01 -0.115687571931E+01  0.715573601086E+01
 -0.407058591701E+01 -0.120945162720E+01  0.748022678906E+01
 -0.203599573230E+01 -0.122195222784E+01  0.757296040652E+01
  0.539023821521E-03 -0.119389835811E+01  0.744269478712E+01
  0.163563727454E+01 -0.159985541023E+01  0.670652478683E+01
  0.320592000000E+01 -0.201270000000E+01  0.431991000000E+01
 -0.121550680736E+02 -0.700217250633E-02  0.419688689964E+01
 -0.101565907509E+02 -0.122359020654E-01  0.571738515385E+01
 -0.813445855136E+01 -0.155488971358E-01  0.665259291692E+01
 -0.610429413814E+01 -0.169175970925E-01  0.724111804610E+01
 -0.406987878342E+01 -0.165721663102E-01  0.756936683360E+01
 -0.203511387553E+01 -0.142820566941E-01  0.766511536896E+01
  0.122502950877E-02 -0.112353914747E-01  0.753563496278E+01
  0.169743566473E+01 -0.572964755595E+00  0.676131804170E+01
  0.333333000000E+01 -0.112691000000E+01  0.416667000000E+01
 -0.121544433917E+02  0.646899084502E+00  0.414355732228E+01
 -0.101546201216E+02  0.881749493425E+00  0.564412648951E+01
 -0.813289297180E+01  0.102824579998E+01  0.656763974226E+01
 -0.610299959155E+01  0.112243766741E+01  0.714994802140E+01
 -0.407013781577E+01  0.117513679052E+01  0.747392306273E+01
 -0.203508900596E+01  0.119276045153E+01  0.756762357278E+01
  0.826583958985E-03  0.116930881333E+01  0.743749005941E+01
  0.158555156295E+01  0.664159047624E+00  0.682487139914E+01
  0.311477000000E+01  0.846185000000E-01  0.477384000000E+01
 -0.121522463090E+02  0.128451379624E+01  0.398778946597E+01
 -0.101517063243E+02  0.175257332483E+01  0.543114256000E+01
 -0.813025953766E+01  0.204485507376E+01  0.632026458928E+01
 -0.610201465536E+01  0.223110516262E+01  0.688200906802E+01
 -0.407019225359E+01  0.233663578921E+01  0.719007308409E+01
 -0.203843927364E+01  0.236550886893E+01  0.727851407348E+01
 -0.634902727471E-03  0.231601696092E+01  0.715602367646E+01
  0.147209600599E+01  0.189251412820E+01  0.665193901589E+01
  0.287533000000E+01  0.141185000000E+01  0.502046000000E+01
 -0.121494876972E+02  0.188991916943E+01  0.373376439199E+01
 -0.101474774292E+02  0.257820501000E+01  0.508366631076E+01
 -0.812662999770E+01  0.300851787447E+01  0.591468447885E+01
 -0.610221935663E+01  0.328370953033E+01  0.643942822747E+01
 -0.406991963922E+01  0.343220829756E+01  0.672771178450E+01
 -0.203951376529E+01  0.346951758340E+01  0.681364352727E+01
 -0.168292894587E-02  0.340056258201E+01  0.669899250920E+01
  0.136373399844E+01  0.306735514365E+01  0.624711056337E+01
  0.263311000000E+01  0.275453000000E+01  0.488788000000E+01
 -0.121473557985E+02  0.244784027121E+01  0.338867519151E+01
 -0.101439002359E+02  0.334059806814E+01  0.461005969116E+01
 -0.812295433730E+01  0.389493422641E+01  0.536288562536E+01
 -0.610021937341E+01  0.424566978802E+01  0.584023143290E+01
 -0.406889692134E+01  0.443689054625E+01  0.610502746053E+01
 -0.203791315276E+01  0.448620089658E+01  0.618305547025E+01
 -0.274649606691E-02  0.439923776074E+01  0.607766338321E+01
  0.126202268423E+01  0.415084719578E+01  0.562811750351E+01
  0.240640000000E+01  0.401125000000E+01  0.438612000000E+01
 -0.121441197436E+02  0.294472932501E+01  0.296177072620E+01
 -0.101361414516E+02  0.401248099352E+01  0.401805007596E+01
 -0.811786129411E+01  0.467717421735E+01  0.467639308641E+01
 -0.609452112229E+01  0.509732582515E+01  0.509418096606E+01
 -0.406681530606E+01  0.532714652810E+01  0.532572446361E+01
 -0.203779798712E+01  0.538790860724E+01  0.539276646997E+01
 -0.632572891905E-02  0.528492223692E+01  0.529995045663E+01
  0.116673230475E+01  0.510080473580E+01  0.481203963544E+01
  0.221231000000E+01  0.508710000000E+01  0.355309000000E+01
  0.500000000000E+01 -0.169037000000E+01  0.489859000001E-15
  0.527591000000E+01 -0.788220000000E+00  0.391887000000E-15
  0.575887000000E+01 -0.658810000000E+00  0.391887000000E-15
  0.624183000000E+01 -0.529401000000E+00  0.391887000000E-15
  0.672480000000E+01 -0.399991000000E+00  0.391887000000E-15
  0.720776000000E+01 -0.270582000000E+00  0.391887000000E-15
  0.769072000000E+01 -0.141172000000E+00  0.391887000000E-15
  0.817369000000E+01 -0.117629000000E-01  0.391887000000E-15
  0.865665000000E+01  0.117647000000E+00  0.391887000000E-15
  0.913961000000E+01  0.247056000000E+00  0.391887000000E-15
  0.962257000000E+01  0.376466000000E+00  0.391887000000E-15
  0.451254766284E+01 -0.132270865263E+00  0.391887000000E-15
  0.483334688369E+01  0.425477313310E+00  0.313510000000E-15
  0.531358819846E+01  0.574073979801E+00  0.313510000000E-15
  0.580608894095E+01  0.703294538197E+00  0.313510000000E-15
  0.630209639120E+01  0.833632214185E+00  0.313510000000E-15
  0.679955323733E+01  0.965118546911E+00  0.313510000000E-15
  0.729735129145E+01  0.109742849894E+01  0.313510000000E-15
  0.779514046175E+01  0.123014531307E+01  0.313510000000E-15
  0.829277171535E+01  0.136276132513E+01  0.313510000000E-15
  0.879021351040E+01  0.149505727100E+01  0.313510000000E-15
  0.929129000000E+01  0.161285000000E+01  0.313510000000E-15
  0.394781900756E+01  0.141041529125E+01  0.293915000000E-15
  0.438417522310E+01  0.165560986310E+01  0.235132000000E-15
  0.487549426041E+01  0.178498641263E+01  0.235132000000E-15
  0.538493314970E+01  0.191292344042E+01  0.235132000000E-15
  0.589879040853E+01  0.204454908801E+01  0.235132000000E-15
  0.641276246323E+01  0.217931175751E+01  0.235132000000E-15
  0.692593073518E+01  0.231523405278E+01  0.235132000000E-15
  0.743797718254E+01  0.245157790153E+01  0.235132000000E-15
  0.794860555731E+01  0.258799346482E+01  0.235132000000E-15
  0.845711959058E+01  0.272235040106E+01  0.235132000000E-15
  0.896000000000E+01  0.284924000000E+01  0.235132000000E-15
  0.348992107197E+01  0.297849977423E+01  0.195943000000E-15
  0.402795924463E+01  0.291057502694E+01  0.156755000000E-15
  0.453652692370E+01  0.300189516938E+01  0.156755000000E-15
  0.505339913926E+01  0.312433801886E+01  0.156755000000E-15
  0.556984461087E+01  0.325789042722E+01  0.156755000000E-15
  0.608519765554E+01  0.339397885164E+01  0.156755000000E-15
  0.659898852544E+01  0.353104701171E+01  0.156755000000E-15
  0.711129097856E+01  0.366829335463E+01  0.156755000000E-15
  0.762204017955E+01  0.380531852236E+01  0.156755000000E-15
  0.812976043490E+01  0.394344516660E+01  0.156755000000E-15
  0.862871000000E+01  0.408562000000E+01  0.156755000000E-15
  0.320904290177E+01  0.451777780941E+01  0.979717000000E-16
  0.379561507565E+01  0.416848152840E+01  0.783774000000E-16
  0.431660870449E+01  0.424418563851E+01  0.783774000000E-16
  0.481924975135E+01  0.437358919213E+01  0.783774000000E-16
  0.531922719478E+01  0.450515738829E+01  0.783774000000E-16
  0.581759416738E+01  0.463845461065E+01  0.783774000000E-16
  0.631510796813E+01  0.477194298325E+01  0.783774000000E-16
  0.681214068783E+01  0.490544126038E+01  0.783774000000E-16
  0.730876235303E+01  0.503915716177E+01  0.783774000000E-16
  0.780507140247E+01  0.517321105004E+01  0.783774000000E-16
  0.829742000000E+01  0.532201000000E+01  0.783774000002E-16
  0.292945000000E+01  0.603704000000E+01  0.639307814100E-27
  0.361947000000E+01  0.539371000000E+01  0.359276776428E-27
  0.410243000000E+01  0.552311000000E+01  0.105950428458E-27
  0.458539000000E+01  0.565252000000E+01  0.158341685938E-27
  0.506835000000E+01  0.578193000000E+01  0.163452405002E-27
  0.555132000000E+01  0.591134000000E+01  0.163625308298E-27
  0.603428000000E+01  0.604075000000E+01  0.161806807998E-27
  0.651724000000E+01  0.617016000000E+01  0.159536637249E-27
  0.700021000000E+01  0.629957000000E+01  0.156736885300E-27
  0.748317000000E+01  0.642898000000E+01  0.141862644093E-27
  0.796613000000E+01  0.655839000000E+01  0.505032545074E-28
  0.498725000000E+01 -0.164280000000E+01  0.625738000000E+00
  0.526571000000E+01 -0.750165000000E+00  0.500590000000E+00
  0.574867000000E+01 -0.620756000000E+00  0.500590000000E+00
  0.623164000000E+01 -0.491346000000E+00  0.500590000000E+00
  0.671460000000E+01 -0.361937000000E+00  0.500590000000E+00
  0.719756000000E+01 -0.232527000000E+00  0.500590000000E+00
  0.768053000000E+01 -0.103118000000E+00  0.500590000000E+00
  0.816349000000E+01  0.262920000000E-01  0.500590000000E+00
  0.864645000000E+01  0.155702000000E+00  0.500590000000E+00
  0.912941000000E+01  0.285111000000E+00  0.500590000000E+00
  0.961238000000E+01  0.414521000000E+00  0.500590000000E+00
  0.451678374529E+01 -0.127381769139E+00  0.782085532702E+00
  0.483811066900E+01  0.431126319536E+00  0.631330604362E+00
  0.531964285323E+01  0.579425214172E+00  0.617781551919E+00
  0.581205007688E+01  0.708381784170E+00  0.613877715719E+00
  0.630720022283E+01  0.838544573057E+00  0.612626335420E+00
  0.680353688190E+01  0.969771636065E+00  0.612394570712E+00
  0.730012029361E+01  0.110178695218E+01  0.612483237306E+00
  0.779671870002E+01  0.123422156767E+01  0.612669071586E+00
  0.829324382666E+01  0.136660212800E+01  0.613028642052E+00
  0.878972433010E+01  0.149884063749E+01  0.613985019160E+00
  0.929009000000E+01  0.161731000000E+01  0.618286000000E+00
  0.396295601078E+01  0.140725834422E+01  0.873536933104E+00
  0.439570451766E+01  0.165516441956E+01  0.693575248434E+00
  0.488743722736E+01  0.178498989345E+01  0.676946257572E+00
  0.539624704615E+01  0.191317473493E+01  0.669702432052E+00
  0.590862149420E+01  0.204465770286E+01  0.667154264076E+00
  0.642069593381E+01  0.217903447055E+01  0.666922957923E+00
  0.693184345090E+01  0.231447890907E+01  0.667471510829E+00
  0.744198121132E+01  0.245035494788E+01  0.668377386206E+00
  0.795091768557E+01  0.258636826737E+01  0.670014634641E+00
  0.845817639232E+01  0.272052507635E+01  0.673414995105E+00
  0.896044000000E+01  0.284757000000E+01  0.680162000000E+00
  0.350656966311E+01  0.297848220837E+01  0.874158704132E+00
  0.403963377550E+01  0.291281018899E+01  0.691229586946E+00
  0.454804080894E+01  0.300572576509E+01  0.676025833516E+00
  0.506397083773E+01  0.312880774869E+01  0.668337129483E+00
  0.557874496776E+01  0.326227813405E+01  0.666161508041E+00
  0.609209407136E+01  0.339799910312E+01  0.666297849963E+00
  0.660379932444E+01  0.353458426303E+01  0.667112141204E+00
  0.711415971596E+01  0.367132885764E+01  0.668176299414E+00
  0.762323586420E+01  0.380787929307E+01  0.669895579776E+00
  0.812975574101E+01  0.394555762438E+01  0.673340819057E+00
  0.862826000000E+01  0.408729000000E+01  0.680162000000E+00
  0.322185098171E+01  0.450978695866E+01  0.783083708955E+00
  0.380602801627E+01  0.416343880561E+01  0.626681268105E+00
  0.432628798239E+01  0.424209152141E+01  0.613453024960E+00
  0.482775826679E+01  0.437193538135E+01  0.611621335459E+00
  0.532638406247E+01  0.450332152313E+01  0.611711641906E+00
  0.582338540990E+01  0.463631593717E+01  0.612236982194E+00
  0.631961009914E+01  0.476947850901E+01  0.612677042630E+00
  0.681548406709E+01  0.490265213932E+01  0.612993891631E+00
  0.731104882319E+01  0.503603311455E+01  0.613365437626E+00
  0.780651745261E+01  0.516967392440E+01  0.614235649868E+00
  0.829861000000E+01  0.531755000000E+01  0.618286000000E+00
  0.294219000000E+01  0.598947000000E+01  0.625738000000E+00
  0.362966000000E+01  0.535565000000E+01  0.500590000000E+00
  0.411263000000E+01  0.548506000000E+01  0.500590000000E+00
  0.459559000000E+01  0.561447000000E+01  0.500590000000E+00
  0.507855000000E+01  0.574388000000E+01  0.500590000000E+00
  0.556151000000E+01  0.587329000000E+01  0.500590000000E+00
  0.604448000000E+01  0.600270000000E+01  0.500590000000E+00
  0.652744000000E+01  0.613211000000E+01  0.500590000000E+00
  0.701040000000E+01  0.626152000000E+01  0.500590000000E+00
  0.749337000000E+01  0.639093000000E+01  0.500590000000E+00
  0.797633000000E+01  0.652034000000E+01  0.500590000000E+00
  0.494933000000E+01 -0.150127000000E+01  0.123607000000E+01
  0.523537000000E+01 -0.636938000000E+00  0.988854000000E+00
  0.571833000000E+01 -0.507528000000E+00  0.988854000000E+00
  0.620130000000E+01 -0.378118000000E+00  0.988854000000E+00
  0.668426000000E+01 -0.248709000000E+00  0.988854000000E+00
  0.716722000000E+01 -0.119299000000E+00  0.988854000000E+00
  0.765019000000E+01  0.101101000000E-01  0.988854000000E+00
  0.813315000000E+01  0.139520000000E+00  0.988854000000E+00
  0.861611000000E+01  0.268929000000E+00  0.988854000000E+00
  0.909907000000E+01  0.398339000000E+00  0.988854000000E+00
  0.958204000000E+01  0.527748000000E+00  0.988854000000E+00
  0.451461393213E+01 -0.664479171318E-01  0.154443052419E+01
  0.484047711817E+01  0.484556992594E+00  0.124614126196E+01
  0.532568113049E+01  0.631354632443E+00  0.122242478767E+01
  0.581744952290E+01  0.759626444219E+00  0.121655366750E+01
  0.631008286610E+01  0.889286437714E+00  0.121489828418E+01
  0.680332999532E+01  0.101969740111E+01  0.121469372944E+01
  0.729678792391E+01  0.115097699939E+01  0.121486257482E+01
  0.779033956854E+01  0.128272973762E+01  0.121512200872E+01
  0.828407941059E+01  0.141445651356E+01  0.121560723362E+01
  0.877811450549E+01  0.154652167566E+01  0.121697534395E+01
  0.927681000000E+01  0.166687000000E+01  0.122425000000E+01
  0.400016502298E+01  0.142172933099E+01  0.172273372723E+01
  0.442442733468E+01  0.167277192073E+01  0.137213339257E+01
  0.491781465086E+01  0.180346042308E+01  0.134121018688E+01
  0.542448666492E+01  0.193218798087E+01  0.132951585166E+01
  0.593224074526E+01  0.206309841453E+01  0.132603247283E+01
  0.643864915054E+01  0.219623226407E+01  0.132607228984E+01
  0.694400359044E+01  0.233031333682E+01  0.132707790902E+01
  0.744862567677E+01  0.246486931494E+01  0.132846913792E+01
  0.795275904270E+01  0.259972649877E+01  0.133092231620E+01
  0.845634665941E+01  0.273327605445E+01  0.133631077244E+01
  0.895686000000E+01  0.286093000000E+01  0.134800000000E+01
  0.356079163921E+01  0.295535023765E+01  0.172360819528E+01
  0.407883958345E+01  0.290109443788E+01  0.136846401001E+01
  0.458703242532E+01  0.299917524126E+01  0.133950443154E+01
  0.509981274323E+01  0.312394413734E+01  0.132705936364E+01
  0.560938991504E+01  0.325705816735E+01  0.132432767558E+01
  0.611668130599E+01  0.339165247911E+01  0.132502170092E+01
  0.662240450743E+01  0.352681720424E+01  0.132647390354E+01
  0.712720946613E+01  0.366208090459E+01  0.132812295875E+01
  0.763149484223E+01  0.379727403786E+01  0.133070765896E+01
  0.813452937495E+01  0.393364405005E+01  0.133616898630E+01
  0.863184000000E+01  0.407393000000E+01  0.134800000000E+01
  0.326727705936E+01  0.444192281555E+01  0.154452640287E+01
  0.384331865738E+01  0.411187268395E+01  0.123846524263E+01
  0.436147158512E+01  0.419908197443E+01  0.121545137653E+01
  0.485967745875E+01  0.432962146853E+01  0.121306919600E+01
  0.535461601877E+01  0.446041022057E+01  0.121357508915E+01
  0.584798391846E+01  0.459267369490E+01  0.121454664894E+01
  0.634099294704E+01  0.472498562048E+01  0.121523489518E+01
  0.683393373584E+01  0.485729524967E+01  0.121568059406E+01
  0.732687671905E+01  0.498991020408E+01  0.121617359015E+01
  0.782025570222E+01  0.512253037458E+01  0.121740046660E+01
  0.831189000000E+01  0.526799000000E+01  0.122425000000E+01
  0.298012000000E+01  0.584793000000E+01  0.123607000000E+01
  0.366000000000E+01  0.524242000000E+01  0.988854000000E+00
  0.414296000000E+01  0.537183000000E+01  0.988854000000E+00
  0.462593000000E+01  0.550124000000E+01  0.988854000000E+00
  0.510889000000E+01  0.563065000000E+01  0.988854000000E+00
  0.559185000000E+01  0.576006000000E+01  0.988854000000E+00
  0.607482000000E+01  0.588947000000E+01  0.988854000000E+00
  0.655778000000E+01  0.601888000000E+01  0.988854000000E+00
  0.704074000000E+01  0.614829000000E+01  0.988854000000E+00
  0.752371000000E+01  0.627770000000E+01  0.988854000000E+00
  0.800667000000E+01  0.640711000000E+01  0.988854000000E+00
  0.488716000000E+01 -0.126925000000E+01  0.181596000000E+01
  0.518564000000E+01 -0.451325000000E+00  0.145277000000E+01
  0.566860000000E+01 -0.321916000000E+00  0.145277000000E+01
  0.615156000000E+01 -0.192506000000E+00  0.145277000000E+01
  0.663453000000E+01 -0.630967000000E-01  0.145277000000E+01
  0.711749000000E+01  0.663128000000E-01  0.145277000000E+01
  0.760045000000E+01  0.195722000000E+00  0.145277000000E+01
  0.808341000000E+01  0.325132000000E+00  0.145277000000E+01
  0.856638000000E+01  0.454541000000E+00  0.145277000000E+01
  0.904934000000E+01  0.583951000000E+00  0.145277000000E+01
  0.953230000000E+01  0.713360000000E+00  0.145277000000E+01
  0.450528303561E+01  0.485905470092E-01  0.226845650415E+01
  0.484065787015E+01  0.583605029023E+00  0.182889027895E+01
  0.533089556751E+01  0.727752402435E+00  0.180201942822E+01
  0.582043838852E+01  0.855171464621E+00  0.179742682765E+01
  0.630860187149E+01  0.983503138458E+00  0.179634380508E+01
  0.679731521525E+01  0.111309048393E+01  0.179622392049E+01
  0.728640071117E+01  0.124345536234E+01  0.179640601864E+01
  0.777577089285E+01  0.137427793509E+01  0.179663279507E+01
  0.826531026335E+01  0.150529119529E+01  0.179690312183E+01
  0.875589962152E+01  0.163675575303E+01  0.179782224757E+01
  0.925190000000E+01  0.175986000000E+01  0.180586000000E+01
  0.405478659213E+01  0.145541672842E+01  0.252347036477E+01
  0.446936685640E+01  0.170806363371E+01  0.201949686069E+01
  0.496583411021E+01  0.184001286967E+01  0.198105519534E+01
  0.546780673661E+01  0.196936495770E+01  0.197076171485E+01
  0.596694432331E+01  0.209865235512E+01  0.196859958731E+01
  0.646417165238E+01  0.222994471513E+01  0.196911239382E+01
  0.696069299323E+01  0.236204218845E+01  0.197021808136E+01
  0.745707594364E+01  0.249464831963E+01  0.197144916576E+01
  0.795375508345E+01  0.262782013673E+01  0.197337012388E+01
  0.845182662533E+01  0.276027394371E+01  0.197823194063E+01
  0.894940000000E+01  0.288877000000E+01  0.199149000000E+01
  0.364713301158E+01  0.291257550479E+01  0.252330034313E+01
  0.414462267636E+01  0.287649078606E+01  0.201613510059E+01
  0.465267332468E+01  0.298315032179E+01  0.197898600600E+01
  0.515912458070E+01  0.310992036100E+01  0.196798587707E+01
  0.565884889522E+01  0.324212719256E+01  0.196685213336E+01
  0.615634793940E+01  0.337470934137E+01  0.196805273193E+01
  0.665297737211E+01  0.350760344445E+01  0.196959949697E+01
  0.714946911534E+01  0.364060880108E+01  0.197107744613E+01
  0.764638095777E+01  0.377357768630E+01  0.197311916845E+01
  0.814408440543E+01  0.390810634418E+01  0.197804817524E+01
  0.863930000000E+01  0.404608000000E+01  0.199149000000E+01
  0.333912708440E+01  0.431865953459E+01  0.226539929574E+01
  0.390450980982E+01  0.401642108130E+01  0.182106669426E+01
  0.441921793314E+01  0.411619337512E+01  0.179493872787E+01
  0.491188922800E+01  0.424703499098E+01  0.179423619370E+01
  0.540055956501E+01  0.437732328496E+01  0.179528775814E+01
  0.588900267374E+01  0.450831669664E+01  0.179622773353E+01
  0.637766698955E+01  0.463941218080E+01  0.179686038316E+01
  0.686662565127E+01  0.477055384994E+01  0.179723316437E+01
  0.735577962457E+01  0.490177330111E+01  0.179750104804E+01
  0.784606021025E+01  0.503324373778E+01  0.179828261007E+01
  0.833681000000E+01  0.517500000000E+01  0.180586000000E+01
  0.304229000000E+01  0.561592000000E+01  0.181596000000E+01
  0.370974000000E+01  0.505681000000E+01  0.145277000000E+01
  0.419270000000E+01  0.518622000000E+01  0.145277000000E+01
  0.467566000000E+01  0.531563000000E+01  0.145277000000E+01
  0.515863000000E+01  0.544504000000E+01  0.145277000000E+01
  0.564159000000E+01  0.557445000000E+01  0.145277000000E+01
  0.612455000000E+01  0.570386000000E+01  0.145277000000E+01
  0.660751000000E+01  0.583327000000E+01  0.145277000000E+01
  0.709048000000E+01  0.596268000000E+01  0.145277000000E+01
  0.757344000000E+01  0.609209000000E+01  0.145277000000E+01
  0.805640000000E+01  0.622150000000E+01  0.145277000000E+01
  0.480228000000E+01 -0.952469000000E+00  0.235114000000E+01
  0.511773000000E+01 -0.197899000000E+00  0.188091000000E+01
  0.560069000000E+01 -0.684892000000E-01  0.188091000000E+01
  0.608366000000E+01  0.609204000000E-01  0.188091000000E+01
  0.656662000000E+01  0.190330000000E+00  0.188091000000E+01
  0.704958000000E+01  0.319739000000E+00  0.188091000000E+01
  0.753255000000E+01  0.449149000000E+00  0.188091000000E+01
  0.801551000000E+01  0.578558000000E+00  0.188091000000E+01
  0.849847000000E+01  0.707968000000E+00  0.188091000000E+01
  0.898143000000E+01  0.837378000000E+00  0.188091000000E+01
  0.946440000000E+01  0.966787000000E+00  0.188091000000E+01
  0.448363298296E+01  0.215570278127E+00  0.294050409842E+01
  0.483747695045E+01  0.724452913639E+00  0.236568571008E+01
  0.533208526723E+01  0.864163152140E+00  0.234733652899E+01
  0.581546909728E+01  0.988624537586E+00  0.234643371283E+01
  0.629853497264E+01  0.111758037629E+01  0.234573317918E+01
  0.678267475085E+01  0.124672966267E+01  0.234572446679E+01
  0.726742313080E+01  0.137645322655E+01  0.234580482767E+01
  0.775256896457E+01  0.150639790523E+01  0.234587372811E+01
  0.823791122266E+01  0.163618478765E+01  0.234608187929E+01
  0.872303429083E+01  0.176732079347E+01  0.234578697103E+01
  0.921608000000E+01  0.189354000000E+01  0.235170000000E+01
  0.411409408156E+01  0.150972353207E+01  0.325659514054E+01
  0.452704299515E+01  0.176026162265E+01  0.261800412095E+01
  0.502715072130E+01  0.189265649878E+01  0.258839339829E+01
  0.551745962047E+01  0.202015335156E+01  0.258620914030E+01
  0.600461661612E+01  0.214832708812E+01  0.258520166904E+01
  0.649123827459E+01  0.227798354800E+01  0.258571179029E+01
  0.697829850685E+01  0.240811896396E+01  0.258625280808E+01
  0.746583924606E+01  0.253858932682E+01  0.258675407046E+01
  0.795394536791E+01  0.266956815402E+01  0.258764005825E+01
  0.844383170793E+01  0.280072020171E+01  0.258889843435E+01
  0.893831000000E+01  0.293018000000E+01  0.259920000000E+01
  0.374862164164E+01  0.285310509319E+01  0.325464794853E+01
  0.423242066089E+01  0.283949621857E+01  0.261615288177E+01
  0.473997419043E+01  0.295823148051E+01  0.258666329390E+01
  0.523159591938E+01  0.308653323447E+01  0.258456677672E+01
  0.571820056562E+01  0.321638469630E+01  0.258427687852E+01
  0.620465245938E+01  0.334624748841E+01  0.258513489850E+01
  0.669160155859E+01  0.347658400172E+01  0.258590026671E+01
  0.717914531349E+01  0.360719012327E+01  0.258652031204E+01
  0.766742352347E+01  0.373779867221E+01  0.258746611608E+01
  0.815732534198E+01  0.386927058692E+01  0.258873844284E+01
  0.865040000000E+01  0.400468000000E+01  0.259920000000E+01
  0.342671585611E+01  0.414312545311E+01  0.293387842498E+01
  0.398522355440E+01  0.387980656151E+01  0.236062819958E+01
  0.449397100270E+01  0.399544013150E+01  0.234292112481E+01
  0.497563462311E+01  0.412701531956E+01  0.234499552473E+01
  0.545870583937E+01  0.425526531121E+01  0.234530928971E+01
  0.594251119298E+01  0.438483010909E+01  0.234587268892E+01
  0.642709335874E+01  0.451457268601E+01  0.234615636193E+01
  0.691210811691E+01  0.464450156321E+01  0.234628854370E+01
  0.739721496430E+01  0.477475818537E+01  0.234648415594E+01
  0.788280168210E+01  0.490377645107E+01  0.234613354369E+01
  0.837263000000E+01  0.504132000000E+01  0.235170000000E+01
  0.312717000000E+01  0.529913000000E+01  0.235114000000E+01
  0.377764000000E+01  0.480338000000E+01  0.188091000000E+01
  0.426060000000E+01  0.493279000000E+01  0.188091000000E+01
  0.474357000000E+01  0.506220000000E+01  0.188091000000E+01
  0.522653000000E+01  0.519161000000E+01  0.188091000000E+01
  0.570949000000E+01  0.532102000000E+01  0.188091000000E+01
  0.619246000000E+01  0.545043000000E+01  0.188091000000E+01
  0.667542000000E+01  0.557984000000E+01  0.188091000000E+01
  0.715838000000E+01  0.570925000000E+01  0.188091000000E+01
  0.764135000000E+01  0.583866000000E+01  0.188091000000E+01
  0.812431000000E+01  0.596807000000E+01  0.188091000000E+01
  0.469677000000E+01 -0.558718000000E+00  0.282843000000E+01
  0.503333000000E+01  0.117102000000E+00  0.226274000000E+01
  0.551629000000E+01  0.246512000000E+00  0.226274000000E+01
  0.599925000000E+01  0.375921000000E+00  0.226274000000E+01
  0.648222000000E+01  0.505331000000E+00  0.226274000000E+01
  0.696518000000E+01  0.634740000000E+00  0.226274000000E+01
  0.744814000000E+01  0.764150000000E+00  0.226274000000E+01
  0.793110000000E+01  0.893559000000E+00  0.226274000000E+01
  0.841407000000E+01  0.102297000000E+01  0.226274000000E+01
  0.889703000000E+01  0.115238000000E+01  0.226274000000E+01
  0.937999000000E+01  0.128179000000E+01  0.226274000000E+01
  0.443473000000E+01  0.419249000000E+00  0.356403000000E+01
  0.482369000000E+01  0.899475000000E+00  0.285122000000E+01
  0.530665000000E+01  0.102888000000E+01  0.285122000000E+01
  0.578962000000E+01  0.115829000000E+01  0.285122000000E+01
  0.627258000000E+01  0.128770000000E+01  0.285122000000E+01
  0.675554000000E+01  0.141711000000E+01  0.285122000000E+01
  0.723851000000E+01  0.154652000000E+01  0.285122000000E+01
  0.772147000000E+01  0.167593000000E+01  0.285122000000E+01
  0.820443000000E+01  0.180534000000E+01  0.285122000000E+01
  0.868739000000E+01  0.193475000000E+01  0.285122000000E+01
  0.917036000000E+01  0.206416000000E+01  0.285122000000E+01
  0.412668000000E+01  0.156892000000E+01  0.395075000000E+01
  0.457725000000E+01  0.181921000000E+01  0.316060000000E+01
  0.506021000000E+01  0.194862000000E+01  0.316060000000E+01
  0.554317000000E+01  0.207803000000E+01  0.316060000000E+01
  0.602614000000E+01  0.220744000000E+01  0.316060000000E+01
  0.650910000000E+01  0.233685000000E+01  0.316060000000E+01
  0.699206000000E+01  0.246626000000E+01  0.316060000000E+01
  0.747503000000E+01  0.259567000000E+01  0.316060000000E+01
  0.795799000000E+01  0.272508000000E+01  0.316060000000E+01
  0.844095000000E+01  0.285449000000E+01  0.316060000000E+01
  0.892392000000E+01  0.298390000000E+01  0.316060000000E+01
  0.380277000000E+01  0.277775000000E+01  0.395075000000E+01
  0.431812000000E+01  0.278628000000E+01  0.316060000000E+01
  0.480109000000E+01  0.291569000000E+01  0.316060000000E+01
  0.528405000000E+01  0.304509000000E+01  0.316060000000E+01
  0.576701000000E+01  0.317450000000E+01  0.316060000000E+01
  0.624998000000E+01  0.330391000000E+01  0.316060000000E+01
  0.673294000000E+01  0.343332000000E+01  0.316060000000E+01
  0.721590000000E+01  0.356273000000E+01  0.316060000000E+01
  0.769886000000E+01  0.369214000000E+01  0.316060000000E+01
  0.818183000000E+01  0.382155000000E+01  0.316060000000E+01
  0.866479000000E+01  0.395096000000E+01  0.316060000000E+01
  0.349472000000E+01  0.392742000000E+01  0.356403000000E+01
  0.407168000000E+01  0.370601000000E+01  0.285122000000E+01
  0.455465000000E+01  0.383542000000E+01  0.285122000000E+01
  0.503761000000E+01  0.396483000000E+01  0.285122000000E+01
  0.552057000000E+01  0.409424000000E+01  0.285122000000E+01
  0.600353000000E+01  0.422365000000E+01  0.285122000000E+01
  0.648650000000E+01  0.435306000000E+01  0.285122000000E+01
  0.696946000000E+01  0.448247000000E+01  0.285122000000E+01
  0.745242000000E+01  0.461188000000E+01  0.285122000000E+01
  0.793539000000E+01  0.474129000000E+01  0.285122000000E+01
  0.841835000000E+01  0.487070000000E+01  0.285122000000E+01
  0.323267000000E+01  0.490538000000E+01  0.282843000000E+01
  0.386205000000E+01  0.448838000000E+01  0.226274000000E+01
  0.434501000000E+01  0.461779000000E+01  0.226274000000E+01
  0.482797000000E+01  0.474720000000E+01  0.226274000000E+01
  0.531093000000E+01  0.487661000000E+01  0.226274000000E+01
  0.579390000000E+01  0.500602000000E+01  0.226274000000E+01
  0.627686000000E+01  0.513543000000E+01  0.226274000000E+01
  0.675982000000E+01  0.526484000000E+01  0.226274000000E+01
  0.724279000000E+01  0.539425000000E+01  0.226274000000E+01
  0.772575000000E+01  0.552366000000E+01  0.226274000000E+01
  0.820871000000E+01  0.565307000000E+01  0.226274000000E+01
  0.560370000000E+01 -0.185213000000E+01  0.275546000000E-15
  0.620741000000E+01 -0.201389000000E+01  0.275546000000E-15
  0.681111000000E+01 -0.217566000000E+01  0.275546000000E-15
  0.741481000000E+01 -0.233742000000E+01  0.275546000000E-15
  0.801852000000E+01 -0.249918000000E+01  0.275546000000E-15
  0.862222000000E+01 -0.266094000000E+01  0.275546000000E-15
  0.922593000000E+01 -0.282270000000E+01  0.275546000000E-15
  0.982963000000E+01 -0.298447000000E+01  0.275546000000E-15
  0.461884174534E+01 -0.254158462000E+01  0.220436000000E-15
  0.522880327418E+01 -0.269454434287E+01  0.220436000000E-15
  0.585735284529E+01 -0.286314257430E+01  0.220436000000E-15
  0.648700521001E+01 -0.303046365850E+01  0.220436000000E-15
  0.711308157681E+01 -0.319769366002E+01  0.220436000000E-15
  0.773600987488E+01 -0.336425636954E+01  0.220436000000E-15
  0.835690174247E+01 -0.353025518844E+01  0.220436000000E-15
  0.897627328009E+01 -0.369659044892E+01  0.220436000000E-15
  0.959669000000E+01 -0.385380000000E+01  0.220436000000E-15
  0.431680153082E+01 -0.339651504094E+01  0.165327000000E-15
  0.493328709871E+01 -0.354556702085E+01  0.165327000000E-15
  0.557151926343E+01 -0.371168325013E+01  0.165327000000E-15
  0.621190559247E+01 -0.388218001902E+01  0.165327000000E-15
  0.684897328162E+01 -0.405287470191E+01  0.165327000000E-15
  0.748250430765E+01 -0.422279551185E+01  0.165327000000E-15
  0.811330501002E+01 -0.439207072735E+01  0.165327000000E-15
  0.874160092623E+01 -0.456023799082E+01  0.165327000000E-15
  0.936375000000E+01 -0.472313000000E+01  0.165327000000E-15
  0.408701788351E+01 -0.426980995367E+01  0.110218000000E-15
  0.470893608702E+01 -0.440628581993E+01  0.110218000000E-15
  0.534813739632E+01 -0.457113596682E+01  0.110218000000E-15
  0.598647468721E+01 -0.474198677251E+01  0.110218000000E-15
  0.662166378272E+01 -0.491290492465E+01  0.110218000000E-15
  0.725374909526E+01 -0.508309875076E+01  0.110218000000E-15
  0.788359684756E+01 -0.525239829226E+01  0.110218000000E-15
  0.851106823107E+01 -0.542142462324E+01  0.110218000000E-15
  0.913082000000E+01 -0.559247000000E+01  0.110218000000E-15
  0.392661107087E+01 -0.515398380573E+01  0.551091000000E-16
  0.455693298323E+01 -0.528694795569E+01  0.551091000000E-16
  0.518200975250E+01 -0.545446613175E+01  0.551091000000E-16
  0.580545374757E+01 -0.562139155158E+01  0.551091000000E-16
  0.642647065718E+01 -0.578875597009E+01  0.551091000000E-16
  0.704597612047E+01 -0.595545055751E+01  0.551091000000E-16
  0.766453886624E+01 -0.612188452288E+01  0.551091000000E-16
  0.828269782718E+01 -0.628744857555E+01  0.551091000000E-16
  0.889788000000E+01 -0.646180000000E+01  0.551091000001E-16
  0.383531000000E+01 -0.603704000000E+01  0.440759477076E-27
  0.443902000000E+01 -0.619880000000E+01  0.106765989407E-27
  0.504272000000E+01 -0.636056000000E+01  0.127060059095E-27
  0.564643000000E+01 -0.652232000000E+01  0.122227701917E-27
  0.625013000000E+01 -0.668408000000E+01  0.116503555277E-27
  0.685383000000E+01 -0.684585000000E+01  0.111079763398E-27
  0.745754000000E+01 -0.700761000000E+01  0.107126791998E-27
  0.806124000000E+01 -0.716937000000E+01  0.982787931701E-28
  0.866494000000E+01 -0.733113000000E+01  0.354628056854E-28
  0.499283000000E+01 -0.171713000000E+01  0.351978000000E+00
  0.559653000000E+01 -0.187889000000E+01  0.351978000000E+00
  0.620024000000E+01 -0.204065000000E+01  0.351978000000E+00
  0.680394000000E+01 -0.220241000000E+01  0.351978000000E+00
  0.740764000000E+01 -0.236418000000E+01  0.351978000000E+00
  0.801135000000E+01 -0.252594000000E+01  0.351978000000E+00
  0.861505000000E+01 -0.268770000000E+01  0.351978000000E+00
  0.921876000000E+01 -0.284946000000E+01  0.351978000000E+00
  0.982246000000E+01 -0.301122000000E+01  0.351978000000E+00
  0.463082500402E+01 -0.254503698095E+01  0.451995163553E+00
  0.524220592136E+01 -0.270088386504E+01  0.429358957905E+00
  0.586795134838E+01 -0.286808634564E+01  0.426169652142E+00
  0.649415692802E+01 -0.303472944610E+01  0.427607106807E+00
  0.711754015843E+01 -0.320137754377E+01  0.429382265241E+00
  0.773848766615E+01 -0.336753575061E+01  0.430514255944E+00
  0.835790246183E+01 -0.353323042473E+01  0.431157448486E+00
  0.897613760175E+01 -0.369932669814E+01  0.431757275629E+00
  0.959585000000E+01 -0.385693000000E+01  0.434732000000E+00
  0.433289662452E+01 -0.339582015451E+01  0.501221277687E+00
  0.495018945642E+01 -0.354812806616E+01  0.472511689316E+00
  0.558570525174E+01 -0.371398583139E+01  0.467576571387E+00
  0.622243025141E+01 -0.388349957786E+01  0.467856374384E+00
  0.685617420682E+01 -0.405328888484E+01  0.469700980283E+00
  0.748702726541E+01 -0.422247349365E+01  0.471173772170E+00
  0.811574083205E+01 -0.439120691236E+01  0.472331160576E+00
  0.874258831542E+01 -0.455902987952E+01  0.474176893685E+00
  0.936407000000E+01 -0.472196000000E+01  0.478239000000E+00
  0.410098518592E+01 -0.427136090307E+01  0.498482425179E+00
  0.472343192277E+01 -0.441127059947E+01  0.473782735525E+00
  0.536012416174E+01 -0.457631222258E+01  0.467944544720E+00
  0.599529229079E+01 -0.474627571892E+01  0.468545301974E+00
  0.662757506182E+01 -0.491628393199E+01  0.470182361059E+00
  0.725723018128E+01 -0.508570950024E+01  0.471498131025E+00
  0.788517237747E+01 -0.525441699958E+01  0.472529064749E+00
  0.851128451172E+01 -0.542299927033E+01  0.474281816167E+00
  0.913050000000E+01 -0.559364000000E+01  0.478239000000E+00
  0.393735946786E+01 -0.515088907786E+01  0.447941719644E+00
  0.456753219405E+01 -0.528701381618E+01  0.430168457408E+00
  0.519060972924E+01 -0.545453466461E+01  0.428493854590E+00
  0.581197632199E+01 -0.562083699936E+01  0.429440500493E+00
  0.643124704802E+01 -0.578756949696E+01  0.430547253759E+00
  0.704932238252E+01 -0.595375979169E+01  0.431204687421E+00
  0.766670596741E+01 -0.611977440039E+01  0.431568874923E+00
  0.828390527806E+01 -0.628499314237E+01  0.431982643392E+00
  0.889872000000E+01 -0.645867000000E+01  0.434732000000E+00
  0.384248000000E+01 -0.601028000000E+01  0.351978000000E+00
  0.444619000000E+01 -0.617204000000E+01  0.351978000000E+00
  0.504989000000E+01 -0.633380000000E+01  0.351978000000E+00
  0.565359000000E+01 -0.649556000000E+01  0.351978000000E+00
  0.625730000000E+01 -0.665733000000E+01  0.351978000000E+00
  0.686100000000E+01 -0.681909000000E+01  0.351978000000E+00
  0.746471000000E+01 -0.698085000000E+01  0.351978000000E+00
  0.806841000000E+01 -0.714261000000E+01  0.351978000000E+00
  0.867211000000E+01 -0.730437000000E+01  0.351978000000E+00
  0.497150000000E+01 -0.179674000000E+01  0.695288000000E+00
  0.557520000000E+01 -0.195850000000E+01  0.695288000000E+00
  0.617891000000E+01 -0.212026000000E+01  0.695288000000E+00
  0.678261000000E+01 -0.228203000000E+01  0.695288000000E+00
  0.738631000000E+01 -0.244379000000E+01  0.695288000000E+00
  0.799002000000E+01 -0.260555000000E+01  0.695288000000E+00
  0.859372000000E+01 -0.276731000000E+01  0.695288000000E+00
  0.919742000000E+01 -0.292907000000E+01  0.695288000000E+00
  0.980113000000E+01 -0.309084000000E+01  0.695288000000E+00
  0.465212797263E+01 -0.258093525645E+01  0.887393755449E+00
  0.526750307764E+01 -0.274356282946E+01  0.851935956160E+00
  0.588616729067E+01 -0.290731779855E+01  0.847431529551E+00
  0.650395576559E+01 -0.307223809377E+01  0.849804931524E+00
  0.712085802112E+01 -0.323739504119E+01  0.852482321649E+00
  0.773712107578E+01 -0.340263487130E+01  0.854101024430E+00
  0.835298134005E+01 -0.356757232842E+01  0.854992197821E+00
  0.896845288459E+01 -0.373307566810E+01  0.855796567976E+00
  0.958652000000E+01 -0.389178000000E+01  0.860798000000E+00
  0.437137849881E+01 -0.340711346923E+01  0.984465321155E+00
  0.499134915910E+01 -0.356753346907E+01  0.937789589135E+00
  0.561989547189E+01 -0.373253725410E+01  0.930485531613E+00
  0.624708618776E+01 -0.389938409318E+01  0.931347162635E+00
  0.687207806127E+01 -0.406676238207E+01  0.934299217193E+00
  0.749586487994E+01 -0.423408197609E+01  0.936452304338E+00
  0.811906204411E+01 -0.440139470751E+01  0.938071974771E+00
  0.874190619965E+01 -0.456821801723E+01  0.940861282155E+00
  0.936155000000E+01 -0.473135000000E+01  0.947812000000E+00
  0.414119545748E+01 -0.426334040092E+01  0.980780929379E+00
  0.476536847696E+01 -0.441223120676E+01  0.939681900529E+00
  0.539557531296E+01 -0.457750930306E+01  0.930881487937E+00
  0.602230979335E+01 -0.474523621880E+01  0.932282799329E+00
  0.664676996970E+01 -0.491286577593E+01  0.934966335037E+00
  0.727001958366E+01 -0.508027824203E+01  0.936917732903E+00
  0.789283725412E+01 -0.524737664718E+01  0.938364387741E+00
  0.851520351947E+01 -0.541476374456E+01  0.941020038273E+00
  0.913302000000E+01 -0.558424000000E+01  0.947812000000E+00
  0.397111193577E+01 -0.511615024263E+01  0.882189025650E+00
  0.460107743017E+01 -0.526030976145E+01  0.852884411198E+00
  0.521905165599E+01 -0.542750323911E+01  0.850706816207E+00
  0.583514320903E+01 -0.559223490682E+01  0.852414480124E+00
  0.645003180921E+01 -0.575750019843E+01  0.854181445935E+00
  0.706471575272E+01 -0.592243086710E+01  0.855135374052E+00
  0.767923059931E+01 -0.608746584578E+01  0.855630532680E+00
  0.829402225682E+01 -0.625190568254E+01  0.856158580575E+00
  0.890806000000E+01 -0.642382000000E+01  0.860798000000E+00
  0.386382000000E+01 -0.593067000000E+01  0.695288000000E+00
  0.446752000000E+01 -0.609243000000E+01  0.695288000000E+00
  0.507122000000E+01 -0.625419000000E+01  0.695288000000E+00
  0.567493000000E+01 -0.641595000000E+01  0.695288000000E+00
  0.627863000000E+01 -0.657771000000E+01  0.695288000000E+00
  0.688233000000E+01 -0.673948000000E+01  0.695288000000E+00
  0.748604000000E+01 -0.690124000000E+01  0.695288000000E+00
  0.808974000000E+01 -0.706300000000E+01  0.695288000000E+00
  0.869345000000E+01 -0.722476000000E+01  0.695288000000E+00
  0.493653000000E+01 -0.192725000000E+01  0.102148000000E+01
  0.554023000000E+01 -0.208901000000E+01  0.102148000000E+01
  0.614394000000E+01 -0.225077000000E+01  0.102148000000E+01
  0.674764000000E+01 -0.241254000000E+01  0.102148000000E+01
  0.735134000000E+01 -0.257430000000E+01  0.102148000000E+01
  0.795505000000E+01 -0.273606000000E+01  0.102148000000E+01
  0.855875000000E+01 -0.289782000000E+01  0.102148000000E+01
  0.916245000000E+01 -0.305958000000E+01  0.102148000000E+01
  0.976616000000E+01 -0.322134000000E+01  0.102148000000E+01
  0.467266241217E+01 -0.264995645971E+01  0.129464243863E+01
  0.529257331200E+01 -0.281836743939E+01  0.126021429914E+01
  0.590229805775E+01 -0.297833716233E+01  0.125714797819E+01
  0.651004999624E+01 -0.314075122408E+01  0.125953980070E+01
  0.711979574600E+01 -0.330451117993E+01  0.126177507948E+01
  0.773066037147E+01 -0.346854971755E+01  0.126313559926E+01
  0.834181983522E+01 -0.363255480071E+01  0.126380598043E+01
  0.895347859508E+01 -0.379700758715E+01  0.126425772935E+01
  0.956900000000E+01 -0.395716000000E+01  0.126974000000E+01
  0.442052867495E+01 -0.343265229645E+01  0.143647872187E+01
  0.504470070565E+01 -0.360086743420E+01  0.138818033552E+01
  0.566361079363E+01 -0.376426294201E+01  0.138310576056E+01
  0.627769000392E+01 -0.392725890607E+01  0.138459608768E+01
  0.689160982307E+01 -0.409180996596E+01  0.138726234025E+01
  0.750649837447E+01 -0.425679620823E+01  0.138903471238E+01
  0.812221347032E+01 -0.442224781089E+01  0.139018804000E+01
  0.873947175833E+01 -0.458760795792E+01  0.139248394522E+01
  0.935631000000E+01 -0.475093000000E+01  0.140026000000E+01
  0.419848740552E+01 -0.424830092011E+01  0.143398023961E+01
  0.482522814434E+01 -0.440745047292E+01  0.138981337135E+01
  0.544634469137E+01 -0.457214516304E+01  0.138312939137E+01
  0.606076360190E+01 -0.473684295015E+01  0.138527168321E+01
  0.667499332586E+01 -0.490134444480E+01  0.138776690727E+01
  0.728992601736E+01 -0.506620580489E+01  0.138941281072E+01
  0.790567165784E+01 -0.523110400556E+01  0.139044022056E+01
  0.852267905712E+01 -0.539688618212E+01  0.139262645648E+01
  0.913827000000E+01 -0.556467000000E+01  0.140026000000E+01
  0.402203704609E+01 -0.505242441058E+01  0.129159769270E+01
  0.465157735407E+01 -0.520623367962E+01  0.126043262234E+01
  0.526238928824E+01 -0.537218012986E+01  0.125971197083E+01
  0.587092195850E+01 -0.553516337157E+01  0.126165943259E+01
  0.648064420044E+01 -0.569845102680E+01  0.126323220688E+01
  0.709105298266E+01 -0.586195824465E+01  0.126407605463E+01
  0.770161290280E+01 -0.602556665335E+01  0.126442212541E+01
  0.831290605635E+01 -0.618904092261E+01  0.126463132782E+01
  0.892558000000E+01 -0.635843000000E+01  0.126974000000E+01
  0.389879000000E+01 -0.580016000000E+01  0.102148000000E+01
  0.450249000000E+01 -0.596192000000E+01  0.102148000000E+01
  0.510619000000E+01 -0.612368000000E+01  0.102148000000E+01
  0.570990000000E+01 -0.628544000000E+01  0.102148000000E+01
  0.631360000000E+01 -0.644720000000E+01  0.102148000000E+01
  0.691730000000E+01 -0.660897000000E+01  0.102148000000E+01
  0.752101000000E+01 -0.677073000000E+01  0.102148000000E+01
  0.812471000000E+01 -0.693249000000E+01  0.102148000000E+01
  0.872841000000E+01 -0.709425000000E+01  0.102148000000E+01
  0.488878000000E+01 -0.210544000000E+01  0.132252000000E+01
  0.549249000000E+01 -0.226720000000E+01  0.132252000000E+01
  0.609619000000E+01 -0.242896000000E+01  0.132252000000E+01
  0.669989000000E+01 -0.259073000000E+01  0.132252000000E+01
  0.730360000000E+01 -0.275249000000E+01  0.132252000000E+01
  0.790730000000E+01 -0.291425000000E+01  0.132252000000E+01
  0.851100000000E+01 -0.307601000000E+01  0.132252000000E+01
  0.911471000000E+01 -0.323777000000E+01  0.132252000000E+01
  0.971841000000E+01 -0.339954000000E+01  0.132252000000E+01
  0.468338711947E+01 -0.275271927612E+01  0.166812267158E+01
  0.530637836091E+01 -0.291942085466E+01  0.164663676787E+01
  0.590541092916E+01 -0.307600037274E+01  0.164667451141E+01
  0.650698665459E+01 -0.323834191351E+01  0.164771440953E+01
  0.711188048706E+01 -0.340085104248E+01  0.164878421001E+01
  0.771830551882E+01 -0.356378829889E+01  0.164940882778E+01
  0.832521077197E+01 -0.372641282800E+01  0.164979763032E+01
  0.893140087016E+01 -0.388960337600E+01  0.164957718234E+01
  0.954381000000E+01 -0.405116000000E+01  0.165354000000E+01
  0.447050785609E+01 -0.347433854450E+01  0.184849722489E+01
  0.509838850290E+01 -0.364405646876E+01  0.181767614916E+01
  0.570195081459E+01 -0.380347208035E+01  0.181837234726E+01
  0.630448593922E+01 -0.396439426748E+01  0.181874546520E+01
  0.690964719261E+01 -0.412687008059E+01  0.182002941594E+01
  0.751699112087E+01 -0.428982231069E+01  0.182069972660E+01
  0.812533369648E+01 -0.445314676173E+01  0.182122758646E+01
  0.873490650321E+01 -0.461663120249E+01  0.182166776058E+01
  0.934851000000E+01 -0.478004000000E+01  0.182756000000E+01
  0.426407915573E+01 -0.422913630235E+01  0.184817508819E+01
  0.489355079487E+01 -0.439515188465E+01  0.181820933676E+01
  0.549872678722E+01 -0.455753161307E+01  0.181812708334E+01
  0.610177826063E+01 -0.471866658777E+01  0.181900927967E+01
  0.670749558092E+01 -0.488063041068E+01  0.182022740039E+01
  0.731505971834E+01 -0.504338286969E+01  0.182087575922E+01
  0.792353084793E+01 -0.520632090235E+01  0.182135497507E+01
  0.853309947733E+01 -0.536974095269E+01  0.182174286721E+01
  0.914607000000E+01 -0.553555000000E+01  0.182756000000E+01
  0.408524786895E+01 -0.496246504276E+01  0.166716324721E+01
  0.471278434480E+01 -0.512513711814E+01  0.164624109818E+01
  0.531166440288E+01 -0.528877880170E+01  0.164787151869E+01
  0.591519093309E+01 -0.544918015352E+01  0.164869649503E+01
  0.652059811741E+01 -0.561110081998E+01  0.164956397134E+01
  0.712708576799E+01 -0.577338198906E+01  0.164994920505E+01
  0.773369581722E+01 -0.593608015607E+01  0.165017932796E+01
  0.833993788049E+01 -0.609789777968E+01  0.164983579942E+01
  0.895076000000E+01 -0.626444000000E+01  0.165354000000E+01
  0.394653000000E+01 -0.562197000000E+01  0.132252000000E+01
  0.455024000000E+01 -0.578373000000E+01  0.132252000000E+01
  0.515394000000E+01 -0.594549000000E+01  0.132252000000E+01
  0.575764000000E+01 -0.610725000000E+01  0.132252000000E+01
  0.636135000000E+01 -0.626901000000E+01  0.132252000000E+01
  0.696505000000E+01 -0.643078000000E+01  0.132252000000E+01
  0.756875000000E+01 -0.659254000000E+01  0.132252000000E+01
  0.817246000000E+01 -0.675430000000E+01  0.132252000000E+01
  0.877616000000E+01 -0.691606000000E+01  0.132252000000E+01
  0.482944000000E+01 -0.232692000000E+01  0.159099000000E+01
  0.543314000000E+01 -0.248869000000E+01  0.159099000000E+01
  0.603684000000E+01 -0.265045000000E+01  0.159099000000E+01
  0.664055000000E+01 -0.281221000000E+01  0.159099000000E+01
  0.724425000000E+01 -0.297397000000E+01  0.159099000000E+01
  0.784795000000E+01 -0.313573000000E+01  0.159099000000E+01
  0.845166000000E+01 -0.329750000000E+01  0.159099000000E+01
  0.905536000000E+01 -0.345926000000E+01  0.159099000000E+01
  0.965906000000E+01 -0.362102000000E+01  0.159099000000E+01
  0.468204000000E+01 -0.287703000000E+01  0.200476000000E+01
  0.528574000000E+01 -0.303879000000E+01  0.200476000000E+01
  0.588944000000E+01 -0.320055000000E+01  0.200476000000E+01
  0.649315000000E+01 -0.336232000000E+01  0.200476000000E+01
  0.709685000000E+01 -0.352408000000E+01  0.200476000000E+01
  0.770055000000E+01 -0.368584000000E+01  0.200476000000E+01
  0.830426000000E+01 -0.384760000000E+01  0.200476000000E+01
  0.890796000000E+01 -0.400936000000E+01  0.200476000000E+01
  0.951166000000E+01 -0.417113000000E+01  0.200476000000E+01
  0.450876000000E+01 -0.352372000000E+01  0.222230000000E+01
  0.511246000000E+01 -0.368548000000E+01  0.222230000000E+01
  0.571616000000E+01 -0.384724000000E+01  0.222230000000E+01
  0.631987000000E+01 -0.400900000000E+01  0.222230000000E+01
  0.692357000000E+01 -0.417077000000E+01  0.222230000000E+01
  0.752727000000E+01 -0.433253000000E+01  0.222230000000E+01
  0.813098000000E+01 -0.449429000000E+01  0.222230000000E+01
  0.873468000000E+01 -0.465605000000E+01  0.222230000000E+01
  0.933838000000E+01 -0.481781000000E+01  0.222230000000E+01
  0.432656000000E+01 -0.420369000000E+01  0.222230000000E+01
  0.493026000000E+01 -0.436545000000E+01  0.222230000000E+01
  0.553397000000E+01 -0.452721000000E+01  0.222230000000E+01
  0.613767000000E+01 -0.468897000000E+01  0.222230000000E+01
  0.674137000000E+01 -0.485074000000E+01  0.222230000000E+01
  0.734508000000E+01 -0.501250000000E+01  0.222230000000E+01
  0.794878000000E+01 -0.517426000000E+01  0.222230000000E+01
  0.855248000000E+01 -0.533602000000E+01  0.222230000000E+01
  0.915619000000E+01 -0.549778000000E+01  0.222230000000E+01
  0.415328000000E+01 -0.485038000000E+01  0.200476000000E+01
  0.475698000000E+01 -0.501214000000E+01  0.200476000000E+01
  0.536069000000E+01 -0.517390000000E+01  0.200476000000E+01
  0.596439000000E+01 -0.533566000000E+01  0.200476000000E+01
  0.656809000000E+01 -0.549742000000E+01  0.200476000000E+01
  0.717180000000E+01 -0.565919000000E+01  0.200476000000E+01
  0.777550000000E+01 -0.582095000000E+01  0.200476000000E+01
  0.837920000000E+01 -0.598271000000E+01  0.200476000000E+01
  0.898291000000E+01 -0.614447000000E+01  0.200476000000E+01
  0.400588000000E+01 -0.540048000000E+01  0.159099000000E+01
  0.460958000000E+01 -0.556224000000E+01  0.159099000000E+01
  0.521329000000E+01 -0.572401000000E+01  0.159099000000E+01
  0.581699000000E+01 -0.588577000000E+01  0.159099000000E+01
  0.642069000000E+01 -0.604753000000E+01  0.159099000000E+01
  0.702440000000E+01 -0.620929000000E+01  0.159099000000E+01
  0.762810000000E+01 -0.637105000000E+01  0.159099000000E+01
  0.823180000000E+01 -0.653282000000E+01  0.159099000000E+01
  0.883551000000E+01 -0.669458000000E+01  0.159099000000E+01
 -0.136452397884E+02 -0.401180551863E+01  0.000000000000E+00
 -0.121176836702E+02 -0.617828957535E+01  0.000000000000E+00
 -0.101136651278E+02 -0.767447210436E+01  0.000000000000E+00
 -0.810180243923E+01 -0.860779842068E+01  0.000000000000E+00
 -0.608596137718E+01 -0.919400735064E+01  0.000000000000E+00
 -0.406660812078E+01 -0.951621762228E+01  0.000000000000E+00
 -0.204436915527E+01 -0.960334320148E+01  0.000000000000E+00
 -0.249373444539E-01 -0.946507935914E+01  0.000000000000E+00
  0.130969903350E+01 -0.904645632325E+01  0.000000000000E+00
  0.264934000000E+01 -0.852255000000E+01  0.000000000000E+00
 -0.136460613546E+02 -0.396275172406E+01  0.632805887023E+00
 -0.121188469149E+02 -0.610446666421E+01  0.974888078982E+00
 -0.101151662963E+02 -0.758123263524E+01  0.120994510784E+01
 -0.810220425502E+01 -0.850361054264E+01  0.135386074512E+01
 -0.608641002240E+01 -0.908309322986E+01  0.144459901618E+01
 -0.406657895978E+01 -0.940160952817E+01  0.149320804314E+01
 -0.204416388743E+01 -0.948712045369E+01  0.150691705305E+01
 -0.246132480394E-01 -0.934958091710E+01  0.148696306428E+01
  0.131601969957E+01 -0.894656460574E+01  0.135505700391E+01
  0.265940000000E+01 -0.845929000000E+01  0.896025531107E+00
 -0.136478844400E+02 -0.381659984519E+01  0.125096960223E+01
 -0.121208786885E+02 -0.588092179406E+01  0.192659826107E+01
 -0.101178001888E+02 -0.730271954237E+01  0.238679058762E+01
 -0.810387628938E+01 -0.819352559067E+01  0.267287065736E+01
 -0.608738003547E+01 -0.875284677971E+01  0.285106311310E+01
 -0.406644769198E+01 -0.905923184168E+01  0.294859887862E+01
 -0.204379489878E+01 -0.914043398673E+01  0.297634169775E+01
 -0.235464378987E-01 -0.900632462714E+01  0.293684796640E+01
  0.133461360005E+01 -0.864950690947E+01  0.267610435797E+01
  0.268944000000E+01 -0.827083000000E+01  0.177300823376E+01
 -0.136501100959E+02 -0.357652226630E+01  0.183697967443E+01
 -0.121229287930E+02 -0.551168682290E+01  0.282820700313E+01
 -0.101207412518E+02 -0.684719129310E+01  0.350232440602E+01
 -0.810653600537E+01 -0.768341487763E+01  0.392243869226E+01
 -0.608811822677E+01 -0.820872199193E+01  0.418499991741E+01
 -0.406623206980E+01 -0.849475926179E+01  0.433082728631E+01
 -0.204314360917E+01 -0.857030101003E+01  0.437222740941E+01
 -0.226067344268E-01 -0.844369435922E+01  0.431403795387E+01
  0.136502634270E+01 -0.816400575140E+01  0.392945784016E+01
  0.273896000000E+01 -0.796106000000E+01  0.261233196078E+01
 -0.136520881319E+02 -0.324859048116E+01  0.237655653743E+01
 -0.121251712115E+02 -0.500714386713E+01  0.365958278055E+01
 -0.101238148850E+02 -0.622324464473E+01  0.452946596384E+01
 -0.810886924229E+01 -0.698462685867E+01  0.507215461834E+01
 -0.608855911566E+01 -0.746393517692E+01  0.541458925809E+01
 -0.406598716555E+01 -0.772644939336E+01  0.560344755188E+01
 -0.204228583021E+01 -0.779446909744E+01  0.565743353091E+01
 -0.222920924142E-01 -0.767608986146E+01  0.558218344383E+01
  0.140512546551E+01 -0.750373646195E+01  0.508440119973E+01
  0.280715000000E+01 -0.753640000000E+01  0.339493876778E+01
 -0.136535205237E+02 -0.284092302475E+01  0.285766826087E+01
 -0.121281925648E+02 -0.437941077940E+01  0.440075278418E+01
 -0.101281887298E+02 -0.544475882121E+01  0.544355147574E+01
 -0.811246002840E+01 -0.611554955951E+01  0.609528712299E+01
 -0.609210309171E+01 -0.653655769305E+01  0.650595956257E+01
 -0.406766087142E+01 -0.676497613447E+01  0.673246128665E+01
 -0.204136298238E+01 -0.682310289445E+01  0.679751336693E+01
 -0.172295591545E-01 -0.671701585417E+01  0.670941779639E+01
  0.145377762749E+01 -0.668512255149E+01  0.611497418475E+01
  0.289295000000E+01 -0.700555000000E+01  0.410512323417E+01
 -0.136541072897E+02 -0.236237263068E+01  0.326834706245E+01
 -0.121329388297E+02 -0.364426358116E+01  0.503249156710E+01
 -0.101311368175E+02 -0.453335680056E+01  0.622269789425E+01
 -0.811609002234E+01 -0.509328102502E+01  0.696788302973E+01
 -0.609665068782E+01 -0.544396446140E+01  0.743781611021E+01
 -0.406936780237E+01 -0.563374066655E+01  0.769682666382E+01
 -0.204014607983E+01 -0.568026410246E+01  0.777199597310E+01
 -0.122095893557E-01 -0.558981479634E+01  0.767208270473E+01
  0.151947210181E+01 -0.569217745111E+01  0.702579755391E+01
  0.303424000000E+01 -0.614055000000E+01  0.492480436083E+01
 -0.136543730257E+02 -0.182623326749E+01  0.359812243689E+01
 -0.121359461155E+02 -0.281874371000E+01  0.553987470021E+01
 -0.101347354803E+02 -0.350891356871E+01  0.684765039186E+01
 -0.811722193428E+01 -0.394427825242E+01  0.766563176497E+01
 -0.609648447198E+01 -0.421875593013E+01  0.818490009192E+01
 -0.406952153553E+01 -0.436475240322E+01  0.847341037646E+01
 -0.204040901199E+01 -0.439806855928E+01  0.855707025155E+01
 -0.914236947113E-02 -0.432567231077E+01  0.844751877333E+01
  0.159111584271E+01 -0.457351169334E+01  0.775909396969E+01
  0.320142000000E+01 -0.513372000000E+01  0.555574112345E+01
 -0.136543270892E+02 -0.124503427792E+01  0.383939096855E+01
 -0.121377371345E+02 -0.192286258652E+01  0.591096723133E+01
 -0.101384633050E+02 -0.239467971611E+01  0.730531723705E+01
 -0.812017726932E+01 -0.269270740482E+01  0.817237510832E+01
 -0.609478718886E+01 -0.288252736252E+01  0.872267328574E+01
 -0.406712310746E+01 -0.298641215660E+01  0.903194877226E+01
 -0.203921139141E+01 -0.300781671659E+01  0.912755569635E+01
 -0.101051751741E-01 -0.295490998260E+01  0.901419921399E+01
  0.166712355146E+01 -0.335620789222E+01  0.829518044171E+01
  0.339046000000E+01 -0.402099000000E+01  0.597153640610E+01
 -0.136540695872E+02 -0.633091876220E+00  0.398609447791E+01
 -0.121386640689E+02 -0.978068424931E+00  0.613657935333E+01
 -0.101405912109E+02 -0.121999095765E+01  0.758294857156E+01
 -0.812210549085E+01 -0.137146664441E+01  0.848144660197E+01
 -0.609581892906E+01 -0.146813305259E+01  0.905242357931E+01
 -0.406603420685E+01 -0.152095077767E+01  0.936848744811E+01
 -0.203567221400E+01 -0.153569492239E+01  0.946767470403E+01
 -0.942378939889E-02 -0.150360318586E+01  0.935418519262E+01
  0.174736547930E+01 -0.206984408616E+01  0.862084956383E+01
  0.359729000000E+01 -0.284101000000E+01  0.615392598322E+01
 -0.136547803415E+02 -0.600347367652E-02  0.403453964365E+01
 -0.121383550323E+02 -0.952986178408E-02  0.621107132362E+01
 -0.101404114684E+02 -0.135902856745E-01  0.767462382528E+01
 -0.812190983859E+01 -0.160764505719E-01  0.858359569850E+01
 -0.609574710326E+01 -0.169803776311E-01  0.916203467736E+01
 -0.406574664625E+01 -0.163345569893E-01  0.948236833129E+01
 -0.203487696888E+01 -0.141293974148E-01  0.958121390435E+01
 -0.823565822197E-02 -0.131163316089E-01  0.946657020692E+01
  0.183075315455E+01 -0.745879111463E+00  0.872994616618E+01
  0.381812000000E+01 -0.163350000000E+01  0.609043764361E+01
 -0.136525500100E+02  0.621007037154E+00  0.398407307697E+01
 -0.121364155624E+02  0.959078787795E+00  0.613289227023E+01
 -0.101377129829E+02  0.119215314280E+01  0.757802093384E+01
 -0.811964664364E+01  0.133901536430E+01  0.847654612614E+01
 -0.609400730953E+01  0.143336987661E+01  0.904753228938E+01
 -0.406502203433E+01  0.148798612350E+01  0.936518561636E+01
 -0.203529678709E+01  0.150473869712E+01  0.946445309047E+01
 -0.990290278512E-02  0.147881014350E+01  0.935300812558E+01
  0.168420195197E+01  0.856757666615E+00  0.878602837031E+01
  0.346924000000E+01  0.119503000000E+00  0.680595605326E+01
 -0.136514479951E+02  0.123328912860E+01  0.383554245114E+01
 -0.121331975016E+02  0.190378978029E+01  0.590338555698E+01
 -0.101330126293E+02  0.236567032021E+01  0.729501635419E+01
 -0.811511000485E+01  0.265843161774E+01  0.816274458340E+01
 -0.609158657612E+01  0.284546889898E+01  0.871408601363E+01
 -0.406746983656E+01  0.294761790566E+01  0.902509977023E+01
 -0.203615117523E+01  0.297232425414E+01  0.911998686480E+01
 -0.991940208753E-02  0.292767374753E+01  0.900734895825E+01
  0.153823299644E+01  0.243922141731E+01  0.854639687099E+01
  0.311159000000E+01  0.194949000000E+01  0.700018877904E+01
 -0.136499921488E+02  0.181542837906E+01  0.359236945039E+01
 -0.121295076118E+02  0.279941024044E+01  0.552840266125E+01
 -0.101263194351E+02  0.347824185106E+01  0.683188051384E+01
 -0.811162381913E+01  0.390531994143E+01  0.764953406783E+01
 -0.608978353721E+01  0.417594405130E+01  0.816825862520E+01
 -0.406822068232E+01  0.432265384562E+01  0.845669839303E+01
 -0.203641621027E+01  0.435994339815E+01  0.854116323000E+01
 -0.949630542331E-02  0.429503108849E+01  0.843471365953E+01
  0.139834359875E+01  0.394699464052E+01  0.801604048471E+01
  0.276762000000E+01  0.373421000000E+01  0.668970116135E+01
 -0.136486433923E+02  0.235233965140E+01  0.326147318774E+01
 -0.121241270345E+02  0.362655319356E+01  0.501605262369E+01
 -0.101187552641E+02  0.449922465525E+01  0.619824162976E+01
 -0.810683461302E+01  0.505061229488E+01  0.694054849004E+01
 -0.608714659165E+01  0.539817708475E+01  0.740950841634E+01
 -0.406407773127E+01  0.558819549651E+01  0.766875687217E+01
 -0.203573096508E+01  0.563821989553E+01  0.774699340969E+01
 -0.141975066784E-01  0.555553620267E+01  0.765134231739E+01
  0.126357324665E+01  0.532839107729E+01  0.720912580720E+01
  0.245735000000E+01  0.536055000000E+01  0.590975060733E+01
 -0.136478802545E+02  0.283243263728E+01  0.285071737962E+01
 -0.121208314454E+02  0.436386345618E+01  0.438243274898E+01
 -0.101155182224E+02  0.540948718901E+01  0.541731723708E+01
 -0.810005377645E+01  0.606915356580E+01  0.606660750731E+01
 -0.608197014451E+01  0.648658275506E+01  0.647705131298E+01
 -0.406080132324E+01  0.671408183789E+01  0.670420820152E+01
 -0.203618751947E+01  0.677571874388E+01  0.677156385190E+01
 -0.193480092184E-01  0.667671726412E+01  0.668664369270E+01
  0.115034050180E+01  0.653766438436E+01  0.616679659820E+01
  0.219858000000E+01  0.672672000000E+01  0.473242257419E+01
 -0.136464029523E+02  0.324084531077E+01  0.236976077481E+01
 -0.121190400907E+02  0.499207966131E+01  0.364347148597E+01
 -0.101131467443E+02  0.618451642340E+01  0.450484423803E+01
 -0.809777959574E+01  0.693522555663E+01  0.504444744117E+01
 -0.607916376518E+01  0.740975028380E+01  0.538691859807E+01
 -0.405861553976E+01  0.767146760488E+01  0.557673004724E+01
 -0.203757372384E+01  0.774272346281E+01  0.563221640119E+01
 -0.192372525194E-01  0.763069785076E+01  0.555921000984E+01
  0.107351712871E+01  0.739912744220E+01  0.512359173844E+01
  0.208004000000E+01  0.735507000000E+01  0.391688191407E+01
 -0.136442726745E+02  0.356865026714E+01  0.183121900954E+01
 -0.121159556542E+02  0.549574386923E+01  0.281469946074E+01
 -0.101099260693E+02  0.680455859689E+01  0.348032817745E+01
 -0.809569940471E+01  0.762835231450E+01  0.389670361137E+01
 -0.607821115974E+01  0.814866260990E+01  0.416032591313E+01
 -0.405834872517E+01  0.843428332237E+01  0.430731631776E+01
 -0.203734431961E+01  0.851356061023E+01  0.435055101708E+01
 -0.183220260282E-01  0.839272128299E+01  0.429404049613E+01
  0.100934391621E+01  0.809263124813E+01  0.395590624305E+01
  0.198540000000E+01  0.785780000000E+01  0.301600397082E+01
 -0.136416682161E+02  0.380896516221E+01  0.124708243192E+01
 -0.121143624048E+02  0.586439367756E+01  0.191604715541E+01
 -0.101071487948E+02  0.725812920498E+01  0.237029507975E+01
 -0.809382552654E+01  0.813572140481E+01  0.265369322351E+01
 -0.607744329501E+01  0.869040949510E+01  0.283167707766E+01
 -0.405827544964E+01  0.899542823949E+01  0.293112238205E+01
 -0.203739648001E+01  0.908013001276E+01  0.296046280376E+01
 -0.186342366060E-01  0.895298923801E+01  0.292286831420E+01
  0.961819823450E+00  0.860235347422E+01  0.269215349475E+01
  0.191647000000E+01  0.822453000000E+01  0.204844274945E+01
 -0.136399140970E+02  0.395568143852E+01  0.631059385200E+00
 -0.121136414172E+02  0.608855802267E+01  0.969530370257E+00
 -0.101053745468E+02  0.753422771381E+01  0.119997871540E+01
 -0.809246367270E+01  0.844464589087E+01  0.134393413260E+01
 -0.607680889096E+01  0.901996042463E+01  0.143349941129E+01
 -0.405819799008E+01  0.933718313224E+01  0.148364924832E+01
 -0.203754746400E+01  0.942567966122E+01  0.149846179692E+01
 -0.194104482901E-01  0.929570127272E+01  0.147974564880E+01
  0.931587736988E+00  0.891354748592E+01  0.136282288028E+01
  0.187456000000E+01  0.844766000000E+01  0.103565409140E+01
 -0.136392169074E+02  0.400477208144E+01  0.000000000000E+00
 -0.121132564357E+02  0.616382263561E+01  0.000000000000E+00
 -0.101047736814E+02  0.762700263195E+01  0.000000000000E+00
 -0.809191689621E+01  0.854805688024E+01  0.000000000000E+00
 -0.607662015888E+01  0.913045593503E+01  0.000000000000E+00
 -0.405813193895E+01  0.945192505530E+01  0.000000000000E+00
 -0.203759761330E+01  0.954176522116E+01  0.000000000000E+00
 -0.198443481516E-01  0.941096635402E+01  0.000000000000E+00
  0.921547712719E+00  0.901814926479E+01  0.000000000000E+00
  0.186051000000E+01  0.852255000000E+01  0.000000000000E+00
 -0.140264416725E+02 -0.200441723045E+01  0.000000000000E+00
 -0.140662853017E+02 -0.160568444375E+01  0.000000000000E+00
 -0.140972176953E+02 -0.120602339130E+01  0.000000000000E+00
 -0.141169467868E+02 -0.805696162892E+00  0.000000000000E+00
 -0.141288044139E+02 -0.404878606413E+00  0.000000000000E+00
 -0.141323607731E+02 -0.384538505422E-02  0.000000000000E+00
 -0.141278902237E+02  0.397206796785E+00  0.000000000000E+00
 -0.141150411695E+02  0.798150973735E+00  0.000000000000E+00
 -0.140935672053E+02  0.119866385821E+01  0.000000000000E+00
 -0.140631999151E+02  0.159895618940E+01  0.000000000000E+00
 -0.140229186852E+02  0.199826637074E+01  0.000000000000E+00
 -0.140265890020E+02 -0.197968080824E+01  0.317549350331E+00
 -0.140638757371E+02 -0.159458862942E+01  0.353248341150E+00
 -0.140926861011E+02 -0.120308730192E+01  0.380406666413E+00
 -0.141127319198E+02 -0.806239319315E+00  0.398335541115E+00
 -0.141245411597E+02 -0.405928349417E+00  0.406963578282E+00
 -0.141282629151E+02 -0.380843436815E-02  0.405859820803E+00
 -0.141237335142E+02  0.398261214255E+00  0.407031824272E+00
 -0.141109709942E+02  0.798677740246E+00  0.398340322568E+00
 -0.140901009145E+02  0.119576509988E+01  0.380361884993E+00
 -0.140609132576E+02  0.158785452019E+01  0.353143378799E+00
 -0.140230875708E+02  0.197351144571E+01  0.317296376549E+00
 -0.140267605767E+02 -0.190629692718E+01  0.625219788902E+00
 -0.140584227182E+02 -0.154454718408E+01  0.697136766279E+00
 -0.140833321589E+02 -0.117069381061E+01  0.752890693072E+00
 -0.141012589606E+02 -0.787167516167E+00  0.790994355048E+00
 -0.141119076904E+02 -0.397056936420E+00  0.810159746314E+00
 -0.141158054067E+02 -0.375371188724E-02  0.809716827773E+00
 -0.141115692107E+02  0.389529812952E+00  0.810360717069E+00
 -0.141000201613E+02  0.779559424667E+00  0.791260458037E+00
 -0.140811873921E+02  0.116329783937E+01  0.753031832783E+00
 -0.140556472280E+02  0.153766952256E+01  0.697123532895E+00
 -0.140234101808E+02  0.190005556955E+01  0.625077808487E+00
 -0.140267964273E+02 -0.178642619899E+01  0.917355129719E+00
 -0.140503256270E+02 -0.145717918035E+01  0.102872158904E+01
 -0.140690949408E+02 -0.111016140275E+01  0.111585058328E+01
 -0.140825785895E+02 -0.749198307463E+00  0.117654677149E+01
 -0.140909529492E+02 -0.378708198566E+00  0.120913111908E+01
 -0.140952937030E+02 -0.360040334312E-02  0.121230073934E+01
 -0.140916437795E+02  0.371329323445E+00  0.120934095722E+01
 -0.140823924007E+02  0.741633423786E+00  0.117685004835E+01
 -0.140672453745E+02  0.110252008241E+01  0.111592391313E+01
 -0.140477940029E+02  0.144994207440E+01  0.102855547458E+01
 -0.140236749530E+02  0.177977423369E+01  0.917029462655E+00
 -0.140269247414E+02 -0.162285197148E+01  0.118688622874E+01
 -0.140395627735E+02 -0.133478738029E+01  0.134184160708E+01
 -0.140497114474E+02 -0.102332073400E+01  0.146468790641E+01
 -0.140570385618E+02 -0.693642311230E+00  0.155232617598E+01
 -0.140616596418E+02 -0.351739157297E+00  0.160217484933E+01
 -0.140636202371E+02 -0.364341477722E-02  0.161276510386E+01
 -0.140611356517E+02  0.344265478148E+00  0.160159455409E+01
 -0.140557904813E+02  0.686002026138E+00  0.155152744623E+01
 -0.140476828466E+02  0.101558130553E+01  0.146409594139E+01
 -0.140372308751E+02  0.132723466406E+01  0.134134749866E+01
 -0.140241621533E+02  0.161562642872E+01  0.118636472226E+01
 -0.140266397940E+02 -0.141921120070E+01  0.142676389747E+01
 -0.140264147298E+02 -0.118049410335E+01  0.163134933286E+01
 -0.140256654579E+02 -0.912379166803E+00  0.179568263867E+01
 -0.140247594184E+02 -0.622117037069E+00  0.191586448706E+01
 -0.140241440040E+02 -0.316794880149E+00  0.198904542940E+01
 -0.140239272750E+02 -0.386491277746E-02  0.201339921326E+01
 -0.140235257450E+02  0.309071605476E+00  0.198830621457E+01
 -0.140235291397E+02  0.614324588516E+00  0.191464955286E+01
 -0.140239030489E+02  0.904668085574E+00  0.179445962241E+01
 -0.140240111346E+02  0.117266536713E+01  0.163038231139E+01
 -0.140241025396E+02  0.141162612803E+01  0.142598888820E+01
CELLS       1130     10170
8      0      9     10      1     99    108    109    100
8     99    108    109    100    198    207    208    199
8    198    207    208    199    297    306    307    298
8    297    306    307    298    396    405    406    397
8    396    405    406    397    495    504    505    496
8      9     18     19     10    108    117    118    109
8    108    117    118    109    207    216    217    208
8    207    216    217    208    306    315    316    307
8    306    315    316    307    405    414    415    406
8    405    414    415    406    504    513    514    505
8     18     27     28     19    117    126    127    118
8    117    126    127    118    216    225    226    217
8    216    225    226    217    315    324    325    316
8    315    324    325    316    414    423    424    415
8    414    423    424    415    513    522    523    514
8     27     36     37     28    126    135    136    127
8    126    135    136    127    225    234    235    226
8    225    234    235    226    324    333    334    325
8    324    333    334    325    423    432    433    424
8    423    432    433    424    522    531    532    523
8     36     45     46     37    135    144    145    136
8    135    144    145    136    234    243    244    235
8    234    243    244    235    333    342    343    334
8    333    342    343    334    432    441    442    433
8    432    441    442    433    531    540    541    532
8     45     54     55     46    144    153    154    145
8    144    153    154    145    243    252    253    244
8    243    252    253    244    342    351    352    343
8    342    351    352    343    441    450    451    442
8    441    450    451    442    540    549    550    541
8     54     63     64     55    153    162    163    154
8    153    162    163    154    252    261    262    253
8    252    261    262    253    351    360    361    352
8    351    360    361    352    450    459    460    451
8    450    459    460    451    549    558    559    550
8     63     72     73     64    162    171    172    163
8    162    171    172    163    261    270    271    262
8    261    270    271    262    360    369    370    361
8    360    369    370    361    459    468    469    460
8    459    468    469    460    558    567    568    559
8     72     81     82     73    171    180    181    172
8    171    180    181    172    270    279    280    271
8    270    279    280    271    369    378    379    370
8    369    378    379    370    468    477    478    469
8    468    477    478    469    567    576    577    568
8     81     90     91     82    180    189    190    181
8    180    189    190    181    279    288    289    280
8    279    288    289    280    378    387    388    379
8    378    387    388    379    477    486    487    478
8    477    486    487    478    576    585    586    577
8      1     10     11      2    100    109    110    101
8    100    109    110    101    199    208    209    200
8    199    208    209    200    298    307    308    299
8    298    307    308    299    397    406    407    398
8    397    406    407    398    496    505    506    497
8     10     19     20     11    109    118    119    110
8    109    118    119    110    208    217    218    209
8    208    217    218    209    307    316    317    308
8    307    316    317    308    406    415    416    407
8    406    415    416    407    505    514    515    506
8     19     28     29     20    118    127    128    119
8    118    127    128    119    217    226    227    218
8    217    226    227    218    316    325    326    317
8    316    325    326    317    415    424    425    416
8    415    424    425    416    514    523    524    515
8     28     37     38     29    127    136    137    128
8    127    136    137    128    226    235    236    227
8    226    235    236    227    325    334    335    326
8    325    334    335    326    424    433    434    425
8    424    433    434    425    523    532    533    524
8     37     46     47     38    136    145    146    137
8    136    145    146    137    235    244    245    236
8    235    244    245    236    334    343    344    335
8    334    343    344    335    433    442    443    434
8    433    442    443    434    532    541    542    533
8     46     55     56     47    145    154    155    146
8    145    154    155    146    244    253    254    245
8    244    253    254    245    343    352    353    344
8    343    352    353    344    442    451    452    443
8    442    451    452    443    541    550    551    542
8     55     64     65     56    154    163    164    155
8    154    163    164    155    253    262    263    254
8    253    262    263    254    352    361    362    353
8    352    361    362    353    451    460    461    452
8    451    460    461    452    550    559    560    551
8     64     73     74     65    163    172    173    164
8    163    172    173    164    262    271    272    263
8    262    271    272    263    361    370    371    362
8    361    370    371    362    460    469    470    461
8    460    469    470    461    559    568    569    560
8     73     82     83     74    172    181    182    173
8    172    181    182    173    271    280    281    272
8    271    280    281    272    370    379    380    371
8    370    379    380    371    469    478    479    470
8    469    478    479    470    568    577    578    569
8     82     91     92     83    181    190    191    182
8    181    190    191    182    280    289    290    281
8    280    289    290    281    379    388    389    380
8    379    388    389    380    478    487    488    479
8    478    487    488    479    577    586    587    578
8      2     11     12      3    101    110    111    102
8    101    110    111    102    200    209    210    201
8    200    209    210    201    299    308    309    300
8    299    308    309    300    398    407    408    399
8    398    407    408    399    497    506    507    498
8     11     20     21     12    110    119    120    111
8    110    119    120    111    209    218    219    210
8    209    218    219    210    308    317    318    309
8    308    317    318    309    407    416    417    408
8    407    416    417    408    506    515    516    507
8     20     29     30     21    119    128    129    120
8    119    128    129    120    218    227    228    219
8    218    227    228    219    317    326    327    318
8    317    326    327    318    416    425    426    417
8    416    425    426    417    515    524    525    516
8     29     38     39     30    128    137    138    129
8    128    137    138    129    227    236    237    228
8    227    236    237    228    326    335    336    327
8    326    335    336    327    425    434    435    426
8    425    434    435    426    524    533    534    525
8     38     47     48     39    137    146    147    138
8    137    146    147    138    236    245    246    237
8    236    245    246    237    335    344    345    336
8    335    344    345    336    434    443    444    435
8    434    443    444    435    533    542    543    534
8     47     56     57     48    146    155    156    147
8    146    155    156    147    245    254    255    246
8    245    254    255    246    344    353    354    345
8    344    353    354    345    443    452    453    444
8    443    452    453    444    542    551    552    543
8     56     65     66     57    155    164    165    156
8    155    164    165    156    254    263    264    255
8    254    263    264    255    353    362    363    354
8    353    362    363    354    452    461    462    453
8    452    461    462    453    551    560    561    552
8     65     74     75     66    164    173    174    165
8    164    173    174    165    263    272    273    264
8    263    272    273    264    362    371    372    363
8    362    371    372    363    461    470    471    462
8    461    470    471    462    560    569    570    561
8     74     83     84     75    173    182    183    174
8    173    182    183    174    272    281    282    273
8    272    281    282    273    371    380    381    372
8    371    380    381    372    470    479    480    471
8    470    479    480    471    569    578    579    570
8     83     92     93     84    182    191    192    183
8    182    191    192    183    281    290    291    282
8    281    290    291    282    380    389    390    381
8    380    389    390    381    479    488    489    480
8    479    488    489    480    578    587    588    579
8      3     12     13      4    102    111    112    103
8    102    111    112    103    201    210    211    202
8    201    210    211    202    300    309    310    301
8    300    309    310    301    399    408    409    400
8    399    408    409    400    498    507    508    499
8     12     21     22     13    111    120    121    112
8    111    120    121    112    210    219    220    211
8    210    219    220    211    309    318    319    310
8    309    318    319    310    408    417    418    409
8    408    417    418    409    507    516    517    508
8     21     30     31     22    120    129    130    121
8    120    129    130    121    219    228    229    220
8    219    228    229    220    318    327    328    319
8    318    327    328    319    417    426    427    418
8    417    426    427    418    516    525    526    517
8     30     39     40     31    129    138    139    130
8    129    138    139    130    228    237    238    229
8    228    237    238    229    327    336    337    328
8    327    336    337    328    426    435    436    427
8    426    435    436    427    525    534    535    526
8     39     48     49     40    138    147    148    139
8    138    147    148    139    237    246    247    238
8    237    246    247    238    336    345    346    337
8    336    345    346    337    435    444    445    436
8    435    444    445    436    534    543    544    535
8     48     57     58     49    147    156    157    148
8    147    156    157    148    246    255    256    247
8    246    255    256    247    345    354    355    346
8    345    354    355    346    444    453    454    445
8    444    453    454    445    543    552    553    544
8     57     66     67     58    156    165    166    157
8    156    165    166    157    255    264    265    256
8    255    264    265    256    354    363    364    355
8    354    363    364    355    453    462    463    454
8    453    462    463    454    552    561    562    553
8     66     75     76     67    165    174    175    166
8    165    174    175    166    264    273    274    265
8    264    273    274    265    363    372    373    364
8    363    372    373    364    462    471    472    463
8    462    471    472    463    561    570    571    562
8     75     84     85     76    174    183    184    175
8    174    183    184    175    273    282    283    274
8    273    282    283    274    372    381    382    373
8    372    381    382    373    471    480    481    472
8    471    480    481    472    570    579    580    571
8     84     93     94     85    183    192    193    184
8    183    192    193    184    282    291    292    283
8    282    291    292    283    381    390    391    382
8    381    390    391    382    480    489    490    481
8    480    489    490    481    579    588    589    580
8      4     13     14      5    103    112    113    104
8    103    112    113    104    202    211    212    203
8    202    211    212    203    301    310    311    302
8    301    310    311    302    400    409    410    401
8    400    409    410    401    499    508    509    500
8     13     22     23     14    112    121    122    113
8    112    121    122    113    211    220    221    212
8    211    220    221    212    310    319    320    311
8    310    319    320    311    409    418    419    410
8    409    418    419    410    508    517    518    509
8     22     31     32     23    121    130    131    122
8    121    130    131    122    220    229    230    221
8    220    229    230    221    319    328    329    320
8    319    328    329    320    418    427    428    419
8    418    427    428    419    517    526    527    518
8     31     40     41     32    130    139    140    131
8    130    139    140    131    229    238    239    230
8    229    238    239    230    328    337    338    329
8    328    337    338    329    427    436    437    428
8    427    436    437    428    526    535    536    527
8     40     49     50     41    139    148    149    140
8    139    148    149    140    238    247    248    239
8    238    247    248    239    337    346    347    338
8    337    346    347    338    436    445    446    437
8    436    445    446    437    535    544    545    536
8     49     58     59     50    148    157    158    149
8    148    157    158    149    247    256    257    248
8    247    256    257    248    346    355    356    347
8    346    355    356    347    445    454    455    446
8    445    454    455    446    544    553    554    545
8     58     67     68     59    157    166    167    158
8    157    166    167    158    256    265    266    257
8    256    265    266    257    355    364    365    356
8    355    364    365    356    454    463    464    455
8    454    463    464    455    553    562    563    554
8     67     76     77     68    166    175    176    167
8    166    175    176    167    265    274    275    266
8    265    274    275    266    364    373    374    365
8    364    373    374    365    463    472    473    464
8    463    472    473    464    562    571    572    563
8     76     85     86     77    175    184    185    176
8    175    184    185    176    274    283    284    275
8    274    283    284    275    373    382    383    374
8    373    382    383    374    472    481    482    473
8    472    481    482    473    571    580    581    572
8     85     94     95     86    184    193    194    185
8    184    193    194    185    283    292    293    284
8    283    292    293    284    382    391    392    383
8    382    391    392    383    481    490    491    482
8    481    490    491    482    580    589    590    581
8      5     14     15      6    104    113    114    105
8    104    113    114    105    203    212    213    204
8    203    212    213    204    302    311    312    303
8    302    311    312    303    401    410    411    402
8    401    410    411    402    500    509    510    501
8     14     23     24     15    113    122    123    114
8    113    122    123    114    212    221    222    213
8    212    221    222    213    311    320    321    312
8    311    320    321    312    410    419    420    411
8    410    419    420    411    509    518    519    510
8     23     32     33     24    122    131    132    123
8    122    131    132    123    221    230    231    222
8    221    230    231    222    320    329    330    321
8    320    329    330    321    419    428    429    420
8    419    428    429    420    518    527    528    519
8     32     41     42     33    131    140    141    132
8    131    140    141    132    230    239    240    231
8    230    239    240    231    329    338    339    330
8    329    338    339    330    428    437    438    429
8    428    437    438    429    527    536    537    528
8     41     50     51     42    140    149    150    141
8    140    149    150    141    239    248    249    240
8    239    248    249    240    338    347    348    339
8    338    347    348    339    437    446    447    438
8    437    446    447    438    536    545    546    537
8     50     59     60     51    149    158    159    150
8    149    158    159    150    248    257    258    249
8    248    257    258    249    347    356    357    348
8    347    356    357    348    446    455    456    447
8    446    455    456    447    545    554    555    546
8     59     68     69     60    158    167    168    159
8    158    167    168    159    257    266    267    258
8    257    266    267    258    356    365    366    357
8    356    365    366    357    455    464    465    456
8    455    464    465    456    554    563    564    555
8     68     77     78     69    167    176    177    168
8    167    176    177    168    266    275    276    267
8    266    275    276    267    365    374    375    366
8    365    374    375    366    464    473    474    465
8    464    473    474    465    563    572    573    564
8     77     86     87     78    176    185    186    177
8    176    185    186    177    275    284    285    276
8    275    284    285    276    374    383    384    375
8    374    383    384    375    473    482    483    474
8    473    482    483    474    572    581    582    573
8     86     95     96     87    185    194    195    186
8    185    194    195    186    284    293    294    285
8    284    293    294    285    383    392    393    384
8    383    392    393    384    482    491    492    483
8    482    491    492    483    581    590    591    582
8      6     15     16      7    105    114    115    106
8    105    114    115    106    204    213    214    205
8    204    213    214    205    303    312    313    304
8    303    312    313    304    402    411    412    403
8    402    411    412    403    501    510    511    502
8     15     24     25     16    114    123    124    115
8    114    123    124    115    213    222    223    214
8    213    222    223    214    312    321    322    313
8    312    321    322    313    411    420    421    412
8    411    420    421    412    510    519    520    511
8     24     33     34     25    123    132    133    124
8    123    132    133    124    222    231    232    223
8    222    231    232    223    321    330    331    322
8    321    330    331    322    420    429    430    421
8    420    429    430    421    519    528    529    520
8     33     42     43     34    132    141    142    133
8    132    141    142    133    231    240    241    232
8    231    240    241    232    330    339    340    331
8    330    339    340    331    429    438    439    430
8    429    438    439    430    528    537    538    529
8     42     51     52     43    141    150    151    142
8    141    150    151    142    240    249    250    241
8    240    249    250    241    339    348    349    340
8    339    348    349    340    438    447    448    439
8    438    447    448    439    537    546    547    538
8     51     60     61     52    150    159    160    151
8    150    159    160    151    249    258    259    250
8    249    258    259    250    348    357    358    349
8    348    357    358    349    447    456    457    448
8    447    456    457    448    546    555    556    547
8     60     69     70     61    159    168    169    160
8    159    168    169    160    258    267    268    259
8    258    267    268    259    357    366    367    358
8    357    366    367    358    456    465    466    457
8    456    465    466    457    555    564    565    556
8     69     78     79     70    168    177    178    169
8    168    177    178    169    267    276    277    268
8    267    276    277    268    366    375    376    367
8    366    375    376    367    465    474    475    466
8    465    474    475    466    564    573    574    565
8     78     87     88     79    177    186    187    178
8    177    186    187    178    276    285    286    277
8    276    285    286    277    375    384    385    376
8    375    384    385    376    474    483    484    475
8    474    483    484    475    573    582    583    574
8     87     96     97     88    186    195    196    187
8    186    195    196    187    285    294    295    286
8    285    294    295    286    384    393    394    385
8    384    393    394    385    483    492    493    484
8    483    492    493    484    582    591    592    583
8      7     16     17      8    106    115    116    107
8    106    115    116    107    205    214    215    206
8    205    214    215    206    304    313    314    305
8    304    313    314    305    403    412    413    404
8    403    412    413    404    502    511    512    503
8     16     25     26     17    115    124    125    116
8    115    124    125    116    214    223    224    215
8    214    223    224    215    313    322    323    314
8    313    322    323    314    412    421    422    413
8    412    421    422    413    511    520    521    512
8     25     34     35     26    124    133    134    125
8    124    133    134    125    223    232    233    224
8    223    232    233    224    322    331    332    323
8    322    331    332    323    421    430    431    422
8    421    430    431    422    520    529    530    521
8     34     43     44     35    133    142    143    134
8    133    142    143    134    232    241    242    233
8    232    241    242    233    331    340    341    332
8    331    340    341    332    430    439    440    431
8    430    439    440    431    529    538    539    530
8     43     52     53     44    142    151    152    143
8    142    151    152    143    241    250    251    242
8    241    250    251    242    340    349    350    341
8    340    349    350    341    439    448    449    440
8    439    448    449    440    538    547    548    539
8     52     61     62     53    151    160    161    152
8    151    160    161    152    250    259    260    251
8    250    259    260    251    349    358    359    350
8    349    358    359    350    448    457    458    449
8    448    457    458    449    547    556    557    548
8     61     70     71     62    160    169    170    161
8    160    169    170    161    259    268    269    260
8    259    268    269    260    358    367    368    359
8    358    367    368    359    457    466    467    458
8    457    466    467    458    556    565    566    557
8     70     79     80     71    169    178    179    170
8    169    178    179    170    268    277    278    269
8    268    277    278    269    367    376    377    368
8    367    376    377    368    466    475    476    467
8    466    475    476    467    565    574    575    566
8     79     88     89     80    178    187    188    179
8    178    187    188    179    277    286    287    278
8    277    286    287    278    376    385    386    377
8    376    385    386    377    475    484    485    476
8    475    484    485    476    574    583    584    575
8     88     97     98     89    187    196    197    188
8    187    196    197    188    286    295    296    287
8    286    295    296    287    385    394    395    386
8    385    394    395    386    484    493    494    485
8    484    493    494    485    583    592    593    584
8     53     62    605    594    152    161    671    660
8    152    161    671    660    251    260    737    726
8    251    260    737    726    350    359    803    792
8    350    359    803    792    449    458    869    858
8    449    458    869    858    548    557    935    924
8     62     71    616    605    161    170    682    671
8    161    170    682    671    260    269    748    737
8    260    269    748    737    359    368    814    803
8    359    368    814    803    458    467    880    869
8    458    467    880    869    557    566    946    935
8     71     80    627    616    170    179    693    682
8    170    179    693    682    269    278    759    748
8    269    278    759    748    368    377    825    814
8    368    377    825    814    467    476    891    880
8    467    476    891    880    566    575    957    946
8     80     89    638    627    179    188    704    693
8    179    188    704    693    278    287    770    759
8    278    287    770    759    377    386    836    825
8    377    386    836    825    476    485    902    891
8    476    485    902    891    575    584    968    957
8     89     98    649    638    188    197    715    704
8    188    197    715    704    287    296    781    770
8    287    296    781    770    386    395    847    836
8    386    395    847    836    485    494    913    902
8    485    494    913    902    584    593    979    968
8      8     17   1025   1034    107    116   1079   1088
8    107    116   1079   1088    206    215   1133   1142
8    206    215   1133   1142    305    314   1187   1196
8    305    314   1187   1196    404    413   1241   1250
8    404    413   1241   1250    503    512   1295   1304
8     17     26   1016   1025    116    125   1070   1079
8    116    125   1070   1079    215    224   1124   1133
8    215    224   1124   1133    314    323   1178   1187
8    314    323   1178   1187    413    422   1232   1241
8    413    422   1232   1241    512    521   1286   1295
8     26     35   1007   1016    125    134   1061   1070
8    125    134   1061   1070    224    233   1115   1124
8    224    233   1115   1124    323    332   1169   1178
8    323    332   1169   1178    422    431   1223   1232
8    422    431   1223   1232    521    530   1277   1286
8     35     44    998   1007    134    143   1052   1061
8    134    143   1052   1061    233    242   1106   1115
8    233    242   1106   1115    332    341   1160   1169
8    332    341   1160   1169    431    440   1214   1223
8    431    440   1214   1223    530    539   1268   1277
8     44     53    594    998    143    152   1043   1052
8    143    152   1043   1052    242    251   1097   1106
8    242    251   1097   1106    341    350   1151   1160
8    341    350   1151   1160    440    449   1205   1214
8    440    449   1205   1214    539    548   1259   1268
8    594    605    606    595    660    671    672    661
8    660    671    672    661    726    737    738    727
8    726    737    738    727    792    803    804    793
8    792    803    804    793    858    869    870    859
8    858    869    870    859    924    935    936    925
8    605    616    617    606    671    682    683    672
8    671    682    683    672    737    748    749    738
8    737    748    749    738    803    814    815    804
8    803    814    815    804    869    880    881    870
8    869    880    881    870    935    946    947    936
8    616    627    628    617    682    693    694    683
8    682    693    694    683    748    759    760    749
8    748    759    760    749    814    825    826    815
8    814    825    826    815    880    891    892    881
8    880    891    892    881    946    957    958    947
8    627    638    639    628    693    704    705    694
8    693    704    705    694    759    770    771    760
8    759    770    771    760    825    836    837    826
8    825    836    837    826    891    902    903    892
8    891    902    903    892    957    968    969    958
8    638    649    650    639    704    715    716    705
8    704    715    716    705    770    781    782    771
8    770    781    782    771    836    847    848    837
8    836    847    848    837    902    913    914    903
8    902    913    914    903    968    979    980    969
8    595    606    607    596    661    672    673    662
8    661    672    673    662    727    738    739    728
8    727    738    739    728    793    804    805    794
8    793    804    805    794    859    870    871    860
8    859    870    871    860    925    936    937    926
8    606    617    618    607    672    683    684    673
8    672    683    684    673    738    749    750    739
8    738    749    750    739    804    815    816    805
8    804    815    816    805    870    881    882    871
8    870    881    882    871    936    947    948    937
8    617    628    629    618    683    694    695    684
8    683    694    695    684    749    760    761    750
8    749    760    761    750    815    826    827    816
8    815    826    827    816    881    892    893    882
8    881    892    893    882    947    958    959    948
8    628    639    640    629    694    705    706    695
8    694    705    706    695    760    771    772    761
8    760    771    772    761    826    837    838    827
8    826    837    838    827    892    903    904    893
8    892    903    904    893    958    969    970    959
8    639    650    651    640    705    716    717    706
8    705    716    717    706    771    782    783    772
8    771    782    783    772    837    848    849    838
8    837    848    849    838    903    914    915    904
8    903    914    915    904    969    980    981    970
8    596    607    608    597    662    673    674    663
8    662    673    674    663    728    739    740    729
8    728    739    740    729    794    805    806    795
8    794    805    806    795    860    871    872    861
8    860    871    872    861    926    937    938    927
8    607    618    619    608    673    684    685    674
8    673    684    685    674    739    750    751    740
8    739    750    751    740    805    816    817    806
8    805    816    817    806    871    882    883    872
8    871    882    883    872    937    948    949    938
8    618    629    630    619    684    695    696    685
8    684    695    696    685    750    761    762    751
8    750    761    762    751    816    827    828    817
8    816    827    828    817    882    893    894    883
8    882    893    894    883    948    959    960    949
8    629    640    641    630    695    706    707    696
8    695    706    707    696    761    772    773    762
8    761    772    773    762    827    838    839    828
8    827    838    839    828    893    904    905    894
8    893    904    905    894    959    970    971    960
8    640    651    652    641    706    717    718    707
8    706    717    718    707    772    783    784    773
8    772    783    784    773    838    849    850    839
8    838    849    850    839    904    915    916    905
8    904    915    916    905    970    981    982    971
8    597    608    609    598    663    674    675    664
8    663    674    675    664    729    740    741    730
8    729    740    741    730    795    806    807    796
8    795    806    807    796    861    872    873    862
8    861    872    873    862    927    938    939    928
8    608    619    620    609    674    685    686    675
8    674    685    686    675    740    751    752    741
8    740    751    752    741    806    817    818    807
8    806    817    818    807    872    883    884    873
8    872    883    884    873    938    949    950    939
8    619    630    631    620    685    696    697    686
8    685    696    697    686    751    762    763    752
8    751    762    763    752    817    828    829    818
8    817    828    829    818    883    894    895    884
8    883    894    895    884    949    960    961    950
8    630    641    642    631    696    707    708    697
8    696    707    708    697    762    773    774    763
8    762    773    774    763    828    839    840    829
8    828    839    840    829    894    905    906    895
8    894    905    906    895    960    971    972    961
8    641    652    653    642    707    718    719    708
8    707    718    719    708    773    784    785    774
8    773    784    785    774    839    850    851    840
8    839    850    851    840    905    916    917    906
8    905    916    917    906    971    982    983    972
8    598    609    610    599    664    675    676    665
8    664    675    676    665    730    741    742    731
8    730    741    742    731    796    807    808    797
8    796    807    808    797    862    873    874    863
8    862    873    874    863    928    939    940    929
8    609    620    621    610    675    686    687    676
8    675    686    687    676    741    752    753    742
8    741    752    753    742    807    818    819    808
8    807    818    819    808    873    884    885    874
8    873    884    885    874    939    950    951    940
8    620    631    632    621    686    697    698    687
8    686    697    698    687    752    763    764    753
8    752    763    764    753    818    829    830    819
8    818    829    830    819    884    895    896    885
8    884    895    896    885    950    961    962    951
8    631    642    643    632    697    708    709    698
8    697    708    709    698    763    774    775    764
8    763    774    775    764    829    840    841    830
8    829    840    841    830    895    906    907    896
8    895    906    907    896    961    972    973    962
8    642    653    654    643    708    719    720    709
8    708    719    720    709    774    785    786    775
8    774    785    786    775    840    851    852    841
8    840    851    852    841    906    917    918    907
8    906    917    918    907    972    983    984    973
8    599    610    611    600    665    676    677    666
8    665    676    677    666    731    742    743    732
8    731    742    743    732    797    808    809    798
8    797    808    809    798    863    874    875    864
8    863    874    875    864    929    940    941    930
8    610    621    622    611    676    687    688    677
8    676    687    688    677    742    753    754    743
8    742    753    754    743    808    819    820    809
8    808    819    820    809    874    885    886    875
8    874    885    886    875    940    951    952    941
8    621    632    633    622    687    698    699    688
8    687    698    699    688    753    764    765    754
8    753    764    765    754    819    830    831    820
8    819    830    831    820    885    896    897    886
8    885    896    897    886    951    962    963    952
8    632    643    644    633    698    709    710    699
8    698    709    710    699    764    775    776    765
8    764    775    776    765    830    841    842    831
8    830    841    842    831    896    907    908    897
8    896    907    908    897    962    973    974    963
8    643    654    655    644    709    720    721    710
8    709    720    721    710    775    786    787    776
8    775    786    787    776    841    852    853    842
8    841    852    853    842    907    918    919    908
8    907    918    919    908    973    984    985    974
8    600    611    612    601    666    677    678    667
8    666    677    678    667    732    743    744    733
8    732    743    744    733    798    809    810    799
8    798    809    810    799    864    875    876    865
8    864    875    876    865    930    941    942    931
8    611    622    623    612    677    688    689    678
8    677    688    689    678    743    754    755    744
8    743    754    755    744    809    820    821    810
8    809    820    821    810    875    886    887    876
8    875    886    887    876    941    952    953    942
8    622    633    634    623    688    699    700    689
8    688    699    700    689    754    765    766    755
8    754    765    766    755    820    831    832    821
8    820    831    832    821    886    897    898    887
8    886    897    898    887    952    963    964    953
8    633    644    645    634    699    710    711    700
8    699    710    711    700    765    776    777    766
8    765    776    777    766    831    842    843    832
8    831    842    843    832    897    908    909    898
8    897    908    909    898    963    974    975    964
8    644    655    656    645    710    721    722    711
8    710    721    722    711    776    787    788    777
8    776    787    788    777    842    853    854    843
8    842    853    854    843    908    919    920    909
8    908    919    920    909    974    985    986    975
8    601    612    613    602    667    678    679    668
8    667    678    679    668    733    744    745    734
8    733    744    745    734    799    810    811    800
8    799    810    811    800    865    876    877    866
8    865    876    877    866    931    942    943    932
8    612    623    624    613    678    689    690    679
8    678    689    690    679    744    755    756    745
8    744    755    756    745    810    821    822    811
8    810    821    822    811    876    887    888    877
8    876    887    888    877    942    953    954    943
8    623    634    635    624    689    700    701    690
8    689    700    701    690    755    766    767    756
8    755    766    767    756    821    832    833    822
8    821    832    833    822    887    898    899    888
8    887    898    899    888    953    964    965    954
8    634    645    646    635    700    711    712    701
8    700    711    712    701    766    777    778    767
8    766    777    778    767    832    843    844    833
8    832    843    844    833    898    909    910    899
8    898    909    910    899    964    975    976    965
8    645    656    657    646    711    722    723    712
8    711    722    723    712    777    788    789    778
8    777    788    789    778    843    854    855    844
8    843    854    855    844    909    920    921    910
8    909    920    921    910    975    986    987    976
8    602    613    614    603    668    679    680    669
8    668    679    680    669    734    745    746    735
8    734    745    746    735    800    811    812    801
8    800    811    812    801    866    877    878    867
8    866    877    878    867    932    943    944    933
8    613    624    625    614    679    690    691    680
8    679    690    691    680    745    756    757    746
8    745    756    757    746    811    822    823    812
8    811    822    823    812    877    888    889    878
8    877    888    889    878    943    954    955    944
8    624    635    636    625    690    701    702    691
8    690    701    702    691    756    767    768    757
8    756    767    768    757    822    833    834    823
8    822    833    834    823    888    899    900    889
8    888    899    900    889    954    965    966    955
8    635    646    647    636    701    712    713    702
8    701    712    713    702    767    778    779    768
8    767    778    779    768    833    844    845    834
8    833    844    845    834    899    910    911    900
8    899    910    911    900    965    976    977    966
8    646    657    658    647    712    723    724    713
8    712    723    724    713    778    789    790    779
8    778    789    790    779    844    855    856    845
8    844    855    856    845    910    921    922    911
8    910    921    922    911    976    987    988    977
8    603    614    615    604    669    680    681    670
8    669    680    681    670    735    746    747    736
8    735    746    747    736    801    812    813    802
8    801    812    813    802    867    878    879    868
8    867    878    879    868    933    944    945    934
8    614    625    626    615    680    691    692    681
8    680    691    692    681    746    757    758    747
8    746    757    758    747    812    823    824    813
8    812    823    824    813    878    889    890    879
8    878    889    890    879    944    955    956    945
8    625    636    637    626    691    702    703    692
8    691    702    703    692    757    768    769    758
8    757    768    769    758    823    834    835    824
8    823    834    835    824    889    900    901    890
8    889    900    901    890    955    966    967    956
8    636    647    648    637    702    713    714    703
8    702    713    714    703    768    779    780    769
8    768    779    780    769    834    845    846    835
8    834    845    846    835    900    911    912    901
8    900    911    912    901    966    977    978    967
8    647    658    659    648    713    724    725    714
8    713    724    725    714    779    790    791    780
8    779    790    791    780    845    856    857    846
8    845    856    857    846    911    922    923    912
8    911    922    923    912    977    988    989    978
8    998    594    990    999   1052   1043   1044   1053
8   1052   1043   1044   1053   1106   1097   1098   1107
8   1106   1097   1098   1107   1160   1151   1152   1161
8   1160   1151   1152   1161   1214   1205   1206   1215
8   1214   1205   1206   1215   1268   1259   1260   1269
8   1007    998    999   1008   1061   1052   1053   1062
8   1061   1052   1053   1062   1115   1106   1107   1116
8   1115   1106   1107   1116   1169   1160   1161   1170
8   1169   1160   1161   1170   1223   1214   1215   1224
8   1223   1214   1215   1224   1277   1268   1269   1278
8   1016   1007   1008   1017   1070   1061   1062   1071
8   1070   1061   1062   1071   1124   1115   1116   1125
8   1124   1115   1116   1125   1178   1169   1170   1179
8   1178   1169   1170   1179   1232   1223   1224   1233
8   1232   1223   1224   1233   1286   1277   1278   1287
8   1025   1016   1017   1026   1079   1070   1071   1080
8   1079   1070   1071   1080   1133   1124   1125   1134
8   1133   1124   1125   1134   1187   1178   1179   1188
8   1187   1178   1179   1188   1241   1232   1233   1242
8   1241   1232   1233   1242   1295   1286   1287   1296
8   1034   1025   1026   1035   1088   1079   1080   1089
8   1088   1079   1080   1089   1142   1133   1134   1143
8   1142   1133   1134   1143   1196   1187   1188   1197
8   1196   1187   1188   1197   1250   1241   1242   1251
8   1250   1241   1242   1251   1304   1295   1296   1305
8    999    990    991   1000   1053   1044   1045   1054
8   1053   1044   1045   1054   1107   1098   1099   1108
8   1107   1098   1099   1108   1161   1152   1153   1162
8   1161   1152   1153   1162   1215   1206   1207   1216
8   1215   1206   1207   1216   1269   1260   1261   1270
8   1008    999   1000   1009   1062   1053   1054   1063
8   1062   1053   1054   1063   1116   1107   1108   1117
8   1116   1107   1108   1117   1170   1161   1162   1171
8   1170   1161   1162   1171   1224   1215   1216   1225
8   1224   1215   1216   1225   1278   1269   1270   1279
8   1017   1008   1009   1018   1071   1062   1063   1072
8   1071   1062   1063   1072   1125   1116   1117   1126
8   1125   1116   1117   1126   1179   1170   1171   1180
8   1179   1170   1171   1180   1233   1224   1225   1234
8   1233   1224   1225   1234   1287   1278   1279   1288
8   1026   1017   1018   1027   1080   1071   1072   1081
8   1080   1071   1072   1081   1134   1125   1126   1135
8   1134   1125   1126   1135   1188   1179   1180   1189
8   1188   1179   1180   1189   1242   1233   1234   1243
8   1242   1233   1234   1243   1296   1287   1288   1297
8   1035   1026   1027   1036   1089   1080   1081   1090
8   1089   1080   1081   1090   1143   1134   1135   1144
8   1143   1134   1135   1144   1197   1188   1189   1198
8   1197   1188   1189   1198   1251   1242   1243   1252
8   1251   1242   1243   1252   1305   1296   1297   1306
8   1000    991    992   1001   1054   1045   1046   1055
8   1054   1045   1046   1055   1108   1099   1100   1109
8   1108   1099   1100   1109   1162   1153   1154   1163
8   1162   1153   1154   1163   1216   1207   1208   1217
8   1216   1207   1208   1217   1270   1261   1262   1271
8   1009   1000   1001   1010   1063   1054   1055   1064
8   1063   1054   1055   1064   1117   1108   1109   1118
8   1117   1108   1109   1118   1171   1162   1163   1172
8   1171   1162   1163   1172   1225   1216   1217   1226
8   1225   1216   1217   1226   1279   1270   1271   1280
8   1018   1009   1010   1019   1072   1063   1064   1073
8   1072   1063   1064   1073   1126   1117   1118   1127
8   1126   1117   1118   1127   1180   1171   1172   1181
8   1180   1171   1172   1181   1234   1225   1226   1235
8   1234   1225   1226   1235   1288   1279   1280   1289
8   1027   1018   1019   1028   1081   1072   1073   1082
8   1081   1072   1073   1082   1135   1126   1127   1136
8   1135   1126   1127   1136   1189   1180   1181   1190
8   1189   1180   1181   1190   1243   1234   1235   1244
8   1243   1234   1235   1244   1297   1288   1289   1298
8   1036   1027   1028   1037   1090   1081   1082   1091
8   1090   1081   1082   1091   1144   1135   1136   1145
8   1144   1135   1136   1145   1198   1189   1190   1199
8   1198   1189   1190   1199   1252   1243   1244   1253
8   1252   1243   1244   1253   1306   1297   1298   1307
8   1001    992    993   1002   1055   1046   1047   1056
8   1055   1046   1047   1056   1109   1100   1101   1110
8   1109   1100   1101   1110   1163   1154   1155   1164
8   1163   1154   1155   1164   1217   1208   1209   1218
8   1217   1208   1209   1218   1271   1262   1263   1272
8   1010   1001   1002   1011   1064   1055   1056   1065
8   1064   1055   1056   1065   1118   1109   1110   1119
8   1118   1109   1110   1119   1172   1163   1164   1173
8   1172   1163   1164   1173   1226   1217   1218   1227
8   1226   1217   1218   1227   1280   1271   1272   1281
8   1019   1010   1011   1020   1073   1064   1065   1074
8   1073   1064   1065   1074   1127   1118   1119   1128
8   1127   1118   1119   1128   1181   1172   1173   1182
8   1181   1172   1173   1182   1235   1226   1227   1236
8   1235   1226   1227   1236   1289   1280   1281   1290
8   1028   1019   1020   1029   1082   1073   1074   1083
8   1082   1073   1074   1083   1136   1127   1128   1137
8   1136   1127   1128   1137   1190   1181   1182   1191
8   1190   1181   1182   1191   1244   1235   1236   1245
8   1244   1235   1236   1245   1298   1289   1290   1299
8   1037   1028   1029   1038   1091   1082   1083   1092
8   1091   1082   1083   1092   1145   1136   1137   1146
8   1145   1136   1137   1146   1199   1190   1191   1200
8   1199   1190   1191   1200   1253   1244   1245   1254
8   1253   1244   1245   1254   1307   1298   1299   1308
8   1002    993    994   1003   1056   1047   1048   1057
8   1056   1047   1048   1057   1110   1101   1102   1111
8   1110   1101   1102   1111   1164   1155   1156   1165
8   1164   1155   1156   1165   1218   1209   1210   1219
8   1218   1209   1210   1219   1272   1263   1264   1273
8   1011   1002   1003   1012   1065   1056   1057   1066
8   1065   1056   1057   1066   1119   1110   1111   1120
8   1119   1110   1111   1120   1173   1164   1165   1174
8   1173   1164   1165   1174   1227   1218   1219   1228
8   1227   1218   1219   1228   1281   1272   1273   1282
8   1020   1011   1012   1021   1074   1065   1066   1075
8   1074   1065   1066   1075   1128   1119   1120   1129
8   1128   1119   1120   1129   1182   1173   1174   1183
8   1182   1173   1174   1183   1236   1227   1228   1237
8   1236   1227   1228   1237   1290   1281   1282   1291
8   1029   1020   1021   1030   1083   1074   1075   1084
8   1083   1074   1075   1084   1137   1128   1129   1138
8   1137   1128   1129   1138   1191   1182   1183   1192
8   1191   1182   1183   1192   1245   1236   1237   1246
8   1245   1236   1237   1246   1299   1290   1291   1300
8   1038   1029   1030   1039   1092   1083   1084   1093
8   1092   1083   1084   1093   1146   1137   1138   1147
8   1146   1137   1138   1147   1200   1191   1192   1201
8   1200   1191   1192   1201   1254   1245   1246   1255
8   1254   1245   1246   1255   1308   1299   1300   1309
8   1003    994    995   1004   1057   1048   1049   1058
8   1057   1048   1049   1058   1111   1102   1103   1112
8   1111   1102   1103   1112   1165   1156   1157   1166
8   1165   1156   1157   1166   1219   1210   1211   1220
8   1219   1210   1211   1220   1273   1264   1265   1274
8   1012   1003   1004   1013   1066   1057   1058   1067
8   1066   1057   1058   1067   1120   1111   1112   1121
8   1120   1111   1112   1121   1174   1165   1166   1175
8   1174   1165   1166   1175   1228   1219   1220   1229
8   1228   1219   1220   1229   1282   1273   1274   1283
8   1021   1012   1013   1022   1075   1066   1067   1076
8   1075   1066   1067   1076   1129   1120   1121   1130
8   1129   1120   1121   1130   1183   1174   1175   1184
8   1183   1174   1175   1184   1237   1228   1229   1238
8   1237   1228   1229   1238   1291   1282   1283   1292
8   1030   1021   1022   1031   1084   1075   1076   1085
8   1084   1075   1076   1085   1138   1129   1130   1139
8   1138   1129   1130   1139   1192   1183   1184   1193
8   1192   1183   1184   1193   1246   1237   1238   1247
8   1246   1237   1238   1247   1300   1291   1292   1301
8   1039   1030   1031   1040   1093   1084   1085   1094
8   1093   1084   1085   1094   1147   1138   1139   1148
8   1147   1138   1139   1148   1201   1192   1193   1202
8   1201   1192   1193   1202   1255   1246   1247   1256
8   1255   1246   1247   1256   1309   1300   1301   1310
8   1004    995    996   1005   1058   1049   1050   1059
8   1058   1049   1050   1059   1112   1103   1104   1113
8   1112   1103   1104   1113   1166   1157   1158   1167
8   1166   1157   1158   1167   1220   1211   1212   1221
8   1220   1211   1212   1221   1274   1265   1266   1275
8   1013   1004   1005   1014   1067   1058   1059   1068
8   1067   1058   1059   1068   1121   1112   1113   1122
8   1121   1112   1113   1122   1175   1166   1167   1176
8   1175   1166   1167   1176   1229   1220   1221   1230
8   1229   1220   1221   1230   1283   1274   1275   1284
8   1022   1013   1014   1023   1076   1067   1068   1077
8   1076   1067   1068   1077   1130   1121   1122   1131
8   1130   1121   1122   1131   1184   1175   1176   1185
8   1184   1175   1176   1185   1238   1229   1230   1239
8   1238   1229   1230   1239   1292   1283   1284   1293
8   1031   1022   1023   1032   1085   1076   1077   1086
8   1085   1076   1077   1086   1139   1130   1131   1140
8   1139   1130   1131   1140   1193   1184   1185   1194
8   1193   1184   1185   1194   1247   1238   1239   1248
8   1247   1238   1239   1248   1301   1292   1293   1302
8   1040   1031   1032   1041   1094   1085   1086   1095
8   1094   1085   1086   1095   1148   1139   1140   1149
8   1148   1139   1140   1149   1202   1193   1194   1203
8   1202   1193   1194   1203   1256   1247   1248   1257
8   1256   1247   1248   1257   1310   1301   1302   1311
8   1005    996    997   1006   1059   1050   1051   1060
8   1059   1050   1051   1060   1113   1104   1105   1114
8   1113   1104   1105   1114   1167   1158   1159   1168
8   1167   1158   1159   1168   1221   1212   1213   1222
8   1221   1212   1213   1222   1275   1266   1267   1276
8   1014   1005   1006   1015   1068   1059   1060   1069
8   1068   1059   1060   1069   1122   1113   1114   1123
8   1122   1113   1114   1123   1176   1167   1168   1177
8   1176   1167   1168   1177   1230   1221   1222   1231
8   1230   1221   1222   1231   1284   1275   1276   1285
8   1023   1014   1015   1024   1077   1068   1069   1078
8   1077   1068   1069   1078   1131   1122   1123   1132
8   1131   1122   1123   1132   1185   1176   1177   1186
8   1185   1176   1177   1186   1239   1230   1231   1240
8   1239   1230   1231   1240   1293   1284   1285   1294
8   1032   1023   1024   1033   1086   1077   1078   1087
8   1086   1077   1078   1087   1140   1131   1132   1141
8   1140   1131   1132   1141   1194   1185   1186   1195
8   1194   1185   1186   1195   1248   1239   1240   1249
8   1248   1239   1240   1249   1302   1293   1294   1303
8   1041   1032   1033   1042   1095   1086   1087   1096
8   1095   1086   1087   1096   1149   1140   1141   1150
8   1149   1140   1141   1150   1203   1194   1195   1204
8   1203   1194   1195   1204   1257   1248   1249   1258
8   1257   1248   1249   1258   1311   1302   1303   1312
8      0   1314   1324     99      1   1315   1325    100
8     99   1324   1334    198    100   1325   1335    199
8    198   1334   1344    297    199   1335   1345    298
8    297   1344   1354    396    298   1345   1355    397
8    396   1354   1364    495    397   1355   1365    496
8    495   1364   1374    504    496   1365   1375    505
8    504   1374   1384    513    505   1375   1385    514
8    513   1384   1394    522    514   1385   1395    523
8    522   1394   1404    531    523   1395   1405    532
8    531   1404   1414    540    532   1405   1415    541
8    540   1414   1424    549    541   1415   1425    550
8    549   1424   1434    558    550   1425   1435    559
8    558   1434   1444    567    559   1435   1445    568
8    567   1444   1454    576    568   1445   1455    577
8    576   1454   1464    585    577   1455   1465    586
8     90    189   1504   1514     91    190   1505   1515
8    189    288   1494   1504    190    289   1495   1505
8    288    387   1484   1494    289    388   1485   1495
8    387    486   1474   1484    388    487   1475   1485
8    486    585   1464   1474    487    586   1465   1475
8      1   1315   1325    100      2   1316   1326    101
8    100   1325   1335    199    101   1326   1336    200
8    199   1335   1345    298    200   1336   1346    299
8    298   1345   1355    397    299   1346   1356    398
8    397   1355   1365    496    398   1356   1366    497
8    496   1365   1375    505    497   1366   1376    506
8    505   1375   1385    514    506   1376   1386    515
8    514   1385   1395    523    515   1386   1396    524
8    523   1395   1405    532    524   1396   1406    533
8    532   1405   1415    541    533   1406   1416    542
8    541   1415   1425    550    542   1416   1426    551
8    550   1425   1435    559    551   1426   1436    560
8    559   1435   1445    568    560   1436   1446    569
8    568   1445   1455    577    569   1446   1456    578
8    577   1455   1465    586    578   1456   1466    587
8     91    190   1505   1515     92    191   1506   1516
8    190    289   1495   1505    191    290   1496   1506
8    289    388   1485   1495    290    389   1486   1496
8    388    487   1475   1485    389    488   1476   1486
8    487    586   1465   1475    488    587   1466   1476
8      2   1316   1326    101      3   1317   1327    102
8    101   1326   1336    200    102   1327   1337    201
8    200   1336   1346    299    201   1337   1347    300
8    299   1346   1356    398    300   1347   1357    399
8    398   1356   1366    497    399   1357   1367    498
8    497   1366   1376    506    498   1367   1377    507
8    506   1376   1386    515    507   1377   1387    516
8    515   1386   1396    524    516   1387   1397    525
8    524   1396   1406    533    525   1397   1407    534
8    533   1406   1416    542    534   1407   1417    543
8    542   1416   1426    551    543   1417   1427    552
8    551   1426   1436    560    552   1427   1437    561
8    560   1436   1446    569    561   1437   1447    570
8    569   1446   1456    578    570   1447   1457    579
8    578   1456   1466    587    579   1457   1467    588
8     92    191   1506   1516     93    192   1507   1517
8    191    290   1496   1506    192    291   1497   1507
8    290    389   1486   1496    291    390   1487   1497
8    389    488   1476   1486    390    489   1477   1487
8    488    587   1466   1476    489    588   1467   1477
8      3   1317   1327    102      4   1318   1328    103
8    102   1327   1337    201    103   1328   1338    202
8    201   1337   1347    300    202   1338   1348    301
8    300   1347   1357    399    301   1348   1358    400
8    399   1357   1367    498    400   1358   1368    499
8    498   1367   1377    507    499   1368   1378    508
8    507   1377   1387    516    508   1378   1388    517
8    516   1387   1397    525    517   1388   1398    526
8    525   1397   1407    534    526   1398   1408    535
8    534   1407   1417    543    535   1408   1418    544
8    543   1417   1427    552    544   1418   1428    553
8    552   1427   1437    561    553   1428   1438    562
8    561   1437   1447    570    562   1438   1448    571
8    570   1447   1457    579    571   1448   1458    580
8    579   1457   1467    588    580   1458   1468    589
8     93    192   1507   1517     94    193   1508   1518
8    192    291   1497   1507    193    292   1498   1508
8    291    390   1487   1497    292    391   1488   1498
8    390    489   1477   1487    391    490   1478   1488
8    489    588   1467   1477    490    589   1468   1478
8      4   1318   1328    103      5   1319   1329    104
8    103   1328   1338    202    104   1329   1339    203
8    202   1338   1348    301    203   1339   1349    302
8    301   1348   1358    400    302   1349   1359    401
8    400   1358   1368    499    401   1359   1369    500
8    499   1368   1378    508    500   1369   1379    509
8    508   1378   1388    517    509   1379   1389    518
8    517   1388   1398    526    518   1389   1399    527
8    526   1398   1408    535    527   1399   1409    536
8    535   1408   1418    544    536   1409   1419    545
8    544   1418   1428    553    545   1419   1429    554
8    553   1428   1438    562    554   1429   1439    563
8    562   1438   1448    571    563   1439   1449    572
8    571   1448   1458    580    572   1449   1459    581
8    580   1458   1468    589    581   1459   1469    590
8     94    193   1508   1518     95    194   1509   1519
8    193    292   1498   1508    194    293   1499   1509
8    292    391   1488   1498    293    392   1489   1499
8    391    490   1478   1488    392    491   1479   1489
8    490    589   1468   1478    491    590   1469   1479
8      5   1319   1329    104      6   1320   1330    105
8    104   1329   1339    203    105   1330   1340    204
8    203   1339   1349    302    204   1340   1350    303
8    302   1349   1359    401    303   1350   1360    402
8    401   1359   1369    500    402   1360   1370    501
8    500   1369   1379    509    501   1370   1380    510
8    509   1379   1389    518    510   1380   1390    519
8    518   1389   1399    527    519   1390   1400    528
8    527   1399   1409    536    528   1400   1410    537
8    536   1409   1419    545    537   1410   1420    546
8    545   1419   1429    554    546   1420   1430    555
8    554   1429   1439    563    555   1430   1440    564
8    563   1439   1449    572    564   1440   1450    573
8    572   1449   1459    581    573   1450   1460    582
8    581   1459   1469    590    582   1460   1470    591
8     95    194   1509   1519     96    195   1510   1520
8    194    293   1499   1509    195    294   1500   1510
8    293    392   1489   1499    294    393   1490   1500
8    392    491   1479   1489    393    492   1480   1490
8    491    590   1469   1479    492    591   1470   1480
8      6   1320   1330    105      7   1321   1331    106
8    105   1330   1340    204    106   1331   1341    205
8    204   1340   1350    303    205   1341   1351    304
8    303   1350   1360    402    304   1351   1361    403
8    402   1360   1370    501    403   1361   1371    502
8    501   1370   1380    510    502   1371   1381    511
8    510   1380   1390    519    511   1381   1391    520
8    519   1390   1400    528    520   1391   1401    529
8    528   1400   1410    537    529   1401   1411    538
8    537   1410   1420    546    538   1411   1421    547
8    546   1420   1430    555    547   1421   1431    556
8    555   1430   1440    564    556   1431   1441    565
8    564   1440   1450    573    565   1441   1451    574
8    573   1450   1460    582    574   1451   1461    583
8    582   1460   1470    591    583   1461   1471    592
8     96    195   1510   1520     97    196   1511   1521
8    195    294   1500   1510    196    295   1501   1511
8    294    393   1490   1500    295    394   1491   1501
8    393    492   1480   1490    394    493   1481   1491
8    492    591   1470   1480    493    592   1471   1481
8      7   1321   1331    106      8   1322   1332    107
8    106   1331   1341    205    107   1332   1342    206
8    205   1341   1351    304    206   1342   1352    305
8    304   1351   1361    403    305   1352   1362    404
8    403   1361   1371    502    404   1362   1372    503
8    502   1371   1381    511    503   1372   1382    512
8    511   1381   1391    520    512   1382   1392    521
8    520   1391   1401    529    521   1392   1402    530
8    529   1401   1411    538    530   1402   1412    539
8    538   1411   1421    547    539   1412   1422    548
8    547   1421   1431    556    548   1422   1432    557
8    556   1431   1441    565    557   1432   1442    566
8    565   1441   1451    574    566   1442   1452    575
8    574   1451   1461    583    575   1452   1462    584
8    583   1461   1471    592    584   1462   1472    593
8     97    196   1511   1521     98    197   1512   1522
8    196    295   1501   1511    197    296   1502   1512
8    295    394   1491   1501    296    395   1492   1502
8    394    493   1481   1491    395    494   1482   1492
8    493    592   1471   1481    494    593   1472   1482
8   1523   1524      9      0   1534   1535    108     99
8   1534   1535    108     99   1545   1546    207    198
8   1545   1546    207    198   1556   1557    306    297
8   1556   1557    306    297   1567   1568    405    396
8   1567   1568    405    396   1578   1579    504    495
8   1524   1525     18      9   1535   1536    117    108
8   1535   1536    117    108   1546   1547    216    207
8   1546   1547    216    207   1557   1558    315    306
8   1557   1558    315    306   1568   1569    414    405
8   1568   1569    414    405   1579   1580    513    504
8   1525   1526     27     18   1536   1537    126    117
8   1536   1537    126    117   1547   1548    225    216
8   1547   1548    225    216   1558   1559    324    315
8   1558   1559    324    315   1569   1570    423    414
8   1569   1570    423    414   1580   1581    522    513
8   1526   1527     36     27   1537   1538    135    126
8   1537   1538    135    126   1548   1549    234    225
8   1548   1549    234    225   1559   1560    333    324
8   1559   1560    333    324   1570   1571    432    423
8   1570   1571    432    423   1581   1582    531    522
8   1527   1528     45     36   1538   1539    144    135
8   1538   1539    144    135   1549   1550    243    234
8   1549   1550    243    234   1560   1561    342    333
8   1560   1561    342    333   1571   1572    441    432
8   1571   1572    441    432   1582   1583    540    531
8   1528   1529     54     45   1539   1540    153    144
8   1539   1540    153    144   1550   1551    252    243
8   1550   1551    252    243   1561   1562    351    342
8   1561   1562    351    342   1572   1573    450    441
8   1572   1573    450    441   1583   1584    549    540
8   1529   1530     63     54   1540   1541    162    153
8   1540   1541    162    153   1551   1552    261    252
8   1551   1552    261    252   1562   1563    360    351
8   1562   1563    360    351   1573   1574    459    450
8   1573   1574    459    450   1584   1585    558    549
8   1530   1531     72     63   1541   1542    171    162
8   1541   1542    171    162   1552   1553    270    261
8   1552   1553    270    261   1563   1564    369    360
8   1563   1564    369    360   1574   1575    468    459
8   1574   1575    468    459   1585   1586    567    558
8   1531   1532     81     72   1542   1543    180    171
8   1542   1543    180    171   1553   1554    279    270
8   1553   1554    279    270   1564   1565    378    369
8   1564   1565    378    369   1575   1576    477    468
8   1575   1576    477    468   1586   1587    576    567
8   1532   1533     90     81   1543   1544    189    180
8   1543   1544    189    180   1554   1555    288    279
8   1554   1555    288    279   1565   1566    387    378
8   1565   1566    387    378   1576   1577    486    477
8   1576   1577    486    477   1587   1588    585    576
8   1523   1313   1323   1534      0   1314   1324     99
8   1534   1323   1333   1545     99   1324   1334    198
8   1545   1333   1343   1556    198   1334   1344    297
8   1556   1343   1353   1567    297   1344   1354    396
8   1567   1353   1363   1578    396   1354   1364    495
8   1578   1363   1373   1579    495   1364   1374    504
8   1579   1373   1383   1580    504   1374   1384    513
8   1580   1383   1393   1581    513   1384   1394    522
8   1581   1393   1403   1582    522   1394   1404    531
8   1582   1403   1413   1583    531   1404   1414    540
8   1583   1413   1423   1584    540   1414   1424    549
8   1584   1423   1433   1585    549   1424   1434    558
8   1585   1433   1443   1586    558   1434   1444    567
8   1586   1443   1453   1587    567   1444   1454    576
8   1587   1453   1463   1588    576   1454   1464    585
8   1533   1544   1503   1513     90    189   1504   1514
8   1544   1555   1493   1503    189    288   1494   1504
8   1555   1566   1483   1493    288    387   1484   1494
8   1566   1577   1473   1483    387    486   1474   1484
8   1577   1588   1463   1473    486    585   1464   1474
CELL_TYPES  1130
12
12
12
12
12
12
12
12
12
12
12
12
12
12
12
12
12
12
12
12
12
12
12
12
12
12
12
12
12
12
12
12
12
12
12
12
12
12
12
12
12
12
12
12
12
12
12
12
12
12
12
12
12
12
12
12
12
12
12
12
12
12
12
12
12
12
12
12
12
12
12
12
12
12
12
12
12
12
12
12
12
12
12
12
12
12
12
12
12
12
12
12
12
12
12
12
12
12
12
12
12
12
12
12
12
12
12
12
12
12
12
12
12
12
12
12
12
12
12
12
12
12
12
12
12
12
12
12
12
12
12
12
12
12
12
12
12
12
12
12
12
12
12
12
12
12
12
12
12
12
12
12
12
12
12
12
12
12
12
12
12
12
12
12
12
12
12
12
12
12
12
12
12
12
12
12
12
12
12
12
12
12
12
12
12
12
12
12
12
12
12
12
12
12
12
12
12
12
12
12
12
12
12
12
12
12
12
12
12
12
12
12
12
12
12
12
12
12
12
12
12
12
12
12
12
12
12
12
12
12
12
12
12
12
12
12
12
12
12
12
12
12
12
12
12
12
12
12
12
12
12
12
12
12
12
12
12
12
12
12
12
12
12
12
12
12
12
12
12
12
12
12
12
12
12
12
12
12
12
12
12
12
12
12
12
12
12
12
12
12
12
12
12
12
12
12
12
12
12
12
12
12
12
12
12
12
12
12
12
12
12
12
12
12
12
12
12
12
12
12
12
12
12
12
12
12
12
12
12
12
12
12
12
12
12
12
12
12
12
12
12
12
12
12
12
12
12
12
12
12
12
12
12
12
12
12
12
12
12
12
12
12
12
12
12
12
12
12
12
12
12
12
12
12
12
12
12
12
12
12
12
12
12
12
12
12
12
12
12
12
12
12
12
12
12
12
12
12
12
12
12
12
12
12
12
12
12
12
12
12
12
12
12
12
12
12
12
12
12
12
12
12
12
12
12
12
12
12
12
12
12
12
12
12
12
12
12
12
12
12
12
12
12
12
12
12
12
12
12
12
12
12
12
12
12
12
12
12
12
12
12
12
12
12
12
12
12
12
12
12
12
12
12
12
12
12
12
12
12
12
12
12
12
12
12
12
12
12
12
12
12
12
12
12
12
12
12
12
12
12
12
12
12
12
12
12
12
12
12
12
12
12
12
12
12
12
12
12
12
12
12
12
12
12
12
12
12
12
12
12
12
12
12
12
12
12
12
12
12
12
12
12
12
12
12
12
12
12
12
12
12
12
12
12
12
12
12
12
12
12
12
12
12
12
12
12
12
12
12
12
12
12
12
12
12
12
12
12
12
12
12
12
12
12
12
12
12
12
12
12
12
12
12
12
12
12
12
12
12
12
12
12
12
12
12
12
12
12
12
12
12
12
12
12
12
12
12
12
12
12
12
12
12
12
12
12
12
12
12
12
12
12
12
12
12
12
12
12
12
12
12
12
12
12
12
12
12
12
12
12
12
12
12
12
12
12
12
12
12
12
12
12
12
12
12
12
12
12
12
12
12
12
12
12
12
12
12
12
12
12
12
12
12
12
12
12
12
12
12
12
12
12
12
12
12
12
12
12
12
12
12
12
12
12
12
12
12
12
12
12
12
12
12
12
12
12
12
12
12
12
12
12
12
12
12
12
12
12
12
12
12
12
12
12
12
12
12
12
12
12
12
12
12
12
12
12
12
12
12
12
12
12
12
12
12
12
12
12
12
12
12
12
12
12
12
12
12
12
12
12
12
12
12
12
12
12
12
12
12
12
12
12
12
12
12
12
12
12
12
12
12
12
12
12
12
12
12
12
12
12
12
12
12
12
12
12
12
12
12
12
12
12
12
12
12
12
12
12
12
12
12
12
12
12
12
12
12
12
12
12
12
12
12
12
12
12
12
12
12
12
12
12
12
12
12
12
12
12
12
12
12
12
12
12
12
12
12
12
12
12
12
12
12
12
12
12
12
12
12
12
12
12
12
12
12
12
12
12
12
12
12
12
12
12
12
12
12
12
12
12
12
12
12
12
12
12
12
12
12
12
12
12
12
12
12
12
12
12
12
12
12
12
12
12
12
12
12
12
12
12
12
12
12
12
12
12
12
12
12
12
12
12
12
12
12
12
12
12
12
12
12
12
12
12
12
12
12
12
12
12
12
12
12
12
12
12
12
12
12
12
12
12
12
12
12
12
12
12
12
12
12
12
12
12
12
12
12
12
12
12
12
12
12
12
12
12
12
12
12
12
12
12
12
12
12
12
12
12
12
12
12
12
12
12
12
12
12
12
12
12
12
12
12
12
12
12
12
12
12
12
12
12
12
12
12
12
12
12
12
12
12
12
12
12
12
12
12
12
12
12
12
12
12
12
12
12
12
12
12
12
12
12
12
12
12
12
12
12
12
12
12
12
12
12
12
12
12
12
12
12
12
12
12
12
12
12
12
12
12
12
12
12
12
12
12
12
12
12
12
12
12
12
12
12
12
12
12
12
12
12
12
12
12
12
12
12
12
12
12
12
12
12
12
12
12
12
12
12
12
12
12
12
12
12
12
12
12
12
12
12
POINT_DATA      1589
VECTORS Velocities float 
     0.00000000     0.00000000     0.00000000
     0.00000000     0.00000000     0.00000000
     0.00000000     0.00000000     0.00000000
     0.00000000     0.00000000     0.00000000
     0.00000000     0.00000000     0.00000000
     0.00000000     0.00000000     0.00000000
     0.00000000     0.00000000     0.00000000
     0.00000000     0.00000000     0.00000000
     0.00000000     0.00000000     0.00000000
     0.00000000     0.00000000     0.00000000
   -26.26869704     9.68598556     0.00000000
    21.36948278    -5.96750578     0.00000000
    62.02589480    -1.31827713     0.00000000
    11.33437479    -5.00141182     0.00000000
  -137.51094892    37.03660789     0.00000000
  -262.34586451   -11.30380857     0.00000000
  -319.98402132     5.20382767     0.00000000
  -444.36366884   -28.30375370     0.00000000
     0.00000000     0.00000000     0.00000000
   -94.63662526   -62.91263511     0.00000000
   -48.68689852    41.67565707     0.00000000
    53.74949101   -14.02271905     0.00000000
   -50.84539928    42.58724859     0.00000000
  -142.87362873    55.07031893     0.00000000
  -213.71349642   109.70036634     0.00000000
  -133.09317385   105.11393012     0.00000000
   194.48490800   126.43540728     0.00000000
     0.00000000     0.00000000     0.00000000
  -121.75373407   -80.80026139     0.00000000
   -37.26530999    33.11971747     0.00000000
   -12.79604552    15.04163230     0.00000000
   -70.24935368    40.72575176     0.00000000
  -122.29127013   102.29777318     0.00000000
  -130.51652036   148.47975234     0.00000000
    16.56077292   146.12662951     0.00000000
    75.49526363   109.45881025     0.00000000
     0.00000000     0.00000000     0.00000000
  -104.58270600   -62.50524405     0.00000000
   -75.59621349    27.31771710     0.00000000
    -5.90060916     9.28056713     0.00000000
   -80.41709876    66.95708317     0.00000000
   -22.26287822    21.82894467     0.00000000
    49.29158639   118.11137741     0.00000000
    52.16140159   140.63435545     0.00000000
   294.43693824    83.86632572     0.00000000
     0.00000000     0.00000000     0.00000000
  -145.95925710   -46.54683891     0.00000000
   -75.62913114   -22.17133197     0.00000000
   -45.72758456    14.26727821     0.00000000
   -26.69915725    27.97487691     0.00000000
   -47.20865464    39.31485695     0.00000000
   -17.03355981   -63.52512423     0.00000000
    61.11160021   186.24886581     0.00000000
     0.00000000     0.00000000     0.00000000
     0.00000000     0.00000000     0.00000000
   -78.98204905   -31.18920344     0.00000000
   -81.66514074   -63.31591020     0.00000000
    21.94502857     1.42105939     0.00000000
   -72.00767607   -14.18243152     0.00000000
    86.43840281    23.31514468     0.00000000
   -69.22763770    11.49225119     0.00000000
    67.13347298  -144.50167481     0.00000000
   156.08791414   165.42114495     0.00000000
     0.00000000     0.00000000     0.00000000
  -109.30954474   -25.24692580     0.00000000
   -81.63829954   -56.69436897     0.00000000
   -60.51072902   -52.80550068     0.00000000
   -60.53466749   -10.17337216     0.00000000
   -36.94106227   -64.73052186     0.00000000
    90.94929535    87.79875124     0.00000000
    42.92033274  -240.03201448     0.00000000
    20.30703139   210.69417657     0.00000000
     0.00000000     0.00000000     0.00000000
   -75.63556035   -19.33595993     0.00000000
   -78.30576351   -63.50066404     0.00000000
   -87.52778965   -45.68624699     0.00000000
  -152.96411898   -55.47564514     0.00000000
   -91.13905619   -13.06403100     0.00000000
   -77.93438317   -41.56072509     0.00000000
     4.61204876    21.95821236     0.00000000
    36.23339975    54.68073678     0.00000000
     0.00000000     0.00000000     0.00000000
     3.75118598   -24.90815783     0.00000000
    -9.28199634   -18.68922626     0.00000000
   -86.37194172   -32.76010849     0.00000000
  -162.96139341   -24.85745234     0.00000000
  -227.39039066   -25.12093557     0.00000000
  -268.55731297    34.74585137     0.00000000
  -310.91913602   104.48843263     0.00000000
  -261.90624198   218.38545741     0.00000000
     0.00000000     0.00000000     0.00000000
     0.00000000     0.00000000     0.00000000
     0.00000000     0.00000000     0.00000000
     0.00000000     0.00000000     0.00000000
     0.00000000     0.00000000     0.00000000
     0.00000000     0.00000000     0.00000000
     0.00000000     0.00000000     0.00000000
     0.00000000     0.00000000     0.00000000
     0.00000000     0.00000000     0.00000000
     0.00000000     0.00000000     0.00000000
     0.00000000     0.00000000     0.00000000
     0.00000000     0.00000000     0.00000000
     0.00000000     0.00000000     0.00000000
     0.00000000     0.00000000     0.00000000
     0.00000000     0.00000000     0.00000000
     0.00000000     0.00000000     0.00000000
     0.00000000     0.00000000     0.00000000
     0.00000000     0.00000000     0.00000000
     0.00000000     0.00000000     0.00000000
    30.16493251   -52.08768154    35.90190969
    32.59083538   -12.51791961   -28.75018973
     4.06200308     5.73046275     4.04537592
    29.85464313   -15.29081911    11.21076949
   -20.89387267    46.24776718    66.18196361
  -138.97166476    12.70215800   -12.51133375
  -250.58738235     5.93751319   -56.18508076
  -465.64151275   -44.95823514   -50.92396278
     0.00000000     0.00000000     0.00000000
    48.14647872   -46.45638845    84.06013647
    14.29843652   -16.78556833   -51.20889841
    15.08221272   -12.56220720     5.97483012
     4.59095169    37.19900287    16.05794062
   -18.90196114    11.53088380    47.10720547
   -59.79010865   110.44957479   -45.14001976
  -136.63765859   112.01914636  -112.86253336
   158.35954215   -10.37813586  -153.83854542
     0.00000000     0.00000000     0.00000000
    27.72116134   -46.43884794    40.25014802
    13.88452562   -35.29260795   -51.71127616
   -32.23018248    25.29683917    18.21537840
    21.63389769    15.35966154    11.77456041
   -32.13379479    46.73750433    28.04086729
    46.75596737   -34.70306840    19.41878414
   101.03509528   187.40730162  -108.00179217
    -9.56412836   -89.78206613  -101.63758131
     0.00000000     0.00000000     0.00000000
    21.64609954   -63.36290320    62.62749219
   -45.15441140   -19.46329858   -54.14731181
    16.10444793    12.47187848    26.26499749
   -34.95348851    42.67028873     5.97708862
     2.27047855    -6.34457958    41.45294742
    45.66338511   -85.73223681   -11.66930326
   104.04769864    76.51636643    21.05424117
   255.03823149    -6.72210132  -116.68561407
     0.00000000     0.00000000     0.00000000
   -39.63799502   -34.07157397    48.80532050
   -27.90023274   -44.41376465   -36.12285362
   -53.02080330    17.60389184    40.33197024
    32.06138307    19.20842701    -2.22449682
   -65.29055908     6.68123471     4.92926705
   -61.18337917   -48.70506134   -34.19366438
    16.95405933   105.30420365     6.43086644
     0.00000000     0.00000000     0.00000000
     0.00000000     0.00000000     0.00000000
    32.36083624   -18.92523935    59.01649947
   -24.51091062   -62.14928330   -36.19779099
    -7.89357116     9.80411234    30.09330342
    12.73358993   -17.73622087    11.88439654
    38.64272620    26.76205979    11.19022389
   -27.80823060    47.58930557   -15.17566334
    31.18727001   -91.10743668    67.31814558
   107.32615578   148.74995323   -61.30947816
     0.00000000     0.00000000     0.00000000
   -16.96213377   -35.56042506    33.52803702
   -50.20502898   -48.52054657   -26.64870453
   -76.79964546   -52.63863184    36.06137228
    10.10521949     0.96429420     0.54799404
   -73.77041378   -32.52406526     3.23566784
   101.79806292    85.31231990   -30.08289219
    55.84575622  -216.09832795   -65.09100852
   -13.22217059   242.40763166   -51.52076475
     0.00000000     0.00000000     0.00000000
    -3.77472000    -3.83073119    55.01611097
   -67.60829397   -59.34742226   -22.02906120
   -97.14235977   -41.49252176    33.11008068
  -124.10501335   -54.75231996    -6.01557175
  -104.56396787     0.39270698    -5.61800739
   -75.79211306   -27.92502776   -54.46619245
     2.18041715     8.66304542    12.33807839
    40.48085089    92.39249934  -143.26249211
     0.00000000     0.00000000     0.00000000
     0.36957551    28.71823065    -3.65546537
   -41.35914677   -34.14739280     2.39430452
   -94.93661427   -31.46083926    24.34382619
  -138.57942117   -25.66802335    12.43950882
  -210.48300659   -28.66061944    12.28922415
  -226.61164137    31.58594751    -7.23288644
  -272.71239744   108.20978632   -12.83841174
  -249.28978698   215.61319984    -7.33332093
     0.00000000     0.00000000     0.00000000
     0.00000000     0.00000000     0.00000000
     0.00000000     0.00000000     0.00000000
     0.00000000     0.00000000     0.00000000
     0.00000000     0.00000000     0.00000000
     0.00000000     0.00000000     0.00000000
     0.00000000     0.00000000     0.00000000
     0.00000000     0.00000000     0.00000000
     0.00000000     0.00000000     0.00000000
     0.00000000     0.00000000     0.00000000
     0.00000000     0.00000000     0.00000000
     0.00000000     0.00000000     0.00000000
     0.00000000     0.00000000     0.00000000
     0.00000000     0.00000000     0.00000000
     0.00000000     0.00000000     0.00000000
     0.00000000     0.00000000     0.00000000
     0.00000000     0.00000000     0.00000000
     0.00000000     0.00000000     0.00000000
     0.00000000     0.00000000     0.00000000
    40.01534528    -9.83857052    42.10243878
    53.11371447   -25.76620191     5.19346589
    39.84526021    -1.39918124   -10.08422428
    22.02135228     0.82747421    25.44199311
    85.72977320     1.18008825    30.27650669
   123.04429405    34.74110122    -9.32332565
   -53.77344474     9.87259633   -31.84603429
  -508.46418795   -30.71643421   -51.01526051
     0.00000000     0.00000000     0.00000000
    43.34137632   -40.43260424    31.67772600
    48.98902003   -23.93907358     8.44364690
    41.96109281    -2.67177782   -14.39755504
    35.41604636    -6.19410791    19.68940719
    53.96044063    21.83077468    25.62921142
   140.17691778   -60.39142939     6.23888633
   -25.83105912   150.16460986   -72.41687062
    32.58760971    -4.11586853  -175.15635689
     0.00000000     0.00000000     0.00000000
    11.51314746   -40.47354838    46.01307519
    40.82699511   -39.86341699    -6.18655598
     7.44693990    21.74750341   -12.73080622
    27.95051850   -44.09890599    22.60866282
    64.69260253    79.32616324    14.69784123
    56.10174996  -152.63554303    43.14101335
   140.97534880   203.48362287   -92.50599611
   -45.74596646  -144.89448204  -146.44606749
     0.00000000     0.00000000     0.00000000
    16.29246196   -45.18824774    38.27477362
    -8.25609927   -33.57217005   -13.16841423
    11.02211238    -4.15322534     0.06961237
     5.53099793     2.29197660     5.41415925
    30.64095832    16.13910479    57.21065599
    57.70705943   -60.84008592   -75.34819112
   115.36140783    61.08294212    54.80143781
   216.49894342   -45.67036013  -145.87268645
     0.00000000     0.00000000     0.00000000
   -26.14570484   -28.31439873    50.61967565
    -9.81290683   -51.43132810    -5.43074151
   -23.99970124    -7.48026952    19.08941871
    24.69502443     4.56259419    11.94842595
    24.16006933    12.88914418    15.86684632
   -41.75488791   -31.43907280   -91.28216389
     2.88963931     5.43370112   -23.72703676
     0.00000000     0.00000000     0.00000000
     0.00000000     0.00000000     0.00000000
    33.94244147   -13.85224119    39.28837867
   -18.07457164   -59.17371356     7.23130111
    19.83594817   -18.26333483    21.09076178
    -2.60800473    -1.49381503    -5.22358769
    75.58186656    -2.84516878    39.63785200
    -0.68420962    78.30724305   -63.90599144
    89.09978365  -156.49425735    51.41744682
    71.46427990   134.62214503  -123.05583385
     0.00000000     0.00000000     0.00000000
   -20.05650643   -22.18153908    41.34610773
   -30.74918252   -42.51334049    11.79211102
   -45.36637530   -57.32251704    18.82404728
    20.87163573     6.95232942     5.46790499
     4.90777487   -19.45974309    32.90851971
    43.50090823    64.61030016   -44.49660161
   110.15788758  -167.28495534   -69.63657799
    45.69683716   200.97146147  -125.24717516
     0.00000000     0.00000000     0.00000000
    -2.43869548     0.70794582    22.89907622
   -42.43015570   -49.33764233    16.55017190
   -55.56339788   -39.98349985    19.09031423
   -88.65328199   -48.77744110    19.73032147
   -51.95375273    12.57792628     5.28581258
  -114.93704916   -32.79081981   -52.24879074
   -52.21735462   -10.55465291   -90.65482478
    43.62700550   117.58997281  -181.05343485
     0.00000000     0.00000000     0.00000000
     2.33216821    -6.50185564    21.31348704
   -18.96600907   -18.43644294    15.20568940
   -61.92408452   -37.31565360    24.35698474
  -100.97384004   -21.41173071    30.24303065
  -167.22166860   -33.81702944    17.89039502
  -229.33040245    36.46394464     2.41356460
  -294.96153684   106.45794314    -0.29064449
  -285.36063036   188.99949337    10.29002088
     0.00000000     0.00000000     0.00000000
     0.00000000     0.00000000     0.00000000
     0.00000000     0.00000000     0.00000000
     0.00000000     0.00000000     0.00000000
     0.00000000     0.00000000     0.00000000
     0.00000000     0.00000000     0.00000000
     0.00000000     0.00000000     0.00000000
     0.00000000     0.00000000     0.00000000
     0.00000000     0.00000000     0.00000000
     0.00000000     0.00000000     0.00000000
     0.00000000     0.00000000     0.00000000
     0.00000000     0.00000000     0.00000000
     0.00000000     0.00000000     0.00000000
     0.00000000     0.00000000     0.00000000
     0.00000000     0.00000000     0.00000000
     0.00000000     0.00000000     0.00000000
     0.00000000     0.00000000     0.00000000
     0.00000000     0.00000000     0.00000000
     0.00000000     0.00000000     0.00000000
     8.78731452    -8.36617894    11.93919629
    64.74005586   -26.81620229    20.00803512
    45.09444182    -0.63894765    -6.11536914
    51.75124846    -4.83276417    22.16631433
    81.02658769    -2.43447938     1.32623085
    90.12401092    -2.17405010   -21.01020652
   174.74710934    -3.61373414     4.24277836
  -390.20003690    25.07642963   -55.57624908
     0.00000000     0.00000000     0.00000000
    27.95285588   -25.16659763    32.13414213
    59.97945487   -28.08944707     5.27106577
    36.38685123     6.38278037     7.22398340
    79.62698849   -28.41678406     2.15553529
    29.88682261    23.93435827    13.66815009
   141.13132892   -40.00005128    -3.20069972
    54.89282479    45.23635218    58.47690285
    36.85431430   142.23669066  -164.30380088
     0.00000000     0.00000000     0.00000000
    -2.76515127   -23.38351280    27.10153375
    42.52360709   -42.02386407     1.06142070
    26.81782165    32.72120664     5.03468081
    42.36120054   -73.02100095    -5.98641551
    55.91198141    86.14596125    13.81837957
    75.99284524  -116.05849234   -20.17879055
    43.43954139   231.69299765   -54.76446284
   -17.68556703   -52.73440350  -132.67790042
     0.00000000     0.00000000     0.00000000
    31.07985991   -35.98025343    41.17338414
    -7.97090117   -24.37983517    -5.96631015
    47.16460702   -17.90885163    22.89068149
    14.96869166   -14.49002449   -30.55246175
    69.34072922     9.49393768    67.74779232
    58.38454797   -48.87765866   -68.29561829
   180.39461358    80.23410237    36.39757607
   231.11966783   -29.44839289   -58.08628341
     0.00000000     0.00000000     0.00000000
   -24.03126510   -20.06126300    30.06439621
    33.50453394   -30.34737522     7.42829960
     1.10368116   -32.30982283    18.49126724
    50.73879090    -6.63422672    -1.51406476
    42.79861597    -8.40911070    14.64398069
   -43.01771243    -4.13538405   -73.71977178
   -30.56329880    90.84905914  -110.78988526
     0.00000000     0.00000000     0.00000000
     0.00000000     0.00000000     0.00000000
    11.44370838   -11.20148039    37.42354771
    -0.84484601   -38.92059172    14.87560566
    29.12496817   -30.12285198    26.98190827
    31.84691236   -20.03804631   -17.14869492
    52.60857917   -10.01099759    38.84800846
    57.69406987    50.93480103   -76.39640109
    40.80098797   -54.12140772    80.26385902
    62.97426981   154.18080345  -144.55701718
     0.00000000     0.00000000     0.00000000
   -13.62620840   -15.84819913    26.22398639
    26.04762229   -21.51389084    20.82907261
   -11.86948285   -56.58188413    24.88054754
    50.29885662   -15.81522357    -9.91661098
    23.44049004   -20.55389460    39.70130982
    71.58608249    75.97916392   -41.71359719
    42.45309353  -176.86483337   -42.35422652
    53.05144163   216.66965609  -201.00993742
     0.00000000     0.00000000     0.00000000
     0.43389733     0.36411564    31.61902190
     8.70825643   -32.32844375    18.98247879
     7.78333164   -23.52256228    31.49455910
    -8.74128506   -58.48959716    12.73232093
    17.88730195    20.04326718    36.41166003
    79.52549563   -15.87090456   -41.02510565
   -62.30898357   -50.14478612   -50.31484354
   -64.03841891   130.08478135  -180.69180518
     0.00000000     0.00000000     0.00000000
    15.35190703     9.46051401    20.90715087
    22.54571524   -13.48772254    20.62070475
   -12.87216475   -22.55865667    30.77898199
   -14.46379599   -21.87096243    20.41800884
   -41.09210489   -18.78630168    38.59195248
   -70.89093789   -13.14287780    -9.98292621
  -197.15965805    59.03007287    33.48554060
  -346.35389617   169.63624682    21.84687207
     0.00000000     0.00000000     0.00000000
     0.00000000     0.00000000     0.00000000
     0.00000000     0.00000000     0.00000000
     0.00000000     0.00000000     0.00000000
     0.00000000     0.00000000     0.00000000
     0.00000000     0.00000000     0.00000000
     0.00000000     0.00000000     0.00000000
     0.00000000     0.00000000     0.00000000
     0.00000000     0.00000000     0.00000000
     0.00000000     0.00000000     0.00000000
     0.00000000     0.00000000     0.00000000
     0.00000000     0.00000000     0.00000000
     0.00000000     0.00000000     0.00000000
     0.00000000     0.00000000     0.00000000
     0.00000000     0.00000000     0.00000000
     0.00000000     0.00000000     0.00000000
     0.00000000     0.00000000     0.00000000
     0.00000000     0.00000000     0.00000000
     0.00000000     0.00000000     0.00000000
    24.98804284    -9.47819264    18.95181478
    50.85923773   -17.83334399     5.66456820
    55.53767524    -4.09608376    16.13448716
    35.20983721     1.08244265    -1.97992267
    76.27324604    -5.69332341    10.95160715
    32.19381590    26.99828762    -6.04900592
   154.84153514     2.66781126   -15.17498304
  -178.50812517    30.42507793    17.20857918
     0.00000000     0.00000000     0.00000000
    38.87654652   -24.15162125    24.77390987
    43.65930875   -16.41582868    -4.37730437
    41.80416700     0.70198324    25.03271176
    58.52756841   -13.34031509   -20.46647910
    49.23652907    15.62716586    38.34049028
    80.79525284   -13.43088109   -60.99858881
   113.08690265    51.05523553    64.63093347
    28.16808339   192.50201141   -89.50241140
     0.00000000     0.00000000     0.00000000
     8.92498696    -4.87009451    24.65939831
    41.46801232   -30.85261227     0.34399349
    40.13932585    13.99749684    13.56417352
    40.65539259   -43.47508720   -13.43102748
    70.22601946    37.04450080    11.84253421
    45.46879914   -58.38490073   -31.63114096
    37.92287597    77.19012044   -38.79323402
    -0.22652916    77.49981369  -114.58237103
     0.00000000     0.00000000     0.00000000
    36.10337331    -9.25200539    27.00507191
    17.91864056   -12.69859421     4.85155413
    60.07613424   -18.70900031    21.01729695
    39.66001580    -5.61451051   -11.45271650
    48.58129305   -16.35723817    21.71438998
   135.96968225   -29.23983931   -21.75606994
    42.07327150   123.22006424    25.31623856
   355.41697860     0.98356120  -178.10411928
     0.00000000     0.00000000     0.00000000
    39.17507321   -22.04744989    42.17280245
    76.80368599     0.00036463     8.83214692
    54.07264065   -32.06877718    30.30584968
    63.54959990     8.58566692   -16.56753882
    65.69269476   -28.29702611    23.86722220
   -65.33268792     0.91207391   -43.10903548
   -73.39803208   143.08326669   -89.18414958
     0.00000000     0.00000000     0.00000000
     0.00000000     0.00000000     0.00000000
    13.10609695   -18.09654569    26.90082959
     7.27766924    -7.44555739     0.85763399
    50.37813566   -17.92155951    36.66780501
    33.35955297   -11.44970594   -29.01973072
    56.74265877   -10.26253354    49.18889282
    25.51693174    43.07990991   -78.12457501
   118.60919043  -125.43665631   135.11038791
     3.90603115    96.72562063  -204.74810833
     0.00000000     0.00000000     0.00000000
    25.31862898    -6.89140264    31.46472808
    32.92329080     5.44924149     1.57850398
    45.57188348   -32.52461532    37.76732232
    37.04349110     1.82582888   -25.61893482
    64.79442672   -34.12914235    44.88806841
    43.11425310    63.78419343   -73.82445231
    41.39135341  -101.15688808    22.13039346
    -4.12841902   129.01232038  -195.30284936
     0.00000000     0.00000000     0.00000000
    10.78995232    -2.22895110    21.51001622
    33.80940370    -1.84555385     8.40186141
    50.44651611   -20.72514934    36.27469289
    38.76930830   -11.70270110    -9.55000966
    57.92030142   -29.00009309    46.77116413
    94.94693960    41.67757932   -44.64199915
    94.45209915  -101.85261715    27.22516820
  -103.36871534    25.18074158  -112.45017537
     0.00000000     0.00000000     0.00000000
    35.57780109    15.16407522    24.90897889
    36.88565475    -7.01713469    13.40013723
    42.03672936    -4.58686677    31.11967494
    25.75043420   -15.72619347     2.20857366
    50.13160291   -14.37282827    37.03199859
    74.53046917    22.85426134   -52.35075482
    88.08192076   -30.79268858   -29.13275031
  -264.70229417   113.42644986    45.32466584
     0.00000000     0.00000000     0.00000000
     0.00000000     0.00000000     0.00000000
     0.00000000     0.00000000     0.00000000
     0.00000000     0.00000000     0.00000000
     0.00000000     0.00000000     0.00000000
     0.00000000     0.00000000     0.00000000
     0.00000000     0.00000000     0.00000000
     0.00000000     0.00000000     0.00000000
     0.00000000     0.00000000     0.00000000
     0.00000000     0.00000000     0.00000000
     0.00000000     0.00000000     0.00000000
     0.00000000     0.00000000     0.00000000
     0.00000000     0.00000000     0.00000000
     0.00000000     0.00000000     0.00000000
     0.00000000     0.00000000     0.00000000
     0.00000000     0.00000000     0.00000000
     0.00000000     0.00000000     0.00000000
     0.00000000     0.00000000     0.00000000
     0.00000000     0.00000000     0.00000000
     0.00000000     0.00000000     0.00000000
     0.00000000     0.00000000     0.00000000
     0.00000000     0.00000000     0.00000000
     0.00000000     0.00000000     0.00000000
     0.00000000     0.00000000     0.00000000
     0.00000000     0.00000000     0.00000000
     0.00000000     0.00000000     0.00000000
     0.00000000     0.00000000     0.00000000
     0.00000000     0.00000000     0.00000000
     0.00000000     0.00000000     0.00000000
     0.00000000     0.00000000     0.00000000
     0.00000000     0.00000000     0.00000000
     0.00000000     0.00000000     0.00000000
     0.00000000     0.00000000     0.00000000
     0.00000000     0.00000000     0.00000000
     0.00000000     0.00000000     0.00000000
     0.00000000     0.00000000     0.00000000
     0.00000000     0.00000000     0.00000000
     0.00000000     0.00000000     0.00000000
     0.00000000     0.00000000     0.00000000
     0.00000000     0.00000000     0.00000000
     0.00000000     0.00000000     0.00000000
     0.00000000     0.00000000     0.00000000
     0.00000000     0.00000000     0.00000000
     0.00000000     0.00000000     0.00000000
     0.00000000     0.00000000     0.00000000
     0.00000000     0.00000000     0.00000000
     0.00000000     0.00000000     0.00000000
     0.00000000     0.00000000     0.00000000
     0.00000000     0.00000000     0.00000000
     0.00000000     0.00000000     0.00000000
     0.00000000     0.00000000     0.00000000
     0.00000000     0.00000000     0.00000000
     0.00000000     0.00000000     0.00000000
     0.00000000     0.00000000     0.00000000
     0.00000000     0.00000000     0.00000000
     0.00000000     0.00000000     0.00000000
     0.00000000     0.00000000     0.00000000
     0.00000000     0.00000000     0.00000000
     0.00000000     0.00000000     0.00000000
     0.00000000     0.00000000     0.00000000
     0.00000000     0.00000000     0.00000000
     0.00000000     0.00000000     0.00000000
     0.00000000     0.00000000     0.00000000
     0.00000000     0.00000000     0.00000000
     0.00000000     0.00000000     0.00000000
     0.00000000     0.00000000     0.00000000
     0.00000000     0.00000000     0.00000000
     0.00000000     0.00000000     0.00000000
     0.00000000     0.00000000     0.00000000
     0.00000000     0.00000000     0.00000000
     0.00000000     0.00000000     0.00000000
     0.00000000     0.00000000     0.00000000
     0.00000000     0.00000000     0.00000000
     0.00000000     0.00000000     0.00000000
     0.00000000     0.00000000     0.00000000
     0.00000000     0.00000000     0.00000000
     0.00000000     0.00000000     0.00000000
     0.00000000     0.00000000     0.00000000
     0.00000000     0.00000000     0.00000000
     0.00000000     0.00000000     0.00000000
     0.00000000     0.00000000     0.00000000
     0.00000000     0.00000000     0.00000000
     0.00000000     0.00000000     0.00000000
     0.00000000     0.00000000     0.00000000
     0.00000000     0.00000000     0.00000000
     0.00000000     0.00000000     0.00000000
     0.00000000     0.00000000     0.00000000
     0.00000000     0.00000000     0.00000000
     0.00000000     0.00000000     0.00000000
     0.00000000     0.00000000     0.00000000
     0.00000000     0.00000000     0.00000000
     0.00000000     0.00000000     0.00000000
     0.00000000     0.00000000     0.00000000
     0.00000000     0.00000000     0.00000000
     0.00000000     0.00000000     0.00000000
     0.00000000     0.00000000     0.00000000
     0.00000000     0.00000000     0.00000000
     0.00000000     0.00000000     0.00000000
     0.00000000     0.00000000     0.00000000
     0.00000000     0.00000000     0.00000000
     0.00000000     0.00000000     0.00000000
     0.00000000     0.00000000     0.00000000
     0.00000000     0.00000000     0.00000000
     0.00000000     0.00000000     0.00000000
     0.00000000     0.00000000     0.00000000
     0.00000000     0.00000000     0.00000000
     0.00000000     0.00000000     0.00000000
     0.00000000     0.00000000     0.00000000
     0.00000000     0.00000000     0.00000000
     0.00000000     0.00000000     0.00000000
     0.00000000     0.00000000     0.00000000
     0.00000000     0.00000000     0.00000000
     0.00000000     0.00000000     0.00000000
     0.00000000     0.00000000     0.00000000
     0.00000000     0.00000000     0.00000000
     0.00000000     0.00000000     0.00000000
     0.00000000     0.00000000     0.00000000
     0.00000000     0.00000000     0.00000000
     0.00000000     0.00000000     0.00000000
   -17.13426660   -29.59122615     0.00000000
   -35.25035290   -41.53227219     0.00000000
   -81.98249771    23.16007433     0.00000000
   -75.55080161   -34.70311788     0.00000000
   -79.70217663   -31.74228830     0.00000000
   -57.21877435   -45.39407850     0.00000000
   -54.73276675   -24.14313721     0.00000000
   -37.61326807   -29.93403691     0.00000000
   -31.67489104   -15.73012617     0.00000000
   -20.31340530   -14.46429458     0.00000000
   -18.54579000    -4.96932000     0.00000000
   -56.43914148   237.51380500     0.00000000
  -114.37375173    -8.97457086     0.00000000
  -112.92290745   -38.80204213     0.00000000
   -75.99180028   -35.58159997     0.00000000
   -79.16641028   -43.20417476     0.00000000
   -68.27083695   -71.24653183     0.00000000
   -51.08004991   -76.66590835     0.00000000
   -28.58518405   -68.82842367     0.00000000
   -24.27769410   -46.07495459     0.00000000
   -21.34054080   -27.89727868     0.00000000
   -27.81867000    -7.45398000     0.00000000
   103.39290685   339.12605001     0.00000000
   104.91727711   277.34870599     0.00000000
   -20.04808733    90.31573216     0.00000000
  -101.38743435    19.42160829     0.00000000
   -73.33488742   -54.57807528     0.00000000
   -11.16166046   -81.61742472     0.00000000
    13.45233910  -100.83747595     0.00000000
    16.76511380   -81.78787526     0.00000000
     0.83357836   -59.81656450     0.00000000
   -16.31161049   -27.35871008     0.00000000
   -27.81867000    -7.45398000     0.00000000
   -98.46247547   181.98926982     0.00000000
    18.59946253   203.23600207     0.00000000
   116.79489468   178.28618766     0.00000000
   192.53255843   108.66391350     0.00000000
   189.24680984    24.52901649     0.00000000
   158.70029693    -7.01250052     0.00000000
   104.60953102   -25.67001685     0.00000000
    64.23906940   -24.32094380     0.00000000
    19.70571383   -23.60942095     0.00000000
    -3.98635647    -9.62135276     0.00000000
   -18.54579000    -4.96932000     0.00000000
     0.00000000     0.00000000     0.00000000
     0.00000000     0.00000000     0.00000000
     0.00000000     0.00000000     0.00000000
     0.00000000     0.00000000     0.00000000
     0.00000000     0.00000000     0.00000000
     0.00000000     0.00000000     0.00000000
     0.00000000     0.00000000     0.00000000
     0.00000000     0.00000000     0.00000000
     0.00000000     0.00000000     0.00000000
     0.00000000     0.00000000     0.00000000
     0.00000000     0.00000000     0.00000000
     0.00000000     0.00000000     0.00000000
     0.00000000     0.00000000     0.00000000
     0.00000000     0.00000000     0.00000000
     0.00000000     0.00000000     0.00000000
     0.00000000     0.00000000     0.00000000
     0.00000000     0.00000000     0.00000000
     0.00000000     0.00000000     0.00000000
     0.00000000     0.00000000     0.00000000
     0.00000000     0.00000000     0.00000000
     0.00000000     0.00000000     0.00000000
     0.00000000     0.00000000     0.00000000
    19.39956262   -26.16737617    57.79418960
   -44.12453841   -34.87063903    27.84824356
   -77.51489602    22.18208880     1.26889964
   -81.32729417   -42.65956616    15.22845916
   -74.21315962   -29.85976755     0.08666285
   -62.72062612   -45.01624893     6.98375275
   -50.72820325   -24.13956021    -2.39234905
   -39.94888112   -30.14515854     1.58860937
   -29.01115575   -17.18416333    -4.15885940
   -20.74346949   -15.23614287    -2.92532313
   -17.51406000    -4.69287000     0.00000000
   -83.37902764   196.83982246    88.37635038
  -133.23936424   -40.34636032    -9.15339723
  -109.80080162   -17.82136599     7.97372585
   -81.14092409   -39.92345028   -11.69067171
   -80.06646141   -39.10083185     0.36679869
   -65.93699615   -77.28571274    -8.10463928
   -46.35949536   -73.29231153     4.60876210
   -27.75210056   -70.73212721     5.69865665
   -19.96573597   -44.02231061     7.59730182
   -21.04802686   -28.46640601     4.09298479
   -26.50323000    -7.10151000     0.00000000
    51.77768671   346.16217308    14.21362415
    53.45739971   237.95128072    24.58306897
   -33.16475562    69.02802703    18.08350299
   -85.51396543    21.23193558   -34.83615724
   -35.42394981   -59.92964097   -34.51341878
    -3.88529687   -81.85708888   -20.46553046
    26.18581448   -99.85846856    -9.02396591
    15.93566214   -77.79431320     5.61762260
     4.52618823   -57.29210443    12.36776106
   -17.53225751   -24.45526991     9.15377845
   -26.50323000    -7.10151000     0.00000000
  -112.82469028   187.08741282    36.91452595
     0.70330382   174.12317270    31.69002241
   126.34394160   152.62759941    21.87843132
   181.16701179    75.71327765    23.90805963
   193.20553963    15.01232550    13.25687997
   148.20336745   -15.32914404    13.70339333
   106.63466747   -24.59979468     7.28281818
    56.63703352   -26.31781331     9.66747531
    23.74569656   -21.41984514    12.97460727
   -11.44431229   -10.42513626    12.74115045
   -17.51406000    -4.69287000     0.00000000
     0.00000000     0.00000000     0.00000000
     0.00000000     0.00000000     0.00000000
     0.00000000     0.00000000     0.00000000
     0.00000000     0.00000000     0.00000000
     0.00000000     0.00000000     0.00000000
     0.00000000     0.00000000     0.00000000
     0.00000000     0.00000000     0.00000000
     0.00000000     0.00000000     0.00000000
     0.00000000     0.00000000     0.00000000
     0.00000000     0.00000000     0.00000000
     0.00000000     0.00000000     0.00000000
     0.00000000     0.00000000     0.00000000
     0.00000000     0.00000000     0.00000000
     0.00000000     0.00000000     0.00000000
     0.00000000     0.00000000     0.00000000
     0.00000000     0.00000000     0.00000000
     0.00000000     0.00000000     0.00000000
     0.00000000     0.00000000     0.00000000
     0.00000000     0.00000000     0.00000000
     0.00000000     0.00000000     0.00000000
     0.00000000     0.00000000     0.00000000
     0.00000000     0.00000000     0.00000000
   -33.73084225   -66.14236537   149.40451693
   -45.92855663   -34.95466036    37.65745488
   -85.42714052    21.93250238    14.08977252
   -76.70695697   -46.44894544    26.68211827
   -83.28479234   -20.85964714     3.33212699
   -59.80924411   -41.17051337     9.54542664
   -53.86951175   -22.96089171    -2.46398976
   -35.58737909   -30.70078772     1.96560150
   -27.89688669   -18.94265408    -5.11813229
   -17.15111229   -16.39482533    -6.17879053
   -14.90328000    -3.99333000     0.00000000
  -109.70072986   198.78137829   150.77344863
  -138.69343052   -55.49419090   -57.60832810
  -123.62812139    -8.49320832    16.48684079
   -88.59594536   -43.77558084   -36.08430216
   -83.78369272   -46.92332870    -0.49535871
   -61.00749434   -75.93821774   -13.88592885
   -45.78037536   -70.98283111    10.39445476
   -24.31630233   -62.61585438     7.54733938
   -19.64526189   -41.31461846    11.37545215
   -16.16838155   -26.28781581     6.45636784
   -22.71996000    -6.08781000     0.00000000
    38.05100247   352.76931295    41.17737784
    44.40125888   207.18365335    54.20210255
   -30.50238948    44.31345784    -2.80958081
   -34.10654591    -4.82845068   -56.23595451
    -6.25655129   -75.56330021   -40.81113590
    26.11121370   -87.65073166   -28.50579771
    27.26466852   -94.57679709    -2.27173856
    15.75473482   -72.08717088    15.50717783
    -2.20052115   -49.21566574    23.87985133
   -15.29117872   -20.45917317    13.59123935
   -22.71996000    -6.08781000     0.00000000
  -137.78312330   191.36598569    78.58241635
    -5.04413532   158.82080063    46.46396434
   117.14799766    96.81717427    19.51239281
   194.25361014    41.68523076    25.90841229
   179.27816459    -8.04577625    20.77747642
   145.33129971   -22.08267227    15.98256898
    94.59883170   -29.06144310    11.91045931
    53.57916366   -24.11484079    20.22791995
     7.54686437   -22.84258600    28.91030745
    -8.50731487    -9.49328319    18.51910041
   -14.90328000    -3.99333000     0.00000000
     0.00000000     0.00000000     0.00000000
     0.00000000     0.00000000     0.00000000
     0.00000000     0.00000000     0.00000000
     0.00000000     0.00000000     0.00000000
     0.00000000     0.00000000     0.00000000
     0.00000000     0.00000000     0.00000000
     0.00000000     0.00000000     0.00000000
     0.00000000     0.00000000     0.00000000
     0.00000000     0.00000000     0.00000000
     0.00000000     0.00000000     0.00000000
     0.00000000     0.00000000     0.00000000
     0.00000000     0.00000000     0.00000000
     0.00000000     0.00000000     0.00000000
     0.00000000     0.00000000     0.00000000
     0.00000000     0.00000000     0.00000000
     0.00000000     0.00000000     0.00000000
     0.00000000     0.00000000     0.00000000
     0.00000000     0.00000000     0.00000000
     0.00000000     0.00000000     0.00000000
     0.00000000     0.00000000     0.00000000
     0.00000000     0.00000000     0.00000000
     0.00000000     0.00000000     0.00000000
    -2.10029389   -65.57391922   217.78839202
   -74.38846418   -10.88823723     2.42362436
   -81.56966282    24.18032109    52.49800075
   -94.72273323   -25.68489853    18.01451416
   -73.25752507   -13.43745123     9.78428762
   -66.77626400   -29.36479435     6.63006084
   -47.70610997   -21.87331676    -1.26697964
   -35.95020327   -23.78705809     0.43609764
   -20.51890814   -16.47380118    -3.55092229
   -13.22341228   -15.59808212    -7.68277641
   -10.90554000    -2.92212000     0.00000000
   -84.17731686   142.87065974   208.02218169
  -146.95236712   -95.61562912  -103.94758968
  -125.65093603    -3.81544482    37.81758834
  -100.33735280   -65.14190246   -54.95731133
   -89.81332698   -41.65596681     4.25160621
   -67.49095581   -71.74904566   -13.36550279
   -47.86406508   -54.61758433     9.96625408
   -28.54398879   -52.72190123     6.15639356
   -16.78894289   -33.13833980     6.49226104
   -12.23016820   -23.78924949     6.48411157
   -16.73892000    -4.48518000     0.00000000
    11.34266241   333.48451548   109.71092732
    29.75046207   147.68449800    41.75770703
   -11.52265519     9.30453424   -26.84118552
   -31.17131727   -44.29278845   -47.92164211
     2.99665176   -91.55535849   -41.19653129
     2.94456360   -87.59455803    -6.11631931
     1.96874229   -83.58987881     8.24332308
    -9.92996154   -57.63513739    25.96803602
    -8.77801972   -40.56674641    20.43719524
   -13.09689550   -16.44737222    12.58403933
   -16.73892000    -4.48518000     0.00000000
  -146.33631001   171.70693593    77.87424048
    28.24535455   128.68404347    37.58572727
   178.13114218    80.81184801    -0.68377179
   196.20619772    13.80504504    29.65240925
   174.45759549   -15.89199180    14.12605356
   116.02268744   -28.33982577    19.57746313
    61.53130548   -26.73640880    16.65459456
    11.29309180   -30.11201387    32.21195429
    -3.68306615   -25.16537061    32.02283293
   -13.48874781   -11.54724444    16.61853990
   -10.90554000    -2.92212000     0.00000000
     0.00000000     0.00000000     0.00000000
     0.00000000     0.00000000     0.00000000
     0.00000000     0.00000000     0.00000000
     0.00000000     0.00000000     0.00000000
     0.00000000     0.00000000     0.00000000
     0.00000000     0.00000000     0.00000000
     0.00000000     0.00000000     0.00000000
     0.00000000     0.00000000     0.00000000
     0.00000000     0.00000000     0.00000000
     0.00000000     0.00000000     0.00000000
     0.00000000     0.00000000     0.00000000
     0.00000000     0.00000000     0.00000000
     0.00000000     0.00000000     0.00000000
     0.00000000     0.00000000     0.00000000
     0.00000000     0.00000000     0.00000000
     0.00000000     0.00000000     0.00000000
     0.00000000     0.00000000     0.00000000
     0.00000000     0.00000000     0.00000000
     0.00000000     0.00000000     0.00000000
     0.00000000     0.00000000     0.00000000
     0.00000000     0.00000000     0.00000000
     0.00000000     0.00000000     0.00000000
   -72.58704494    44.50560694   348.81480397
   -74.97316559   -31.94712112   -31.62029785
  -105.58891843    28.39330977    62.98044237
   -67.35177309   -22.67520790    -9.07518358
   -71.49180410    -4.12448772    17.92021276
   -53.41676393   -20.11123845    -4.16829963
   -43.10971748   -14.46584333     2.15941631
   -26.79199068   -15.67545888    -4.49171706
   -14.46051413   -11.22396926    -2.62000087
    -5.70101069    -8.70940575    -5.17497992
    -5.81406000    -1.55787000     0.00000000
   -79.75036773   219.05000301   225.57944166
  -116.09018990   -86.10524064   -73.94405365
  -118.88440564    11.48324141    38.45214821
   -93.25357793   -35.60519717   -34.35450278
   -94.19621914   -36.22162050     7.86796024
   -68.51488950   -43.11424829   -12.12803716
   -50.19620837   -42.50903317     4.06101322
   -28.50042970   -31.85978304    -1.10574763
   -17.57988065   -26.70355057     0.59965278
    -9.93506404   -15.78896559     1.87864501
    -8.98422000    -2.40732000     0.00000000
  -122.24075685   358.43717487   158.76499915
    13.36806557    33.50883460   -10.92931123
   -50.10934310   -21.92846424     1.97569798
   -38.65788334   -70.53095756   -40.24551257
   -49.73259963   -75.46024576    -3.86812817
   -43.40145230   -71.66501080    -2.06731667
   -37.33687371   -54.43330685    14.51016268
   -24.80090539   -44.76089729    10.98922871
   -14.47022348   -29.44276677     9.63084755
    -8.52696554   -18.96950448     5.28900222
    -8.98422000    -2.40732000     0.00000000
  -220.12446612   176.29405504    77.20578772
    65.18042437    84.95818539   -29.57883901
   170.68490774    12.00560743    36.63248387
   146.85688717    -8.74665030    18.51144369
    81.86194848   -22.29720247    27.13824384
    21.83234908   -24.76394020     7.86111580
   -13.47554025   -29.40381759    22.34471670
   -15.95653440   -28.57065010    18.00410001
   -11.77028336   -23.30990483    21.08796439
    -3.79803165   -12.55367785     9.88587284
    -5.81406000    -1.55787000     0.00000000
     0.00000000     0.00000000     0.00000000
     0.00000000     0.00000000     0.00000000
     0.00000000     0.00000000     0.00000000
     0.00000000     0.00000000     0.00000000
     0.00000000     0.00000000     0.00000000
     0.00000000     0.00000000     0.00000000
     0.00000000     0.00000000     0.00000000
     0.00000000     0.00000000     0.00000000
     0.00000000     0.00000000     0.00000000
     0.00000000     0.00000000     0.00000000
     0.00000000     0.00000000     0.00000000
     0.00000000     0.00000000     0.00000000
     0.00000000     0.00000000     0.00000000
     0.00000000     0.00000000     0.00000000
     0.00000000     0.00000000     0.00000000
     0.00000000     0.00000000     0.00000000
     0.00000000     0.00000000     0.00000000
     0.00000000     0.00000000     0.00000000
     0.00000000     0.00000000     0.00000000
     0.00000000     0.00000000     0.00000000
     0.00000000     0.00000000     0.00000000
     0.00000000     0.00000000     0.00000000
     0.00000000     0.00000000     0.00000000
     0.00000000     0.00000000     0.00000000
     0.00000000     0.00000000     0.00000000
     0.00000000     0.00000000     0.00000000
     0.00000000     0.00000000     0.00000000
     0.00000000     0.00000000     0.00000000
     0.00000000     0.00000000     0.00000000
     0.00000000     0.00000000     0.00000000
     0.00000000     0.00000000     0.00000000
     0.00000000     0.00000000     0.00000000
     0.00000000     0.00000000     0.00000000
     0.00000000     0.00000000     0.00000000
     0.00000000     0.00000000     0.00000000
     0.00000000     0.00000000     0.00000000
     0.00000000     0.00000000     0.00000000
     0.00000000     0.00000000     0.00000000
     0.00000000     0.00000000     0.00000000
     0.00000000     0.00000000     0.00000000
     0.00000000     0.00000000     0.00000000
     0.00000000     0.00000000     0.00000000
     0.00000000     0.00000000     0.00000000
     0.00000000     0.00000000     0.00000000
     0.00000000     0.00000000     0.00000000
     0.00000000     0.00000000     0.00000000
     0.00000000     0.00000000     0.00000000
     0.00000000     0.00000000     0.00000000
     0.00000000     0.00000000     0.00000000
     0.00000000     0.00000000     0.00000000
     0.00000000     0.00000000     0.00000000
     0.00000000     0.00000000     0.00000000
     0.00000000     0.00000000     0.00000000
     0.00000000     0.00000000     0.00000000
     0.00000000     0.00000000     0.00000000
     0.00000000     0.00000000     0.00000000
     0.00000000     0.00000000     0.00000000
     0.00000000     0.00000000     0.00000000
     0.00000000     0.00000000     0.00000000
     0.00000000     0.00000000     0.00000000
     0.00000000     0.00000000     0.00000000
     0.00000000     0.00000000     0.00000000
     0.00000000     0.00000000     0.00000000
     0.00000000     0.00000000     0.00000000
     0.00000000     0.00000000     0.00000000
     0.00000000     0.00000000     0.00000000
     0.00000000     0.00000000     0.00000000
     0.00000000     0.00000000     0.00000000
     0.00000000     0.00000000     0.00000000
     0.00000000     0.00000000     0.00000000
     0.00000000     0.00000000     0.00000000
     0.00000000     0.00000000     0.00000000
     0.00000000     0.00000000     0.00000000
     0.00000000     0.00000000     0.00000000
     0.00000000     0.00000000     0.00000000
     0.00000000     0.00000000     0.00000000
     0.00000000     0.00000000     0.00000000
     0.00000000     0.00000000     0.00000000
     0.00000000     0.00000000     0.00000000
     0.00000000     0.00000000     0.00000000
     0.00000000     0.00000000     0.00000000
     0.00000000     0.00000000     0.00000000
     0.00000000     0.00000000     0.00000000
     0.00000000     0.00000000     0.00000000
     0.00000000     0.00000000     0.00000000
    16.35084385  -323.47193814     0.00000000
  -172.03669025    60.93635913     0.00000000
  -257.70032732    77.79051014     0.00000000
  -215.74019791   111.79327817     0.00000000
  -198.33741140   106.71448228     0.00000000
  -121.01585641   136.19216442     0.00000000
   -56.33555193    86.31219709     0.00000000
    -6.61643840    75.90067892     0.00000000
     0.00000000     0.00000000     0.00000000
   -14.51092908  -481.76361669     0.00000000
     5.81369959  -145.80553389     0.00000000
  -167.15545085    -4.63744785     0.00000000
  -135.28084007    63.78262533     0.00000000
   -30.03327858   143.90308852     0.00000000
    87.75649616   147.78874690     0.00000000
    77.94113075   128.70857833     0.00000000
    81.89526367   111.60928432     0.00000000
     0.00000000     0.00000000     0.00000000
   125.89850969  -632.64350473     0.00000000
  -116.63553808  -307.36829719     0.00000000
  -177.63438367   -56.85423296     0.00000000
   -69.93936034    87.29151561     0.00000000
    91.48897224   134.25147323     0.00000000
   142.23497118   112.01035770     0.00000000
   158.28850303    89.77075789     0.00000000
    73.67815245    76.22341523     0.00000000
     0.00000000     0.00000000     0.00000000
   -28.80356484  -392.48555801     0.00000000
   410.96081878  -318.65634313     0.00000000
   526.56191059  -173.51554092     0.00000000
   501.00214009   -61.84839467     0.00000000
   354.07351562   -13.22675065     0.00000000
   273.02841963    -7.58811246     0.00000000
   142.33904966    16.57668263     0.00000000
    85.94624065     5.10155272     0.00000000
     0.00000000     0.00000000     0.00000000
     0.00000000     0.00000000     0.00000000
     0.00000000     0.00000000     0.00000000
     0.00000000     0.00000000     0.00000000
     0.00000000     0.00000000     0.00000000
     0.00000000     0.00000000     0.00000000
     0.00000000     0.00000000     0.00000000
     0.00000000     0.00000000     0.00000000
     0.00000000     0.00000000     0.00000000
     0.00000000     0.00000000     0.00000000
     0.00000000     0.00000000     0.00000000
     0.00000000     0.00000000     0.00000000
     0.00000000     0.00000000     0.00000000
     0.00000000     0.00000000     0.00000000
     0.00000000     0.00000000     0.00000000
     0.00000000     0.00000000     0.00000000
     0.00000000     0.00000000     0.00000000
     0.00000000     0.00000000     0.00000000
     0.00000000     0.00000000     0.00000000
   -10.10271190  -282.27458296    25.42139385
  -204.05331407   106.93572798   142.50784849
  -259.88821132    55.21948076   -41.40231243
  -213.83262430   121.88336508    59.21288615
  -218.04106817    66.22563070     0.03373920
  -123.23507540   144.24396581    37.07461486
   -69.57424557    75.27542236    18.22396494
   -10.17159947    61.76202951    25.26648093
     0.00000000     0.00000000     0.00000000
   -92.51080898  -474.98997985    17.42663558
   -48.08422560   -68.52270760    35.52706673
  -182.25870601   -69.81720751   -38.42808420
  -132.54170786   145.14348369   -85.12367710
     6.13449293   105.25929424   -55.47275587
    73.07092880   173.98276923   -26.43035045
    93.76484417   117.48251512    -1.12353942
    46.81288267   112.47263997    46.57439512
     0.00000000     0.00000000     0.00000000
    52.83669462  -657.13425121    52.21581564
  -161.30101404  -275.82982437   113.25027266
  -128.56708814   -51.04793020     9.55404993
    81.03586233    89.68991487   -52.56207608
   164.93585374   139.42695863   -55.50814948
   184.87517581    95.53306187   -27.87157680
   156.05224870    99.06352595    -6.49809947
    79.12334468    69.16318662    48.76529326
     0.00000000     0.00000000     0.00000000
   -27.10560975  -428.17260079    -0.29163459
   400.53378773  -274.23221719    20.82746557
   545.90497650  -138.75781739    27.27807141
   455.27039860   -46.96502019    20.03081062
   360.59596361   -22.75867112     8.01181176
   221.94826227    12.95411060     6.55385378
   165.93396544     5.44932785     6.07985446
    30.41454026    20.29814160    42.52433831
     0.00000000     0.00000000     0.00000000
     0.00000000     0.00000000     0.00000000
     0.00000000     0.00000000     0.00000000
     0.00000000     0.00000000     0.00000000
     0.00000000     0.00000000     0.00000000
     0.00000000     0.00000000     0.00000000
     0.00000000     0.00000000     0.00000000
     0.00000000     0.00000000     0.00000000
     0.00000000     0.00000000     0.00000000
     0.00000000     0.00000000     0.00000000
     0.00000000     0.00000000     0.00000000
     0.00000000     0.00000000     0.00000000
     0.00000000     0.00000000     0.00000000
     0.00000000     0.00000000     0.00000000
     0.00000000     0.00000000     0.00000000
     0.00000000     0.00000000     0.00000000
     0.00000000     0.00000000     0.00000000
     0.00000000     0.00000000     0.00000000
     0.00000000     0.00000000     0.00000000
  -233.86070679  -218.14034298    81.42268245
  -192.03499075   184.38876644   195.19768612
  -283.68519499   -53.11258362   -35.82585601
  -215.71788786   166.43665148    72.56414657
  -247.11816332   -24.03859035    17.94819385
  -144.47616556   174.01920895    42.94676142
   -82.80218897    11.45604763    49.92351228
   -42.31034242    61.43200734    27.97760661
     0.00000000     0.00000000     0.00000000
  -267.48541513  -425.31445292    84.19701308
  -150.90450137   151.23288987   -65.29200266
  -279.06213248  -160.24568166   -54.30147639
  -117.84828601   252.32858568  -149.61146143
   -70.78502612    63.84485823   -35.56911895
    45.69072074   185.31521229   -47.46252489
    -5.42781489   107.20842696    26.95694747
    51.91123143    83.38205448    76.31508045
     0.00000000     0.00000000     0.00000000
   -55.10253379  -707.36947357   121.29784236
  -203.70284851   -87.63657215   176.74303291
     8.43000901    -3.47282349   -52.83825440
   235.03208682   107.78177789   -96.26892715
   217.92434125   139.42567262   -77.03119545
   163.65309520    92.30676860   -29.72781034
   123.29099838   110.93970400     1.22782365
    25.59481928    70.23868574    71.85564969
     0.00000000     0.00000000     0.00000000
   -75.79049037  -461.65818855     9.07809265
   462.57588681  -212.69680661    15.95650126
   533.61198051   -35.79791803    33.76985344
   441.73077229   -46.42980393    38.33701736
   303.22197276    -3.49210934     9.98688769
   229.72035213    15.41439795     8.50912125
    80.63604526    14.79640171    21.72873967
    55.94865273    22.11063247    66.08728942
     0.00000000     0.00000000     0.00000000
     0.00000000     0.00000000     0.00000000
     0.00000000     0.00000000     0.00000000
     0.00000000     0.00000000     0.00000000
     0.00000000     0.00000000     0.00000000
     0.00000000     0.00000000     0.00000000
     0.00000000     0.00000000     0.00000000
     0.00000000     0.00000000     0.00000000
     0.00000000     0.00000000     0.00000000
     0.00000000     0.00000000     0.00000000
     0.00000000     0.00000000     0.00000000
     0.00000000     0.00000000     0.00000000
     0.00000000     0.00000000     0.00000000
     0.00000000     0.00000000     0.00000000
     0.00000000     0.00000000     0.00000000
     0.00000000     0.00000000     0.00000000
     0.00000000     0.00000000     0.00000000
     0.00000000     0.00000000     0.00000000
     0.00000000     0.00000000     0.00000000
  -389.08942654  -194.74428130    87.91475907
  -190.91490889   223.06251976   154.12292056
  -270.75777660  -179.58797780    -0.07732725
  -235.54144443   192.01603195    58.89133783
  -255.24185450   -68.05260332    15.46830595
  -153.52350228   149.21250201    45.82923501
  -126.16552680   -57.59270638    58.34362711
   -40.38115506    64.51499140    17.86093460
     0.00000000     0.00000000     0.00000000
  -279.68721419  -452.96510141   153.94582066
  -213.74149930   324.10008671  -165.98272195
  -332.54103643  -151.90006102   -20.73277828
  -175.52226550   291.14755817  -149.22865463
  -186.91856279   -12.99115663    21.20790636
   -88.47789343   193.44537075   -63.34580048
   -82.70212961     8.62217097    68.23889576
     3.34637160    72.12825623    58.68770532
     0.00000000     0.00000000     0.00000000
  -153.28334685  -702.92957355   155.90824814
   -83.53127864     5.90067355    76.59315836
   158.47270450   105.72647544  -108.49867751
   171.88024147    83.16831050   -60.90422929
    60.90611798   152.79945968   -58.27614631
     4.40016382    82.05566250    -2.39675686
   -25.04617623   113.62795273    -3.81052383
   -16.87346974    41.10696039    54.74172844
     0.00000000     0.00000000     0.00000000
  -123.11169437  -477.56927102    17.88610418
   500.07660268  -131.48801133   -44.71137834
   536.36763851   -51.62047641    41.71731677
   369.53510269    -8.10097035    30.02370719
   291.87069185    -2.82352568    13.48685893
   111.60621183    30.83984593    18.68358016
    48.90605045    26.50268703    35.58267943
   -16.33702561    43.57739464    59.96753755
     0.00000000     0.00000000     0.00000000
     0.00000000     0.00000000     0.00000000
     0.00000000     0.00000000     0.00000000
     0.00000000     0.00000000     0.00000000
     0.00000000     0.00000000     0.00000000
     0.00000000     0.00000000     0.00000000
     0.00000000     0.00000000     0.00000000
     0.00000000     0.00000000     0.00000000
     0.00000000     0.00000000     0.00000000
     0.00000000     0.00000000     0.00000000
     0.00000000     0.00000000     0.00000000
     0.00000000     0.00000000     0.00000000
     0.00000000     0.00000000     0.00000000
     0.00000000     0.00000000     0.00000000
     0.00000000     0.00000000     0.00000000
     0.00000000     0.00000000     0.00000000
     0.00000000     0.00000000     0.00000000
     0.00000000     0.00000000     0.00000000
     0.00000000     0.00000000     0.00000000
  -379.28375627  -210.56381377   149.61746468
  -175.86245787   216.98466792   -10.15942184
  -209.51843580  -169.14396361    74.55173457
  -229.29464349   177.68895031   -14.20223209
  -202.18118427   -54.66068482    31.35650462
  -175.79326100    95.48811389    14.23705645
   -91.92710794   -50.55970910    38.78314998
   -75.75098152    38.79486597     5.89464308
     0.00000000     0.00000000     0.00000000
  -126.00629990  -465.94702710   130.09195549
  -189.94992816   186.42778174   -85.24906585
  -334.52523499   -30.21001535     3.23489438
  -141.30496093   170.13027477   -71.87730514
  -235.73545876     7.42961856    25.15244465
  -111.48856350    95.84676263   -39.78714945
  -162.54813938   -34.04065107    51.69402353
    21.27626534    19.40336606    16.04250811
     0.00000000     0.00000000     0.00000000
  -127.11496479  -612.00855549    50.52596137
    82.63088333   -38.18849569   -41.52441650
    63.30284358   127.45835098   -30.25317615
  -112.14570588    99.05734008   -21.71044077
   -85.05553715   124.98466562    -2.80615288
  -135.95580372    61.06761213    -0.84210607
   -67.68171457    43.35700651    -9.57870789
   -49.06456518    21.81950233    16.16262465
     0.00000000     0.00000000     0.00000000
   -98.81697847  -333.95806474   -58.35844500
   557.13791620   -94.70655547   -49.42127274
   342.38585930   -73.59313236    54.37250672
   262.14422507    11.58448599     3.31936026
    58.33396375     8.81792301    33.38796614
     2.79753471    39.12234072     4.18483549
   -62.65188368    46.36944943    36.18312116
    -7.13808000    25.44337327    22.83914140
     0.00000000     0.00000000     0.00000000
     0.00000000     0.00000000     0.00000000
     0.00000000     0.00000000     0.00000000
     0.00000000     0.00000000     0.00000000
     0.00000000     0.00000000     0.00000000
     0.00000000     0.00000000     0.00000000
     0.00000000     0.00000000     0.00000000
     0.00000000     0.00000000     0.00000000
     0.00000000     0.00000000     0.00000000
     0.00000000     0.00000000     0.00000000
     0.00000000     0.00000000     0.00000000
     0.00000000     0.00000000     0.00000000
     0.00000000     0.00000000     0.00000000
     0.00000000     0.00000000     0.00000000
     0.00000000     0.00000000     0.00000000
     0.00000000     0.00000000     0.00000000
     0.00000000     0.00000000     0.00000000
     0.00000000     0.00000000     0.00000000
     0.00000000     0.00000000     0.00000000
     0.00000000     0.00000000     0.00000000
     0.00000000     0.00000000     0.00000000
     0.00000000     0.00000000     0.00000000
     0.00000000     0.00000000     0.00000000
     0.00000000     0.00000000     0.00000000
     0.00000000     0.00000000     0.00000000
     0.00000000     0.00000000     0.00000000
     0.00000000     0.00000000     0.00000000
     0.00000000     0.00000000     0.00000000
     0.00000000     0.00000000     0.00000000
     0.00000000     0.00000000     0.00000000
     0.00000000     0.00000000     0.00000000
     0.00000000     0.00000000     0.00000000
     0.00000000     0.00000000     0.00000000
     0.00000000     0.00000000     0.00000000
     0.00000000     0.00000000     0.00000000
     0.00000000     0.00000000     0.00000000
     0.00000000     0.00000000     0.00000000
     0.00000000     0.00000000     0.00000000
     0.00000000     0.00000000     0.00000000
     0.00000000     0.00000000     0.00000000
     0.00000000     0.00000000     0.00000000
     0.00000000     0.00000000     0.00000000
     0.00000000     0.00000000     0.00000000
     0.00000000     0.00000000     0.00000000
     0.00000000     0.00000000     0.00000000
     0.00000000     0.00000000     0.00000000
     0.00000000     0.00000000     0.00000000
     0.00000000     0.00000000     0.00000000
     0.00000000     0.00000000     0.00000000
     0.00000000     0.00000000     0.00000000
     0.00000000     0.00000000     0.00000000
     0.00000000     0.00000000     0.00000000
     0.00000000     0.00000000     0.00000000
     0.00000000     0.00000000     0.00000000
     0.00000000     0.00000000     0.00000000
     0.00000000     0.00000000     0.00000000
     0.00000000     0.00000000     0.00000000
     0.00000000     0.00000000     0.00000000
     0.00000000     0.00000000     0.00000000
     0.00000000     0.00000000     0.00000000
     0.00000000     0.00000000     0.00000000
     0.00000000     0.00000000     0.00000000
     0.00000000     0.00000000     0.00000000
     0.00000000     0.00000000     0.00000000
     0.00000000     0.00000000     0.00000000
     0.00000000     0.00000000     0.00000000
     0.00000000     0.00000000     0.00000000
     0.00000000     0.00000000     0.00000000
     0.00000000     0.00000000     0.00000000
     0.00000000     0.00000000     0.00000000
     0.00000000     0.00000000     0.00000000
     0.00000000     0.00000000     0.00000000
     0.00000000     0.00000000     0.00000000
     0.00000000     0.00000000     0.00000000
     0.00000000     0.00000000     0.00000000
     0.00000000     0.00000000     0.00000000
     0.00000000     0.00000000     0.00000000
     0.00000000     0.00000000     0.00000000
     0.00000000     0.00000000     0.00000000
     0.00000000     0.00000000     0.00000000
     0.00000000     0.00000000     0.00000000
     0.00000000     0.00000000     0.00000000
     0.00000000     0.00000000     0.00000000
     0.00000000     0.00000000     0.00000000
     0.00000000     0.00000000     0.00000000
     0.00000000     0.00000000     0.00000000
     0.00000000     0.00000000     0.00000000
     0.00000000     0.00000000     0.00000000
     0.00000000     0.00000000     0.00000000
     0.00000000     0.00000000     0.00000000
     0.00000000     0.00000000     0.00000000
     0.00000000     0.00000000     0.00000000
     0.00000000     0.00000000     0.00000000
     0.00000000     0.00000000     0.00000000
     0.00000000     0.00000000     0.00000000
     0.00000000     0.00000000     0.00000000
     0.00000000     0.00000000     0.00000000
     0.00000000     0.00000000     0.00000000
     0.00000000     0.00000000     0.00000000
     0.00000000     0.00000000     0.00000000
     0.00000000     0.00000000     0.00000000
     0.00000000     0.00000000     0.00000000
     0.00000000     0.00000000     0.00000000
     0.00000000     0.00000000     0.00000000
     0.00000000     0.00000000     0.00000000
     0.00000000     0.00000000     0.00000000
     0.00000000     0.00000000     0.00000000
     0.00000000     0.00000000     0.00000000
     0.00000000     0.00000000     0.00000000
     0.00000000     0.00000000     0.00000000
     0.00000000     0.00000000     0.00000000
     0.00000000     0.00000000     0.00000000
     0.00000000     0.00000000     0.00000000
     0.00000000     0.00000000     0.00000000
     0.00000000     0.00000000     0.00000000
     0.00000000     0.00000000     0.00000000
     0.00000000     0.00000000     0.00000000
     0.00000000     0.00000000     0.00000000
     0.00000000     0.00000000     0.00000000
     0.00000000     0.00000000     0.00000000
     0.00000000     0.00000000     0.00000000
     0.00000000     0.00000000     0.00000000
     0.00000000     0.00000000     0.00000000
     0.00000000     0.00000000     0.00000000
     0.00000000     0.00000000     0.00000000
     0.00000000     0.00000000     0.00000000
     0.00000000     0.00000000     0.00000000
     0.00000000     0.00000000     0.00000000
     0.00000000     0.00000000     0.00000000
     0.00000000     0.00000000     0.00000000
     0.00000000     0.00000000     0.00000000
     0.00000000     0.00000000     0.00000000
     0.00000000     0.00000000     0.00000000
     0.00000000     0.00000000     0.00000000
     0.00000000     0.00000000     0.00000000
     0.00000000     0.00000000     0.00000000
     0.00000000     0.00000000     0.00000000
     0.00000000     0.00000000     0.00000000
     0.00000000     0.00000000     0.00000000
     0.00000000     0.00000000     0.00000000
     0.00000000     0.00000000     0.00000000
     0.00000000     0.00000000     0.00000000
     0.00000000     0.00000000     0.00000000
     0.00000000     0.00000000     0.00000000
     0.00000000     0.00000000     0.00000000
     0.00000000     0.00000000     0.00000000
     0.00000000     0.00000000     0.00000000
     0.00000000     0.00000000     0.00000000
     0.00000000     0.00000000     0.00000000
     0.00000000     0.00000000     0.00000000
     0.00000000     0.00000000     0.00000000
     0.00000000     0.00000000     0.00000000
     0.00000000     0.00000000     0.00000000
     0.00000000     0.00000000     0.00000000
     0.00000000     0.00000000     0.00000000
     0.00000000     0.00000000     0.00000000
     0.00000000     0.00000000     0.00000000
     0.00000000     0.00000000     0.00000000
     0.00000000     0.00000000     0.00000000
     0.00000000     0.00000000     0.00000000
     0.00000000     0.00000000     0.00000000
     0.00000000     0.00000000     0.00000000
     0.00000000     0.00000000     0.00000000
     0.00000000     0.00000000     0.00000000
     0.00000000     0.00000000     0.00000000
     0.00000000     0.00000000     0.00000000
     0.00000000     0.00000000     0.00000000
     0.00000000     0.00000000     0.00000000
     0.00000000     0.00000000     0.00000000
     0.00000000     0.00000000     0.00000000
     0.00000000     0.00000000     0.00000000
     0.00000000     0.00000000     0.00000000
     0.00000000     0.00000000     0.00000000
     0.00000000     0.00000000     0.00000000
     0.00000000     0.00000000     0.00000000
     0.00000000     0.00000000     0.00000000
     0.00000000     0.00000000     0.00000000
     0.00000000     0.00000000     0.00000000
     0.00000000     0.00000000     0.00000000
     0.00000000     0.00000000     0.00000000
     0.00000000     0.00000000     0.00000000
     0.00000000     0.00000000     0.00000000
     0.00000000     0.00000000     0.00000000
     0.00000000     0.00000000     0.00000000
     0.00000000     0.00000000     0.00000000
     0.00000000     0.00000000     0.00000000
     0.00000000     0.00000000     0.00000000
     0.00000000     0.00000000     0.00000000
     0.00000000     0.00000000     0.00000000
     0.00000000     0.00000000     0.00000000
     0.00000000     0.00000000     0.00000000
     0.00000000     0.00000000     0.00000000
     0.00000000     0.00000000     0.00000000
     0.00000000     0.00000000     0.00000000
     0.00000000     0.00000000     0.00000000
     0.00000000     0.00000000     0.00000000
     0.00000000     0.00000000     0.00000000
     0.00000000     0.00000000     0.00000000
     0.00000000     0.00000000     0.00000000
     0.00000000     0.00000000     0.00000000
     0.00000000     0.00000000     0.00000000
     0.00000000     0.00000000     0.00000000
     0.00000000     0.00000000     0.00000000
     0.00000000     0.00000000     0.00000000
     0.00000000     0.00000000     0.00000000
     0.00000000     0.00000000     0.00000000
     0.00000000     0.00000000     0.00000000
     0.00000000     0.00000000     0.00000000
     0.00000000     0.00000000     0.00000000
     0.00000000     0.00000000     0.00000000
     0.00000000     0.00000000     0.00000000
     0.00000000     0.00000000     0.00000000
     0.00000000     0.00000000     0.00000000
     0.00000000     0.00000000     0.00000000
     0.00000000     0.00000000     0.00000000
     0.00000000     0.00000000     0.00000000
     0.00000000     0.00000000     0.00000000
     0.00000000     0.00000000     0.00000000
     0.00000000     0.00000000     0.00000000
     0.00000000     0.00000000     0.00000000
     0.00000000     0.00000000     0.00000000
     0.00000000     0.00000000     0.00000000
     0.00000000     0.00000000     0.00000000
     0.00000000     0.00000000     0.00000000
     0.00000000     0.00000000     0.00000000
     0.00000000     0.00000000     0.00000000
     0.00000000     0.00000000     0.00000000
     0.00000000     0.00000000     0.00000000
     0.00000000     0.00000000     0.00000000
     0.00000000     0.00000000     0.00000000
     0.00000000     0.00000000     0.00000000
     0.00000000     0.00000000     0.00000000
     0.00000000     0.00000000     0.00000000
     0.00000000     0.00000000     0.00000000
     0.00000000     0.00000000     0.00000000
     0.00000000     0.00000000     0.00000000
     0.00000000     0.00000000     0.00000000
     0.00000000     0.00000000     0.00000000
     0.00000000     0.00000000     0.00000000
     0.00000000     0.00000000     0.00000000
     0.00000000     0.00000000     0.00000000
     0.00000000     0.00000000     0.00000000
     0.00000000     0.00000000     0.00000000
     0.00000000     0.00000000     0.00000000
     0.00000000     0.00000000     0.00000000
     0.00000000     0.00000000     0.00000000
     0.00000000     0.00000000     0.00000000
     0.00000000     0.00000000     0.00000000
     0.00000000     0.00000000     0.00000000
     0.00000000     0.00000000     0.00000000
     0.00000000     0.00000000     0.00000000
     0.00000000     0.00000000     0.00000000
     0.00000000     0.00000000     0.00000000
     0.00000000     0.00000000     0.00000000
     0.00000000     0.00000000     0.00000000
     0.00000000     0.00000000     0.00000000
     0.00000000     0.00000000     0.00000000
     0.00000000     0.00000000     0.00000000
     0.00000000     0.00000000     0.00000000
     0.00000000     0.00000000     0.00000000
     0.00000000     0.00000000     0.00000000
     0.00000000     0.00000000     0.00000000
     0.00000000     0.00000000     0.00000000
     0.00000000     0.00000000     0.00000000
     0.00000000     0.00000000     0.00000000
     0.00000000     0.00000000     0.00000000
     0.00000000     0.00000000     0.00000000
     0.00000000     0.00000000     0.00000000
     0.00000000     0.00000000     0.00000000
     0.00000000     0.00000000     0.00000000
     0.00000000     0.00000000     0.00000000
     0.00000000     0.00000000     0.00000000
     0.00000000     0.00000000     0.00000000
     0.00000000     0.00000000     0.00000000
     0.00000000     0.00000000     0.00000000
     0.00000000     0.00000000     0.00000000
     0.00000000     0.00000000     0.00000000
     0.00000000     0.00000000     0.00000000
     0.00000000     0.00000000     0.00000000
     0.00000000     0.00000000     0.00000000
     0.00000000     0.00000000     0.00000000
     0.00000000     0.00000000     0.00000000
     0.00000000     0.00000000     0.00000000
     0.00000000     0.00000000     0.00000000
     0.00000000     0.00000000     0.00000000
     0.00000000     0.00000000     0.00000000
     0.00000000     0.00000000     0.00000000
     0.00000000     0.00000000     0.00000000
     0.00000000     0.00000000     0.00000000
     0.00000000     0.00000000     0.00000000
     0.00000000     0.00000000     0.00000000
     0.00000000     0.00000000     0.00000000
     0.00000000     0.00000000     0.00000000
     0.00000000     0.00000000     0.00000000
     0.00000000     0.00000000     0.00000000
     0.00000000     0.00000000     0.00000000
     0.00000000     0.00000000     0.00000000
     0.00000000     0.00000000     0.00000000
     0.00000000     0.00000000     0.00000000
     0.00000000     0.00000000     0.00000000
     0.00000000     0.00000000     0.00000000
     0.00000000     0.00000000     0.00000000
     0.00000000     0.00000000     0.00000000
     0.00000000     0.00000000     0.00000000
     0.00000000     0.00000000     0.00000000
     0.00000000     0.00000000     0.00000000
     0.00000000     0.00000000     0.00000000
     0.00000000     0.00000000     0.00000000
     0.00000000     0.00000000     0.00000000
     0.00000000     0.00000000     0.00000000
     0.00000000     0.00000000     0.00000000
     0.00000000     0.00000000     0.00000000
     0.00000000     0.00000000     0.00000000
     0.00000000     0.00000000     0.00000000
     0.00000000     0.00000000     0.00000000
     0.00000000     0.00000000     0.00000000
     0.00000000     0.00000000     0.00000000
     0.00000000     0.00000000     0.00000000
     0.00000000     0.00000000     0.00000000
     0.00000000     0.00000000     0.00000000
     0.00000000     0.00000000     0.00000000
     0.00000000     0.00000000     0.00000000
     0.00000000     0.00000000     0.00000000
     0.00000000     0.00000000     0.00000000
     0.00000000     0.00000000     0.00000000
     0.00000000     0.00000000     0.00000000
     0.00000000     0.00000000     0.00000000
     0.00000000     0.00000000     0.00000000
     0.00000000     0.00000000     0.00000000
     0.00000000     0.00000000     0.00000000
     0.00000000     0.00000000     0.00000000
     0.00000000     0.00000000     0.00000000
     0.00000000     0.00000000     0.00000000
     0.00000000     0.00000000     0.00000000
     0.00000000     0.00000000     0.00000000
     0.00000000     0.00000000     0.00000000
     0.00000000     0.00000000     0.00000000
     0.00000000     0.00000000     0.00000000
     0.00000000     0.00000000     0.00000000
     0.00000000     0.00000000     0.00000000
SCALARS Temperatures float
LOOKUP_TABLE default
     0.00000000
     0.00000000
     0.00000000
     0.00000000
     0.00000000
     0.00000000
     0.00000000
     0.00000000
     0.00000000
     0.00000000
     0.00000000
     0.00000000
     0.00000000
     0.00000000
     0.00000000
     0.00000000
     0.00000000
     0.00000000
     0.00000000
     0.00000000
     0.00000000
     0.00000000
     0.00000000
     0.00000000
     0.00000000
     0.00000000
     0.00000000
     0.00000000
     0.00000000
     0.00000000
     0.00000000
     0.00000000
     0.00000000
     0.00000000
     0.00000000
     0.00000000
     0.00000000
     0.00000000
     0.00000000
     0.00000000
     0.00000000
     0.00000000
     0.00000000
     0.00000000
     0.00000000
     0.00000000
     0.00000000
     0.00000000
     0.00000000
     0.00000000
     0.00000000
     0.00000000
     0.00000000
     0.00000000
     0.00000000
     0.00000000
     0.00000000
     0.00000000
     0.00000000
     0.00000000
     0.00000000
     0.00000000
     0.00000000
     0.00000000
     0.00000000
     0.00000000
     0.00000000
     0.00000000
     0.00000000
     0.00000000
     0.00000000
     0.00000000
     0.00000000
     0.00000000
     0.00000000
     0.00000000
     0.00000000
     0.00000000
     0.00000000
     0.00000000
     0.00000000
     0.00000000
     0.00000000
     0.00000000
     0.00000000
     0.00000000
     0.00000000
     0.00000000
     0.00000000
     0.00000000
     0.00000000
     0.00000000
     0.00000000
     0.00000000
     0.00000000
     0.00000000
     0.00000000
     0.00000000
     0.00000000
     0.00000000
     0.00000000
     0.00000000
     0.00000000
     0.00000000
     0.00000000
     0.00000000
     0.00000000
     0.00000000
     0.00000000
     0.00000000
     0.00000000
     0.00000000
     0.00000000
     0.00000000
     0.00000000
     0.00000000
     0.00000000
     0.00000000
     0.00000000
     0.00000000
     0.00000000
     0.00000000
     0.00000000
     0.00000000
     0.00000000
     0.00000000
     0.00000000
     0.00000000
     0.00000000
     0.00000000
     0.00000000
     0.00000000
     0.00000000
     0.00000000
     0.00000000
     0.00000000
     0.00000000
     0.00000000
     0.00000000
     0.00000000
     0.00000000
     0.00000000
     0.00000000
     0.00000000
     0.00000000
     0.00000000
     0.00000000
     0.00000000
     0.00000000
     0.00000000
     0.00000000
     0.00000000
     0.00000000
     0.00000000
     0.00000000
     0.00000000
     0.00000000
     0.00000000
     0.00000000
     0.00000000
     0.00000000
     0.00000000
     0.00000000
     0.00000000
     0.00000000
     0.00000000
     0.00000000
     0.00000000
     0.00000000
     0.00000000
     0.00000000
     0.00000000
     0.00000000
     0.00000000
     0.00000000
     0.00000000
     0.00000000
     0.00000000
     0.00000000
     0.00000000
     0.00000000
     0.00000000
     0.00000000
     0.00000000
     0.00000000
     0.00000000
     0.00000000
     0.00000000
     0.00000000
     0.00000000
     0.00000000
     0.00000000
     0.00000000
     0.00000000
     0.00000000
     0.00000000
     0.00000000
     0.00000000
     0.00000000
     0.00000000
     0.00000000
     0.00000000
     0.00000000
     0.00000000
     0.00000000
     0.00000000
     0.00000000
     0.00000000
     0.00000000
     0.00000000
     0.00000000
     0.00000000
     0.00000000
     0.00000000
     0.00000000
     0.00000000
     0.00000000
     0.00000000
     0.00000000
     0.00000000
     0.00000000
     0.00000000
     0.00000000
     0.00000000
     0.00000000
     0.00000000
     0.00000000
     0.00000000
     0.00000000
     0.00000000
     0.00000000
     0.00000000
     0.00000000
     0.00000000
     0.00000000
     0.00000000
     0.00000000
     0.00000000
     0.00000000
     0.00000000
     0.00000000
     0.00000000
     0.00000000
     0.00000000
     0.00000000
     0.00000000
     0.00000000
     0.00000000
     0.00000000
     0.00000000
     0.00000000
     0.00000000
     0.00000000
     0.00000000
     0.00000000
     0.00000000
     0.00000000
     0.00000000
     0.00000000
     0.00000000
     0.00000000
     0.00000000
     0.00000000
     0.00000000
     0.00000000
     0.00000000
     0.00000000
     0.00000000
     0.00000000
     0.00000000
     0.00000000
     0.00000000
     0.00000000
     0.00000000
     0.00000000
     0.00000000
     0.00000000
     0.00000000
     0.00000000
     0.00000000
     0.00000000
     0.00000000
     0.00000000
     0.00000000
     0.00000000
     0.00000000
     0.00000000
     0.00000000
     0.00000000
     0.00000000
     0.00000000
     0.00000000
     0.00000000
     0.00000000
     0.00000000
     0.00000000
     0.00000000
     0.00000000
     0.00000000
     0.00000000
     0.00000000
     0.00000000
     0.00000000
     0.00000000
     0.00000000
     0.00000000
     0.00000000
     0.00000000
     0.00000000
     0.00000000
     0.00000000
     0.00000000
     0.00000000
     0.00000000
     0.00000000
     0.00000000
     0.00000000
     0.00000000
     0.00000000
     0.00000000
     0.00000000
     0.00000000
     0.00000000
     0.00000000
     0.00000000
     0.00000000
     0.00000000
     0.00000000
     0.00000000
     0.00000000
     0.00000000
     0.00000000
     0.00000000
     0.00000000
     0.00000000
     0.00000000
     0.00000000
     0.00000000
     0.00000000
     0.00000000
     0.00000000
     0.00000000
     0.00000000
     0.00000000
     0.00000000
     0.00000000
     0.00000000
     0.00000000
     0.00000000
     0.00000000
     0.00000000
     0.00000000
     0.00000000
     0.00000000
     0.00000000
     0.00000000
     0.00000000
     0.00000000
     0.00000000
     0.00000000
     0.00000000
     0.00000000
     0.00000000
     0.00000000
     0.00000000
     0.00000000
     0.00000000
     0.00000000
     0.00000000
     0.00000000
     0.00000000
     0.00000000
     0.00000000
     0.00000000
     0.00000000
     0.00000000
     0.00000000
     0.00000000
     0.00000000
     0.00000000
     0.00000000
     0.00000000
     0.00000000
     0.00000000
     0.00000000
     0.00000000
     0.00000000
     0.00000000
     0.00000000
     0.00000000
     0.00000000
     0.00000000
     0.00000000
     0.00000000
     0.00000000
     0.00000000
     0.00000000
     0.00000000
     0.00000000
     0.00000000
     0.00000000
     0.00000000
     0.00000000
     0.00000000
     0.00000000
     0.00000000
     0.00000000
     0.00000000
     0.00000000
     0.00000000
     0.00000000
     0.00000000
     0.00000000
     0.00000000
     0.00000000
     0.00000000
     0.00000000
     0.00000000
     0.00000000
     0.00000000
     0.00000000
     0.00000000
     0.00000000
     0.00000000
     0.00000000
     0.00000000
     0.00000000
     0.00000000
     0.00000000
     0.00000000
     0.00000000
     0.00000000
     0.00000000
     0.00000000
     0.00000000
     0.00000000
     0.00000000
     0.00000000
     0.00000000
     0.00000000
     0.00000000
     0.00000000
     0.00000000
     0.00000000
     0.00000000
     0.00000000
     0.00000000
     0.00000000
     0.00000000
     0.00000000
     0.00000000
     0.00000000
     0.00000000
     0.00000000
     0.00000000
     0.00000000
     0.00000000
     0.00000000
     0.00000000
     0.00000000
     0.00000000
     0.00000000
     0.00000000
     0.00000000
     0.00000000
     0.00000000
     0.00000000
     0.00000000
     0.00000000
     0.00000000
     0.00000000
     0.00000000
     0.00000000
     0.00000000
     0.00000000
     0.00000000
     0.00000000
     0.00000000
     0.00000000
     0.00000000
     0.00000000
     0.00000000
     0.00000000
     0.00000000
     0.00000000
     0.00000000
     0.00000000
     0.00000000
     0.00000000
     0.00000000
     0.00000000
     0.00000000
     0.00000000
     0.00000000
     0.00000000
     0.00000000
     0.00000000
     0.00000000
     0.00000000
     0.00000000
     0.00000000
     0.00000000
     0.00000000
     0.00000000
     0.00000000
     0.00000000
     0.00000000
     0.00000000
     0.00000000
     0.00000000
     0.00000000
     0.00000000
     0.00000000
     0.00000000
     0.00000000
     0.00000000
     0.00000000
     0.00000000
     0.00000000
     0.00000000
     0.00000000
     0.00000000
     0.00000000
     0.00000000
     0.00000000
     0.00000000
     0.00000000
     0.00000000
     0.00000000
     0.00000000
     0.00000000
     0.00000000
     0.00000000
     0.00000000
     0.00000000
     0.00000000
     0.00000000
     0.00000000
     0.00000000
     0.00000000
     0.00000000
     0.00000000
     0.00000000
     0.00000000
     0.00000000
     0.00000000
     0.00000000
     0.00000000
     0.00000000
     0.00000000
     0.00000000
     0.00000000
     0.00000000
     0.00000000
     0.00000000
     0.00000000
     0.00000000
     0.00000000
     0.00000000
     0.00000000
     0.00000000
     0.00000000
     0.00000000
     0.00000000
     0.00000000
     0.00000000
     0.00000000
     0.00000000
     0.00000000
     0.00000000
     0.00000000
     0.00000000
     0.00000000
     0.00000000
     0.00000000
     0.00000000
     0.00000000
     0.00000000
     0.00000000
     0.00000000
     0.00000000
     0.00000000
     0.00000000
     0.00000000
     0.00000000
     0.00000000
     0.00000000
     0.00000000
     0.00000000
     0.00000000
     0.00000000
     0.00000000
     0.00000000
     0.00000000
     0.00000000
     0.00000000
     0.00000000
     0.00000000
     0.00000000
     0.00000000
     0.00000000
     0.00000000
     0.00000000
     0.00000000
     0.00000000
     0.00000000
     0.00000000
     0.00000000
     0.00000000
     0.00000000
     0.00000000
     0.00000000
     0.00000000
     0.00000000
     0.00000000
     0.00000000
     0.00000000
     0.00000000
     0.00000000
     0.00000000
     0.00000000
     0.00000000
     0.00000000
     0.00000000
     0.00000000
     0.00000000
     0.00000000
     0.00000000
     0.00000000
     0.00000000
     0.00000000
     0.00000000
     0.00000000
     0.00000000
     0.00000000
     0.00000000
     0.00000000
     0.00000000
     0.00000000
     0.00000000
     0.00000000
     0.00000000
     0.00000000
     0.00000000
     0.00000000
     0.00000000
     0.00000000
     0.00000000
     0.00000000
     0.00000000
     0.00000000
     0.00000000
     0.00000000
     0.00000000
     0.00000000
     0.00000000
     0.00000000
     0.00000000
     0.00000000
     0.00000000
     0.00000000
     0.00000000
     0.00000000
     0.00000000
     0.00000000
     0.00000000
     0.00000000
     0.00000000
     0.00000000
     0.00000000
     0.00000000
     0.00000000
     0.00000000
     0.00000000
     0.00000000
     0.00000000
     0.00000000
     0.00000000
     0.00000000
     0.00000000
     0.00000000
     0.00000000
     0.00000000
     0.00000000
     0.00000000
     0.00000000
     0.00000000
     0.00000000
     0.00000000
     0.00000000
     0.00000000
     0.00000000
     0.00000000
     0.00000000
     0.00000000
     0.00000000
     0.00000000
     0.00000000
     0.00000000
     0.00000000
     0.00000000
     0.00000000
     0.00000000
     0.00000000
     0.00000000
     0.00000000
     0.00000000
     0.00000000
     0.00000000
     0.00000000
     0.00000000
     0.00000000
     0.00000000
     0.00000000
     0.00000000
     0.00000000
     0.00000000
     0.00000000
     0.00000000
     0.00000000
     0.00000000
     0.00000000
     0.00000000
     0.00000000
     0.00000000
     0.00000000
     0.00000000
     0.00000000
     0.00000000
     0.00000000
     0.00000000
     0.00000000
     0.00000000
     0.00000000
     0.00000000
     0.00000000
     0.00000000
     0.00000000
     0.00000000
     0.00000000
     0.00000000
     0.00000000
     0.00000000
     0.00000000
     0.00000000
     0.00000000
     0.00000000
     0.00000000
     0.00000000
     0.00000000
     0.00000000
     0.00000000
     0.00000000
     0.00000000
     0.00000000
     0.00000000
     0.00000000
     0.00000000
     0.00000000
     0.00000000
     0.00000000
     0.00000000
     0.00000000
     0.00000000
     0.00000000
     0.00000000
     0.00000000
     0.00000000
     0.00000000
     0.00000000
     0.00000000
     0.00000000
     0.00000000
     0.00000000
     0.00000000
     0.00000000
     0.00000000
     0.00000000
     0.00000000
     0.00000000
     0.00000000
     0.00000000
     0.00000000
     0.00000000
     0.00000000
     0.00000000
     0.00000000
     0.00000000
     0.00000000
     0.00000000
     0.00000000
     0.00000000
     0.00000000
     0.00000000
     0.00000000
     0.00000000
     0.00000000
     0.00000000
     0.00000000
     0.00000000
     0.00000000
     0.00000000
     0.00000000
     0.00000000
     0.00000000
     0.00000000
     0.00000000
     0.00000000
     0.00000000
     0.00000000
     0.00000000
     0.00000000
     0.00000000
     0.00000000
     0.00000000
     0.00000000
     0.00000000
     0.00000000
     0.00000000
     0.00000000
     0.00000000
     0.00000000
     0.00000000
     0.00000000
     0.00000000
     0.00000000
     0.00000000
     0.00000000
     0.00000000
     0.00000000
     0.00000000
     0.00000000
     0.00000000
     0.00000000
     0.00000000
     0.00000000
     0.00000000
     0.00000000
     0.00000000
     0.00000000
     0.00000000
     0.00000000
     0.00000000
     0.00000000
     0.00000000
     0.00000000
     0.00000000
     0.00000000
     0.00000000
     0.00000000
     0.00000000
     0.00000000
     0.00000000
     0.00000000
     0.00000000
     0.00000000
     0.00000000
     0.00000000
     0.00000000
     0.00000000
     0.00000000
     0.00000000
     0.00000000
     0.00000000
     0.00000000
     0.00000000
     0.00000000
     0.00000000
     0.00000000
     0.00000000
     0.00000000
     0.00000000
     0.00000000
     0.00000000
     0.00000000
     0.00000000
     0.00000000
     0.00000000
     0.00000000
     0.00000000
     0.00000000
     0.00000000
     0.00000000
     0.00000000
     0.00000000
     0.00000000
     0.00000000
     0.00000000
     0.00000000
     0.00000000
     0.00000000
     0.00000000
     0.00000000
     0.00000000
     0.00000000
     0.00000000
     0.00000000
     0.00000000
     0.00000000
     0.00000000
     0.00000000
     0.00000000
     0.00000000
     0.00000000
     0.00000000
     0.00000000
     0.00000000
     0.00000000
     0.00000000
     0.00000000
     0.00000000
     0.00000000
     0.00000000
     0.00000000
     0.00000000
     0.00000000
     0.00000000
     0.00000000
     0.00000000
     0.00000000
     0.00000000
     0.00000000
     0.00000000
     0.00000000
     0.00000000
     0.00000000
     0.00000000
     0.00000000
     0.00000000
     0.00000000
     0.00000000
     0.00000000
     0.00000000
     0.00000000
     0.00000000
     0.00000000
     0.00000000
     0.00000000
     0.00000000
     0.00000000
     0.00000000
     0.00000000
     0.00000000
     0.00000000
     0.00000000
     0.00000000
     0.00000000
     0.00000000
     0.00000000
     0.00000000
     0.00000000
     0.00000000
     0.00000000
     0.00000000
     0.00000000
     0.00000000
     0.00000000
     0.00000000
     0.00000000
     0.00000000
     0.00000000
     0.00000000
     0.00000000
     0.00000000
     0.00000000
     0.00000000
     0.00000000
     0.00000000
     0.00000000
     0.00000000
     0.00000000
     0.00000000
     0.00000000
     0.00000000
     0.00000000
     0.00000000
     0.00000000
     0.00000000
     0.00000000
     0.00000000
     0.00000000
     0.00000000
     0.00000000
     0.00000000
     0.00000000
     0.00000000
     0.00000000
     0.00000000
     0.00000000
     0.00000000
     0.00000000
     0.00000000
     0.00000000
     0.00000000
     0.00000000
     0.00000000
     0.00000000
     0.00000000
     0.00000000
     0.00000000
     0.00000000
     0.00000000
     0.00000000
     0.00000000
     0.00000000
     0.00000000
     0.00000000
     0.00000000
     0.00000000
     0.00000000
     0.00000000
     0.00000000
     0.00000000
     0.00000000
     0.00000000
     0.00000000
     0.00000000
     0.00000000
     0.00000000
     0.00000000
     0.00000000
     0.00000000
     0.00000000
     0.00000000
     0.00000000
     0.00000000
     0.00000000
     0.00000000
     0.00000000
     0.00000000
     0.00000000
     0.00000000
     0.00000000
     0.00000000
     0.00000000
     0.00000000
     0.00000000
     0.00000000
     0.00000000
     0.00000000
     0.00000000
     0.00000000
     0.00000000
     0.00000000
     0.00000000
     0.00000000
     0.00000000
     0.00000000
     0.00000000
     0.00000000
     0.00000000
     0.00000000
     0.00000000
     0.00000000
     0.00000000
     0.00000000
     0.00000000
     0.00000000
     0.00000000
     0.00000000
     0.00000000
     0.00000000
     0.00000000
     0.00000000
     0.00000000
     0.00000000
     0.00000000
     0.00000000
     0.00000000
     0.00000000
     0.00000000
     0.00000000
     0.00000000
     0.00000000
     0.00000000
     0.00000000
     0.00000000
     0.00000000
     0.00000000
     0.00000000
     0.00000000
     0.00000000
     0.00000000
     0.00000000
     0.00000000
     0.00000000
     0.00000000
     0.00000000
     0.00000000
     0.00000000
     0.00000000
     0.00000000
     0.00000000
     0.00000000
     0.00000000
     0.00000000
     0.00000000
     0.00000000
     0.00000000
     0.00000000
     0.00000000
     0.00000000
     0.00000000
     0.00000000
     0.00000000
     0.00000000
     0.00000000
     0.00000000
     0.00000000
     0.00000000
     0.00000000
     0.00000000
     0.00000000
     0.00000000
     0.00000000
     0.00000000
     0.00000000
     0.00000000
     0.00000000
     0.00000000
     0.00000000
     0.00000000
     0.00000000
     0.00000000
     0.00000000
     0.00000000
     0.00000000
     0.00000000
     0.00000000
     0.00000000
     0.00000000
     0.00000000
     0.00000000
     0.00000000
     0.00000000
     0.00000000
     0.00000000
     0.00000000
     0.00000000
     0.00000000
     0.00000000
     0.00000000
     0.00000000
     0.00000000
     0.00000000
     0.00000000
     0.00000000
     0.00000000
     0.00000000
     0.00000000
     0.00000000
     0.00000000
     0.00000000
     0.00000000
     0.00000000
     0.00000000
     0.00000000
     0.00000000
     0.00000000
     0.00000000
     0.00000000
     0.00000000
     0.00000000
     0.00000000
     0.00000000
     0.00000000
     0.00000000
     0.00000000
     0.00000000
     0.00000000
     0.00000000
     0.00000000
     0.00000000
     0.00000000
     0.00000000
     0.00000000
     0.00000000
     0.00000000
     0.00000000
     0.00000000
     0.00000000
     0.00000000
     0.00000000
     0.00000000
     0.00000000
     0.00000000
     0.00000000
     0.00000000
     0.00000000
     0.00000000
     0.00000000
     0.00000000
     0.00000000
     0.00000000
     0.00000000
     0.00000000
     0.00000000
     0.00000000
     0.00000000
     0.00000000
     0.00000000
     0.00000000
     0.00000000
     0.00000000
     0.00000000
     0.00000000
     0.00000000
     0.00000000
     0.00000000
     0.00000000
     0.00000000
     0.00000000
     0.00000000
     0.00000000
     0.00000000
     0.00000000
     0.00000000
     0.00000000
     0.00000000
     0.00000000
     0.00000000
     0.00000000
     0.00000000
     0.00000000
     0.00000000
     0.00000000
     0.00000000
     0.00000000
     0.00000000
     0.00000000
     0.00000000
     0.00000000
     0.00000000
     0.00000000
     0.00000000
     0.00000000
     0.00000000
     0.00000000
     0.00000000
     0.00000000
     0.00000000
     0.00000000
     0.00000000
     0.00000000
     0.00000000
     0.00000000
     0.00000000
     0.00000000
     0.00000000
     0.00000000
     0.00000000
     0.00000000
     0.00000000
     0.00000000
     0.00000000
     0.00000000
     0.00000000
     0.00000000
     0.00000000
     0.00000000
     0.00000000
     0.00000000
     0.00000000
     0.00000000
     0.00000000
     0.00000000
     0.00000000
     0.00000000
     0.00000000
     0.00000000
     0.00000000
     0.00000000
     0.00000000
     0.00000000
     0.00000000
     0.00000000
     0.00000000
     0.00000000
     0.00000000
     0.00000000
     0.00000000
     0.00000000
     0.00000000
     0.00000000
     0.00000000
     0.00000000
     0.00000000
     0.00000000
     0.00000000
     0.00000000
     0.00000000
     0.00000000
     0.00000000
     0.00000000
     0.00000000
     0.00000000
     0.00000000
     0.00000000
     0.00000000
     0.00000000
     0.00000000
     0.00000000
     0.00000000
     0.00000000
     0.00000000
     0.00000000
     0.00000000
     0.00000000
     0.00000000
     0.00000000
     0.00000000
     0.00000000
     0.00000000
     0.00000000
     0.00000000
     0.00000000
     0.00000000
     0.00000000
     0.00000000
     0.00000000
     0.00000000
     0.00000000
     0.00000000
     0.00000000
     0.00000000
     0.00000000
     0.00000000
     0.00000000
     0.00000000
     0.00000000
     0.00000000
     0.00000000
     0.00000000
     0.00000000
     0.00000000
     0.00000000
     0.00000000
     0.00000000
     0.00000000
     0.00000000
     0.00000000
     0.00000000
     0.00000000
     0.00000000
     0.00000000
     0.00000000
     0.00000000
     0.00000000
     0.00000000
     0.00000000
     0.00000000
     0.00000000
     0.00000000
     0.00000000
     0.00000000
     0.00000000
     0.00000000
     0.00000000
     0.00000000
     0.00000000
     0.00000000
     0.00000000
     0.00000000
     0.00000000
     0.00000000
     0.00000000
     0.00000000
     0.00000000
     0.00000000
     0.00000000
     0.00000000
     0.00000000
     0.00000000
     0.00000000
     0.00000000
     0.00000000
     0.00000000
     0.00000000
     0.00000000
     0.00000000
     0.00000000
     0.00000000
     0.00000000
     0.00000000
     0.00000000
     0.00000000
     0.00000000
     0.00000000
     0.00000000
     0.00000000
     0.00000000
     0.00000000
     0.00000000
     0.00000000
     0.00000000
     0.00000000
     0.00000000
     0.00000000
     0.00000000
     0.00000000
     0.00000000
     0.00000000
     0.00000000
     0.00000000
     0.00000000
     0.00000000
     0.00000000
     0.00000000
     0.00000000
     0.00000000
     0.00000000
     0.00000000
     0.00000000
     0.00000000
     0.00000000
     0.00000000
     0.00000000
     0.00000000
     0.00000000
     0.00000000
     0.00000000
     0.00000000
     0.00000000
     0.00000000
     0.00000000
     0.00000000
     0.00000000
     0.00000000
     0.00000000
     0.00000000
     0.00000000
     0.00000000
     0.00000000
     0.00000000
     0.00000000
     0.00000000
     0.00000000
     0.00000000
     0.00000000
     0.00000000
     0.00000000
     0.00000000
     0.00000000
     0.00000000
     0.00000000
     0.00000000
     0.00000000
     0.00000000
     0.00000000
     0.00000000
     0.00000000
     0.00000000
     0.00000000
     0.00000000
     0.00000000
     0.00000000
     0.00000000
     0.00000000
     0.00000000
     0.00000000
     0.00000000
     0.00000000
     0.00000000
     0.00000000
     0.00000000
     0.00000000
     0.00000000
     0.00000000
     0.00000000
     0.00000000
     0.00000000
     0.00000000
     0.00000000
     0.00000000
     0.00000000
     0.00000000
     0.00000000
     0.00000000
     0.00000000
     0.00000000
     0.00000000
     0.00000000
     0.00000000
     0.00000000
     0.00000000
     0.00000000
     0.00000000
     0.00000000
     0.00000000
     0.00000000
     0.00000000
     0.00000000
     0.00000000
     0.00000000
     0.00000000
     0.00000000
     0.00000000
     0.00000000
     0.00000000
     0.00000000
     0.00000000
     0.00000000
     0.00000000
     0.00000000
     0.00000000
     0.00000000
     0.00000000
     0.00000000
     0.00000000
     0.00000000
     0.00000000
     0.00000000
     0.00000000
     0.00000000
     0.00000000
     0.00000000
     0.00000000
     0.00000000
     0.00000000
     0.00000000
     0.00000000
     0.00000000
     0.00000000
     0.00000000
     0.00000000
     0.00000000
     0.00000000
     0.00000000
     0.00000000
     0.00000000
     0.00000000
     0.00000000
     0.00000000
     0.00000000
     0.00000000
     0.00000000
     0.00000000
     0.00000000
     0.00000000
     0.00000000
     0.00000000
     0.00000000
     0.00000000
     0.00000000
     0.00000000
     0.00000000
     0.00000000
     0.00000000
     0.00000000
     0.00000000
     0.00000000
     0.00000000
     0.00000000
     0.00000000
     0.00000000
     0.00000000
     0.00000000
     0.00000000
     0.00000000
     0.00000000
     0.00000000
     0.00000000
     0.00000000
     0.00000000
     0.00000000
     0.00000000
     0.00000000
     0.00000000
     0.00000000
     0.00000000
     0.00000000
     0.00000000
     0.00000000
     0.00000000
     0.00000000
     0.00000000
     0.00000000
     0.00000000
     0.00000000
     0.00000000
     0.00000000
     0.00000000
     0.00000000
     0.00000000
     0.00000000
     0.00000000
     0.00000000
     0.00000000
     0.00000000
VECTORS ShearStress float 
    -0.00071388     0.00046746     0.00094780
    -0.00451305     0.00333984     0.00475857
     0.01661493    -0.00612905    -0.00283969
     0.02801523    -0.00634038     0.00058056
     0.00400073    -0.00087786     0.00212136
    -0.06868196    -0.00088761     0.00831109
    -0.14205006    -0.02819330     0.00092502
    -0.21289440    -0.07895692    -0.00259006
    -0.54841572    -0.21933709    -0.00659235
     0.00000301    -0.00411182     0.00357417
     0.00000000     0.00000000     0.00000000
     0.00000000     0.00000000     0.00000000
     0.00000000     0.00000000     0.00000000
     0.00000000     0.00000000     0.00000000
     0.00000000     0.00000000     0.00000000
     0.00000000     0.00000000     0.00000000
     0.00000000     0.00000000     0.00000000
     0.00000000     0.00000000     0.00000000
     0.00002364    -0.02509839     0.00718431
     0.00000000     0.00000000     0.00000000
     0.00000000     0.00000000     0.00000000
     0.00000000     0.00000000     0.00000000
     0.00000000     0.00000000     0.00000000
     0.00000000     0.00000000     0.00000000
     0.00000000     0.00000000     0.00000000
     0.00000000     0.00000000     0.00000000
     0.00000000     0.00000000     0.00000000
     0.00005348    -0.03230383     0.00455434
     0.00000000     0.00000000     0.00000000
     0.00000000     0.00000000     0.00000000
     0.00000000     0.00000000     0.00000000
     0.00000000     0.00000000     0.00000000
     0.00000000     0.00000000     0.00000000
     0.00000000     0.00000000     0.00000000
     0.00000000     0.00000000     0.00000000
     0.00000000     0.00000000     0.00000000
     0.00000738    -0.02822593     0.00565347
     0.00000000     0.00000000     0.00000000
     0.00000000     0.00000000     0.00000000
     0.00000000     0.00000000     0.00000000
     0.00000000     0.00000000     0.00000000
     0.00000000     0.00000000     0.00000000
     0.00000000     0.00000000     0.00000000
     0.00000000     0.00000000     0.00000000
     0.00000000     0.00000000     0.00000000
    -0.00001659    -0.02024163     0.00492685
     0.00000000     0.00000000     0.00000000
     0.00000000     0.00000000     0.00000000
     0.00000000     0.00000000     0.00000000
     0.00000000     0.00000000     0.00000000
     0.00000000     0.00000000     0.00000000
     0.00000000     0.00000000     0.00000000
     0.00000000     0.00000000     0.00000000
     0.45664360    -0.15522415    -0.04120415
    -0.00002640    -0.01376447     0.00529632
     0.00000000     0.00000000     0.00000000
     0.00000000     0.00000000     0.00000000
     0.00000000     0.00000000     0.00000000
     0.00000000     0.00000000     0.00000000
     0.00000000     0.00000000     0.00000000
     0.00000000     0.00000000     0.00000000
     0.00000000     0.00000000     0.00000000
     0.00000000     0.00000000     0.00000000
    -0.00004077    -0.01212696     0.00369205
     0.00000000     0.00000000     0.00000000
     0.00000000     0.00000000     0.00000000
     0.00000000     0.00000000     0.00000000
     0.00000000     0.00000000     0.00000000
     0.00000000     0.00000000     0.00000000
     0.00000000     0.00000000     0.00000000
     0.00000000     0.00000000     0.00000000
     0.00000000     0.00000000     0.00000000
    -0.00003132    -0.00785554     0.00449937
     0.00000000     0.00000000     0.00000000
     0.00000000     0.00000000     0.00000000
     0.00000000     0.00000000     0.00000000
     0.00000000     0.00000000     0.00000000
     0.00000000     0.00000000     0.00000000
     0.00000000     0.00000000     0.00000000
     0.00000000     0.00000000     0.00000000
     0.00000000     0.00000000     0.00000000
    -0.00002533    -0.00568654     0.00028148
     0.00000000     0.00000000     0.00000000
     0.00000000     0.00000000     0.00000000
     0.00000000     0.00000000     0.00000000
     0.00000000     0.00000000     0.00000000
     0.00000000     0.00000000     0.00000000
     0.00000000     0.00000000     0.00000000
     0.00000000     0.00000000     0.00000000
     0.00000000     0.00000000     0.00000000
    -0.00045819    -0.00081508    -0.00002356
    -0.00486783    -0.00278260     0.00021391
    -0.01980662    -0.00703865     0.00138730
    -0.06018036    -0.01330027     0.00349801
    -0.09922897    -0.01004808     0.00230867
    -0.13567012     0.00114678     0.00236019
    -0.16140033     0.03803233     0.00036948
    -0.19653961     0.09087271    -0.00062021
    -0.32593408     0.16654187    -0.00574343
     0.00406934    -0.00399594     0.00433353
     0.03467819    -0.01756011     0.02192002
     0.02534456    -0.01164110    -0.01096520
     0.01174963    -0.00261465     0.00072318
     0.01434281    -0.00005830     0.00944157
    -0.01704663     0.00448769     0.03108333
    -0.07898435    -0.01671622    -0.00135085
    -0.17682588    -0.07200013    -0.02518805
    -0.59477421    -0.25588141    -0.04720107
     0.00005825    -0.01713667     0.01513598
     0.00000000     0.00000000     0.00000000
     0.00000000     0.00000000     0.00000000
     0.00000000     0.00000000     0.00000000
     0.00000000     0.00000000     0.00000000
     0.00000000     0.00000000     0.00000000
     0.00000000     0.00000000     0.00000000
     0.00000000     0.00000000     0.00000000
     0.00000000     0.00000000     0.00000000
     0.00001549    -0.02152640     0.02834813
     0.00000000     0.00000000     0.00000000
     0.00000000     0.00000000     0.00000000
     0.00000000     0.00000000     0.00000000
     0.00000000     0.00000000     0.00000000
     0.00000000     0.00000000     0.00000000
     0.00000000     0.00000000     0.00000000
     0.00000000     0.00000000     0.00000000
     0.00000000     0.00000000     0.00000000
     0.00002751    -0.02305991     0.01909078
     0.00000000     0.00000000     0.00000000
     0.00000000     0.00000000     0.00000000
     0.00000000     0.00000000     0.00000000
     0.00000000     0.00000000     0.00000000
     0.00000000     0.00000000     0.00000000
     0.00000000     0.00000000     0.00000000
     0.00000000     0.00000000     0.00000000
     0.00000000     0.00000000     0.00000000
     0.00001024    -0.02611165     0.02305746
     0.00000000     0.00000000     0.00000000
     0.00000000     0.00000000     0.00000000
     0.00000000     0.00000000     0.00000000
     0.00000000     0.00000000     0.00000000
     0.00000000     0.00000000     0.00000000
     0.00000000     0.00000000     0.00000000
     0.00000000     0.00000000     0.00000000
     0.00000000     0.00000000     0.00000000
    -0.00000722    -0.01642449     0.02072191
     0.00000000     0.00000000     0.00000000
     0.00000000     0.00000000     0.00000000
     0.00000000     0.00000000     0.00000000
     0.00000000     0.00000000     0.00000000
     0.00000000     0.00000000     0.00000000
     0.00000000     0.00000000     0.00000000
     0.00000000     0.00000000     0.00000000
     0.40787438    -0.14315636    -0.18438520
    -0.00001079    -0.01034440     0.02174726
     0.00000000     0.00000000     0.00000000
     0.00000000     0.00000000     0.00000000
     0.00000000     0.00000000     0.00000000
     0.00000000     0.00000000     0.00000000
     0.00000000     0.00000000     0.00000000
     0.00000000     0.00000000     0.00000000
     0.00000000     0.00000000     0.00000000
     0.00000000     0.00000000     0.00000000
    -0.00003158    -0.01310173     0.01567807
     0.00000000     0.00000000     0.00000000
     0.00000000     0.00000000     0.00000000
     0.00000000     0.00000000     0.00000000
     0.00000000     0.00000000     0.00000000
     0.00000000     0.00000000     0.00000000
     0.00000000     0.00000000     0.00000000
     0.00000000     0.00000000     0.00000000
     0.00000000     0.00000000     0.00000000
    -0.00000796    -0.00248861     0.01789152
     0.00000000     0.00000000     0.00000000
     0.00000000     0.00000000     0.00000000
     0.00000000     0.00000000     0.00000000
     0.00000000     0.00000000     0.00000000
     0.00000000     0.00000000     0.00000000
     0.00000000     0.00000000     0.00000000
     0.00000000     0.00000000     0.00000000
     0.00000000     0.00000000     0.00000000
     0.00003771     0.00669222     0.00198071
     0.00000000     0.00000000     0.00000000
     0.00000000     0.00000000     0.00000000
     0.00000000     0.00000000     0.00000000
     0.00000000     0.00000000     0.00000000
     0.00000000     0.00000000     0.00000000
     0.00000000     0.00000000     0.00000000
     0.00000000     0.00000000     0.00000000
     0.00000000     0.00000000     0.00000000
     0.00101958     0.00146923    -0.00028854
     0.00326130     0.00293569    -0.00176877
    -0.03262631    -0.01275941     0.00510550
    -0.06463228    -0.01682727     0.01427100
    -0.09334483    -0.01123742     0.01020148
    -0.13208452    -0.00026889     0.00874381
    -0.15391897     0.03684066    -0.00076590
    -0.19449831     0.09286395    -0.00487357
    -0.33752875     0.17796821    -0.01034671
     0.00429203    -0.00232692     0.00608181
     0.04106498    -0.01364961     0.03609002
     0.04754278    -0.01721354     0.00494633
     0.03006073    -0.00780004    -0.00141449
     0.02554860     0.00239857     0.01528136
     0.05486628     0.00663998     0.01880246
     0.06236526     0.00989374    -0.00428294
    -0.06189505    -0.03491457    -0.01801123
    -0.68287152    -0.33100827    -0.02265776
     0.00004045    -0.00707119     0.01559475
     0.00000000     0.00000000     0.00000000
     0.00000000     0.00000000     0.00000000
     0.00000000     0.00000000     0.00000000
     0.00000000     0.00000000     0.00000000
     0.00000000     0.00000000     0.00000000
     0.00000000     0.00000000     0.00000000
     0.00000000     0.00000000     0.00000000
     0.00000000     0.00000000     0.00000000
     0.00003881    -0.01682676     0.01736285
     0.00000000     0.00000000     0.00000000
     0.00000000     0.00000000     0.00000000
     0.00000000     0.00000000     0.00000000
     0.00000000     0.00000000     0.00000000
     0.00000000     0.00000000     0.00000000
     0.00000000     0.00000000     0.00000000
     0.00000000     0.00000000     0.00000000
     0.00000000     0.00000000     0.00000000
     0.00002472    -0.01827101     0.01939446
     0.00000000     0.00000000     0.00000000
     0.00000000     0.00000000     0.00000000
     0.00000000     0.00000000     0.00000000
     0.00000000     0.00000000     0.00000000
     0.00000000     0.00000000     0.00000000
     0.00000000     0.00000000     0.00000000
     0.00000000     0.00000000     0.00000000
     0.00000000     0.00000000     0.00000000
     0.00001093    -0.01982661     0.01919016
     0.00000000     0.00000000     0.00000000
     0.00000000     0.00000000     0.00000000
     0.00000000     0.00000000     0.00000000
     0.00000000     0.00000000     0.00000000
     0.00000000     0.00000000     0.00000000
     0.00000000     0.00000000     0.00000000
     0.00000000     0.00000000     0.00000000
     0.00000000     0.00000000     0.00000000
     0.00000839    -0.01300535     0.02125547
     0.00000000     0.00000000     0.00000000
     0.00000000     0.00000000     0.00000000
     0.00000000     0.00000000     0.00000000
     0.00000000     0.00000000     0.00000000
     0.00000000     0.00000000     0.00000000
     0.00000000     0.00000000     0.00000000
     0.00000000     0.00000000     0.00000000
     0.29499355    -0.11655942    -0.24168639
     0.00000721    -0.00753342     0.01896237
     0.00000000     0.00000000     0.00000000
     0.00000000     0.00000000     0.00000000
     0.00000000     0.00000000     0.00000000
     0.00000000     0.00000000     0.00000000
     0.00000000     0.00000000     0.00000000
     0.00000000     0.00000000     0.00000000
     0.00000000     0.00000000     0.00000000
     0.00000000     0.00000000     0.00000000
    -0.00000241    -0.00894129     0.01725600
     0.00000000     0.00000000     0.00000000
     0.00000000     0.00000000     0.00000000
     0.00000000     0.00000000     0.00000000
     0.00000000     0.00000000     0.00000000
     0.00000000     0.00000000     0.00000000
     0.00000000     0.00000000     0.00000000
     0.00000000     0.00000000     0.00000000
     0.00000000     0.00000000     0.00000000
     0.00001065    -0.00110730     0.01253554
     0.00000000     0.00000000     0.00000000
     0.00000000     0.00000000     0.00000000
     0.00000000     0.00000000     0.00000000
     0.00000000     0.00000000     0.00000000
     0.00000000     0.00000000     0.00000000
     0.00000000     0.00000000     0.00000000
     0.00000000     0.00000000     0.00000000
     0.00000000     0.00000000     0.00000000
     0.00000960    -0.00039619     0.00802422
     0.00000000     0.00000000     0.00000000
     0.00000000     0.00000000     0.00000000
     0.00000000     0.00000000     0.00000000
     0.00000000     0.00000000     0.00000000
     0.00000000     0.00000000     0.00000000
     0.00000000     0.00000000     0.00000000
     0.00000000     0.00000000     0.00000000
     0.00000000     0.00000000     0.00000000
     0.00057159    -0.00036982     0.00291296
     0.00232664    -0.00469923     0.01915035
    -0.01946515    -0.01279039     0.01672949
    -0.05055583    -0.01909249     0.02247939
    -0.07656586    -0.01513433     0.02168328
    -0.11940035    -0.00477515     0.01831916
    -0.16397710     0.03928079     0.00643600
    -0.22627095     0.11178858     0.00972458
    -0.41360763     0.22770081     0.01444971
     0.00261844    -0.00132157     0.00291474
     0.03054940    -0.00956159     0.01970954
     0.07188749    -0.02213473     0.01610652
     0.05165804    -0.01098633     0.00419582
     0.05315116     0.00102962     0.01396227
     0.07979149     0.00210072     0.00228802
     0.09660252     0.01142131    -0.01888856
     0.09939153     0.02918084    -0.02491526
    -0.63184410    -0.34823017     0.02471198
     0.00002192    -0.00444387     0.00726553
     0.00000000     0.00000000     0.00000000
     0.00000000     0.00000000     0.00000000
     0.00000000     0.00000000     0.00000000
     0.00000000     0.00000000     0.00000000
     0.00000000     0.00000000     0.00000000
     0.00000000     0.00000000     0.00000000
     0.00000000     0.00000000     0.00000000
     0.00000000     0.00000000     0.00000000
     0.00003949    -0.01118011     0.01345648
     0.00000000     0.00000000     0.00000000
     0.00000000     0.00000000     0.00000000
     0.00000000     0.00000000     0.00000000
     0.00000000     0.00000000     0.00000000
     0.00000000     0.00000000     0.00000000
     0.00000000     0.00000000     0.00000000
     0.00000000     0.00000000     0.00000000
     0.00000000     0.00000000     0.00000000
     0.00002212    -0.01130001     0.01379266
     0.00000000     0.00000000     0.00000000
     0.00000000     0.00000000     0.00000000
     0.00000000     0.00000000     0.00000000
     0.00000000     0.00000000     0.00000000
     0.00000000     0.00000000     0.00000000
     0.00000000     0.00000000     0.00000000
     0.00000000     0.00000000     0.00000000
     0.00000000     0.00000000     0.00000000
    -0.00000269    -0.01441615     0.01716068
     0.00000000     0.00000000     0.00000000
     0.00000000     0.00000000     0.00000000
     0.00000000     0.00000000     0.00000000
     0.00000000     0.00000000     0.00000000
     0.00000000     0.00000000     0.00000000
     0.00000000     0.00000000     0.00000000
     0.00000000     0.00000000     0.00000000
     0.00000000     0.00000000     0.00000000
    -0.00001209    -0.00986168     0.01568304
     0.00000000     0.00000000     0.00000000
     0.00000000     0.00000000     0.00000000
     0.00000000     0.00000000     0.00000000
     0.00000000     0.00000000     0.00000000
     0.00000000     0.00000000     0.00000000
     0.00000000     0.00000000     0.00000000
     0.00000000     0.00000000     0.00000000
     0.27966096    -0.13110927    -0.17138402
    -0.00000950    -0.00617216     0.01609063
     0.00000000     0.00000000     0.00000000
     0.00000000     0.00000000     0.00000000
     0.00000000     0.00000000     0.00000000
     0.00000000     0.00000000     0.00000000
     0.00000000     0.00000000     0.00000000
     0.00000000     0.00000000     0.00000000
     0.00000000     0.00000000     0.00000000
     0.00000000     0.00000000     0.00000000
    -0.00000976    -0.00620481     0.01337322
     0.00000000     0.00000000     0.00000000
     0.00000000     0.00000000     0.00000000
     0.00000000     0.00000000     0.00000000
     0.00000000     0.00000000     0.00000000
     0.00000000     0.00000000     0.00000000
     0.00000000     0.00000000     0.00000000
     0.00000000     0.00000000     0.00000000
     0.00000000     0.00000000     0.00000000
     0.00000920    -0.00031081     0.01304650
     0.00000000     0.00000000     0.00000000
     0.00000000     0.00000000     0.00000000
     0.00000000     0.00000000     0.00000000
     0.00000000     0.00000000     0.00000000
     0.00000000     0.00000000     0.00000000
     0.00000000     0.00000000     0.00000000
     0.00000000     0.00000000     0.00000000
     0.00000000     0.00000000     0.00000000
     0.00002585     0.00304416     0.00913760
     0.00000000     0.00000000     0.00000000
     0.00000000     0.00000000     0.00000000
     0.00000000     0.00000000     0.00000000
     0.00000000     0.00000000     0.00000000
     0.00000000     0.00000000     0.00000000
     0.00000000     0.00000000     0.00000000
     0.00000000     0.00000000     0.00000000
     0.00000000     0.00000000     0.00000000
     0.00313848     0.00121923     0.00400916
     0.02740977     0.00413978     0.02763569
     0.01811221    -0.00738050     0.02979689
    -0.01022553    -0.01929372     0.03298486
    -0.02116343    -0.01577800     0.02634621
    -0.04306939    -0.01551672     0.03127938
    -0.07598801     0.01970363     0.00460907
    -0.19321851     0.09524093     0.03497819
    -0.55636570     0.31774761     0.06733101
     0.00622198    -0.00261285     0.00523515
     0.06259883    -0.01919533     0.03543152
     0.09770606    -0.03230341     0.01808180
     0.09151255    -0.00999791     0.02158986
     0.06967935    -0.00384884     0.00678388
     0.10980283     0.00539088     0.00551682
     0.09291842     0.02204204    -0.00303378
     0.18726680     0.06354958    -0.05366793
    -0.48846948    -0.25969080     0.13651359
     0.00001945    -0.00410377     0.00698906
     0.00000000     0.00000000     0.00000000
     0.00000000     0.00000000     0.00000000
     0.00000000     0.00000000     0.00000000
     0.00000000     0.00000000     0.00000000
     0.00000000     0.00000000     0.00000000
     0.00000000     0.00000000     0.00000000
     0.00000000     0.00000000     0.00000000
     0.00000000     0.00000000     0.00000000
     0.00003522    -0.00857172     0.01016589
     0.00000000     0.00000000     0.00000000
     0.00000000     0.00000000     0.00000000
     0.00000000     0.00000000     0.00000000
     0.00000000     0.00000000     0.00000000
     0.00000000     0.00000000     0.00000000
     0.00000000     0.00000000     0.00000000
     0.00000000     0.00000000     0.00000000
     0.00000000     0.00000000     0.00000000
     0.00002387    -0.00387529     0.01041372
     0.00000000     0.00000000     0.00000000
     0.00000000     0.00000000     0.00000000
     0.00000000     0.00000000     0.00000000
     0.00000000     0.00000000     0.00000000
     0.00000000     0.00000000     0.00000000
     0.00000000     0.00000000     0.00000000
     0.00000000     0.00000000     0.00000000
     0.00000000     0.00000000     0.00000000
     0.00001532    -0.00525719     0.01209939
     0.00000000     0.00000000     0.00000000
     0.00000000     0.00000000     0.00000000
     0.00000000     0.00000000     0.00000000
     0.00000000     0.00000000     0.00000000
     0.00000000     0.00000000     0.00000000
     0.00000000     0.00000000     0.00000000
     0.00000000     0.00000000     0.00000000
     0.00000000     0.00000000     0.00000000
     0.00000025    -0.00830667     0.01557922
     0.00000000     0.00000000     0.00000000
     0.00000000     0.00000000     0.00000000
     0.00000000     0.00000000     0.00000000
     0.00000000     0.00000000     0.00000000
     0.00000000     0.00000000     0.00000000
     0.00000000     0.00000000     0.00000000
     0.00000000     0.00000000     0.00000000
     0.31879573    -0.21067388    -0.30885996
    -0.00001054    -0.00685210     0.01215358
     0.00000000     0.00000000     0.00000000
     0.00000000     0.00000000     0.00000000
     0.00000000     0.00000000     0.00000000
     0.00000000     0.00000000     0.00000000
     0.00000000     0.00000000     0.00000000
     0.00000000     0.00000000     0.00000000
     0.00000000     0.00000000     0.00000000
     0.00000000     0.00000000     0.00000000
    -0.00000515    -0.00337659     0.01213336
     0.00000000     0.00000000     0.00000000
     0.00000000     0.00000000     0.00000000
     0.00000000     0.00000000     0.00000000
     0.00000000     0.00000000     0.00000000
     0.00000000     0.00000000     0.00000000
     0.00000000     0.00000000     0.00000000
     0.00000000     0.00000000     0.00000000
     0.00000000     0.00000000     0.00000000
     0.00000789    -0.00032719     0.00970619
     0.00000000     0.00000000     0.00000000
     0.00000000     0.00000000     0.00000000
     0.00000000     0.00000000     0.00000000
     0.00000000     0.00000000     0.00000000
     0.00000000     0.00000000     0.00000000
     0.00000000     0.00000000     0.00000000
     0.00000000     0.00000000     0.00000000
     0.00000000     0.00000000     0.00000000
     0.00002806     0.00463318     0.00886858
     0.00000000     0.00000000     0.00000000
     0.00000000     0.00000000     0.00000000
     0.00000000     0.00000000     0.00000000
     0.00000000     0.00000000     0.00000000
     0.00000000     0.00000000     0.00000000
     0.00000000     0.00000000     0.00000000
     0.00000000     0.00000000     0.00000000
     0.00000000     0.00000000     0.00000000
     0.00889217     0.00402894     0.00695151
     0.07937680     0.02244509     0.04884312
     0.06569031     0.00035969     0.04127810
     0.06248072    -0.01494198     0.04478281
     0.04085055    -0.01325475     0.02523417
     0.06729904    -0.02568083     0.03369809
     0.09835268     0.01806048    -0.06357578
     0.04779915    -0.00064676    -0.03139265
    -0.62433514     0.35767746     0.14240385
     0.00407423    -0.00144897     0.00298579
     0.03294037    -0.00965037     0.01770317
     0.04782292    -0.01630926     0.00901480
     0.04647147    -0.00406049     0.01106437
     0.03386550    -0.00195522     0.00285705
     0.05409354     0.00279604     0.00221122
     0.04307438     0.01291363     0.00021424
     0.09269732     0.03181484    -0.03217985
    -0.21985954    -0.12420342     0.09894380
     0.00709777    -0.00292157     0.00533886
     0.06870568    -0.02170479     0.03443759
     0.09368974    -0.03350277     0.01879788
     0.09191492    -0.00680294     0.02116960
     0.06979277    -0.00501817     0.00526320
     0.10616803     0.00689158     0.00394071
     0.09019670     0.02473977    -0.00458680
     0.18067780     0.07381693    -0.06730368
    -0.38333024    -0.21326717     0.23141990
     0.00609056    -0.00387204     0.00432346
     0.05506737    -0.02565047     0.02362607
     0.05204143    -0.02385600     0.00970900
     0.05097427    -0.00009705     0.01294425
     0.05450475    -0.01408257    -0.00081317
     0.05769503     0.01530449     0.00736971
     0.08085032    -0.00945538    -0.02364040
     0.10010811     0.11150682    -0.01178339
     0.14348184     0.18644240    -0.07376740
     0.00271998    -0.00080963     0.00282311
     0.02530818    -0.00686091     0.01344245
     0.03417968    -0.02111879     0.00639034
     0.03512014     0.00059329     0.00867928
     0.03483849    -0.02023462    -0.00299798
     0.04790919     0.01132961     0.00353588
     0.04703349    -0.02395924    -0.01846711
     0.06141138     0.07587812    -0.02909990
     0.14908748     0.03489054    -0.18264428
     0.00373928    -0.00136574     0.00367126
     0.03265279    -0.00872644     0.01852723
     0.02456275    -0.01076271     0.00738692
     0.03840403    -0.01035898     0.00730610
     0.02951860    -0.00719563     0.00180784
     0.03742929    -0.00720065    -0.00132499
     0.06170886    -0.00682324    -0.01540419
     0.05048727     0.10166365    -0.03412260
     0.33723791    -0.00257538    -0.49071234
     0.00413757    -0.00272611     0.00446526
     0.03822372    -0.01585007     0.02272951
     0.04301577    -0.00524478     0.01601068
     0.03898448    -0.01535828     0.00895665
     0.03571789    -0.00112771     0.00368716
     0.03225902    -0.01179215     0.00018708
    -0.00826283     0.00770786     0.00198722
     0.00734949     0.08985451    -0.01088807
     0.07066071     0.02541380    -0.09289926
     0.00245206    -0.00256320     0.00318043
     0.02069724    -0.01598500     0.01520961
     0.01639092    -0.00660802     0.00704690
     0.03432350    -0.01416501     0.01020393
     0.02582913    -0.00476523     0.00341303
     0.03407436    -0.00783770     0.00131364
     0.02440196     0.01700016    -0.00993757
     0.02342449    -0.06479069    -0.00651374
     0.12291539     0.14133239    -0.12984020
     0.00330441    -0.00141402     0.00401494
     0.02934054    -0.00915353     0.02141976
     0.02839260    -0.00021866     0.01109210
     0.03822564    -0.02145177     0.01637298
     0.03046959    -0.00180224     0.00381642
     0.04495081    -0.01852718     0.00612139
     0.04337784     0.03105681    -0.02166414
     0.04048357    -0.06777338    -0.01253212
     0.09327978     0.23739493    -0.13887691
     0.00317513    -0.00056345     0.00372289
     0.02973002    -0.00523632     0.02235498
     0.04116780    -0.00304979     0.01880630
     0.05319576    -0.02228355     0.02527348
     0.04127192    -0.00967514     0.00998280
     0.06000542    -0.02763053     0.01390715
     0.08931704     0.02035346    -0.03470570
     0.07862725    -0.09043469    -0.01025105
    -0.09421141     0.21129690    -0.01564171
     0.00899424     0.00360060     0.00667981
     0.08053459     0.01990315     0.04473189
     0.07077556    -0.00482551     0.03689144
     0.07379972    -0.02004516     0.03623346
     0.05017869    -0.01847476     0.02037071
     0.08205977    -0.03107622     0.02220711
     0.12724355     0.02815221    -0.06036433
     0.09641255    -0.02866298    -0.03995139
    -0.65676190     0.47060718     0.24694049
     0.00579958     0.00232511     0.00391514
     0.04286011     0.01179760     0.02427864
     0.03559168    -0.00091647     0.01993283
     0.03616671    -0.00828789     0.02025294
     0.02425070    -0.00779701     0.01136999
     0.04070348    -0.01419622     0.01371816
     0.06199829     0.01204953    -0.03370824
     0.04401718    -0.00784722    -0.02099289
    -0.31357925     0.19883773     0.09661360
     0.16238488    -0.09513124     0.05499794
    -0.10445105    -0.12244843     0.02453766
    -0.19610420    -0.05173313     0.00997829
    -0.22863003    -0.06081767     0.00544071
    -0.22833616    -0.06129214    -0.00134763
    -0.19096240    -0.05136064    -0.00235931
    -0.16081991    -0.04336752    -0.00338909
    -0.12482915    -0.03372879    -0.00344867
    -0.09495383    -0.02577339    -0.00405548
    -0.06716169    -0.01827414    -0.00341387
    -0.02609876    -0.01412183    -0.00087818
     0.00000000     0.00000000     0.00000000
     0.00000000     0.00000000     0.00000000
     0.00000000     0.00000000     0.00000000
     0.00000000     0.00000000     0.00000000
     0.00000000     0.00000000     0.00000000
     0.00000000     0.00000000     0.00000000
     0.00000000     0.00000000     0.00000000
     0.00000000     0.00000000     0.00000000
     0.00000000     0.00000000     0.00000000
     0.00000000     0.00000000     0.00000000
     0.01734987    -0.06475087    -0.00286694
     0.00000000     0.00000000     0.00000000
     0.00000000     0.00000000     0.00000000
     0.00000000     0.00000000     0.00000000
     0.00000000     0.00000000     0.00000000
     0.00000000     0.00000000     0.00000000
     0.00000000     0.00000000     0.00000000
     0.00000000     0.00000000     0.00000000
     0.00000000     0.00000000     0.00000000
     0.00000000     0.00000000     0.00000000
     0.00000000     0.00000000     0.00000000
     0.03770661    -0.14072264     0.00591939
     0.00000000     0.00000000     0.00000000
     0.00000000     0.00000000     0.00000000
     0.00000000     0.00000000     0.00000000
     0.00000000     0.00000000     0.00000000
     0.00000000     0.00000000     0.00000000
     0.00000000     0.00000000     0.00000000
     0.00000000     0.00000000     0.00000000
     0.00000000     0.00000000     0.00000000
     0.00000000     0.00000000     0.00000000
     0.00000000     0.00000000     0.00000000
     0.03755188    -0.14014517     0.01371900
     0.00000000     0.00000000     0.00000000
     0.00000000     0.00000000     0.00000000
     0.00000000     0.00000000     0.00000000
     0.00000000     0.00000000     0.00000000
     0.00000000     0.00000000     0.00000000
     0.00000000     0.00000000     0.00000000
     0.00000000     0.00000000     0.00000000
     0.00000000     0.00000000     0.00000000
     0.00000000     0.00000000     0.00000000
     0.00000000     0.00000000     0.00000000
     0.01615175    -0.06027937     0.01689642
    -0.56748552     0.40836540     0.00767686
    -0.12581469     0.26352165    -0.00802801
     0.43299269     0.11731631    -0.01593887
     0.56421603     0.15099109     0.00235189
     0.52188755     0.13873055     0.01361307
     0.41099043     0.10862138     0.01845023
     0.26853286     0.07062565     0.01630105
     0.15124047     0.03930817     0.01493457
     0.04449819     0.01080692     0.01370263
    -0.01862947    -0.00572647     0.00901776
    -0.02163642    -0.01232347     0.00310283
     0.00760871    -0.06957217     0.17209712
    -0.12108951    -0.11749435     0.11860143
    -0.20670088    -0.04907208     0.03190706
    -0.25180729    -0.06228255     0.02939834
    -0.23574378    -0.06280691     0.00235308
    -0.20702055    -0.05508767     0.00378329
    -0.16506680    -0.04588632    -0.00840838
    -0.13274764    -0.03696398    -0.00646991
    -0.09623368    -0.02847341    -0.01421865
    -0.06968055    -0.02099658    -0.01211788
    -0.02625392    -0.01492382    -0.00369953
     0.00000000     0.00000000     0.00000000
     0.00000000     0.00000000     0.00000000
     0.00000000     0.00000000     0.00000000
     0.00000000     0.00000000     0.00000000
     0.00000000     0.00000000     0.00000000
     0.00000000     0.00000000     0.00000000
     0.00000000     0.00000000     0.00000000
     0.00000000     0.00000000     0.00000000
     0.00000000     0.00000000     0.00000000
     0.00000000     0.00000000     0.00000000
     0.01838628    -0.06861790    -0.01391377
     0.00000000     0.00000000     0.00000000
     0.00000000     0.00000000     0.00000000
     0.00000000     0.00000000     0.00000000
     0.00000000     0.00000000     0.00000000
     0.00000000     0.00000000     0.00000000
     0.00000000     0.00000000     0.00000000
     0.00000000     0.00000000     0.00000000
     0.00000000     0.00000000     0.00000000
     0.00000000     0.00000000     0.00000000
     0.00000000     0.00000000     0.00000000
     0.03786476    -0.14131349     0.02658470
     0.00000000     0.00000000     0.00000000
     0.00000000     0.00000000     0.00000000
     0.00000000     0.00000000     0.00000000
     0.00000000     0.00000000     0.00000000
     0.00000000     0.00000000     0.00000000
     0.00000000     0.00000000     0.00000000
     0.00000000     0.00000000     0.00000000
     0.00000000     0.00000000     0.00000000
     0.00000000     0.00000000     0.00000000
     0.00000000     0.00000000     0.00000000
     0.03383444    -0.12627211     0.06142526
     0.00000000     0.00000000     0.00000000
     0.00000000     0.00000000     0.00000000
     0.00000000     0.00000000     0.00000000
     0.00000000     0.00000000     0.00000000
     0.00000000     0.00000000     0.00000000
     0.00000000     0.00000000     0.00000000
     0.00000000     0.00000000     0.00000000
     0.00000000     0.00000000     0.00000000
     0.00000000     0.00000000     0.00000000
     0.00000000     0.00000000     0.00000000
     0.01448258    -0.05405039     0.07540420
    -0.63019813     0.44856242     0.09296326
    -0.15436230     0.26775639     0.06082993
     0.44521676     0.11864659     0.01158501
     0.56601029     0.14325755     0.04868027
     0.54278194     0.13490601     0.05578033
     0.41464195     0.09974166     0.05964904
     0.28072026     0.06607711     0.04704787
     0.14878295     0.03068015     0.04761244
     0.04877867     0.00361425     0.04985031
    -0.02841610    -0.01421537     0.03609774
    -0.02317401    -0.01276003     0.01344327
    -0.09599668    -0.11686893     0.44544519
    -0.17472205    -0.14462807     0.22475942
    -0.26157698    -0.03673505     0.09231290
    -0.29641068    -0.06046217     0.05539768
    -0.28209475    -0.06966097     0.01656096
    -0.23597725    -0.06235743     0.00345867
    -0.19151567    -0.05618924    -0.01367579
    -0.14412482    -0.04445801    -0.01595168
    -0.10358959    -0.03680329    -0.02570368
    -0.06967586    -0.02821997    -0.02697085
    -0.02546557    -0.01696605    -0.00789598
     0.00000000     0.00000000     0.00000000
     0.00000000     0.00000000     0.00000000
     0.00000000     0.00000000     0.00000000
     0.00000000     0.00000000     0.00000000
     0.00000000     0.00000000     0.00000000
     0.00000000     0.00000000     0.00000000
     0.00000000     0.00000000     0.00000000
     0.00000000     0.00000000     0.00000000
     0.00000000     0.00000000     0.00000000
     0.00000000     0.00000000     0.00000000
     0.02078900    -0.07758519    -0.02952864
     0.00000000     0.00000000     0.00000000
     0.00000000     0.00000000     0.00000000
     0.00000000     0.00000000     0.00000000
     0.00000000     0.00000000     0.00000000
     0.00000000     0.00000000     0.00000000
     0.00000000     0.00000000     0.00000000
     0.00000000     0.00000000     0.00000000
     0.00000000     0.00000000     0.00000000
     0.00000000     0.00000000     0.00000000
     0.00000000     0.00000000     0.00000000
     0.03651866    -0.13628927     0.04075113
     0.00000000     0.00000000     0.00000000
     0.00000000     0.00000000     0.00000000
     0.00000000     0.00000000     0.00000000
     0.00000000     0.00000000     0.00000000
     0.00000000     0.00000000     0.00000000
     0.00000000     0.00000000     0.00000000
     0.00000000     0.00000000     0.00000000
     0.00000000     0.00000000     0.00000000
     0.00000000     0.00000000     0.00000000
     0.00000000     0.00000000     0.00000000
     0.02888801    -0.10781198     0.09252511
     0.00000000     0.00000000     0.00000000
     0.00000000     0.00000000     0.00000000
     0.00000000     0.00000000     0.00000000
     0.00000000     0.00000000     0.00000000
     0.00000000     0.00000000     0.00000000
     0.00000000     0.00000000     0.00000000
     0.00000000     0.00000000     0.00000000
     0.00000000     0.00000000     0.00000000
     0.00000000     0.00000000     0.00000000
     0.00000000     0.00000000     0.00000000
     0.01361429    -0.05080845     0.11156723
    -0.80269113     0.55300853     0.22138246
    -0.19147859     0.30207491     0.09089402
     0.48004946     0.12981161     0.00061643
     0.65132566     0.14463581     0.08547800
     0.58981580     0.11788786     0.11357271
     0.45402159     0.08270867     0.10973031
     0.28929573     0.04406880     0.09398736
     0.14902310     0.00370916     0.10219129
     0.02450553    -0.03056408     0.10596898
    -0.03055859    -0.02958453     0.06186655
    -0.02271642    -0.01408424     0.02048738
    -0.19920212    -0.05803001     0.81355242
    -0.26333923    -0.15542874     0.26521792
    -0.37419646     0.01863554     0.21703105
    -0.41039560    -0.07048604     0.07438487
    -0.34652838    -0.06848276     0.04424820
    -0.30622230    -0.08094147     0.00274950
    -0.23106327    -0.07128783    -0.01727279
    -0.17214552    -0.06003456    -0.02516533
    -0.10628573    -0.04637939    -0.03296719
    -0.06790972    -0.04009065    -0.04042347
    -0.02436001    -0.01815338    -0.01061204
     0.00000000     0.00000000     0.00000000
     0.00000000     0.00000000     0.00000000
     0.00000000     0.00000000     0.00000000
     0.00000000     0.00000000     0.00000000
     0.00000000     0.00000000     0.00000000
     0.00000000     0.00000000     0.00000000
     0.00000000     0.00000000     0.00000000
     0.00000000     0.00000000     0.00000000
     0.00000000     0.00000000     0.00000000
     0.00000000     0.00000000     0.00000000
     0.02031615    -0.07582077    -0.03699448
     0.00000000     0.00000000     0.00000000
     0.00000000     0.00000000     0.00000000
     0.00000000     0.00000000     0.00000000
     0.00000000     0.00000000     0.00000000
     0.00000000     0.00000000     0.00000000
     0.00000000     0.00000000     0.00000000
     0.00000000     0.00000000     0.00000000
     0.00000000     0.00000000     0.00000000
     0.00000000     0.00000000     0.00000000
     0.00000000     0.00000000     0.00000000
     0.03321677    -0.12396436     0.03781355
     0.00000000     0.00000000     0.00000000
     0.00000000     0.00000000     0.00000000
     0.00000000     0.00000000     0.00000000
     0.00000000     0.00000000     0.00000000
     0.00000000     0.00000000     0.00000000
     0.00000000     0.00000000     0.00000000
     0.00000000     0.00000000     0.00000000
     0.00000000     0.00000000     0.00000000
     0.00000000     0.00000000     0.00000000
     0.00000000     0.00000000     0.00000000
     0.02494608    -0.09309939     0.08509160
     0.00000000     0.00000000     0.00000000
     0.00000000     0.00000000     0.00000000
     0.00000000     0.00000000     0.00000000
     0.00000000     0.00000000     0.00000000
     0.00000000     0.00000000     0.00000000
     0.00000000     0.00000000     0.00000000
     0.00000000     0.00000000     0.00000000
     0.00000000     0.00000000     0.00000000
     0.00000000     0.00000000     0.00000000
     0.00000000     0.00000000     0.00000000
     0.01446250    -0.05397378     0.10172746
    -1.07348206     0.74427825     0.30192159
    -0.10413582     0.36182558     0.02563902
     0.76900568     0.21337780    -0.01523446
     0.83991617     0.14366886     0.14864379
     0.70039317     0.09614358     0.16715099
     0.45865984     0.03438587     0.16293892
     0.23219522    -0.01550801     0.14272482
     0.05342907    -0.07276653     0.16104164
    -0.02003439    -0.08420506     0.14636218
    -0.05086761    -0.05346718     0.07423212
    -0.02382242    -0.01697237     0.02032905
    -0.56227230     0.28357927     1.74287416
    -0.42834820    -0.23540020     0.35917896
    -0.64385725     0.07922927     0.32776526
    -0.49449595    -0.11271475     0.02727589
    -0.46955077    -0.05960088     0.08585458
    -0.37695978    -0.11163209    -0.01344856
    -0.29594240    -0.08708564    -0.01029778
    -0.19538294    -0.08282158    -0.03949007
    -0.11029463    -0.05846591    -0.03769317
    -0.05307365    -0.04540704    -0.04090692
    -0.02051909    -0.01469447    -0.00880197
     0.00000000     0.00000000     0.00000000
     0.00000000     0.00000000     0.00000000
     0.00000000     0.00000000     0.00000000
     0.00000000     0.00000000     0.00000000
     0.00000000     0.00000000     0.00000000
     0.00000000     0.00000000     0.00000000
     0.00000000     0.00000000     0.00000000
     0.00000000     0.00000000     0.00000000
     0.00000000     0.00000000     0.00000000
     0.00000000     0.00000000     0.00000000
     0.01237910    -0.04619933    -0.02645245
     0.00000000     0.00000000     0.00000000
     0.00000000     0.00000000     0.00000000
     0.00000000     0.00000000     0.00000000
     0.00000000     0.00000000     0.00000000
     0.00000000     0.00000000     0.00000000
     0.00000000     0.00000000     0.00000000
     0.00000000     0.00000000     0.00000000
     0.00000000     0.00000000     0.00000000
     0.00000000     0.00000000     0.00000000
     0.00000000     0.00000000     0.00000000
     0.02206860    -0.08236013     0.01288848
     0.00000000     0.00000000     0.00000000
     0.00000000     0.00000000     0.00000000
     0.00000000     0.00000000     0.00000000
     0.00000000     0.00000000     0.00000000
     0.00000000     0.00000000     0.00000000
     0.00000000     0.00000000     0.00000000
     0.00000000     0.00000000     0.00000000
     0.00000000     0.00000000     0.00000000
     0.00000000     0.00000000     0.00000000
     0.00000000     0.00000000     0.00000000
     0.02513861    -0.09381777     0.04057786
     0.00000000     0.00000000     0.00000000
     0.00000000     0.00000000     0.00000000
     0.00000000     0.00000000     0.00000000
     0.00000000     0.00000000     0.00000000
     0.00000000     0.00000000     0.00000000
     0.00000000     0.00000000     0.00000000
     0.00000000     0.00000000     0.00000000
     0.00000000     0.00000000     0.00000000
     0.00000000     0.00000000     0.00000000
     0.00000000     0.00000000     0.00000000
     0.01709874    -0.06381282     0.05927972
    -1.71864141     1.26218629     0.46248257
     0.05028093     0.53487197    -0.24160602
     1.06602581     0.15149113     0.17049491
     0.96219754     0.07750786     0.23347059
     0.58253308    -0.02797248     0.23911042
     0.19586611    -0.06761626     0.15737583
    -0.03592653    -0.14202743     0.17296290
    -0.09485858    -0.15019978     0.16373745
    -0.07657917    -0.13629733     0.15191817
    -0.04066801    -0.07250914     0.08063879
    -0.01867514    -0.01928972     0.01601568
    -0.45083177     0.18862401     0.98027686
    -0.26700202    -0.12342822     0.22057150
    -0.38685873     0.08037146     0.15429593
    -0.27841221    -0.06328307     0.00936558
    -0.27077809    -0.02371150     0.04101539
    -0.21186783    -0.06630980    -0.00789569
    -0.16730068    -0.05166521    -0.00551772
    -0.10742296    -0.05301239    -0.02010785
    -0.05936416    -0.03843630    -0.01867660
    -0.02641279    -0.02982793    -0.01896620
    -0.01494456    -0.00846411    -0.00363062
    -1.40611442     0.64065849     2.30514882
    -0.69580415    -0.28454060     0.52177952
    -0.97944774     0.21364390     0.25685868
    -0.70776120    -0.16897072     0.01333677
    -0.68895313    -0.07629244     0.06237547
    -0.53422246    -0.18978124    -0.02041136
    -0.41768720    -0.15531186    -0.01803911
    -0.26481185    -0.15437842    -0.04074129
    -0.14689941    -0.11603021    -0.03764568
    -0.06714799    -0.08570624    -0.03475755
    -0.02811447    -0.02108138    -0.00718768
    -1.00523628     1.38347392     1.06142530
    -0.51141259    -0.19180959     0.21746107
    -0.74144362    -0.00586008     0.04057496
    -0.60044238    -0.24052554    -0.00923805
    -0.58384253    -0.25016976    -0.00637217
    -0.44766467    -0.29219555    -0.02251396
    -0.33128491    -0.26531563    -0.02322278
    -0.20086856    -0.21243420    -0.02213017
    -0.12078217    -0.16546690    -0.01914314
    -0.07049748    -0.09951644    -0.01171367
    -0.02815791    -0.02646507    -0.00014316
    -1.36847967     2.08740600     0.60326522
    -0.22218692     0.54006556     0.02895193
    -0.18818458    -0.10277059     0.01444372
    -0.18871053    -0.34595283     0.04776415
    -0.26407188    -0.42595429     0.05955481
    -0.26854539    -0.41416607     0.05548362
    -0.24092330    -0.35166720     0.04776935
    -0.16782593    -0.28594967     0.04039548
    -0.10134213    -0.20231703     0.02960161
    -0.06076763    -0.12182922     0.01766278
    -0.02656450    -0.03109746     0.00616436
    -2.19778236     2.08391001     0.78526468
     0.12807276     0.95824913    -0.31460563
     1.34433924     0.09105090     0.14755220
     1.19755914    -0.09373261     0.21658402
     0.67349822    -0.23690432     0.21623463
     0.16702021    -0.24904112     0.14793562
    -0.11555522    -0.31550563     0.14686090
    -0.15140958    -0.29919277     0.13420763
    -0.10525409    -0.25196060     0.11808180
    -0.04744737    -0.13704500     0.06514252
    -0.02523298    -0.02867677     0.01354252
    -0.95795067     0.78021649     0.28907728
     0.04993344     0.35761420    -0.15762824
     0.61399219     0.05609309     0.09099720
     0.54551506     0.00218811     0.11950668
     0.31433043    -0.05857524     0.11877748
     0.08738740    -0.06871209     0.07626910
    -0.04019554    -0.10824214     0.08140228
    -0.06048878    -0.10603765     0.07502598
    -0.04308071    -0.09329994     0.06849571
    -0.01876270    -0.04947289     0.03718389
    -0.01371804    -0.01128469     0.00638856
    -0.67083896     0.17162597     0.09967308
    -1.01507791     0.27307021    -0.01322908
    -0.94516957     0.25154829     0.02105978
    -0.85179726     0.22881665    -0.00711582
    -0.60194786     0.16149768    -0.00256032
    -0.31994706     0.08607091    -0.00420238
    -0.11379070     0.03053933    -0.00060351
     0.00011646     0.04397633     0.00332920
     0.00000000     0.00000000     0.00000000
     0.00000000     0.00000000     0.00000000
     0.00000000     0.00000000     0.00000000
     0.00000000     0.00000000     0.00000000
     0.00000000     0.00000000     0.00000000
     0.00000000     0.00000000     0.00000000
     0.00000000     0.00000000     0.00000000
     0.00000000     0.00000000     0.00000000
     0.10152738     0.37890118     0.03072471
     0.00000000     0.00000000     0.00000000
     0.00000000     0.00000000     0.00000000
     0.00000000     0.00000000     0.00000000
     0.00000000     0.00000000     0.00000000
     0.00000000     0.00000000     0.00000000
     0.00000000     0.00000000     0.00000000
     0.00000000     0.00000000     0.00000000
     0.00000000     0.00000000     0.00000000
     0.17573167     0.65584357     0.05480617
     0.00000000     0.00000000     0.00000000
     0.00000000     0.00000000     0.00000000
     0.00000000     0.00000000     0.00000000
     0.00000000     0.00000000     0.00000000
     0.00000000     0.00000000     0.00000000
     0.00000000     0.00000000     0.00000000
     0.00000000     0.00000000     0.00000000
     0.00000000     0.00000000     0.00000000
     0.13256027     0.49472901     0.05889870
     0.00000000     0.00000000     0.00000000
     0.00000000     0.00000000     0.00000000
     0.00000000     0.00000000     0.00000000
     0.00000000     0.00000000     0.00000000
     0.00000000     0.00000000     0.00000000
     0.00000000     0.00000000     0.00000000
     0.00000000     0.00000000     0.00000000
     0.00000000     0.00000000     0.00000000
     0.04677285     0.17455649     0.04777360
    -0.15756022    -0.27630998    -0.09941547
     1.74815527    -0.47219355    -0.04642391
     2.13652793    -0.57147923     0.01220696
     1.90559137    -0.50763292     0.03638675
     1.39542893    -0.37131647     0.03186525
     0.99784943    -0.26523032     0.02633883
     0.57039278    -0.15081377     0.02479207
     0.27710993    -0.07113234     0.03827196
     0.03380292     0.00878268     0.01043839
     0.16344433    -0.10680941     0.21214699
    -0.84441299     0.15075646     0.42530959
    -1.07319331     0.29187074    -0.03013279
    -1.00952972     0.24834860     0.13043017
    -0.92450995     0.24073298     0.03616558
    -0.66244087     0.16859965     0.06015658
    -0.36528219     0.08818765     0.05542000
    -0.13548476     0.02790130     0.05223805
    -0.00389649     0.03703851     0.02057426
     0.00000000     0.00000000     0.00000000
     0.00000000     0.00000000     0.00000000
     0.00000000     0.00000000     0.00000000
     0.00000000     0.00000000     0.00000000
     0.00000000     0.00000000     0.00000000
     0.00000000     0.00000000     0.00000000
     0.00000000     0.00000000     0.00000000
     0.00000000     0.00000000     0.00000000
     0.08721799     0.32549767     0.13339574
     0.00000000     0.00000000     0.00000000
     0.00000000     0.00000000     0.00000000
     0.00000000     0.00000000     0.00000000
     0.00000000     0.00000000     0.00000000
     0.00000000     0.00000000     0.00000000
     0.00000000     0.00000000     0.00000000
     0.00000000     0.00000000     0.00000000
     0.00000000     0.00000000     0.00000000
     0.16311448     0.60875025     0.24799811
     0.00000000     0.00000000     0.00000000
     0.00000000     0.00000000     0.00000000
     0.00000000     0.00000000     0.00000000
     0.00000000     0.00000000     0.00000000
     0.00000000     0.00000000     0.00000000
     0.00000000     0.00000000     0.00000000
     0.00000000     0.00000000     0.00000000
     0.00000000     0.00000000     0.00000000
     0.12537746     0.46791831     0.26392326
     0.00000000     0.00000000     0.00000000
     0.00000000     0.00000000     0.00000000
     0.00000000     0.00000000     0.00000000
     0.00000000     0.00000000     0.00000000
     0.00000000     0.00000000     0.00000000
     0.00000000     0.00000000     0.00000000
     0.00000000     0.00000000     0.00000000
     0.00000000     0.00000000     0.00000000
     0.04727187     0.17641862     0.21514346
    -0.20981596    -0.34953064    -0.22431849
     1.81061943    -0.49489213    -0.03753506
     2.24497603    -0.58226247     0.10470468
     1.90145640    -0.48573050     0.12409277
     1.44052503    -0.36965869     0.08358011
     0.93649920    -0.23679866     0.07139597
     0.59828597    -0.14562349     0.07541781
     0.17983944    -0.01945684     0.15646638
     0.01995812     0.01649320     0.04543196
    -0.53775174     0.00068325     0.52777406
    -1.15282819     0.10989564     0.59107361
    -1.23316957     0.28193395     0.12391812
    -1.22487602     0.27872406     0.15130558
    -1.11983554     0.23732973     0.17434315
    -0.85995904     0.21482959     0.05208715
    -0.46538814     0.05612003     0.19392842
    -0.25313772     0.04736447     0.06345966
    -0.01991645     0.03550277     0.02187228
     0.00000000     0.00000000     0.00000000
     0.00000000     0.00000000     0.00000000
     0.00000000     0.00000000     0.00000000
     0.00000000     0.00000000     0.00000000
     0.00000000     0.00000000     0.00000000
     0.00000000     0.00000000     0.00000000
     0.00000000     0.00000000     0.00000000
     0.00000000     0.00000000     0.00000000
     0.07359803     0.27466245     0.16759230
     0.00000000     0.00000000     0.00000000
     0.00000000     0.00000000     0.00000000
     0.00000000     0.00000000     0.00000000
     0.00000000     0.00000000     0.00000000
     0.00000000     0.00000000     0.00000000
     0.00000000     0.00000000     0.00000000
     0.00000000     0.00000000     0.00000000
     0.00000000     0.00000000     0.00000000
     0.13034413     0.48643895     0.38446701
     0.00000000     0.00000000     0.00000000
     0.00000000     0.00000000     0.00000000
     0.00000000     0.00000000     0.00000000
     0.00000000     0.00000000     0.00000000
     0.00000000     0.00000000     0.00000000
     0.00000000     0.00000000     0.00000000
     0.00000000     0.00000000     0.00000000
     0.00000000     0.00000000     0.00000000
     0.10499207     0.39182942     0.39230557
     0.00000000     0.00000000     0.00000000
     0.00000000     0.00000000     0.00000000
     0.00000000     0.00000000     0.00000000
     0.00000000     0.00000000     0.00000000
     0.00000000     0.00000000     0.00000000
     0.00000000     0.00000000     0.00000000
     0.00000000     0.00000000     0.00000000
     0.00000000     0.00000000     0.00000000
     0.05303378     0.19792482     0.33127575
    -0.44139955    -0.58750250    -0.46558774
     2.18940334    -0.62309680    -0.09546547
     2.51237949    -0.58443230     0.24949531
     2.08570182    -0.46837385     0.25624936
     1.47421425    -0.33575628     0.16568696
     0.98006883    -0.20931576     0.14834892
     0.43545654    -0.05662707     0.16942927
     0.20631881     0.04220349     0.28097661
     0.02783707     0.02742140     0.07479912
    -1.25789229     0.05382804     0.88042818
    -1.60387611     0.21356853     0.42654570
    -1.48170090     0.10141731     0.52772537
    -1.67187947     0.41707934     0.06890671
    -1.47415398     0.21738045     0.32330094
    -1.16653122     0.28178802     0.06150738
    -0.72497063    -0.01584308     0.38594648
    -0.36675876     0.08515376     0.02765893
    -0.03165143     0.04101355     0.00780670
     0.00000000     0.00000000     0.00000000
     0.00000000     0.00000000     0.00000000
     0.00000000     0.00000000     0.00000000
     0.00000000     0.00000000     0.00000000
     0.00000000     0.00000000     0.00000000
     0.00000000     0.00000000     0.00000000
     0.00000000     0.00000000     0.00000000
     0.00000000     0.00000000     0.00000000
     0.06712312     0.25051047     0.11731655
     0.00000000     0.00000000     0.00000000
     0.00000000     0.00000000     0.00000000
     0.00000000     0.00000000     0.00000000
     0.00000000     0.00000000     0.00000000
     0.00000000     0.00000000     0.00000000
     0.00000000     0.00000000     0.00000000
     0.00000000     0.00000000     0.00000000
     0.00000000     0.00000000     0.00000000
     0.09355585     0.34914754     0.29954260
     0.00000000     0.00000000     0.00000000
     0.00000000     0.00000000     0.00000000
     0.00000000     0.00000000     0.00000000
     0.00000000     0.00000000     0.00000000
     0.00000000     0.00000000     0.00000000
     0.00000000     0.00000000     0.00000000
     0.00000000     0.00000000     0.00000000
     0.00000000     0.00000000     0.00000000
     0.05963041     0.22253884     0.30948769
     0.00000000     0.00000000     0.00000000
     0.00000000     0.00000000     0.00000000
     0.00000000     0.00000000     0.00000000
     0.00000000     0.00000000     0.00000000
     0.00000000     0.00000000     0.00000000
     0.00000000     0.00000000     0.00000000
     0.00000000     0.00000000     0.00000000
     0.00000000     0.00000000     0.00000000
     0.04849311     0.18098220     0.29272289
    -0.73327239    -1.06290251    -0.82831671
     2.92619451    -0.91376294    -0.23811378
     3.18463295    -0.65790571     0.35974763
     2.33182764    -0.42634804     0.36515774
     1.61977218    -0.28832679     0.26611731
     0.71081743    -0.05944951     0.24082540
     0.23836903     0.08853245     0.28063971
    -0.02978689     0.18625846     0.33371687
    -0.00144194     0.04531213     0.07617890
    -1.70105794    -0.31335258     1.36835285
    -2.09410310     0.70359123    -0.16626122
    -1.87412741    -0.25598337     0.97925543
    -2.26120466     0.78044016    -0.21839514
    -1.89737880     0.15542566     0.45779181
    -1.68237589     0.42642370     0.03436360
    -0.92933608    -0.09327733     0.44719375
    -0.67011411     0.16071421     0.02518900
    -0.07514182     0.03636701    -0.00079710
     0.00000000     0.00000000     0.00000000
     0.00000000     0.00000000     0.00000000
     0.00000000     0.00000000     0.00000000
     0.00000000     0.00000000     0.00000000
     0.00000000     0.00000000     0.00000000
     0.00000000     0.00000000     0.00000000
     0.00000000     0.00000000     0.00000000
     0.00000000     0.00000000     0.00000000
     0.02709282     0.10111589     0.04276008
     0.00000000     0.00000000     0.00000000
     0.00000000     0.00000000     0.00000000
     0.00000000     0.00000000     0.00000000
     0.00000000     0.00000000     0.00000000
     0.00000000     0.00000000     0.00000000
     0.00000000     0.00000000     0.00000000
     0.00000000     0.00000000     0.00000000
     0.00000000     0.00000000     0.00000000
     0.03588942     0.13394537     0.10187971
     0.00000000     0.00000000     0.00000000
     0.00000000     0.00000000     0.00000000
     0.00000000     0.00000000     0.00000000
     0.00000000     0.00000000     0.00000000
     0.00000000     0.00000000     0.00000000
     0.00000000     0.00000000     0.00000000
     0.00000000     0.00000000     0.00000000
     0.00000000     0.00000000     0.00000000
     0.01976338     0.07375913     0.11147726
     0.00000000     0.00000000     0.00000000
     0.00000000     0.00000000     0.00000000
     0.00000000     0.00000000     0.00000000
     0.00000000     0.00000000     0.00000000
     0.00000000     0.00000000     0.00000000
     0.00000000     0.00000000     0.00000000
     0.00000000     0.00000000     0.00000000
     0.00000000     0.00000000     0.00000000
     0.02760290     0.10301551     0.12316486
    -0.71099172    -1.76992750    -1.34923891
     4.38610709    -1.34382950    -0.22502161
     3.55238054    -0.66411362     0.37844887
     2.40711311    -0.34123112     0.39528972
     0.86646081     0.01096343     0.31812747
     0.07735513     0.16467174     0.24237620
    -0.40321675     0.36106802     0.33119316
    -0.12202997     0.22388614     0.25340717
    -0.00570286     0.03740459     0.04412532
    -1.03133988    -0.48783322     0.72082720
    -1.16754996     0.51320678    -0.16182977
    -1.10134265    -0.32457995     0.51330713
    -1.27310505     0.51959184    -0.14585959
    -1.09370872     0.00896950     0.23517686
    -0.96229966     0.26492302    -0.00349491
    -0.53928410    -0.11133102     0.21307288
    -0.39360584     0.10074538     0.00495403
    -0.06083544     0.02356669    -0.00399810
    -2.91198740    -2.25303675     1.88621130
    -2.81420247     1.45463112    -0.34904092
    -2.90018860    -0.95004904     0.91623880
    -3.03201949     1.45319102    -0.31286816
    -2.74889426    -0.05692118     0.42108792
    -2.30532903     0.74358978    -0.04851464
    -1.40488019    -0.35459678     0.38190360
    -0.88110838     0.25402171    -0.00486832
    -0.09720665     0.05333039    -0.00406940
    -1.49820288    -3.72554045     0.72064245
    -1.69240551     0.83227639    -0.09166387
    -2.47780367     0.14884218     0.12307594
    -1.65056610     1.27300795    -0.13851120
    -1.95522867     0.35646046     0.05391541
    -1.30914973     0.70107758    -0.05693678
    -1.25377303    -0.13219072     0.09505339
    -0.13305076     0.10875681    -0.00716618
     0.00595832     0.03204294     0.00632972
    -1.29402387    -4.67227338    -0.50069743
     0.76515342    -0.69280685    -0.09072757
     0.44255247     0.69788044     0.14023036
    -0.60995978     0.88408559     0.10841141
    -0.85429496     0.90509412     0.11633780
    -1.08152949     0.60468813     0.05001103
    -0.75516868     0.35479948     0.03725014
    -0.36490489     0.22093062     0.02452825
    -0.03662294     0.03176715     0.01317564
    -0.93214568    -4.02655388    -1.39753931
     5.77382802    -1.77454174    -0.11623326
     4.49127867    -0.61402481     0.29852929
     2.92445151     0.00109205     0.40024899
     0.80504670     0.32432456     0.27336034
    -0.14890139     0.47486478     0.22540392
    -0.69585542     0.65022773     0.25082784
    -0.19820079     0.38223401     0.17826553
    -0.01173845     0.05262821     0.03247789
    -0.38286321    -1.31286891    -0.71133331
     2.53804115    -0.76659060    -0.07549040
     1.97815970    -0.33393477     0.16492480
     1.34042163    -0.10883575     0.20601513
     0.40652645     0.06729887     0.14732806
    -0.00570258     0.14734217     0.12044056
    -0.27304132     0.25308728     0.15083363
    -0.06630473     0.14572587     0.10721866
    -0.00492835     0.02266601     0.01815070
     0.00000000     0.00000000     0.00000000
     0.00000000     0.00000000     0.00000000
     0.00000000     0.00000000     0.00000000
     0.00000000     0.00000000     0.00000000
     0.00000000     0.00000000     0.00000000
     0.00000000     0.00000000     0.00000000
     0.00000000     0.00000000     0.00000000
     0.00000000     0.00000000     0.00000000
     0.00000000     0.00000000     0.00000000
     0.00000000     0.00000000     0.00000000
     0.00000000     0.00000000     0.00000000
     0.00000000     0.00000000     0.00000000
     0.00000000     0.00000000     0.00000000
     0.00000000     0.00000000     0.00000000
     0.00000000     0.00000000     0.00000000
     0.00000000     0.00000000     0.00000000
     0.00000000     0.00000000     0.00000000
     0.00000000     0.00000000     0.00000000
     0.00000000     0.00000000     0.00000000
     0.00000000     0.00000000     0.00000000
     0.00000000     0.00000000     0.00000000
     0.00000000     0.00000000     0.00000000
     0.00000000     0.00000000     0.00000000
     0.00000000     0.00000000     0.00000000
     0.00000000     0.00000000     0.00000000
     0.00000000     0.00000000     0.00000000
     0.00000000     0.00000000     0.00000000
     0.00000000     0.00000000     0.00000000
     0.00000000     0.00000000     0.00000000
     0.00000000     0.00000000     0.00000000
     0.00000000     0.00000000     0.00000000
     0.00000000     0.00000000     0.00000000
     0.00000000     0.00000000     0.00000000
     0.00000000     0.00000000     0.00000000
     0.00000000     0.00000000     0.00000000
     0.00000000     0.00000000     0.00000000
     0.00000000     0.00000000     0.00000000
     0.00000000     0.00000000     0.00000000
     0.00000000     0.00000000     0.00000000
     0.00000000     0.00000000     0.00000000
     0.00000000     0.00000000     0.00000000
     0.00000000     0.00000000     0.00000000
     0.00000000     0.00000000     0.00000000
     0.00000000     0.00000000     0.00000000
     0.00000000     0.00000000     0.00000000
     0.00000000     0.00000000     0.00000000
     0.00000000     0.00000000     0.00000000
     0.00000000     0.00000000     0.00000000
     0.00000000     0.00000000     0.00000000
     0.00000000     0.00000000     0.00000000
     0.00000000     0.00000000     0.00000000
     0.00000000     0.00000000     0.00000000
     0.00000000     0.00000000     0.00000000
     0.00000000     0.00000000     0.00000000
     0.00000000     0.00000000     0.00000000
     0.00000000     0.00000000     0.00000000
     0.00000000     0.00000000     0.00000000
     0.00000000     0.00000000     0.00000000
     0.00000000     0.00000000     0.00000000
     0.00000000     0.00000000     0.00000000
     0.00000000     0.00000000     0.00000000
     0.00000000     0.00000000     0.00000000
     0.00000000     0.00000000     0.00000000
     0.00000000     0.00000000     0.00000000
     0.00000000     0.00000000     0.00000000
     0.00000000     0.00000000     0.00000000
     0.00000000     0.00000000     0.00000000
     0.00000000     0.00000000     0.00000000
     0.00000000     0.00000000     0.00000000
     0.00000000     0.00000000     0.00000000
     0.00000000     0.00000000     0.00000000
     0.00000000     0.00000000     0.00000000
     0.00000000     0.00000000     0.00000000
     0.00000000     0.00000000     0.00000000
     0.00000000     0.00000000     0.00000000
     0.00000000     0.00000000     0.00000000
     0.00000000     0.00000000     0.00000000
     0.00000000     0.00000000     0.00000000
     0.00000000     0.00000000     0.00000000
     0.00000000     0.00000000     0.00000000
     0.00000000     0.00000000     0.00000000
     0.00000000     0.00000000     0.00000000
     0.00000000     0.00000000     0.00000000
     0.00000000     0.00000000     0.00000000
     0.00000000     0.00000000     0.00000000
     0.00000000     0.00000000     0.00000000
     0.00000000     0.00000000     0.00000000
     0.00000000     0.00000000     0.00000000
     0.00000000     0.00000000     0.00000000
     0.00000000     0.00000000     0.00000000
     0.00000000     0.00000000     0.00000000
     0.00000000     0.00000000     0.00000000
     0.00000000     0.00000000     0.00000000
     0.00000000     0.00000000     0.00000000
     0.00000000     0.00000000     0.00000000
     0.00000000     0.00000000     0.00000000
     0.00000000     0.00000000     0.00000000
     0.00000000     0.00000000     0.00000000
     0.00000000     0.00000000     0.00000000
     0.00000000     0.00000000     0.00000000
     0.00000000     0.00000000     0.00000000
     0.00000000     0.00000000     0.00000000
     0.00000000     0.00000000     0.00000000
     0.00000000     0.00000000     0.00000000
     0.00000000     0.00000000     0.00000000
     0.00000000     0.00000000     0.00000000
     0.00000000     0.00000000     0.00000000
     0.00000000     0.00000000     0.00000000
     0.00000000     0.00000000     0.00000000
     0.00000000     0.00000000     0.00000000
     0.00000000     0.00000000     0.00000000
     0.00000000     0.00000000     0.00000000
     0.00000000     0.00000000     0.00000000
     0.00000000     0.00000000     0.00000000
     0.00000000     0.00000000     0.00000000
     0.00000000     0.00000000     0.00000000
     0.00000000     0.00000000     0.00000000
     0.00000000     0.00000000     0.00000000
     0.00000000     0.00000000     0.00000000
     0.00000000     0.00000000     0.00000000
     0.00000000     0.00000000     0.00000000
     0.00000000     0.00000000     0.00000000
     0.00000000     0.00000000     0.00000000
     0.00000000     0.00000000     0.00000000
     0.00000000     0.00000000     0.00000000
     0.00000000     0.00000000     0.00000000
     0.00000000     0.00000000     0.00000000
     0.00000000     0.00000000     0.00000000
     0.00000000     0.00000000     0.00000000
     0.00000000     0.00000000     0.00000000
     0.00000000     0.00000000     0.00000000
     0.00000000     0.00000000     0.00000000
     0.00000000     0.00000000     0.00000000
     0.00000000     0.00000000     0.00000000
     0.00000000     0.00000000     0.00000000
     0.00000000     0.00000000     0.00000000
     0.00000000     0.00000000     0.00000000
     0.00000000     0.00000000     0.00000000
     0.00000000     0.00000000     0.00000000
     0.00000000     0.00000000     0.00000000
     0.00000000     0.00000000     0.00000000
     0.00000000     0.00000000     0.00000000
     0.00000000     0.00000000     0.00000000
     0.00000000     0.00000000     0.00000000
     0.00000000     0.00000000     0.00000000
     0.00000000     0.00000000     0.00000000
     0.00000000     0.00000000     0.00000000
     0.00000000     0.00000000     0.00000000
     0.00000000     0.00000000     0.00000000
     0.00000000     0.00000000     0.00000000
     0.00000000     0.00000000     0.00000000
     0.00000000     0.00000000     0.00000000
     0.00000000     0.00000000     0.00000000
     0.00000000     0.00000000     0.00000000
     0.00000000     0.00000000     0.00000000
     0.00000000     0.00000000     0.00000000
     0.00000000     0.00000000     0.00000000
     0.00000000     0.00000000     0.00000000
     0.00000000     0.00000000     0.00000000
     0.00000000     0.00000000     0.00000000
     0.00000000     0.00000000     0.00000000
     0.00000000     0.00000000     0.00000000
     0.00000000     0.00000000     0.00000000
     0.00000000     0.00000000     0.00000000
     0.00000000     0.00000000     0.00000000
     0.00000000     0.00000000     0.00000000
     0.00000000     0.00000000     0.00000000
     0.00000000     0.00000000     0.00000000
     0.00000000     0.00000000     0.00000000
     0.00000000     0.00000000     0.00000000
     0.00000000     0.00000000     0.00000000
     0.00000000     0.00000000     0.00000000
     0.00000000     0.00000000     0.00000000
     0.00000000     0.00000000     0.00000000
     0.00000000     0.00000000     0.00000000
     0.00000000     0.00000000     0.00000000
     0.00000000     0.00000000     0.00000000
     0.00000000     0.00000000     0.00000000
     0.00000000     0.00000000     0.00000000
     0.00000000     0.00000000     0.00000000
     0.00000000     0.00000000     0.00000000
     0.00000000     0.00000000     0.00000000
     0.00000000     0.00000000     0.00000000
     0.00000000     0.00000000     0.00000000
     0.00000000     0.00000000     0.00000000
     0.00000000     0.00000000     0.00000000
     0.00000000     0.00000000     0.00000000
     0.00000000     0.00000000     0.00000000
     0.00000000     0.00000000     0.00000000
     0.00000000     0.00000000     0.00000000
     0.00000000     0.00000000     0.00000000
     0.00000000     0.00000000     0.00000000
     0.00000000     0.00000000     0.00000000
     0.00000000     0.00000000     0.00000000
     0.00000000     0.00000000     0.00000000
     0.00000000     0.00000000     0.00000000
     0.00000000     0.00000000     0.00000000
     0.00000000     0.00000000     0.00000000
     0.00000000     0.00000000     0.00000000
     0.00000000     0.00000000     0.00000000
     0.00000000     0.00000000     0.00000000
     0.00000000     0.00000000     0.00000000
     0.00000000     0.00000000     0.00000000
     0.00000000     0.00000000     0.00000000
     0.00000000     0.00000000     0.00000000
     0.00000000     0.00000000     0.00000000
     0.00000000     0.00000000     0.00000000
     0.00000000     0.00000000     0.00000000
     0.00000000     0.00000000     0.00000000
     0.00000000     0.00000000     0.00000000
     0.00000000     0.00000000     0.00000000
     0.00000000     0.00000000     0.00000000
     0.00000000     0.00000000     0.00000000
     0.00000000     0.00000000     0.00000000
     0.00000000     0.00000000     0.00000000
     0.00000000     0.00000000     0.00000000
     0.00000000     0.00000000     0.00000000
     0.00000000     0.00000000     0.00000000
     0.00000000     0.00000000     0.00000000
     0.00000000     0.00000000     0.00000000
     0.00000000     0.00000000     0.00000000
     0.00000000     0.00000000     0.00000000
     0.00000000     0.00000000     0.00000000
     0.00000000     0.00000000     0.00000000
     0.00000000     0.00000000     0.00000000
     0.00000000     0.00000000     0.00000000
     0.00000000     0.00000000     0.00000000
     0.00000000     0.00000000     0.00000000
     0.00000000     0.00000000     0.00000000
     0.00000000     0.00000000     0.00000000
     0.00000000     0.00000000     0.00000000
     0.00000000     0.00000000     0.00000000
     0.00000000     0.00000000     0.00000000
     0.00000000     0.00000000     0.00000000
     0.00000000     0.00000000     0.00000000
     0.00000000     0.00000000     0.00000000
     0.00000000     0.00000000     0.00000000
     0.00000000     0.00000000     0.00000000
     0.00000000     0.00000000     0.00000000
     0.00000000     0.00000000     0.00000000
     0.00000000     0.00000000     0.00000000
     0.00000000     0.00000000     0.00000000
     0.00000000     0.00000000     0.00000000
     0.00000000     0.00000000     0.00000000
     0.00000000     0.00000000     0.00000000
     0.00000000     0.00000000     0.00000000
     0.00000000     0.00000000     0.00000000
     0.00000000     0.00000000     0.00000000
     0.00000000     0.00000000     0.00000000
     0.00000000     0.00000000     0.00000000
     0.00000000     0.00000000     0.00000000
     0.00000000     0.00000000     0.00000000
     0.00000000     0.00000000     0.00000000
     0.00000000     0.00000000     0.00000000
     0.00000000     0.00000000     0.00000000
     0.00000000     0.00000000     0.00000000
     0.00000000     0.00000000     0.00000000
     0.00000000     0.00000000     0.00000000
     0.00000000     0.00000000     0.00000000
     0.00000000     0.00000000     0.00000000
     0.00000000     0.00000000     0.00000000
     0.00000000     0.00000000     0.00000000
     0.00000000     0.00000000     0.00000000
     0.00000000     0.00000000     0.00000000
     0.00000000     0.00000000     0.00000000
     0.00000000     0.00000000     0.00000000
     0.00000000     0.00000000     0.00000000
     0.00000000     0.00000000     0.00000000
     0.00000000     0.00000000     0.00000000
     0.00000000     0.00000000     0.00000000
     0.00000000     0.00000000     0.00000000
     0.00000000     0.00000000     0.00000000
     0.00000000     0.00000000     0.00000000
     0.00000000     0.00000000     0.00000000
     0.00000000     0.00000000     0.00000000
     0.00000000     0.00000000     0.00000000
SCALARS Pressures float
LOOKUP_TABLE default
   751.86413264
  1500.55556226
  1493.71600628
  1492.46975619
  1491.96826369
  1490.71557808
  1487.96205187
  1492.76789093
  2015.31723531
  1509.31339431
  3003.48307166
  2987.08391425
  2985.11463374
  2984.03441122
  2980.72592160
  2977.85498190
  2983.67107868
  2991.18013382
  1510.91263008
  3004.94597802
  2986.87287804
  2985.07310128
  2983.90771469
  2980.33841392
  2977.02117443
  2978.74684334
  2956.83462620
  1511.16139126
  3005.17838216
  2986.76951790
  2984.84996599
  2983.73158866
  2981.27773917
  2977.69726610
  2978.12747955
  2965.31573868
  1512.12294006
  3006.39160299
  2987.10919118
  2984.71892935
  2983.57040280
  2982.53130949
  2982.43077469
  2989.02888584
  2980.04053020
  1512.54816484
  3007.29133511
  2987.62358975
  2985.01296425
  2983.31890750
  2982.62059474
  2984.32178426
  2995.70052528
  2985.42570734
  1512.28779876
  3007.12072790
  2988.27756393
  2985.23974359
  2983.44470501
  2981.58464670
  2981.02585125
  2983.70799589
  2985.90007830
  1511.11569250
  3006.54791343
  2988.87385702
  2985.72128987
  2983.42943454
  2981.49622893
  2977.31158137
  2972.54973173
  2978.24969482
  1511.12651277
  3006.25040084
  2989.42487878
  2986.95570803
  2984.56686056
  2983.04184341
  2978.54151106
  2973.41279888
  2975.85483360
  1508.59592271
  3004.35443658
  2990.13315529
  2988.00885475
  2986.47239053
  2986.58616400
  2985.26769257
  2983.03144741
  2991.79835129
   754.42055130
  1501.59086692
  1495.08351600
  1494.25047016
  1493.52878571
  1494.49485683
  1495.47194290
  1495.41584778
  2002.46884155
   752.36290181
  1501.06124407
  1493.84919661
  1492.47198027
  1491.87837452
  1490.01780510
  1487.53823325
  1492.35868070
  2016.03483327
  1508.61670220
  3003.30048870
  2987.44573085
  2985.03593659
  2983.79243968
  2979.54429726
  2976.37376544
  2982.48262212
  2991.40964317
  1509.34131861
  3004.04502420
  2987.35113393
  2984.94466168
  2983.68913786
  2979.59355702
  2975.71027943
  2977.11721659
  2955.08553743
  1509.71959412
  3004.44774985
  2987.26764959
  2984.75941023
  2983.58206132
  2980.77221987
  2977.06269428
  2976.13516521
  2964.01040649
  1510.53216755
  3005.32342267
  2987.50185376
  2984.64031777
  2983.50704226
  2982.01071614
  2981.73493147
  2987.83052969
  2981.04688215
  1510.79831183
  3006.06704175
  2987.97585833
  2984.92341912
  2983.30824286
  2982.27712804
  2983.63069487
  2994.89471006
  2985.60006618
  1510.46595591
  3005.98604971
  2988.67907909
  2985.17089519
  2983.30410284
  2981.40139599
  2980.44882937
  2982.80134487
  2985.38036346
  1509.46916342
  3005.65374148
  2989.35250333
  2985.61132529
  2983.19363141
  2981.16638644
  2976.94763823
  2971.38795710
  2977.36281681
  1509.50557345
  3005.37849125
  2989.81630424
  2986.67752802
  2984.18219805
  2982.29956007
  2977.91665101
  2971.39036846
  2973.34760475
  1508.14091143
  3004.26581177
  2990.29134363
  2987.68947852
  2985.95583040
  2985.41313088
  2983.57234430
  2980.53366756
  2989.35316563
   754.53676566
  1501.94060165
  1495.13551810
  1494.11418682
  1493.27135015
  1493.85012817
  1494.23821259
  1493.93598175
  2001.13278071
   752.58651075
  1501.18981788
  1494.04755962
  1492.47658738
  1491.65715656
  1489.26477861
  1486.93631980
  1490.39705440
  2014.84756311
  1507.74563000
  3002.93176636
  2988.02523103
  2984.98475361
  2983.29144982
  2978.55632728
  2975.57264385
  2981.33562347
  2991.94207454
  1507.89296281
  3003.21022600
  2988.09650972
  2984.85642543
  2983.19290733
  2979.03726307
  2976.01482496
  2978.70642662
  2955.97833633
  1508.11064637
  3003.54436737
  2988.02173659
  2984.70463321
  2983.15036994
  2979.96226248
  2976.77083728
  2975.93126106
  2965.68211365
  1508.65116465
  3004.02142370
  2988.12642810
  2984.64164600
  2983.22798246
  2981.10156876
  2980.22041893
  2985.69460917
  2985.04538250
  1508.80298007
  3004.43180048
  2988.44857895
  2984.88556314
  2983.16026586
  2981.74081153
  2982.21272600
  2992.54828882
  2986.18197751
  1508.77730292
  3004.55117065
  2989.03722081
  2985.10063177
  2983.06056479
  2981.14459927
  2979.66537108
  2981.65028644
  2984.14190030
  1508.16146433
  3004.46268964
  2989.63249102
  2985.48028570
  2982.87749085
  2980.52798624
  2976.56937923
  2969.61217856
  2975.09719276
  1508.27097970
  3004.37605959
  2989.99876046
  2986.30283898
  2983.51574033
  2980.71226919
  2976.70212805
  2968.09457731
  2968.42364120
  1507.68317160
  3003.96078360
  2990.30513272
  2987.10008007
  2984.85804376
  2982.68199143
  2979.68370461
  2975.49339342
  2984.58793068
   754.32497153
  1501.98270965
  1495.12669161
  1493.77718616
  1492.68326876
  1492.20890006
  1491.27022815
  1490.37779140
  1998.35514196
   751.77849266
  1500.86584499
  1494.21983463
  1492.46813514
  1491.47115006
  1489.53216279
  1486.98713779
  1489.02462935
  2009.39939721
  1507.12368819
  3002.63255134
  2988.33282581
  2985.00844430
  2982.90190461
  2979.22329894
  2976.42946187
  2980.67452979
  2993.52797484
  1507.50788713
  3003.07845962
  2988.43405154
  2984.87764469
  2982.74853647
  2979.47935107
  2977.44068709
  2982.43170285
  2964.13603568
  1507.63632137
  3003.28415251
  2988.34472567
  2984.73657781
  2982.71540737
  2979.68301708
  2977.70252395
  2979.22263551
  2971.19702888
  1508.17534477
  3003.56815326
  2988.39925408
  2984.72161365
  2982.92327237
  2980.54766911
  2980.05947697
  2984.49429667
  2988.76298141
  1508.02932650
  3003.75637275
  2988.63001347
  2984.90069616
  2982.93286598
  2981.56132400
  2981.32224393
  2989.72327054
  2986.01415586
  1508.16725534
  3003.87879258
  2988.92849839
  2985.03888014
  2982.89590660
  2981.26185411
  2979.07683426
  2979.95210481
  2982.57639313
  1507.79831636
  3003.86423516
  2989.28865707
  2985.32868865
  2982.84237340
  2980.31434232
  2976.34203964
  2968.98233485
  2974.11181498
  1507.92561865
  3003.89338553
  2989.60899496
  2985.94394577
  2983.19352973
  2979.79806995
  2975.95955646
  2966.79211998
  2967.54710221
  1507.32662648
  3003.48455840
  2989.95182224
  2986.45687677
  2984.00954814
  2980.29450081
  2976.04418895
  2969.92482400
  2981.50838208
   754.35968035
  1501.73723418
  1494.95741065
  1493.38106431
  1492.16970427
  1490.45737611
  1488.31676576
  1485.83274102
  1995.04972839
   751.84713465
  1500.76526112
  1494.25473040
  1492.38355698
  1491.42969392
  1489.88022961
  1487.79487014
  1488.55137157
  2001.95327250
  1506.79960093
  3002.22598097
  2988.35497320
  2984.84477600
  2982.75682114
  2979.77257316
  2977.00154176
  2979.20483410
  2993.14096832
  1507.20933369
  3002.63730535
  2988.37656373
  2984.78104573
  2982.58830577
  2979.85588613
  2977.94853726
  2981.64168298
  2974.25940442
  1507.36230433
  3002.90815660
  2988.31386746
  2984.72195040
  2982.65513843
  2980.02235377
  2979.61438227
  2982.31487775
  2976.20886469
  1507.58815451
  3002.94628929
  2988.34538312
  2984.70469837
  2982.90712351
  2980.60351048
  2981.28833668
  2986.91285241
  2990.60319972
  1507.28901501
  3002.94873376
  2988.48328108
  2984.81423083
  2982.91696277
  2981.50498776
  2980.97765528
  2987.07913518
  2987.85806513
  1507.62204224
  3003.18917662
  2988.65771724
  2984.95530973
  2982.92389311
  2981.54685722
  2978.99107903
  2978.27235138
  2983.71093416
  1507.51357654
  3003.26175895
  2988.90283131
  2985.12192925
  2983.00162716
  2980.76337360
  2976.22664213
  2969.29204321
  2978.65123415
  1507.43243858
  3003.22220728
  2989.16313720
  2985.48018966
  2983.15906081
  2980.08474874
  2974.82060790
  2964.97609878
  2972.93690681
  1507.01610779
  3002.87707626
  2989.46230756
  2985.80661850
  2983.55780856
  2979.66152103
  2973.62356135
  2963.99192691
  2980.32446194
   754.28150092
  1501.46146690
  1494.71972890
  1493.00470449
  1491.88028096
  1489.75357713
  1486.60035178
  1481.52846003
  1990.94425964
   501.63242301
  1000.40769474
   996.12168256
   994.87320940
   994.29527698
   993.27043917
   992.24912643
   991.93208186
  1498.53783417
   753.46153769
  1500.96624312
  1494.14360470
  1492.34246558
  1491.37113227
  1489.92426505
  1488.69844925
  1489.21884501
  1994.31398900
   753.70940581
  1501.19703653
  1494.12432700
  1492.35171545
  1491.29739612
  1489.98944807
  1489.32298291
  1490.17261183
  1985.91130765
   753.69773084
  1501.30981269
  1494.10798775
  1492.35557856
  1491.37383401
  1490.16824889
  1490.46863437
  1491.95207787
  1985.78854974
   753.59327687
  1501.27193855
  1494.12529896
  1492.34387763
  1491.48999274
  1490.41234873
  1490.92973451
  1494.79707813
  1994.47864501
   753.53843917
  1501.20278729
  1494.13778311
  1492.38216081
  1491.49557355
  1490.71764462
  1490.39833461
  1492.85970604
  1993.51823235
   753.91003329
  1501.43586892
  1494.22614254
  1492.46603797
  1491.50680096
  1490.82052974
  1489.64371210
  1489.02318609
  1990.46148936
   753.96540734
  1501.48042867
  1494.33109044
  1492.52284595
  1491.55783047
  1490.55874555
  1488.16213417
  1484.80879569
  1988.53152339
   753.83548257
  1501.45159051
  1494.44903786
  1492.63940886
  1491.58250365
  1490.22030962
  1486.91728401
  1481.59458709
  1984.52434381
   753.52970283
  1501.26470797
  1494.59085205
  1492.76477066
  1491.68666905
  1489.92896277
  1486.32457900
  1480.54255247
  1986.60002740
   502.56040277
  1000.74903224
   996.39366635
   995.21583279
   994.51585086
   993.20320177
   990.73543072
   986.46060340
  1491.52696991
  2949.81355238
  2973.45543098
  2952.25704575
  2952.40963364
  2953.00199127
  2952.66717148
  2954.21206856
  2954.22031212
  2955.12499428
  2954.84116554
  2934.00427246
  2999.17607069
  2980.20185661
  2950.24840260
  2950.89914608
  2951.53374863
  2952.35066128
  2953.32228374
  2954.08202934
  2954.69244099
  2954.75362444
  2953.19450855
  2997.97759438
  2978.28975391
  2945.54668713
  2945.84854221
  2947.04034615
  2949.09896946
  2951.62164688
  2953.68126631
  2954.76040077
  2955.29480124
  2955.86350822
  2992.90695381
  2976.08063173
  2943.35247087
  2940.21102905
  2941.98473549
  2947.34550667
  2952.19505310
  2955.24250937
  2956.56678438
  2957.07881641
  2957.61268234
  3015.83542013
  2995.47734261
  2957.74532747
  2951.62288284
  2949.63923645
  2952.27112007
  2955.69566631
  2957.84909248
  2958.83112651
  2958.83632356
  2957.19318867
  3039.03427410
  3008.42464733
  2971.63932800
  2965.13213348
  2959.32418823
  2956.01501465
  2957.81202126
  2958.63195229
  2959.78959811
  2959.43853343
  2938.50328445
  2993.38406754
  2972.01835155
  2952.34816837
  2951.91541672
  2952.67722416
  2952.61334038
  2954.11035347
  2954.16915512
  2955.03343821
  2954.76937056
  2932.71961594
  2997.82624435
  2978.99247265
  2949.98569822
  2950.60983372
  2951.33906651
  2952.23056841
  2953.26227236
  2954.02186179
  2954.63252950
  2954.69081378
  2952.83676863
  2997.36297989
  2977.35284281
  2944.80518532
  2945.51579666
  2946.92298985
  2949.15861177
  2951.69810581
  2953.68115211
  2954.70659673
  2955.21432459
  2955.86642647
  2991.79927540
  2975.27227426
  2942.34945321
  2940.02786541
  2942.47036028
  2947.76639938
  2952.37297440
  2955.18135929
  2956.40120137
  2956.87399900
  2957.50203276
  3014.60700727
  2994.67576933
  2956.99941087
  2951.25470924
  2949.72009182
  2952.35627937
  2955.65684938
  2957.62665808
  2958.55332986
  2958.54021004
  2956.65688705
  3038.07300234
  3007.54608202
  2971.28705788
  2964.18103027
  2958.34453392
  2955.64918709
  2957.54977036
  2958.37833333
  2959.48582965
  2959.14881426
  2937.08864021
  2986.99494791
  2968.59623718
  2952.00738621
  2950.84877014
  2952.17014408
  2952.50295162
  2953.91165257
  2954.04085827
  2954.83846045
  2954.63293362
  2934.79629040
  2994.36261964
  2975.67108440
  2949.13038349
  2949.83018064
  2950.86454391
  2952.00504017
  2953.14243126
  2953.94221306
  2954.52603722
  2954.58428955
  2952.48492813
  2995.43368578
  2974.68705702
  2943.32310915
  2944.85262966
  2946.83629942
  2949.39291859
  2951.88569117
  2953.69165373
  2954.59151196
  2955.02871799
  2955.67511511
  2989.75261736
  2973.72671890
  2940.87698507
  2940.26022482
  2943.82344341
  2948.82806158
  2952.66640949
  2954.96772814
  2955.96384907
  2956.38147140
  2957.01281023
  3012.49068785
  2993.13411999
  2955.43309164
  2950.31864166
  2949.84783268
  2952.63832903
  2955.42854875
  2957.04758841
  2957.84164774
  2957.86476111
  2955.68673277
  3034.61322117
  3005.44298458
  2969.50505066
  2961.01050186
  2956.16243362
  2954.89924335
  2956.92245090
  2957.69946015
  2958.72500730
  2958.48836994
  2938.52450943
  2980.59273911
  2966.92568970
  2950.52679443
  2950.13845444
  2951.53639030
  2952.45916653
  2953.57586193
  2954.07138109
  2954.64259076
  2954.55954170
  2948.27799463
  2989.54408264
  2971.23963165
  2947.43120861
  2948.75678349
  2950.33591461
  2951.75975561
  2953.03287578
  2953.92655587
  2954.47787952
  2954.52323055
  2953.79450417
  2993.09494352
  2971.63463926
  2942.01402235
  2944.55448961
  2947.13951254
  2949.81273317
  2952.13847768
  2953.72465551
  2954.53446686
  2954.85866868
  2955.11472750
  2991.05875468
  2973.88568592
  2940.49208736
  2941.68513632
  2945.80160284
  2949.92820168
  2952.88426125
  2954.66361487
  2955.53662515
  2955.87354577
  2956.14026809
  3012.14618993
  2992.10137987
  2953.49073935
  2949.02530718
  2950.08221865
  2952.72069508
  2954.98646998
  2956.33514982
  2957.08429790
  2957.15713477
  2956.45911765
  3029.86933136
  3004.14709282
  2965.68972588
  2956.41420841
  2953.70481777
  2954.15010846
  2955.99148321
  2957.01065028
  2957.85111094
  2957.79759598
  2951.55614042
  2978.00899315
  2965.79465115
  2947.99333203
  2949.09806395
  2950.85331249
  2952.15525150
  2953.30383754
  2954.11028910
  2954.56174505
  2954.53567982
  2962.46069312
  2988.45837903
  2967.45949870
  2945.36522490
  2947.74283886
  2949.71668029
  2951.44146907
  2952.89289391
  2953.91270405
  2954.47689822
  2954.55837628
  2956.29356289
  2996.01855445
  2969.72903275
  2941.27433395
  2944.50348592
  2947.36779821
  2950.11063814
  2952.30675387
  2953.73145843
  2954.51748574
  2954.87472931
  2954.64244920
  2999.72445178
  2975.45960569
  2940.38993406
  2943.34893084
  2947.16626942
  2950.54507124
  2952.91150010
  2954.41917294
  2955.25865731
  2955.63634044
  2955.41443068
  3014.74511170
  2990.15533209
  2949.85202789
  2947.76649803
  2949.79600433
  2952.46762601
  2954.40967405
  2955.77120274
  2956.52366233
  2956.65642658
  2958.27541929
  3023.17066383
  2999.72517204
  2958.73573780
  2951.45449245
  2951.41501814
  2953.33869916
  2955.12790537
  2956.45185745
  2957.17293012
  2957.20855814
  2964.88044298
  2977.62856293
  2964.34912515
  2946.50855660
  2948.19555950
  2950.62167549
  2951.83856392
  2953.27061796
  2954.04153442
  2954.57334733
  2954.52056789
  2966.52301836
  2990.07741404
  2965.99881423
  2944.40580571
  2947.31195068
  2949.34623480
  2951.26303172
  2952.80263782
  2953.89502823
  2954.47749382
  2954.61086744
  2957.48894501
  2999.96622801
  2969.14696932
  2941.10315800
  2944.42020082
  2947.32353663
  2950.16339302
  2952.33336997
  2953.71587539
  2954.49626899
  2954.95570928
  2954.53632891
  3006.14503193
  2976.13736057
  2940.20322800
  2944.00333691
  2947.42023492
  2950.70257020
  2952.83640099
  2954.32636321
  2955.13614410
  2955.61935055
  2955.18256247
  3016.80062485
  2988.50194836
  2947.33526611
  2947.23312938
  2949.32228953
  2952.32908124
  2954.08547318
  2955.56305897
  2956.28649116
  2956.48400933
  2958.88548338
  3018.71737671
  2995.37461090
  2954.16733742
  2948.87164474
  2950.38038838
  2952.89230859
  2954.83022666
  2956.15662026
  2956.91159177
  2956.93956912
  2968.02362800
  2779.21934509
  2770.70262146
  2776.31241608
  2792.83274841
  2810.77138138
  2822.46197510
  2826.19237089
  2756.18402004
  2876.82774353
  2773.22714233
  2762.85905838
  2769.30490494
  2785.65972900
  2804.83455849
  2818.94575119
  2824.79597068
  2820.94681120
  2855.34446335
  2750.81120300
  2737.28365803
  2746.72097874
  2772.81257248
  2796.59227753
  2813.19525146
  2822.35607719
  2826.17305374
  2852.18956757
  2747.24069595
  2717.57356358
  2734.01097965
  2771.84248734
  2798.09293365
  2812.65396404
  2821.54260826
  2826.14464378
  2944.12909317
  2835.74525070
  2763.48789978
  2757.08527374
  2782.45805359
  2803.47814941
  2815.43045521
  2821.53623533
  2817.62307453
  3044.96530151
  2911.39657593
  2811.38049316
  2777.29315186
  2788.36956787
  2805.05725098
  2816.51395798
  2821.29983807
  2749.59336662
  2894.68961716
  2768.25801086
  2768.42022705
  2775.16366577
  2791.66209030
  2810.82774162
  2821.61478901
  2826.13844371
  2763.75092649
  2872.76419449
  2765.13051605
  2760.14486504
  2768.03790665
  2784.47945595
  2803.87950420
  2818.22698021
  2824.35147464
  2820.60359359
  2851.75901985
  2744.86141014
  2732.98705244
  2744.96430731
  2772.32992935
  2795.41966438
  2812.14339876
  2821.24739265
  2825.60246944
  2847.41856194
  2741.20154953
  2716.09886312
  2735.47781897
  2772.49661827
  2797.60689354
  2811.46604919
  2819.98769617
  2824.54162693
  2944.76259422
  2835.22578239
  2763.18511200
  2758.49266052
  2783.26873779
  2803.35168266
  2814.59652805
  2820.35264421
  2817.76946878
  3047.36733246
  2915.76826477
  2808.27709961
  2775.04615021
  2788.90727615
  2805.39764023
  2815.70858383
  2820.66017580
  2760.20436192
  2883.83648872
  2749.13505650
  2765.96328831
  2773.42800522
  2788.50622177
  2809.51763439
  2819.77239990
  2825.55602932
  2766.51893997
  2866.62967968
  2747.79816103
  2753.73020983
  2765.09456444
  2781.72941875
  2801.90269327
  2816.41922140
  2823.38295698
  2818.96395016
  2845.11769295
  2730.41654968
  2725.28609371
  2743.52648449
  2772.46558475
  2793.70189762
  2810.05473137
  2819.16865468
  2822.96532679
  2840.39210701
  2730.17428017
  2715.93862820
  2741.58220196
  2774.83151817
  2796.94514370
  2809.20956659
  2817.07617927
  2821.54237032
  2948.19020653
  2832.39786720
  2761.39773941
  2761.56054688
  2785.30703735
  2802.82526588
  2812.74916673
  2817.96534801
  2811.74687290
  3056.40871429
  2918.81900787
  2799.99327850
  2770.24853516
  2790.92959213
  2804.87628746
  2814.12262011
  2818.90576220
  2754.93069839
  2892.34538078
  2737.44227695
  2762.33204746
  2770.33236313
  2783.88920975
  2806.21643448
  2817.62013054
  2824.64492702
  2739.12795448
  2864.44626713
  2731.74402285
  2746.65628290
  2761.13765144
  2779.19666100
  2800.08525085
  2814.42499924
  2822.35375452
  2811.17013264
  2838.28493881
  2716.92143822
  2722.95217800
  2747.30503178
  2774.76107693
  2794.12540340
  2809.32983446
  2817.95759064
  2823.30212033
  2840.73791504
  2726.68328476
  2722.30677128
  2750.78749180
  2778.85105991
  2797.41566753
  2808.57293081
  2815.55874652
  2820.75310647
  2951.57994652
  2825.10198784
  2755.57605362
  2764.41612053
  2786.70245790
  2801.88804698
  2811.23663139
  2816.15725183
  2806.49069738
  3061.70678711
  2904.63451385
  2781.46240234
  2769.92438126
  2790.72083759
  2803.24149847
  2812.75720215
  2817.04960990
  2734.86711168
  2887.88637543
  2729.03052902
  2751.29172897
  2762.51403856
  2779.81504869
  2802.18756557
  2815.13497996
  2823.40184285
  2750.20799020
  2860.56616688
  2722.48859119
  2739.31392002
  2757.49059129
  2777.82244229
  2798.89617240
  2813.13139045
  2821.45402087
  2810.12060620
  2840.09399319
  2712.29234219
  2724.61094403
  2752.87994123
  2777.27470428
  2796.02547151
  2810.51456738
  2817.85205477
  2821.48563898
  2854.56464195
  2731.50085640
  2728.36181664
  2757.40303445
  2781.68486434
  2798.42088133
  2809.69235349
  2815.73703605
  2820.44871294
  2955.53651810
  2810.93032074
  2745.40805817
  2765.84661298
  2785.85703854
  2801.24674129
  2810.40318732
  2815.54199462
  2796.73321725
  3048.88578033
  2867.49695969
  2755.97826004
  2770.17989549
  2787.06392106
  2802.09788370
  2811.32300147
  2815.80782781
  2725.50706437
  2873.42854309
  2724.14994049
  2743.70810699
  2757.20444584
  2778.37268925
  2800.09342909
  2813.80689573
  2822.54137376
  2783.88011843
  2856.79851341
  2720.05156898
  2735.34502220
  2756.12410021
  2777.41121721
  2798.50277972
  2812.74301600
  2821.05946805
  2815.56847146
  2845.67991829
  2712.66329002
  2725.19927263
  2754.99515200
  2778.11113799
  2796.95688021
  2811.38738251
  2817.98752952
  2817.26580572
  2865.79011154
  2734.82130051
  2729.36318445
  2759.45083094
  2782.17989600
  2798.77986157
  2810.37984419
  2816.07615352
  2819.53734350
  2958.89746094
  2801.74608612
  2739.57716370
  2766.08203134
  2784.84381399
  2801.14270449
  2810.06884441
  2815.53112851
  2786.06292250
  3037.40605164
  2843.22295380
  2743.84456635
  2768.20895022
  2785.10036677
  2801.72731590
  2810.47362918
  2815.30744668
  2720.32594495
     0.00000000
     0.00000000
     0.00000000
     0.00000000
     0.00000000
     0.00000000
     0.00000000
     0.00000000
     0.00000000
     0.00000000
     0.00000000
     0.00000000
     0.00000000
     0.00000000
     0.00000000
     0.00000000
     0.00000000
     0.00000000
     0.00000000
     0.00000000
     0.00000000
     0.00000000
     0.00000000
     0.00000000
     0.00000000
     0.00000000
     0.00000000
     0.00000000
     0.00000000
     0.00000000
     0.00000000
     0.00000000
     0.00000000
     0.00000000
     0.00000000
     0.00000000
     0.00000000
     0.00000000
     0.00000000
     0.00000000
     0.00000000
     0.00000000
     0.00000000
     0.00000000
     0.00000000
     0.00000000
     0.00000000
     0.00000000
     0.00000000
     0.00000000
     0.00000000
     0.00000000
     0.00000000
     0.00000000
     0.00000000
     0.00000000
     0.00000000
     0.00000000
     0.00000000
     0.00000000
     0.00000000
     0.00000000
     0.00000000
     0.00000000
     0.00000000
     0.00000000
     0.00000000
     0.00000000
     0.00000000
     0.00000000
     0.00000000
     0.00000000
     0.00000000
     0.00000000
     0.00000000
     0.00000000
     0.00000000
     0.00000000
     0.00000000
     0.00000000
     0.00000000
     0.00000000
     0.00000000
     0.00000000
     0.00000000
     0.00000000
     0.00000000
     0.00000000
     0.00000000
     0.00000000
     0.00000000
     0.00000000
     0.00000000
     0.00000000
     0.00000000
     0.00000000
     0.00000000
     0.00000000
     0.00000000
     0.00000000
     0.00000000
     0.00000000
     0.00000000
     0.00000000
     0.00000000
     0.00000000
     0.00000000
     0.00000000
     0.00000000
     0.00000000
     0.00000000
     0.00000000
     0.00000000
     0.00000000
     0.00000000
     0.00000000
     0.00000000
     0.00000000
     0.00000000
     0.00000000
     0.00000000
     0.00000000
     0.00000000
     0.00000000
     0.00000000
     0.00000000
     0.00000000
     0.00000000
     0.00000000
     0.00000000
     0.00000000
     0.00000000
     0.00000000
     0.00000000
     0.00000000
     0.00000000
     0.00000000
     0.00000000
     0.00000000
     0.00000000
     0.00000000
     0.00000000
     0.00000000
     0.00000000
     0.00000000
     0.00000000
     0.00000000
     0.00000000
     0.00000000
     0.00000000
     0.00000000
     0.00000000
     0.00000000
     0.00000000
     0.00000000
     0.00000000
     0.00000000
     0.00000000
     0.00000000
     0.00000000
     0.00000000
     0.00000000
     0.00000000
     0.00000000
     0.00000000
     0.00000000
     0.00000000
     0.00000000
     0.00000000
     0.00000000
     0.00000000
     0.00000000
     0.00000000
     0.00000000
     0.00000000
     0.00000000
     0.00000000
     0.00000000
     0.00000000
     0.00000000
     0.00000000
     0.00000000
     0.00000000
     0.00000000
     0.00000000
     0.00000000
     0.00000000
     0.00000000
     0.00000000
     0.00000000
     0.00000000
     0.00000000
     0.00000000
     0.00000000
     0.00000000
     0.00000000
     0.00000000
     0.00000000
     0.00000000
     0.00000000
     0.00000000
     0.00000000
     0.00000000
     0.00000000
     0.00000000
     0.00000000
     0.00000000
     0.00000000
     0.00000000
     0.00000000
     0.00000000
     0.00000000
     0.00000000
     0.00000000
     0.00000000
     0.00000000
     0.00000000
     0.00000000
     0.00000000
     0.00000000
     0.00000000
     0.00000000
     0.00000000
     0.00000000
     0.00000000
     0.00000000
     0.00000000
     0.00000000
     0.00000000
     0.00000000
     0.00000000
     0.00000000
     0.00000000
     0.00000000
     0.00000000
     0.00000000
     0.00000000
     0.00000000
     0.00000000
     0.00000000
     0.00000000
     0.00000000
     0.00000000
     0.00000000
     0.00000000
     0.00000000
     0.00000000
     0.00000000
     0.00000000
     0.00000000
     0.00000000
     0.00000000
     0.00000000
     0.00000000
     0.00000000
     0.00000000
     0.00000000
     0.00000000
     0.00000000
     0.00000000
     0.00000000
     0.00000000
     0.00000000
     0.00000000
     0.00000000
     0.00000000
     0.00000000
     0.00000000
     0.00000000
     0.00000000
     0.00000000
     0.00000000
     0.00000000
     0.00000000
     0.00000000
     0.00000000
VECTORS Displacements float 
    -0.15053508    -0.02908433     0.00000000
    -0.14621849    -0.13058811     0.00000000
    -0.12536509    -0.16689590     0.00000000
    -0.10245009    -0.18809003     0.00000000
    -0.07457880    -0.18812664     0.00000000
    -0.04443088    -0.16822498     0.00000000
    -0.01268229    -0.12378538     0.00000000
     0.00806493    -0.08268529     0.00000000
     0.00000000     0.00000000     0.00000000
    -0.15771000    -0.02316131     0.00930503
    -0.12923609    -0.11859436     0.00000000
    -0.12855471    -0.15377346     0.00000000
    -0.12315078    -0.17244827     0.00000000
    -0.11696048    -0.17325863     0.00000000
    -0.11143277    -0.15416991     0.00000000
    -0.10828217    -0.11916961     0.00000000
    -0.11959551    -0.07846022     0.00000000
    -0.12262162    -0.00487786     0.00000000
    -0.15683931    -0.01762446     0.00874354
    -0.13181221    -0.09828180     0.00000000
    -0.13376006    -0.13229319     0.00000000
    -0.14074753    -0.14961689     0.00000000
    -0.14966260    -0.14944780     0.00000000
    -0.16098009    -0.13186368     0.00000000
    -0.17745393    -0.09586753     0.00000000
    -0.18973730    -0.05181988     0.00000000
    -0.20172932     0.00943713     0.00000000
    -0.16085593    -0.01290575     0.00691850
    -0.13427110    -0.07824761     0.00000000
    -0.13941094    -0.10822248     0.00000000
    -0.15232709    -0.12304805     0.00000000
    -0.16773200    -0.12262614     0.00000000
    -0.18217206    -0.10599260     0.00000000
    -0.19384764    -0.06985386     0.00000000
    -0.20380270    -0.02322476     0.00000000
    -0.20872975     0.02765903     0.00000000
    -0.16167376    -0.00838360     0.00545687
    -0.13671572    -0.05929014     0.00000000
    -0.14271667    -0.08352524     0.00000000
    -0.15780818    -0.09576266     0.00000000
    -0.17330836    -0.09645498     0.00000000
    -0.18130365    -0.08450859     0.00000000
    -0.17228793    -0.05509582     0.00000000
    -0.16373711    -0.01163297     0.00000000
    -0.15295596     0.03288004     0.00000000
    -0.16123036    -0.00411360     0.00489973
    -0.13607286    -0.04080510     0.00000000
    -0.14302992    -0.05844777     0.00000000
    -0.15971803    -0.06776944     0.00000000
    -0.17604331    -0.07128552     0.00000000
    -0.18088854    -0.06721624     0.00000000
    -0.16024182    -0.05542451     0.00000000
    -0.09477241    -0.04121467     0.00000000
     0.00000000     0.00000000     0.00000000
    -0.15912735     0.00013892     0.00506531
    -0.13350631    -0.02181653     0.00000000
    -0.14185000    -0.03158206     0.00000000
    -0.16283855    -0.03699368     0.00000000
    -0.18822012    -0.04171624     0.00000000
    -0.21102866    -0.04554453     0.00000000
    -0.22587161    -0.04082044     0.00000000
    -0.20764005    -0.02594941     0.00000000
    -0.17097552     0.03243005     0.00000000
    -0.15580867     0.00446102     0.00596689
    -0.12769612    -0.00144143     0.00000000
    -0.13539470    -0.00176430     0.00000000
    -0.15662789    -0.00175873     0.00000000
    -0.18493913    -0.00519913     0.00000000
    -0.21626688    -0.01096300     0.00000000
    -0.24535645    -0.01267210     0.00000000
    -0.26301414     0.00169723     0.00000000
    -0.26012496     0.03807401     0.00000000
    -0.15126375     0.00888677     0.00671368
    -0.12063895     0.02064126     0.00000000
    -0.12413730     0.03090685     0.00000000
    -0.13911220     0.03648367     0.00000000
    -0.15898777     0.03512934     0.00000000
    -0.18119223     0.02799158     0.00000000
    -0.20361995     0.01961670     0.00000000
    -0.23223853     0.02426037     0.00000000
    -0.25301061     0.04009576     0.00000000
    -0.14572465     0.01423399     0.00692773
    -0.11230713     0.04597315     0.00000000
    -0.11338177     0.06455845     0.00000000
    -0.11406263     0.07406494     0.00000000
    -0.11464706     0.07359546     0.00000000
    -0.11341786     0.06223145     0.00000000
    -0.10617306     0.04340913     0.00000000
    -0.12491222     0.03448655     0.00000000
    -0.13139724     0.01575367     0.00000000
    -0.13582006     0.01939602     0.00000000
    -0.12768847     0.06608637     0.00000000
    -0.10993334     0.09119292     0.00000000
    -0.08909438     0.10551772     0.00000000
    -0.06397163     0.10465714     0.00000000
    -0.03735540     0.08903492     0.00000000
    -0.00875597     0.05533185     0.00000000
     0.00513228     0.03408672     0.00000000
     0.00000000     0.00000000     0.00000000
    -0.15033355    -0.02885870     0.01198915
    -0.14553649    -0.12670964     0.02395005
    -0.12580982    -0.16602602     0.02917828
    -0.10257233    -0.18670118     0.03229767
    -0.07436286    -0.18670350     0.03184382
    -0.04409038    -0.16704287     0.02864408
    -0.01238773    -0.12308479     0.02346576
     0.00869392    -0.08171360     0.01746514
     0.00000000     0.00000000     0.00000000
    -0.15655005    -0.02305229     0.01215421
    -0.12994850    -0.11479164     0.02549437
    -0.12787381    -0.15249187     0.03425198
    -0.12142592    -0.17117555     0.03751372
    -0.11340946    -0.17115697     0.03892740
    -0.10537464    -0.15243883     0.03830112
    -0.09823060    -0.11680173     0.03605251
    -0.10635763    -0.07670101     0.03055581
    -0.11108143    -0.00483903     0.01199861
    -0.15907338    -0.01806267     0.01294698
    -0.13272971    -0.09538019     0.02779636
    -0.13267519    -0.13098047     0.03715751
    -0.13799896    -0.14814673     0.04258508
    -0.14406519    -0.14778016     0.04498358
    -0.15082654    -0.13051030     0.04594990
    -0.16079355    -0.09447625     0.04297877
    -0.16896494    -0.05213991     0.03806018
    -0.18388076     0.00772907     0.02224199
    -0.16061274    -0.01322445     0.01246234
    -0.13506234    -0.07659778     0.02924963
    -0.13822297    -0.10679761     0.04012888
    -0.14901729    -0.12155876     0.04628370
    -0.16137184    -0.12119626     0.04917805
    -0.17153162    -0.10517494     0.04920933
    -0.17728971    -0.06980860     0.04612786
    -0.18257059    -0.02562723     0.04045585
    -0.19036611     0.02443268     0.02405586
    -0.16155561    -0.00864451     0.01176352
    -0.13666551    -0.05796160     0.03013961
    -0.14126936    -0.08200329     0.04148998
    -0.15433647    -0.09405739     0.04770543
    -0.16729755    -0.09488405     0.05030136
    -0.17253948    -0.08364894     0.04830969
    -0.16065897    -0.05543258     0.04383900
    -0.14837264    -0.01439575     0.03786466
    -0.13897281     0.02956408     0.01790681
    -0.16102872    -0.00413764     0.01125297
    -0.13607625    -0.03953520     0.02981364
    -0.14142540    -0.05668759     0.04119139
    -0.15623038    -0.06571054     0.04730026
    -0.17039246    -0.06921782     0.04937800
    -0.17362817    -0.06573169     0.04654959
    -0.15289137    -0.05467170     0.03623793
    -0.09049266    -0.04049451     0.01826770
     0.00000000     0.00000000     0.00000000
    -0.15886948     0.00020657     0.01117793
    -0.13325131    -0.02050373     0.02931543
    -0.14016138    -0.02962671     0.04031037
    -0.15905230    -0.03459130     0.04684804
    -0.18167809    -0.03921011     0.05007821
    -0.20137850    -0.04327776     0.05034787
    -0.21269780    -0.03997413     0.04549934
    -0.19494751    -0.02623537     0.03727520
    -0.16173463     0.03029149     0.01102717
    -0.15538750     0.00458103     0.01093703
    -0.12774345    -0.00023666     0.02741473
    -0.13378591     0.00004492     0.03702414
    -0.15281068     0.00049618     0.04343598
    -0.17783134    -0.00278598     0.04690772
    -0.20482828    -0.00881293     0.04778357
    -0.22863988    -0.01245162     0.04611343
    -0.24405616    -0.00000755     0.04379083
    -0.24432119     0.03500632     0.02615915
    -0.15112368     0.00918492     0.01065728
    -0.12084422     0.02148490     0.02392517
    -0.12302247     0.03213326     0.03126715
    -0.13594918     0.03800153     0.03671311
    -0.15279442     0.03680909     0.03932044
    -0.17099070     0.02933723     0.04032487
    -0.18857286     0.01895822     0.03887753
    -0.21426764     0.02193409     0.03897615
    -0.23689103     0.03725859     0.02873701
    -0.14528620     0.01395308     0.00919630
    -0.11351775     0.04610097     0.01908724
    -0.11312046     0.06468747     0.02487748
    -0.11230521     0.07451833     0.02786851
    -0.11103873     0.07418668     0.02940621
    -0.10780059     0.06267635     0.02829513
    -0.09818908     0.04255997     0.02591072
    -0.11481417     0.03262539     0.02333617
    -0.12200344     0.01451997     0.01132857
    -0.13597533     0.01910236     0.00803575
    -0.12808433     0.06575995     0.01411867
    -0.11015928     0.09074485     0.01875226
    -0.08905490     0.10517648     0.02032977
    -0.06390492     0.10455886     0.01974600
    -0.03732307     0.08903040     0.01798924
    -0.00847519     0.05530607     0.01385951
     0.00530208     0.03349080     0.00942768
     0.00000000     0.00000000     0.00000000
    -0.15038625    -0.02814015     0.02048728
    -0.14548510    -0.12103979     0.04514392
    -0.12682463    -0.16198593     0.05720751
    -0.10260484    -0.18239829     0.06296961
    -0.07368784    -0.18264898     0.06112108
    -0.04345136    -0.16387615     0.05621541
    -0.01166519    -0.12099528     0.04597517
     0.01028597    -0.07905511     0.03409878
     0.00000000     0.00000000     0.00000000
    -0.15564245    -0.02302290     0.02122167
    -0.13151352    -0.10894488     0.05010381
    -0.12766651    -0.14733933     0.06619763
    -0.11829489    -0.16560222     0.07250875
    -0.10603033    -0.16573613     0.07524259
    -0.09186938    -0.14789755     0.07295207
    -0.07560107    -0.11091517     0.06668438
    -0.07626064    -0.07174669     0.05457233
    -0.08461300    -0.00449150     0.01702526
    -0.15859675    -0.01849777     0.02096345
    -0.13361309    -0.09069154     0.05447669
    -0.13119513    -0.12563091     0.07233136
    -0.13184931    -0.14244888     0.08228199
    -0.13054225    -0.14243014     0.08573183
    -0.12668868    -0.12594556     0.08563541
    -0.12157051    -0.08981490     0.07797294
    -0.12011469    -0.05120797     0.06521488
    -0.13976976     0.00425700     0.03210722
    -0.16035370    -0.01397277     0.02050546
    -0.13536792    -0.07261912     0.05767218
    -0.13531045    -0.10150572     0.07817340
    -0.14055824    -0.11586852     0.08942403
    -0.14514976    -0.11592040     0.09397949
    -0.14479910    -0.10124887     0.09215111
    -0.13642050    -0.06787984     0.08399591
    -0.13102132    -0.02975120     0.06891058
    -0.14323175     0.01662053     0.03366072
    -0.16112253    -0.00912900     0.01991241
    -0.13665573    -0.05443163     0.05925306
    -0.13770148    -0.07682155     0.08095541
    -0.14504683    -0.08812621     0.09224704
    -0.15115217    -0.08931759     0.09670870
    -0.14917564    -0.07970212     0.09219347
    -0.13034845    -0.05425062     0.08195975
    -0.11029887    -0.01952045     0.06638052
    -0.10332612     0.02077452     0.02360006
    -0.16037748    -0.00437874     0.01936528
    -0.13512788    -0.03624357     0.05876057
    -0.13750412    -0.05157324     0.08056620
    -0.14674658    -0.05943217     0.09167059
    -0.15465373    -0.06284170     0.09542860
    -0.15307896    -0.06054801     0.09005275
    -0.13137860    -0.05085591     0.07126367
    -0.07754566    -0.03723173     0.03738408
     0.00000000     0.00000000     0.00000000
    -0.15780767     0.00028981     0.01886037
    -0.13210130    -0.01731419     0.05785735
    -0.13603098    -0.02457864     0.07882524
    -0.14879973    -0.02822038     0.09060031
    -0.16329620    -0.03248479     0.09607690
    -0.17371537    -0.03695427     0.09539309
    -0.17449290    -0.03676593     0.08533565
    -0.15679859    -0.02664157     0.06854654
    -0.13515644     0.02426712     0.01749661
    -0.15443538     0.00474112     0.01816643
    -0.12688266     0.00248228     0.05402381
    -0.13031183     0.00422875     0.07257466
    -0.14319888     0.00569523     0.08412298
    -0.15913704     0.00273801     0.08946565
    -0.17415728    -0.00387788     0.08947913
    -0.18341973    -0.01199163     0.08470307
    -0.19166610    -0.00480729     0.07752527
    -0.19920613     0.02590246     0.04183125
    -0.15013568     0.00918019     0.01712416
    -0.12093008     0.02325581     0.04713882
    -0.12112279     0.03459325     0.06143451
    -0.12880219     0.04096922     0.07132504
    -0.13780142     0.04024756     0.07513713
    -0.14587711     0.03197970     0.07576025
    -0.15105469     0.01678704     0.07161722
    -0.16865711     0.01543443     0.06951511
    -0.19355367     0.02909182     0.04639046
    -0.14458850     0.01352585     0.01617758
    -0.11554830     0.04644620     0.03702556
    -0.11328680     0.06505901     0.04857211
    -0.10896773     0.07517278     0.05437469
    -0.10332856     0.07557547     0.05708209
    -0.09510266     0.06402076     0.05465402
    -0.07995375     0.04060851     0.04882768
    -0.09177935     0.02848611     0.04337546
    -0.10033659     0.01228097     0.01768387
    -0.13683866     0.01805477     0.01458765
    -0.12912491     0.06466619     0.02750027
    -0.11095550     0.08980745     0.03616076
    -0.08900032     0.10438109     0.03952647
    -0.06399125     0.10445102     0.03914114
    -0.03725216     0.08925577     0.03568860
    -0.00788393     0.05559490     0.02736431
     0.00561640     0.03219815     0.01839740
     0.00000000     0.00000000     0.00000000
    -0.15123517    -0.02685144     0.02794510
    -0.14658486    -0.11475176     0.06452020
    -0.12810374    -0.15464307     0.08246625
    -0.10240815    -0.17563217     0.08916698
    -0.07334343    -0.17783564     0.08868827
    -0.04278562    -0.15997433     0.08241819
    -0.01075055    -0.11762053     0.06771024
     0.01148563    -0.07525894     0.05011702
     0.00000000     0.00000000     0.00000000
    -0.15484352    -0.02299874     0.02931239
    -0.13398834    -0.10296034     0.07342961
    -0.12905391    -0.13892868     0.09403187
    -0.11474358    -0.15817251     0.10339331
    -0.09604514    -0.15976661     0.10556395
    -0.07467380    -0.14277496     0.10084034
    -0.04878531    -0.10362662     0.08904729
    -0.04113207    -0.06478117     0.07102773
    -0.05130565    -0.00407921     0.01336623
    -0.15756197    -0.01928853     0.02963928
    -0.13361743    -0.08560451     0.08054884
    -0.12954078    -0.11718057     0.10386294
    -0.12395000    -0.13451673     0.11624944
    -0.11348832    -0.13510840     0.11865300
    -0.09742152    -0.11948273     0.11517894
    -0.07679830    -0.08346030     0.10193048
    -0.06473053    -0.04867626     0.08022033
    -0.08375043    -0.00011324     0.02574173
    -0.15961252    -0.01499685     0.02927196
    -0.13539136    -0.06770802     0.08491939
    -0.13155663    -0.09303515     0.11241377
    -0.12957264    -0.10714317     0.12660049
    -0.12418047    -0.10739251     0.13090156
    -0.11146170    -0.09427312     0.12504389
    -0.08856050    -0.06351558     0.11015003
    -0.07230510    -0.03220472     0.08427682
    -0.08501162     0.00571936     0.02544011
    -0.16081403    -0.00995878     0.02881752
    -0.13682102    -0.04961367     0.08683108
    -0.13332819    -0.06802810     0.11623418
    -0.13272545    -0.07849752     0.13037678
    -0.12890063    -0.07963418     0.13562676
    -0.11736228    -0.07139366     0.12840421
    -0.09116243    -0.04918799     0.11166475
    -0.06579246    -0.02196590     0.08494107
    -0.06205525     0.00905613     0.01591988
    -0.15787224    -0.00484305     0.02798946
    -0.13515699    -0.03136001     0.08664128
    -0.13284375    -0.04250490     0.11586110
    -0.13388592    -0.04865842     0.12985071
    -0.13176344    -0.05164460     0.13453373
    -0.12137841    -0.05024091     0.12737828
    -0.09675093    -0.04199811     0.10363346
    -0.05535786    -0.02983830     0.05794142
     0.00000000     0.00000000     0.00000000
    -0.15538373     0.00010566     0.02703853
    -0.13223534    -0.01200866     0.08507197
    -0.13169920    -0.01561929     0.11310391
    -0.13502156    -0.01692870     0.12779680
    -0.13700752    -0.02096694     0.13401952
    -0.13345372    -0.02544921     0.13069477
    -0.11938128    -0.02847421     0.11513707
    -0.10111094    -0.02331603     0.09006896
    -0.09547477     0.01724699     0.01610512
    -0.15175967     0.00501243     0.02571783
    -0.12786463     0.00766685     0.07983243
    -0.12721918     0.01179116     0.10462769
    -0.13100790     0.01542736     0.11918105
    -0.13355937     0.01257366     0.12386708
    -0.13150673     0.00549413     0.12058624
    -0.12147771    -0.00681160     0.11097961
    -0.12025083    -0.00671401     0.09653595
    -0.13391011     0.01537583     0.03931931
    -0.14913342     0.00907829     0.02425481
    -0.12217110     0.02656158     0.07047355
    -0.11997129     0.03897190     0.08970982
    -0.12024839     0.04732901     0.10188584
    -0.11792679     0.04640938     0.10492017
    -0.11195634     0.03720322     0.10333040
    -0.10087014     0.01741831     0.09515323
    -0.10713679     0.00997994     0.08806153
    -0.12963841     0.01736882     0.04384444
    -0.14409639     0.01305748     0.02257431
    -0.11783052     0.04709538     0.05513072
    -0.11419718     0.06584175     0.07016356
    -0.10474156     0.07781267     0.07849883
    -0.09247794     0.07821488     0.08137804
    -0.07764490     0.06643436     0.07724617
    -0.05500018     0.03937312     0.06731255
    -0.06093806     0.02254328     0.06034774
    -0.07137153     0.00912950     0.01698399
    -0.13842768     0.01671850     0.02053990
    -0.13020483     0.06281866     0.04099662
    -0.11211868     0.08876957     0.05263252
    -0.08959229     0.10370578     0.05771200
    -0.06424926     0.10485024     0.05857766
    -0.03729125     0.09017301     0.05403655
    -0.00771141     0.05642160     0.04089853
     0.00629369     0.03145542     0.02707935
     0.00000000     0.00000000     0.00000000
    -0.15240936    -0.02534229     0.03396282
    -0.14932040    -0.10557015     0.08145892
    -0.12962538    -0.14553516     0.10380691
    -0.10375322    -0.16694844     0.11335210
    -0.07376116    -0.16782731     0.11473894
    -0.04198872    -0.14970827     0.10741430
    -0.00938042    -0.10935672     0.08770487
     0.01401376    -0.06874192     0.06503039
     0.00000000     0.00000000     0.00000000
    -0.15472165    -0.02313091     0.03662270
    -0.13861797    -0.09443880     0.09467466
    -0.13184126    -0.12872073     0.11644660
    -0.11062124    -0.14853453     0.12692540
    -0.08566851    -0.14957936     0.12872716
    -0.05841774    -0.13199935     0.12190002
    -0.02331755    -0.09478691     0.10437521
    -0.00981450    -0.05779691     0.08307641
    -0.01914172    -0.00201349     0.00404619
    -0.15653915    -0.02012208     0.03802296
    -0.13668926    -0.07836771     0.10437532
    -0.13134058    -0.10768523     0.12984067
    -0.11629326    -0.12342350     0.14277994
    -0.09485770    -0.12412957     0.14337065
    -0.06900327    -0.10915419     0.13521781
    -0.03564077    -0.07702329     0.11692114
    -0.01952659    -0.04489699     0.09055119
    -0.03130043    -0.00184490     0.00895236
    -0.15864711    -0.01617849     0.03901907
    -0.13692590    -0.06038144     0.10993126
    -0.13187959    -0.08333496     0.13993741
    -0.11919236    -0.09608853     0.15451036
    -0.10094857    -0.09606823     0.15816763
    -0.07660986    -0.08355790     0.14731228
    -0.04184018    -0.05816197     0.12551042
    -0.02382360    -0.03183589     0.09491091
    -0.03188229    -0.00215135     0.00775477
    -0.15982846    -0.01121592     0.03889472
    -0.13749193    -0.04157967     0.11243615
    -0.13188089    -0.05705215     0.14426665
    -0.12003162    -0.06568596     0.15795927
    -0.10348425    -0.06634112     0.16370995
    -0.08082841    -0.05879259     0.15438484
    -0.04653471    -0.04030630     0.13174024
    -0.02230318    -0.01945729     0.09825276
    -0.02760149    -0.00328516     0.00405289
    -0.15978362    -0.00578301     0.03743091
    -0.13655386    -0.02280568     0.11175507
    -0.13105921    -0.02954694     0.14381495
    -0.11995356    -0.03380370     0.15748982
    -0.10416511    -0.03556714     0.16253623
    -0.08202843    -0.03395069     0.15403938
    -0.04971196    -0.02747519     0.13018187
    -0.02494382    -0.01924437     0.08160333
     0.00000000     0.00000000     0.00000000
    -0.15755380    -0.00041489     0.03585499
    -0.13512815    -0.00362831     0.10881837
    -0.13043258    -0.00149621     0.13976193
    -0.12069368    -0.00113769     0.15391252
    -0.10668720    -0.00346193     0.16031716
    -0.08688946    -0.00766648     0.15315751
    -0.05502731    -0.01193347     0.13141303
    -0.03621463    -0.01669439     0.10169257
    -0.05139164     0.01538015     0.00938624
    -0.15391428     0.00461020     0.03361637
    -0.13167625     0.01553218     0.10203419
    -0.12809612     0.02534537     0.12946823
    -0.11833401     0.03018472     0.14455990
    -0.10420510     0.02791581     0.14717955
    -0.08408435     0.02045134     0.13864575
    -0.05414108     0.00745182     0.12287910
    -0.04659382    -0.00026163     0.10400665
    -0.06458338     0.00683002     0.02126637
    -0.15005772     0.00895624     0.03120032
    -0.12880052     0.03324616     0.09183676
    -0.12439594     0.04924482     0.11294047
    -0.11198943     0.05766115     0.12629033
    -0.09593754     0.05753614     0.12701231
    -0.07430324     0.04697861     0.12167447
    -0.04438277     0.02726047     0.10781077
    -0.04242395     0.01539342     0.09507998
    -0.06223436     0.00512766     0.02327624
    -0.14515547     0.01249139     0.02882731
    -0.12483644     0.04709840     0.07484956
    -0.11875610     0.06826427     0.09095720
    -0.10092100     0.08127401     0.10045955
    -0.08135903     0.08055549     0.10411473
    -0.05890528     0.06699938     0.09859455
    -0.02572843     0.04125658     0.08330124
    -0.02237870     0.02544098     0.07360654
    -0.03753657     0.00283177     0.00997585
    -0.14040456     0.01507403     0.02556570
    -0.13187369     0.06047637     0.05182288
    -0.11392087     0.08670970     0.06662522
    -0.09120168     0.10215570     0.07498870
    -0.06516868     0.10171056     0.07698512
    -0.03739889     0.08675903     0.07120168
    -0.00791275     0.05546658     0.05371448
     0.00704272     0.03154111     0.03487300
     0.00000000     0.00000000     0.00000000
    -0.15411871    -0.02410026     0.03883373
    -0.15036743    -0.09562397     0.09649586
    -0.13265561    -0.13138756     0.12021386
    -0.10525309    -0.15056154     0.13317436
    -0.07443855    -0.15145156     0.13457472
    -0.04087145    -0.13494346     0.12590475
    -0.00785826    -0.09776150     0.10395294
     0.02087967    -0.06031989     0.07734802
     0.00000000     0.00000000     0.00000000
    -0.15451209    -0.02264112     0.04299356
    -0.15232662    -0.08301702     0.10988809
    -0.13328726    -0.11629689     0.13452034
    -0.10701963    -0.13508891     0.14582317
    -0.07477179    -0.13537393     0.14767285
    -0.03991211    -0.12009374     0.13877801
    -0.00527026    -0.08686809     0.11581248
     0.02416747    -0.05062063     0.08737933
     0.00000000     0.00000000     0.00000000
    -0.15535385    -0.02049068     0.04692742
    -0.15495841    -0.06749414     0.11952149
    -0.13384424    -0.09550383     0.14747212
    -0.10575061    -0.11346466     0.16020449
    -0.07571969    -0.11729829     0.15834319
    -0.03804624    -0.10398444     0.14811373
    -0.00319877    -0.07377782     0.12522918
     0.02672968    -0.04031384     0.09430144
     0.00000000     0.00000000     0.00000000
    -0.15614421    -0.01680857     0.04990575
    -0.15663411    -0.05072181     0.12527229
    -0.13472169    -0.07115021     0.15582000
    -0.10509213    -0.08253427     0.17019235
    -0.07225639    -0.08710719     0.17147974
    -0.03672369    -0.08166485     0.15814201
    -0.00204909    -0.05641265     0.13208287
     0.02816775    -0.02976956     0.09894687
     0.00000000     0.00000000     0.00000000
    -0.15633837    -0.01216468     0.05140007
    -0.15713586    -0.03203185     0.12803634
    -0.13509913    -0.04363074     0.15850031
    -0.10463735    -0.05071572     0.17172601
    -0.07058592    -0.05260163     0.17617679
    -0.03599573    -0.04869223     0.16530041
     0.00053902    -0.03704836     0.13864479
     0.03020727    -0.01927541     0.10005479
     0.00000000     0.00000000     0.00000000
    -0.15506807    -0.00700217     0.05110690
    -0.15659075    -0.01223590     0.12721515
    -0.13445855    -0.01554890     0.15740292
    -0.10429414    -0.01691760     0.17004805
    -0.06987878    -0.01657217     0.17426683
    -0.03511388    -0.01428206     0.16511537
     0.00122503    -0.01123539     0.14053496
     0.03076566    -0.00950776     0.09464804
     0.00000000     0.00000000     0.00000000
    -0.15444339    -0.00164392     0.04881732
    -0.15462012     0.00725449     0.12277649
    -0.13289297     0.01217580     0.15241974
    -0.10299959     0.01627767     0.16593802
    -0.07013782     0.01828679     0.16987306
    -0.03508901     0.01950045     0.15996357
     0.00082658     0.01245881     0.13344006
     0.03068156     0.00046705     0.09999140
     0.00000000     0.00000000     0.00000000
    -0.15224631     0.00339380     0.04491947
    -0.15170632     0.02511332     0.11457256
    -0.13025954     0.03773507     0.14297459
    -0.10201466     0.04602516     0.15701907
    -0.07019225     0.05142579     0.15691308
    -0.03843927     0.04787887     0.14559407
    -0.00063490     0.03080696     0.12286368
     0.02808601     0.01202413     0.09820902
     0.00000000     0.00000000     0.00000000
    -0.14948770     0.00776917     0.03984439
    -0.14747743     0.04032501     0.10278631
    -0.12663000     0.05976787     0.12742448
    -0.10221936     0.07350953     0.13905823
    -0.06991964     0.07489830     0.13863178
    -0.03951377     0.06458758     0.13109353
    -0.00168293     0.04325258     0.10991251
     0.02585400     0.02191514     0.08805056
     0.00000000     0.00000000     0.00000000
    -0.14735580     0.01101027     0.03466519
    -0.14390024     0.05477807     0.08751969
    -0.12295434     0.07715423     0.10816563
    -0.10021937     0.08939979     0.11962143
    -0.06889692     0.09016055     0.12226746
    -0.03791315     0.07781090     0.11542547
    -0.00274650     0.05250776     0.09490338
     0.02193268     0.03203720     0.07378750
     0.00000000     0.00000000     0.00000000
    -0.14411974     0.01321933     0.03026073
    -0.13614145     0.05963099     0.06520008
    -0.11786129     0.08438422     0.08360309
    -0.09452112     0.09732583     0.09418097
    -0.06681531     0.09801653     0.09659446
    -0.03779799     0.08460861     0.08946647
    -0.00632573     0.05579224     0.07082046
     0.01275230     0.03681474     0.05187964
     0.00000000     0.00000000     0.00000000
     0.00000000     0.00000000     0.00000000
     0.00000000     0.00000000     0.00000000
     0.00000000     0.00000000     0.00000000
     0.00000000     0.00000000     0.00000000
     0.00000000     0.00000000     0.00000000
     0.00000000     0.00000000     0.00000000
     0.00000000     0.00000000     0.00000000
     0.00000000     0.00000000     0.00000000
     0.00000000     0.00000000     0.00000000
     0.00000000     0.00000000     0.00000000
     0.00000000     0.00000000     0.00000000
    -0.07334234     0.01261813     0.00000000
    -0.11127312    -0.02268769     0.00000000
    -0.11399180    -0.00350102     0.00000000
    -0.10446106    -0.00368946     0.00000000
    -0.09141361    -0.00276179     0.00000000
    -0.07691676    -0.00068445     0.00000000
    -0.06207871     0.00221850     0.00000000
    -0.04725954     0.00552531     0.00000000
    -0.03258828     0.00873133     0.00000000
    -0.01810649     0.01161727     0.00000000
     0.00000000     0.00000000     0.00000000
    -0.22396099     0.00982529     0.00000000
    -0.22915478    -0.02894014     0.00000000
    -0.22079574    -0.02897359     0.00000000
    -0.19432685    -0.03044656     0.00000000
    -0.16342959    -0.02823091     0.00000000
    -0.13241754    -0.02287824     0.00000000
    -0.10221926    -0.01636595     0.00000000
    -0.07313282    -0.00943210     0.00000000
    -0.04546444    -0.00242654     0.00000000
    -0.01991041     0.00252040     0.00000000
     0.00000000     0.00000000     0.00000000
    -0.26774893     0.03242977     0.00000000
    -0.25408076    -0.01036497     0.00000000
    -0.22848308    -0.04844483     0.00000000
    -0.19457086    -0.05541198     0.00000000
    -0.16108539    -0.05126957     0.00000000
    -0.12869234    -0.04459115     0.00000000
    -0.09787147    -0.03693299     0.00000000
    -0.06852902    -0.02909665     0.00000000
    -0.04073982    -0.02148148     0.00000000
    -0.01598957    -0.01276483     0.00000000
     0.00000000     0.00000000     0.00000000
    -0.13451710     0.02621781     0.00000000
    -0.15513492     0.01116153     0.00000000
    -0.11711130    -0.04254436     0.00000000
    -0.09743025    -0.04255081     0.00000000
    -0.08041281    -0.04039261     0.00000000
    -0.06501583    -0.03650539     0.00000000
    -0.05046203    -0.03242702     0.00000000
    -0.03638931    -0.02833874     0.00000000
    -0.02272765    -0.02403284     0.00000000
    -0.00938860    -0.01938895     0.00000000
     0.00000000     0.00000000     0.00000000
     0.00000000     0.00000000     0.00000000
     0.00000000     0.00000000     0.00000000
     0.00000000     0.00000000     0.00000000
     0.00000000     0.00000000     0.00000000
     0.00000000     0.00000000     0.00000000
     0.00000000     0.00000000     0.00000000
     0.00000000     0.00000000     0.00000000
     0.00000000     0.00000000     0.00000000
     0.00000000     0.00000000     0.00000000
     0.00000000     0.00000000     0.00000000
     0.00000000     0.00000000     0.00000000
     0.00000000     0.00000000     0.00000000
     0.00000000     0.00000000     0.00000000
     0.00000000     0.00000000     0.00000000
     0.00000000     0.00000000     0.00000000
     0.00000000     0.00000000     0.00000000
     0.00000000     0.00000000     0.00000000
     0.00000000     0.00000000     0.00000000
     0.00000000     0.00000000     0.00000000
     0.00000000     0.00000000     0.00000000
     0.00000000     0.00000000     0.00000000
     0.00000000     0.00000000     0.00000000
    -0.06761625     0.01193723     0.00922753
    -0.10531933    -0.02149468     0.01304460
    -0.10674715    -0.00260579    -0.00050445
    -0.09729992    -0.00305822    -0.00440828
    -0.08510978    -0.00230543    -0.00565966
    -0.07174312    -0.00048736    -0.00589143
    -0.05811971     0.00211695    -0.00580276
    -0.04448130     0.00514157    -0.00561693
    -0.03092617     0.00811213    -0.00525736
    -0.01740567     0.01094064    -0.00430098
     0.00000000     0.00000000     0.00000000
    -0.20938399     0.00875834     0.02333393
    -0.21807548    -0.02771558     0.01341325
    -0.20930277    -0.02730011    -0.00321574
    -0.18345295    -0.02852527    -0.01045957
    -0.15404851    -0.02645230    -0.01300774
    -0.12493407    -0.02148553    -0.01323904
    -0.09674655    -0.01545109    -0.01269049
    -0.06957879    -0.00898505    -0.01178461
    -0.04360231    -0.00238173    -0.01014737
    -0.01930361     0.00236508    -0.00674700
     0.00000000     0.00000000     0.00000000
    -0.25054034     0.03032221     0.02395570
    -0.24196622    -0.00979981     0.01106759
    -0.21651919    -0.04628423    -0.00413617
    -0.18354916    -0.05261225    -0.01182487
    -0.15173503    -0.04855187    -0.01400049
    -0.12135593    -0.04224090    -0.01386415
    -0.09261068    -0.03506574    -0.01304986
    -0.06521028    -0.02773114    -0.01198570
    -0.03910414    -0.02059071    -0.01026642
    -0.01554426    -0.01232238    -0.00682118
     0.00000000     0.00000000     0.00000000
    -0.12319902     0.02380696     0.01022571
    -0.14592198     0.01057881     0.00839527
    -0.10862202    -0.04017848    -0.00483298
    -0.09011173    -0.03974462    -0.00666466
    -0.07445594    -0.03776848    -0.00657436
    -0.06041459    -0.03418406    -0.00604902
    -0.04714990    -0.03043149    -0.00560896
    -0.03424593    -0.02666786    -0.00529211
    -0.02164118    -0.02269689    -0.00492056
    -0.00913255    -0.01846608    -0.00405035
     0.00000000     0.00000000     0.00000000
     0.00000000     0.00000000     0.00000000
     0.00000000     0.00000000     0.00000000
     0.00000000     0.00000000     0.00000000
     0.00000000     0.00000000     0.00000000
     0.00000000     0.00000000     0.00000000
     0.00000000     0.00000000     0.00000000
     0.00000000     0.00000000     0.00000000
     0.00000000     0.00000000     0.00000000
     0.00000000     0.00000000     0.00000000
     0.00000000     0.00000000     0.00000000
     0.00000000     0.00000000     0.00000000
     0.00000000     0.00000000     0.00000000
     0.00000000     0.00000000     0.00000000
     0.00000000     0.00000000     0.00000000
     0.00000000     0.00000000     0.00000000
     0.00000000     0.00000000     0.00000000
     0.00000000     0.00000000     0.00000000
     0.00000000     0.00000000     0.00000000
     0.00000000     0.00000000     0.00000000
     0.00000000     0.00000000     0.00000000
     0.00000000     0.00000000     0.00000000
     0.00000000     0.00000000     0.00000000
    -0.05318607     0.01092078     0.01412052
    -0.08967288    -0.01762401     0.02189126
    -0.08742887    -0.00023637    -0.00182521
    -0.07862048    -0.00137356    -0.00769633
    -0.06894713    -0.00112356    -0.00935172
    -0.05867000    -0.00012260    -0.00955627
    -0.04817208     0.00174700    -0.00938743
    -0.03758043     0.00408974    -0.00912799
    -0.02681059     0.00640651    -0.00864277
    -0.01573549     0.00906168    -0.00727466
     0.00000000     0.00000000     0.00000000
    -0.16769498     0.00651933     0.03773373
    -0.18577267    -0.02346808     0.02413339
    -0.17534535    -0.02218958    -0.00678981
    -0.15163334    -0.02287202    -0.01848415
    -0.12684925    -0.02137159    -0.02196753
    -0.10340085    -0.01764774    -0.02192771
    -0.08100641    -0.01297666    -0.02092209
    -0.05934432    -0.00783069    -0.01953086
    -0.03818096    -0.00238350    -0.01707768
    -0.01755334     0.00175605    -0.01168923
     0.00000000     0.00000000     0.00000000
    -0.20079836     0.02389024     0.03860820
    -0.20634042    -0.00814556     0.02046401
    -0.18110757    -0.03947476    -0.00849557
    -0.15128726    -0.04411586    -0.02094064
    -0.12467008    -0.04041183    -0.02367232
    -0.10034869    -0.03522752    -0.02297830
    -0.07758549    -0.02947280    -0.02152610
    -0.05574053    -0.02361910    -0.01987704
    -0.03442516    -0.01783596    -0.01729234
    -0.01435063    -0.01087595    -0.01183101
     0.00000000     0.00000000     0.00000000
    -0.09437294     0.01789282     0.01421640
    -0.12191134     0.00857268     0.01421524
    -0.08671841    -0.03362803    -0.00879862
    -0.07147254    -0.03249853    -0.01118080
    -0.05950398    -0.03111978    -0.01067491
    -0.04909608    -0.02826631    -0.00970335
    -0.03904705    -0.02536438    -0.00901510
    -0.02907626    -0.02246475    -0.00856941
    -0.01909328    -0.01925980    -0.00807641
    -0.00867430    -0.01604963    -0.00684953
     0.00000000     0.00000000     0.00000000
     0.00000000     0.00000000     0.00000000
     0.00000000     0.00000000     0.00000000
     0.00000000     0.00000000     0.00000000
     0.00000000     0.00000000     0.00000000
     0.00000000     0.00000000     0.00000000
     0.00000000     0.00000000     0.00000000
     0.00000000     0.00000000     0.00000000
     0.00000000     0.00000000     0.00000000
     0.00000000     0.00000000     0.00000000
     0.00000000     0.00000000     0.00000000
     0.00000000     0.00000000     0.00000000
     0.00000000     0.00000000     0.00000000
     0.00000000     0.00000000     0.00000000
     0.00000000     0.00000000     0.00000000
     0.00000000     0.00000000     0.00000000
     0.00000000     0.00000000     0.00000000
     0.00000000     0.00000000     0.00000000
     0.00000000     0.00000000     0.00000000
     0.00000000     0.00000000     0.00000000
     0.00000000     0.00000000     0.00000000
     0.00000000     0.00000000     0.00000000
     0.00000000     0.00000000     0.00000000
    -0.03136696     0.00972085     0.01113650
    -0.06457213    -0.01156697     0.02303028
    -0.05729443     0.00317140    -0.00384057
    -0.05071161     0.00118046    -0.00843317
    -0.04551813     0.00010314    -0.00951619
    -0.03976478     0.00028048    -0.00963608
    -0.03363929     0.00123536    -0.00945398
    -0.02723911     0.00264794    -0.00922720
    -0.02065974     0.00425120    -0.00895688
    -0.01303038     0.00630575    -0.00803775
     0.00000000     0.00000000     0.00000000
    -0.10375341     0.00540673     0.03411036
    -0.13337314    -0.01602637     0.02800686
    -0.11986589    -0.01348713    -0.01043480
    -0.10085326    -0.01354504    -0.02072829
    -0.08468568    -0.01365764    -0.02289041
    -0.07041835    -0.01177528    -0.02237761
    -0.05685701    -0.00908781    -0.02127192
    -0.04343406    -0.00589168    -0.02004083
    -0.02972492    -0.00212986    -0.01811988
    -0.01461337     0.00091394    -0.01325806
     0.00000000     0.00000000     0.00000000
    -0.12377699     0.01592550     0.03394034
    -0.14801732    -0.00490921     0.02464510
    -0.12292668    -0.02765968    -0.01250399
    -0.09943542    -0.03029964    -0.02350412
    -0.08267110    -0.02750281    -0.02463787
    -0.06814206    -0.02433066    -0.02343727
    -0.05447263    -0.02084656    -0.02189050
    -0.04094088    -0.01725120    -0.02041255
    -0.02699904    -0.01369231    -0.01837083
    -0.01225559    -0.00857366    -0.01344182
     0.00000000     0.00000000     0.00000000
    -0.05367292     0.01085953     0.00807930
    -0.08563019     0.00611108     0.01520669
    -0.05389207    -0.02352662    -0.01092127
    -0.04418077    -0.02209501    -0.01162381
    -0.03847043    -0.02121672    -0.01057224
    -0.03299733    -0.01963330    -0.00963227
    -0.02729301    -0.01794782    -0.00899962
    -0.02129435    -0.01621615    -0.00862684
    -0.01510038    -0.01440670    -0.00835895
    -0.00778979    -0.01234626    -0.00757739
     0.00000000     0.00000000     0.00000000
     0.00000000     0.00000000     0.00000000
     0.00000000     0.00000000     0.00000000
     0.00000000     0.00000000     0.00000000
     0.00000000     0.00000000     0.00000000
     0.00000000     0.00000000     0.00000000
     0.00000000     0.00000000     0.00000000
     0.00000000     0.00000000     0.00000000
     0.00000000     0.00000000     0.00000000
     0.00000000     0.00000000     0.00000000
     0.00000000     0.00000000     0.00000000
     0.00000000     0.00000000     0.00000000
     0.00000000     0.00000000     0.00000000
     0.00000000     0.00000000     0.00000000
     0.00000000     0.00000000     0.00000000
     0.00000000     0.00000000     0.00000000
     0.00000000     0.00000000     0.00000000
     0.00000000     0.00000000     0.00000000
     0.00000000     0.00000000     0.00000000
     0.00000000     0.00000000     0.00000000
     0.00000000     0.00000000     0.00000000
     0.00000000     0.00000000     0.00000000
     0.00000000     0.00000000     0.00000000
    -0.00824702     0.00960128     0.00088410
    -0.03193305    -0.00439809     0.01398571
    -0.02028473     0.00590215    -0.00436347
    -0.01987090     0.00095454    -0.00526629
    -0.01976503     0.00050038    -0.00596682
    -0.01858525     0.00023966    -0.00597553
    -0.01679687     0.00055323    -0.00589517
    -0.01462104     0.00108791    -0.00582627
    -0.01223878     0.00146479    -0.00561812
    -0.01007571     0.00319079    -0.00591303
     0.00000000     0.00000000     0.00000000
    -0.03057592     0.00795353     0.00759514
    -0.06459700    -0.00522838     0.01880412
    -0.04745928    -0.00224350    -0.01080660
    -0.04011038    -0.00415665    -0.01299086
    -0.03591338    -0.00539291    -0.01399833
    -0.03225173    -0.00514645    -0.01348821
    -0.02816149    -0.00442104    -0.01294719
    -0.02358075    -0.00336067    -0.01244593
    -0.01843463    -0.00179185    -0.01155994
    -0.01151829    -0.00004980    -0.01030157
     0.00000000     0.00000000     0.00000000
    -0.03615836     0.00820509     0.00564795
    -0.07130934    -0.00049378     0.01695288
    -0.04671581    -0.01116852    -0.01253671
    -0.03806408    -0.01227677    -0.01463322
    -0.03441943    -0.01183530    -0.01492312
    -0.03092754    -0.01138251    -0.01406510
    -0.02693844    -0.01045600    -0.01329973
    -0.02236469    -0.00925988    -0.01267969
    -0.01704648    -0.00806133    -0.01173388
    -0.01010466    -0.00599941    -0.01046156
     0.00000000     0.00000000     0.00000000
    -0.01085414     0.00242545    -0.00574158
    -0.04073645     0.00317656     0.00892820
    -0.01495900    -0.01059987    -0.00877888
    -0.01625538    -0.00843468    -0.00670448
    -0.01614416    -0.00959469    -0.00639071
    -0.01530881    -0.00943989    -0.00582731
    -0.01368664    -0.00910731    -0.00554364
    -0.01163188    -0.00858844    -0.00541146
    -0.00948504    -0.00774181    -0.00521584
    -0.00686832    -0.00813355    -0.00556646
     0.00000000     0.00000000     0.00000000
     0.00000000     0.00000000     0.00000000
     0.00000000     0.00000000     0.00000000
     0.00000000     0.00000000     0.00000000
     0.00000000     0.00000000     0.00000000
     0.00000000     0.00000000     0.00000000
     0.00000000     0.00000000     0.00000000
     0.00000000     0.00000000     0.00000000
     0.00000000     0.00000000     0.00000000
     0.00000000     0.00000000     0.00000000
     0.00000000     0.00000000     0.00000000
     0.00000000     0.00000000     0.00000000
     0.00000000     0.00000000     0.00000000
     0.00000000     0.00000000     0.00000000
     0.00000000     0.00000000     0.00000000
     0.00000000     0.00000000     0.00000000
     0.00000000     0.00000000     0.00000000
     0.00000000     0.00000000     0.00000000
     0.00000000     0.00000000     0.00000000
     0.00000000     0.00000000     0.00000000
     0.00000000     0.00000000     0.00000000
     0.00000000     0.00000000     0.00000000
     0.00000000     0.00000000     0.00000000
     0.00000000     0.00000000     0.00000000
     0.00000000     0.00000000     0.00000000
     0.00000000     0.00000000     0.00000000
     0.00000000     0.00000000     0.00000000
     0.00000000     0.00000000     0.00000000
     0.00000000     0.00000000     0.00000000
     0.00000000     0.00000000     0.00000000
     0.00000000     0.00000000     0.00000000
     0.00000000     0.00000000     0.00000000
     0.00000000     0.00000000     0.00000000
     0.00000000     0.00000000     0.00000000
     0.00000000     0.00000000     0.00000000
     0.00000000     0.00000000     0.00000000
     0.00000000     0.00000000     0.00000000
     0.00000000     0.00000000     0.00000000
     0.00000000     0.00000000     0.00000000
     0.00000000     0.00000000     0.00000000
     0.00000000     0.00000000     0.00000000
     0.00000000     0.00000000     0.00000000
     0.00000000     0.00000000     0.00000000
     0.00000000     0.00000000     0.00000000
     0.00000000     0.00000000     0.00000000
     0.00000000     0.00000000     0.00000000
     0.00000000     0.00000000     0.00000000
     0.00000000     0.00000000     0.00000000
     0.00000000     0.00000000     0.00000000
     0.00000000     0.00000000     0.00000000
     0.00000000     0.00000000     0.00000000
     0.00000000     0.00000000     0.00000000
     0.00000000     0.00000000     0.00000000
     0.00000000     0.00000000     0.00000000
     0.00000000     0.00000000     0.00000000
     0.00000000     0.00000000     0.00000000
     0.00000000     0.00000000     0.00000000
     0.00000000     0.00000000     0.00000000
     0.00000000     0.00000000     0.00000000
     0.00000000     0.00000000     0.00000000
     0.00000000     0.00000000     0.00000000
     0.00000000     0.00000000     0.00000000
     0.00000000     0.00000000     0.00000000
     0.00000000     0.00000000     0.00000000
     0.00000000     0.00000000     0.00000000
     0.00000000     0.00000000     0.00000000
     0.00000000     0.00000000     0.00000000
     0.00000000     0.00000000     0.00000000
     0.00000000     0.00000000     0.00000000
     0.00000000     0.00000000     0.00000000
     0.00000000     0.00000000     0.00000000
     0.00000000     0.00000000     0.00000000
     0.00000000     0.00000000     0.00000000
     0.00000000     0.00000000     0.00000000
     0.00000000     0.00000000     0.00000000
     0.00000000     0.00000000     0.00000000
     0.00000000     0.00000000     0.00000000
     0.00000000     0.00000000     0.00000000
     0.00000000     0.00000000     0.00000000
     0.00000000     0.00000000     0.00000000
     0.00000000     0.00000000     0.00000000
     0.00000000     0.00000000     0.00000000
     0.00000000     0.00000000     0.00000000
     0.00000000     0.00000000     0.00000000
     0.00000000     0.00000000     0.00000000
     0.00000000     0.00000000     0.00000000
    -0.14821825     0.01811538     0.00000000
    -0.14196673     0.02692566     0.00000000
    -0.11711715     0.02008743     0.00000000
    -0.09116479     0.01452634     0.00000000
    -0.06879842     0.00905634     0.00000000
    -0.04957013     0.00425363     0.00000000
    -0.03237826     0.00001481     0.00000000
    -0.01671672    -0.00455045     0.00000000
     0.00000000     0.00000000     0.00000000
    -0.21732847     0.03252496     0.00000000
    -0.20454290     0.04523298     0.00000000
    -0.17001074     0.04087675     0.00000000
    -0.13333441     0.03213998     0.00000000
    -0.09996672     0.02320530     0.00000000
    -0.07013569     0.01505449     0.00000000
    -0.04304499     0.00753927     0.00000000
    -0.01844907     0.00113201     0.00000000
     0.00000000     0.00000000     0.00000000
    -0.21417212     0.02856005     0.00000000
    -0.19595391     0.05384418     0.00000000
    -0.16046260     0.05075403     0.00000000
    -0.12582531     0.04167323     0.00000000
    -0.09433622     0.03251508     0.00000000
    -0.06596090     0.02408125     0.00000000
    -0.03981315     0.01654171     0.00000000
    -0.01604177     0.00927538     0.00000000
     0.00000000     0.00000000     0.00000000
    -0.14163893     0.01371619     0.00000000
    -0.11502702     0.04252204     0.00000000
    -0.09365025     0.03676387     0.00000000
    -0.07390625     0.03159845     0.00000000
    -0.05659934     0.02599403     0.00000000
    -0.04079388     0.02105944     0.00000000
    -0.02593113     0.01638548     0.00000000
    -0.01148217     0.01259142     0.00000000
     0.00000000     0.00000000     0.00000000
     0.00000000     0.00000000     0.00000000
     0.00000000     0.00000000     0.00000000
     0.00000000     0.00000000     0.00000000
     0.00000000     0.00000000     0.00000000
     0.00000000     0.00000000     0.00000000
     0.00000000     0.00000000     0.00000000
     0.00000000     0.00000000     0.00000000
     0.00000000     0.00000000     0.00000000
     0.00000000     0.00000000     0.00000000
     0.00000000     0.00000000     0.00000000
     0.00000000     0.00000000     0.00000000
     0.00000000     0.00000000     0.00000000
     0.00000000     0.00000000     0.00000000
     0.00000000     0.00000000     0.00000000
     0.00000000     0.00000000     0.00000000
     0.00000000     0.00000000     0.00000000
     0.00000000     0.00000000     0.00000000
     0.00000000     0.00000000     0.00000000
    -0.13539500     0.01780302     0.01726316
    -0.12772408     0.02371613    -0.00537304
    -0.10567865     0.01827365    -0.00856235
    -0.08317307     0.01339055    -0.00712489
    -0.06349984     0.00850246    -0.00534973
    -0.04625233     0.00411425    -0.00421774
    -0.03054754     0.00017958    -0.00357455
    -0.01601240    -0.00415670    -0.00297472
     0.00000000     0.00000000     0.00000000
    -0.20154338     0.03203985     0.02298228
    -0.18795054     0.04149193    -0.00572731
    -0.15614475     0.03740417    -0.01066243
    -0.12311975     0.02965042    -0.01038263
    -0.09307579     0.02162112    -0.00853802
    -0.06593273     0.01419651    -0.00706523
    -0.04091917     0.00722309    -0.00590784
    -0.01778168     0.00117012    -0.00406211
     0.00000000     0.00000000     0.00000000
    -0.19988481     0.02817910     0.02024343
    -0.18114808     0.05003940    -0.00445626
    -0.14815584     0.04675778    -0.01029446
    -0.11668771     0.03855428    -0.00969370
    -0.08811494     0.03030607    -0.00805664
    -0.06215982     0.02264050    -0.00674087
    -0.03792762     0.01570300    -0.00570994
    -0.01551549     0.00888073    -0.00395718
     0.00000000     0.00000000     0.00000000
    -0.13173053     0.01368092     0.01320972
    -0.10525781     0.03931618    -0.00456354
    -0.08589027     0.03355534    -0.00623815
    -0.06822368     0.02902300    -0.00529150
    -0.05266295     0.02405050    -0.00418475
    -0.03828762     0.01962021    -0.00352731
    -0.02460403     0.01536560    -0.00316313
    -0.01111472     0.01190686    -0.00274936
     0.00000000     0.00000000     0.00000000
     0.00000000     0.00000000     0.00000000
     0.00000000     0.00000000     0.00000000
     0.00000000     0.00000000     0.00000000
     0.00000000     0.00000000     0.00000000
     0.00000000     0.00000000     0.00000000
     0.00000000     0.00000000     0.00000000
     0.00000000     0.00000000     0.00000000
     0.00000000     0.00000000     0.00000000
     0.00000000     0.00000000     0.00000000
     0.00000000     0.00000000     0.00000000
     0.00000000     0.00000000     0.00000000
     0.00000000     0.00000000     0.00000000
     0.00000000     0.00000000     0.00000000
     0.00000000     0.00000000     0.00000000
     0.00000000     0.00000000     0.00000000
     0.00000000     0.00000000     0.00000000
     0.00000000     0.00000000     0.00000000
     0.00000000     0.00000000     0.00000000
    -0.10476203     0.01674474     0.02659576
    -0.09308692     0.01588717    -0.00886204
    -0.07812271     0.01389220    -0.01336647
    -0.06404423     0.01073191    -0.01099307
    -0.05084198     0.00733496    -0.00831568
    -0.03827892     0.00385513    -0.00669698
    -0.02612866     0.00067767    -0.00580580
    -0.01435712    -0.00305567    -0.00500143
     0.00000000     0.00000000     0.00000000
    -0.16054150     0.03014653     0.03665332
    -0.14428084     0.03148653    -0.01002241
    -0.11943453     0.02824275    -0.01732647
    -0.09594381     0.02316591    -0.01646484
    -0.07466194     0.01754762    -0.01351278
    -0.05457512     0.01198802    -0.01135970
    -0.03507796     0.00643529    -0.00974003
    -0.01594380     0.00137198    -0.00695072
     0.00000000     0.00000000     0.00000000
    -0.16219454     0.02680960     0.03296893
    -0.14173152     0.03967879    -0.00813010
    -0.11522469     0.03616070    -0.01693051
    -0.09219021     0.03019378    -0.01552920
    -0.07144003     0.02432422    -0.01284566
    -0.05189042     0.01868176    -0.01089427
    -0.03277275     0.01334335    -0.00944761
    -0.01411648     0.00771626    -0.00679196
     0.00000000     0.00000000     0.00000000
    -0.10731806     0.01356976     0.02139103
    -0.08105257     0.03117024    -0.00791359
    -0.06678834     0.02574676    -0.01009118
    -0.05439679     0.02277509    -0.00838352
    -0.04320819     0.01926980    -0.00661655
    -0.03223425     0.01609913    -0.00566263
    -0.02141940     0.01282415    -0.00516747
    -0.01032774     0.01015432    -0.00463942
     0.00000000     0.00000000     0.00000000
     0.00000000     0.00000000     0.00000000
     0.00000000     0.00000000     0.00000000
     0.00000000     0.00000000     0.00000000
     0.00000000     0.00000000     0.00000000
     0.00000000     0.00000000     0.00000000
     0.00000000     0.00000000     0.00000000
     0.00000000     0.00000000     0.00000000
     0.00000000     0.00000000     0.00000000
     0.00000000     0.00000000     0.00000000
     0.00000000     0.00000000     0.00000000
     0.00000000     0.00000000     0.00000000
     0.00000000     0.00000000     0.00000000
     0.00000000     0.00000000     0.00000000
     0.00000000     0.00000000     0.00000000
     0.00000000     0.00000000     0.00000000
     0.00000000     0.00000000     0.00000000
     0.00000000     0.00000000     0.00000000
     0.00000000     0.00000000     0.00000000
    -0.06670759     0.01311354     0.02490244
    -0.05049669     0.00646256    -0.00952570
    -0.04447194     0.00825284    -0.01259202
    -0.04043000     0.00759878    -0.01020020
    -0.03438425     0.00560882    -0.00796492
    -0.02721963     0.00333028    -0.00660440
    -0.01977016     0.00108520    -0.00593402
    -0.01181140    -0.00160759    -0.00548227
     0.00000000     0.00000000     0.00000000
    -0.10615133     0.02418770     0.03621872
    -0.08567929     0.01773257    -0.01207966
    -0.07046921     0.01609706    -0.01715424
    -0.06010000     0.01486109    -0.01566391
    -0.04988018     0.01207003    -0.01299766
    -0.03870163     0.00884379    -0.01122529
    -0.02668653     0.00516219    -0.01007196
    -0.01312824     0.00156204    -0.00777605
     0.00000000     0.00000000     0.00000000
    -0.11015259     0.02226908     0.03372024
    -0.08711186     0.02487953    -0.01044663
    -0.06969531     0.02194484    -0.01713061
    -0.05898640     0.01901705    -0.01498832
    -0.04845667     0.01627556    -0.01249309
    -0.03723398     0.01317420    -0.01084719
    -0.02518834     0.01003599    -0.00981978
    -0.01188094     0.00601382    -0.00763354
     0.00000000     0.00000000     0.00000000
    -0.07391295     0.01191559     0.02185769
    -0.04807265     0.01986632    -0.00930738
    -0.04097071     0.01567987    -0.01002803
    -0.03613804     0.01445663    -0.00808057
    -0.03011580     0.01293897    -0.00650779
    -0.02341702     0.01119176    -0.00566395
    -0.01655710     0.00934335    -0.00531787
    -0.00896394     0.00762908    -0.00510867
     0.00000000     0.00000000     0.00000000
     0.00000000     0.00000000     0.00000000
     0.00000000     0.00000000     0.00000000
     0.00000000     0.00000000     0.00000000
     0.00000000     0.00000000     0.00000000
     0.00000000     0.00000000     0.00000000
     0.00000000     0.00000000     0.00000000
     0.00000000     0.00000000     0.00000000
     0.00000000     0.00000000     0.00000000
     0.00000000     0.00000000     0.00000000
     0.00000000     0.00000000     0.00000000
     0.00000000     0.00000000     0.00000000
     0.00000000     0.00000000     0.00000000
     0.00000000     0.00000000     0.00000000
     0.00000000     0.00000000     0.00000000
     0.00000000     0.00000000     0.00000000
     0.00000000     0.00000000     0.00000000
     0.00000000     0.00000000     0.00000000
     0.00000000     0.00000000     0.00000000
    -0.03079288     0.00434072     0.01458267
    -0.01150164    -0.00060085    -0.00690323
    -0.01617907     0.00457963    -0.00686549
    -0.01830335     0.00400809    -0.00582559
    -0.01711951     0.00325896    -0.00475579
    -0.01439448     0.00208170    -0.00413117
    -0.01118923     0.00121717    -0.00374237
    -0.00870913    -0.00021338    -0.00396282
     0.00000000     0.00000000     0.00000000
    -0.04837214     0.01161146     0.02093722
    -0.02419150     0.00365353    -0.00988385
    -0.02432919     0.00599792    -0.00918765
    -0.02550406     0.00683573    -0.00881453
    -0.02404281     0.00612992    -0.00753058
    -0.02039888     0.00493769    -0.00686027
    -0.01576630     0.00337324    -0.00633241
    -0.00989350     0.00164880    -0.00589224
     0.00000000     0.00000000     0.00000000
    -0.05236084     0.01232370     0.02061509
    -0.02658921     0.00806812    -0.00935066
    -0.02512321     0.00744839    -0.00943292
    -0.02577174     0.00807341    -0.00855072
    -0.02375442     0.00787959    -0.00733260
    -0.01990028     0.00688713    -0.00668424
    -0.01512915     0.00570910    -0.00620502
    -0.00926052     0.00404905    -0.00581713
     0.00000000     0.00000000     0.00000000
    -0.03588213     0.00788496     0.01362325
    -0.01205566     0.00697288    -0.00729890
    -0.01687560     0.00509120    -0.00566848
    -0.01704907     0.00644985    -0.00484350
    -0.01535188     0.00628918    -0.00397603
    -0.01256423     0.00577801    -0.00359079
    -0.00966418     0.00483984    -0.00336067
    -0.00712212     0.00478222    -0.00370420
     0.00000000     0.00000000     0.00000000
     0.00000000     0.00000000     0.00000000
     0.00000000     0.00000000     0.00000000
     0.00000000     0.00000000     0.00000000
     0.00000000     0.00000000     0.00000000
     0.00000000     0.00000000     0.00000000
     0.00000000     0.00000000     0.00000000
     0.00000000     0.00000000     0.00000000
     0.00000000     0.00000000     0.00000000
     0.00000000     0.00000000     0.00000000
     0.00000000     0.00000000     0.00000000
     0.00000000     0.00000000     0.00000000
     0.00000000     0.00000000     0.00000000
     0.00000000     0.00000000     0.00000000
     0.00000000     0.00000000     0.00000000
     0.00000000     0.00000000     0.00000000
     0.00000000     0.00000000     0.00000000
     0.00000000     0.00000000     0.00000000
     0.00000000     0.00000000     0.00000000
     0.00000000     0.00000000     0.00000000
     0.00000000     0.00000000     0.00000000
     0.00000000     0.00000000     0.00000000
     0.00000000     0.00000000     0.00000000
     0.00000000     0.00000000     0.00000000
     0.00000000     0.00000000     0.00000000
     0.00000000     0.00000000     0.00000000
     0.00000000     0.00000000     0.00000000
     0.00000000     0.00000000     0.00000000
     0.00000000     0.00000000     0.00000000
     0.00000000     0.00000000     0.00000000
     0.00000000     0.00000000     0.00000000
     0.00000000     0.00000000     0.00000000
     0.00000000     0.00000000     0.00000000
     0.00000000     0.00000000     0.00000000
     0.00000000     0.00000000     0.00000000
     0.00000000     0.00000000     0.00000000
     0.00000000     0.00000000     0.00000000
     0.00000000     0.00000000     0.00000000
     0.00000000     0.00000000     0.00000000
     0.00000000     0.00000000     0.00000000
     0.00000000     0.00000000     0.00000000
     0.00000000     0.00000000     0.00000000
     0.00000000     0.00000000     0.00000000
     0.00000000     0.00000000     0.00000000
     0.00000000     0.00000000     0.00000000
     0.00000000     0.00000000     0.00000000
     0.00000000     0.00000000     0.00000000
     0.00000000     0.00000000     0.00000000
     0.00000000     0.00000000     0.00000000
     0.00000000     0.00000000     0.00000000
     0.00000000     0.00000000     0.00000000
     0.00000000     0.00000000     0.00000000
     0.00000000     0.00000000     0.00000000
     0.00000000     0.00000000     0.00000000
     0.00000000     0.00000000     0.00000000
     0.00000000     0.00000000     0.00000000
     0.00000000     0.00000000     0.00000000
     0.00000000     0.00000000     0.00000000
     0.00000000     0.00000000     0.00000000
     0.00000000     0.00000000     0.00000000
     0.00000000     0.00000000     0.00000000
     0.00000000     0.00000000     0.00000000
     0.00000000     0.00000000     0.00000000
     0.00000000     0.00000000     0.00000000
    -0.12683979    -0.01180552     0.00000000
    -0.11768367    -0.03250958     0.00000000
    -0.11366513    -0.08430210     0.00000000
    -0.10180244    -0.11260842     0.00000000
    -0.08596138    -0.12293735     0.00000000
    -0.06660812    -0.12111762     0.00000000
    -0.04436916    -0.10334320     0.00000000
    -0.02493734    -0.06997936     0.00000000
    -0.01179097    -0.03457632     0.00000000
     0.00000000     0.00000000     0.00000000
    -0.12766135    -0.01200172     0.00706789
    -0.11884691    -0.03434666     0.01347608
    -0.11516630    -0.08451264     0.02258511
    -0.10220426    -0.11301054     0.02492075
    -0.08641002    -0.12370323     0.02556902
    -0.06657896    -0.12217953     0.02348804
    -0.04416389    -0.10408045     0.02078705
    -0.02461325    -0.07015092     0.01724306
    -0.01146030    -0.03439461     0.01438700
     0.00000000     0.00000000     0.01107853
    -0.12948444    -0.01236985     0.01489960
    -0.12087869    -0.03593179     0.02744826
    -0.11780019    -0.08403954     0.04130059
    -0.10387629    -0.11411559     0.04771066
    -0.08738004    -0.12574678     0.04795311
    -0.06644769    -0.12396184     0.04534888
    -0.04379490    -0.10539399     0.04068170
    -0.02354644    -0.07105463     0.03359797
    -0.01067640    -0.03382691     0.02789436
     0.00000000     0.00000000     0.02174823
    -0.13171010    -0.01249227     0.02101967
    -0.12292879    -0.03575682     0.03807700
    -0.12074125    -0.08430129     0.05645441
    -0.10653601    -0.11414488     0.06569869
    -0.08811823    -0.12634199     0.06681992
    -0.06623207    -0.12365926     0.06553729
    -0.04314361    -0.10574101     0.05931741
    -0.02260673    -0.07259436     0.04874795
    -0.00948366    -0.03379575     0.03889784
     0.00000000     0.00000000     0.03162196
    -0.13368813    -0.01252048     0.02541654
    -0.12517121    -0.03510387     0.04718278
    -0.12381488    -0.08266464     0.06807596
    -0.10886924    -0.11187686     0.07880462
    -0.08855912    -0.12528518     0.08274926
    -0.06598717    -0.12564939     0.08114755
    -0.04228583    -0.10880910     0.07347353
    -0.02229209    -0.07528986     0.05988344
    -0.00930453    -0.03540646     0.04672120
     0.00000000     0.00000000     0.03909877
    -0.13512052    -0.01249302     0.02923826
    -0.12819256    -0.03369078     0.05503278
    -0.12818873    -0.07769882     0.07649148
    -0.11246003    -0.10853956     0.08827712
    -0.09210309    -0.12234769     0.09174956
    -0.06766087    -0.12163613     0.08912129
    -0.04136298    -0.10559289     0.08000337
    -0.01722956    -0.07367585     0.06607780
    -0.01036237    -0.03833255     0.05260418
     0.00000000     0.00000000     0.04475323
    -0.13570729    -0.01123263     0.03227706
    -0.13293883    -0.03186358     0.06045157
    -0.13113682    -0.07196680     0.08211789
    -0.11609002    -0.09993103     0.09513303
    -0.09665069    -0.11212446     0.09916611
    -0.06936780    -0.11144067     0.09602666
    -0.04014608    -0.09630410     0.08633597
    -0.01220959    -0.06751480     0.07128270
    -0.00502790    -0.03939745     0.05931755
     0.00000000     0.00000000     0.05186436
    -0.13597303    -0.01027327     0.03409244
    -0.13594612    -0.02861371     0.06394470
    -0.13473548    -0.06304357     0.08476039
    -0.11722193    -0.08753825     0.09636176
    -0.09648447    -0.10057593     0.10252009
    -0.06952154    -0.09946240     0.10231038
    -0.04040901    -0.08515856     0.09251025
    -0.00914237    -0.06038231     0.07641877
    -0.00153416    -0.03788169     0.06628397
     0.00000000     0.00000000     0.05685112
    -0.13592709    -0.00896428     0.03516097
    -0.13773713    -0.02371259     0.06597723
    -0.13846331    -0.04918972     0.08663724
    -0.12017727    -0.06754740     0.09296511
    -0.09478719    -0.07941736     0.09557329
    -0.06712311    -0.08316216     0.09667877
    -0.03921139    -0.07215672     0.09251570
    -0.01010518    -0.05165998     0.07892921
     0.00013355    -0.03308789     0.07129044
     0.00000000     0.00000000     0.05825641
    -0.13566959    -0.00735388     0.03534448
    -0.13866407    -0.01665642     0.06645935
    -0.14059121    -0.03263096     0.08622857
    -0.12210549    -0.04252664     0.09084660
    -0.09581893    -0.04910305     0.09303358
    -0.06603421    -0.05123078     0.08905745
    -0.03567221    -0.04956492     0.08463470
    -0.00942379    -0.03388319     0.07475519
     0.00154548    -0.02504409     0.07406956
     0.00000000     0.00000000     0.05617598
    -0.13638034    -0.00600347     0.03453964
    -0.13835503    -0.00952986     0.06529132
    -0.14041147    -0.01359029     0.08445383
    -0.12190984    -0.01607645     0.08840570
    -0.09574710    -0.01698038     0.09096468
    -0.06574665    -0.01633456     0.08726833
    -0.03487697    -0.01412940     0.08121390
    -0.00823566    -0.01311633     0.07147021
     0.00342315    -0.01453011     0.07682617
     0.00000000     0.00000000     0.05070764
    -0.13415001    -0.00473096     0.03332308
    -0.13641556    -0.00233321     0.06277227
    -0.13771298     0.00479314     0.08130093
    -0.11964664     0.01007536     0.08594613
    -0.09400731     0.01433988     0.08814229
    -0.06502203     0.01826612     0.08575562
    -0.03529679     0.01860870     0.08141309
    -0.00990290     0.00909014     0.07357813
     0.00309195    -0.00297233     0.07478837
     0.00000000     0.00000000     0.06408605
    -0.13304800    -0.00278087     0.03131245
    -0.13319750     0.00463978     0.05839556
    -0.13301263     0.02018032     0.07633635
    -0.11511000     0.03327162     0.08333458
    -0.09158658     0.04235890     0.08698601
    -0.06746984     0.04436791     0.08982977
    -0.03615118     0.03666425     0.08494686
    -0.00991940     0.02442375     0.07207896
     0.00146300     0.00771142     0.07230687
     0.00000000     0.00000000     0.06789878
    -0.13159215    -0.00053162     0.02833945
    -0.12950761     0.00928024     0.05247266
    -0.12631944     0.03237185     0.06899051
    -0.11162382     0.04857994     0.08026407
    -0.08978354     0.05776405     0.08587863
    -0.06822068     0.05736385     0.08559839
    -0.03641621     0.04703340     0.07660323
    -0.00949631     0.02974109     0.06361366
    -0.00075640     0.01548464     0.06502048
     0.00000000     0.00000000     0.06339116
    -0.13024339     0.00119965     0.02540319
    -0.12412703     0.01415319     0.04401262
    -0.11875526     0.03783466     0.05766163
    -0.10683461     0.05726229     0.06779849
    -0.08714659     0.06633708     0.07085842
    -0.06407773     0.06589550     0.06795687
    -0.03573097     0.05425990     0.06133341
    -0.01419751     0.03323620     0.05054232
    -0.00909675     0.01844108     0.04851581
     0.00000000     0.00000000     0.04823061
    -0.12948025     0.00400264     0.02228738
    -0.12083145     0.01814346     0.03671275
    -0.11551822     0.04242719     0.05025724
    -0.10005378     0.06214357     0.05959751
    -0.08197014     0.07237276     0.06284131
    -0.06080132     0.07074184     0.06086820
    -0.03618752     0.05820874     0.05405385
    -0.01934801     0.03337726     0.04330369
    -0.01127950     0.01643438     0.03682660
     0.00000000     0.00000000     0.03414257
    -0.12800295     0.00477531     0.01862077
    -0.11904009     0.02003966     0.03107149
    -0.11314674     0.04393642     0.04345424
    -0.09777960     0.06247556     0.05109744
    -0.07916377     0.07110028     0.05507860
    -0.05861554     0.07066760     0.05443005
    -0.03757372     0.05706346     0.04825640
    -0.01923725     0.02989785     0.03691001
    -0.00860287     0.01040744     0.03183174
     0.00000000     0.00000000     0.02890191
    -0.12587267     0.00462027     0.01525901
    -0.11595565     0.01981387     0.02456946
    -0.10992607     0.04166860     0.03445818
    -0.09569940     0.05908231     0.03996361
    -0.07821116     0.06628261     0.04214591
    -0.05834873     0.06318332     0.04202632
    -0.03734432     0.04900061     0.03764102
    -0.01832203     0.02162128     0.02875050
    -0.00889608     0.00670125     0.02540624
     0.00000000     0.00000000     0.02331397
    -0.12326822     0.00473516     0.01101243
    -0.11436240     0.01940368     0.01689716
    -0.10714879     0.03944920     0.02480508
    -0.09382553     0.05631140     0.02853322
    -0.07744330     0.06330950     0.02856708
    -0.05827545     0.06015824     0.02787238
    -0.03739648     0.04509001     0.02480280
    -0.01863424     0.01771924     0.01961831
    -0.00968118     0.00615347     0.01786349
     0.00000000     0.00000000     0.01634275
    -0.12151410     0.00493144     0.00532139
    -0.11364142     0.01843802     0.00811837
    -0.10537455     0.03750771     0.01261872
    -0.09246367     0.05404589     0.01499413
    -0.07680889     0.06057042     0.01446941
    -0.05819799     0.05775313     0.01392925
    -0.03754746     0.04263966     0.01233180
    -0.01941045     0.01627127     0.01002565
    -0.01141826     0.00620749     0.00933288
     0.00000000     0.00000000     0.00841409
    -0.12081691     0.00477208     0.00000000
    -0.11325644     0.01804264     0.00000000
    -0.10477368     0.03683263     0.00000000
    -0.09191690     0.05286688     0.00000000
    -0.07662016     0.05938594     0.00000000
    -0.05813194     0.05682506     0.00000000
    -0.03759761     0.04176522     0.00000000
    -0.01984435     0.01586635     0.00000000
    -0.01188429     0.00626926     0.00000000
     0.00000000     0.00000000     0.00000000
    -0.13534167    -0.00441723     0.00000000
    -0.13528530    -0.00568444     0.00000000
    -0.13571770    -0.00602339     0.00000000
    -0.13394679    -0.00569616     0.00000000
    -0.13300441    -0.00487861     0.00000000
    -0.13236077    -0.00384539     0.00000000
    -0.13209022    -0.00279320     0.00000000
    -0.13204117    -0.00184903     0.00000000
    -0.13206721    -0.00133614     0.00000000
    -0.13219992    -0.00104381     0.00000000
    -0.13181869    -0.00173363     0.00000000
    -0.13548900    -0.00430081     0.00468035
    -0.13517574    -0.00544863     0.00562034
    -0.13478610    -0.00596730     0.00598867
    -0.13393192    -0.00561932     0.00590254
    -0.13304116    -0.00484735     0.00588258
    -0.13246292    -0.00380843     0.00585982
    -0.13223351    -0.00281979     0.00595082
    -0.13217099    -0.00194226     0.00590732
    -0.13220091    -0.00135490     0.00594388
    -0.13221326    -0.00128548     0.00551538
    -0.13198757    -0.00186855     0.00442738
    -0.13566058    -0.00418693     0.00718579
    -0.13522272    -0.00517718     0.00804477
    -0.13463216    -0.00564381     0.00867669
    -0.13385896    -0.00538252     0.00920936
    -0.13310769    -0.00462394     0.00953975
    -0.13280541    -0.00375371     0.00971683
    -0.13276921    -0.00290319     0.00974072
    -0.13262016    -0.00222558     0.00947546
    -0.13248739    -0.00175216     0.00881783
    -0.13244723    -0.00170048     0.00803153
    -0.13231018    -0.00205443     0.00704381
    -0.13569643    -0.00441620     0.00937413
    -0.13542563    -0.00504918     0.01034159
    -0.13479494    -0.00528140     0.01097058
    -0.13387859    -0.00498431     0.01149677
    -0.13305295    -0.00429020     0.01201112
    -0.13379370    -0.00360040     0.01230074
    -0.13374378    -0.00308868     0.01222096
    -0.13369240    -0.00258058     0.01180005
    -0.13294537    -0.00235992     0.01104391
    -0.13289400    -0.00218793     0.01017547
    -0.13257495    -0.00223577     0.00904846
    -0.13582474    -0.00482197     0.01131623
    -0.13546277    -0.00499738     0.01205161
    -0.13481145    -0.00494073     0.01255791
    -0.13383856    -0.00455031     0.01295618
    -0.13295964    -0.00411116     0.01303485
    -0.13262024    -0.00364341     0.01276510
    -0.13243565    -0.00336252     0.01245455
    -0.13259048    -0.00308997     0.01215745
    -0.13278285    -0.00279869     0.01196594
    -0.13313088    -0.00255534     0.01155750
    -0.13306215    -0.00240357     0.01079472
    -0.13553979    -0.00500120     0.01255390
    -0.13531473    -0.00492410     0.01331933
    -0.13456546    -0.00439817     0.01367264
    -0.13365942    -0.00408304     0.01375449
    -0.13304400    -0.00392588     0.01366543
    -0.13282728    -0.00386491     0.01339921
    -0.13242574    -0.00379739     0.01292621
    -0.13242914    -0.00370941     0.01253955
    -0.13280305    -0.00331291     0.01244962
    -0.13291113    -0.00290463     0.01235231
    -0.13300254    -0.00258387     0.01177889
