# vtk DataFile Version 3.0
Example VTK
ASCII
DATASET UNSTRUCTURED_GRID
POINTS  5664 float
 -0.102400000000E+01 -0.184530000000E+01  0.176380000000E+00
 -0.101600000000E+01 -0.140880000000E+01 -0.248980000000E+00
 -0.942500000000E+00 -0.892430000000E+00 -0.561990000000E+00
 -0.790500000000E+00 -0.321140000000E+00 -0.703340000000E+00
 -0.577100000000E+00  0.247240000000E+00 -0.662230000000E+00
 -0.331200000000E+00  0.776300000000E+00 -0.485570000000E+00
 -0.942500000000E+00 -0.170750000000E+01  0.273500000000E+00
 -0.922600000000E+00 -0.130590000000E+01 -0.800200000000E-01
 -0.849500000000E+00 -0.840410000000E+00 -0.343670000000E+00
 -0.714100000000E+00 -0.330950000000E+00 -0.469990000000E+00
 -0.529600000000E+00  0.176180000000E+00 -0.450340000000E+00
 -0.319000000000E+00  0.651860000000E+00 -0.322250000000E+00
 -0.861000000000E+00 -0.156980000000E+01  0.370630000000E+00
 -0.828700000000E+00 -0.120310000000E+01  0.889370000000E-01
 -0.756600000000E+00 -0.788400000000E+00 -0.125350000000E+00
 -0.637700000000E+00 -0.340760000000E+00 -0.236640000000E+00
 -0.482000000000E+00  0.105130000000E+00 -0.238450000000E+00
 -0.306700000000E+00  0.527420000000E+00 -0.158930000000E+00
 -0.779400000000E+00 -0.143210000000E+01  0.467750000000E+00
 -0.734900000000E+00 -0.110020000000E+01  0.257890000000E+00
 -0.663700000000E+00 -0.736380000000E+00  0.929720000000E-01
 -0.561400000000E+00 -0.350570000000E+00 -0.328470000000E-02
 -0.434400000000E+00  0.340730000000E-01 -0.265570000000E-01
 -0.294500000000E+00  0.402990000000E+00  0.438870000000E-02
 -0.697900000000E+00 -0.129440000000E+01  0.564880000000E+00
 -0.641000000000E+00 -0.997370000000E+00  0.426850000000E+00
 -0.570800000000E+00 -0.684370000000E+00  0.311290000000E+00
 -0.485000000000E+00 -0.360380000000E+00  0.230070000000E+00
 -0.386900000000E+00 -0.369820000000E-01  0.185330000000E+00
 -0.282300000000E+00  0.278550000000E+00  0.167710000000E+00
 -0.616400000000E+00 -0.115670000000E+01  0.662000000000E+00
 -0.547100000000E+00 -0.894500000000E+00  0.595810000000E+00
 -0.477900000000E+00 -0.632350000000E+00  0.529610000000E+00
 -0.408600000000E+00 -0.370190000000E+00  0.463420000000E+00
 -0.339300000000E+00 -0.108040000000E+00  0.397220000000E+00
 -0.270000000000E+00  0.154120000000E+00  0.331030000000E+00
 -0.272200000000E+01 -0.906360000000E+00  0.114360000000E+00
 -0.260200000000E+01 -0.415930000000E+00 -0.138260000000E+00
 -0.241200000000E+01  0.100080000000E+00 -0.264630000000E+00
 -0.217300000000E+01  0.610740000000E+00 -0.276730000000E+00
 -0.188700000000E+01  0.107470000000E+01 -0.138270000000E+00
 -0.157800000000E+01  0.138740000000E+01  0.212590000000E+00
 -0.262100000000E+01 -0.811720000000E+00  0.236470000000E+00
 -0.250200000000E+01 -0.373500000000E+00  0.363350000000E-01
 -0.232700000000E+01  0.851810000000E-01 -0.627900000000E-01
 -0.211300000000E+01  0.539580000000E+00 -0.705090000000E-01
 -0.186200000000E+01  0.956610000000E+00  0.422250000000E-01
 -0.159200000000E+01  0.125270000000E+01  0.324880000000E+00
 -0.252000000000E+01 -0.717080000000E+00  0.358580000000E+00
 -0.240200000000E+01 -0.331070000000E+00  0.210930000000E+00
 -0.224300000000E+01  0.702840000000E-01  0.139050000000E+00
 -0.205300000000E+01  0.468430000000E+00  0.135710000000E+00
 -0.183600000000E+01  0.838540000000E+00  0.222720000000E+00
 -0.160500000000E+01  0.111790000000E+01  0.437160000000E+00
 -0.242000000000E+01 -0.622440000000E+00  0.480690000000E+00
 -0.230300000000E+01 -0.288640000000E+00  0.385530000000E+00
 -0.215800000000E+01  0.553860000000E-01  0.340880000000E+00
 -0.199400000000E+01  0.397280000000E+00  0.341930000000E+00
 -0.181100000000E+01  0.720480000000E+00  0.403210000000E+00
 -0.161900000000E+01  0.983200000000E+00  0.549450000000E+00
 -0.231900000000E+01 -0.527800000000E+00  0.602790000000E+00
 -0.220300000000E+01 -0.246210000000E+00  0.560130000000E+00
 -0.207400000000E+01  0.404890000000E-01  0.542720000000E+00
 -0.193400000000E+01  0.326120000000E+00  0.548150000000E+00
 -0.178600000000E+01  0.602410000000E+00  0.583710000000E+00
 -0.163200000000E+01  0.848460000000E+00  0.661740000000E+00
 -0.221800000000E+01 -0.433160000000E+00  0.724900000000E+00
 -0.210300000000E+01 -0.203780000000E+00  0.734730000000E+00
 -0.198900000000E+01  0.255920000000E-01  0.744550000000E+00
 -0.187500000000E+01  0.254970000000E+00  0.754370000000E+00
 -0.176000000000E+01  0.484340000000E+00  0.764200000000E+00
 -0.164600000000E+01  0.713720000000E+00  0.774020000000E+00
 -0.422900000000E+01 -0.528700000000E+00  0.119270000000E+01
 -0.415500000000E+01 -0.683480000000E-01  0.811260000000E+00
 -0.402400000000E+01  0.425510000000E+00  0.494290000000E+00
 -0.379200000000E+01  0.950140000000E+00  0.317580000000E+00
 -0.346800000000E+01  0.145560000000E+01  0.322090000000E+00
 -0.309500000000E+01  0.189790000000E+01  0.483930000000E+00
 -0.410700000000E+01 -0.412090000000E+00  0.127650000000E+01
 -0.402500000000E+01  0.472660000000E-02  0.957240000000E+00
 -0.389700000000E+01  0.448340000000E+00  0.689490000000E+00
 -0.368900000000E+01  0.916580000000E+00  0.533940000000E+00
 -0.340800000000E+01  0.136950000000E+01  0.523370000000E+00
 -0.308600000000E+01  0.177190000000E+01  0.638670000000E+00
 -0.398400000000E+01 -0.295480000000E+00  0.136040000000E+01
 -0.389500000000E+01  0.778010000000E-01  0.110320000000E+01
 -0.377100000000E+01  0.471180000000E+00  0.884690000000E+00
 -0.358600000000E+01  0.883020000000E+00  0.750310000000E+00
 -0.334700000000E+01  0.128330000000E+01  0.724660000000E+00
 -0.307700000000E+01  0.164580000000E+01  0.793420000000E+00
 -0.386200000000E+01 -0.178860000000E+00  0.144430000000E+01
 -0.376500000000E+01  0.150880000000E+00  0.124920000000E+01
 -0.364400000000E+01  0.494010000000E+00  0.107990000000E+01
 -0.348300000000E+01  0.849470000000E+00  0.966670000000E+00
 -0.328600000000E+01  0.119720000000E+01  0.925950000000E+00
 -0.306800000000E+01  0.151980000000E+01  0.948160000000E+00
 -0.374000000000E+01 -0.622490000000E-01  0.152820000000E+01
 -0.363400000000E+01  0.223950000000E+00  0.139520000000E+01
 -0.351700000000E+01  0.516850000000E+00  0.127510000000E+01
 -0.338000000000E+01  0.815910000000E+00  0.118300000000E+01
 -0.322500000000E+01  0.111110000000E+01  0.112720000000E+01
 -0.305900000000E+01  0.139370000000E+01  0.110290000000E+01
 -0.361800000000E+01  0.543640000000E-01  0.161200000000E+01
 -0.350400000000E+01  0.297020000000E+00  0.154120000000E+01
 -0.339100000000E+01  0.539690000000E+00  0.147030000000E+01
 -0.327700000000E+01  0.782350000000E+00  0.139940000000E+01
 -0.316400000000E+01  0.102500000000E+01  0.132850000000E+01
 -0.305000000000E+01  0.126770000000E+01  0.125770000000E+01
 -0.553500000000E+01  0.809210000000E+00  0.183530000000E+01
 -0.541800000000E+01  0.123220000000E+01  0.146510000000E+01
 -0.520100000000E+01  0.168480000000E+01  0.118840000000E+01
 -0.488500000000E+01  0.213780000000E+01  0.103910000000E+01
 -0.447600000000E+01  0.253060000000E+01  0.108440000000E+01
 -0.404200000000E+01  0.273560000000E+01  0.139300000000E+01
 -0.539900000000E+01  0.878460000000E+00  0.192660000000E+01
 -0.527500000000E+01  0.125540000000E+01  0.162170000000E+01
 -0.507200000000E+01  0.165600000000E+01  0.139140000000E+01
 -0.478900000000E+01  0.205690000000E+01  0.126320000000E+01
 -0.443200000000E+01  0.240970000000E+01  0.129060000000E+01
 -0.405500000000E+01  0.261220000000E+01  0.152860000000E+01
 -0.526200000000E+01  0.947710000000E+00  0.201800000000E+01
 -0.513200000000E+01  0.127850000000E+01  0.177820000000E+01
 -0.494200000000E+01  0.162720000000E+01  0.159450000000E+01
 -0.469300000000E+01  0.197600000000E+01  0.148720000000E+01
 -0.438700000000E+01  0.228880000000E+01  0.149670000000E+01
 -0.406700000000E+01  0.248880000000E+01  0.166420000000E+01
 -0.512500000000E+01  0.101700000000E+01  0.210940000000E+01
 -0.498900000000E+01  0.130170000000E+01  0.193480000000E+01
 -0.481300000000E+01  0.159840000000E+01  0.179750000000E+01
 -0.459600000000E+01  0.189520000000E+01  0.171130000000E+01
 -0.434300000000E+01  0.216790000000E+01  0.170290000000E+01
 -0.408000000000E+01  0.236550000000E+01  0.179980000000E+01
 -0.498900000000E+01  0.108620000000E+01  0.220070000000E+01
 -0.484600000000E+01  0.132490000000E+01  0.209130000000E+01
 -0.468300000000E+01  0.156960000000E+01  0.200060000000E+01
 -0.450000000000E+01  0.181430000000E+01  0.193530000000E+01
 -0.429900000000E+01  0.204690000000E+01  0.190900000000E+01
 -0.409300000000E+01  0.224210000000E+01  0.193530000000E+01
 -0.485200000000E+01  0.115550000000E+01  0.229210000000E+01
 -0.470300000000E+01  0.134810000000E+01  0.224790000000E+01
 -0.455300000000E+01  0.154070000000E+01  0.220360000000E+01
 -0.440400000000E+01  0.173340000000E+01  0.215940000000E+01
 -0.425500000000E+01  0.192600000000E+01  0.211520000000E+01
 -0.410500000000E+01  0.211870000000E+01  0.207090000000E+01
 -0.652300000000E+01  0.214360000000E+01  0.313000000000E+01
 -0.627200000000E+01  0.250830000000E+01  0.277720000000E+01
 -0.599700000000E+01  0.287410000000E+01  0.244470000000E+01
 -0.570600000000E+01  0.323950000000E+01  0.212550000000E+01
 -0.530200000000E+01  0.357900000000E+01  0.194770000000E+01
 -0.480300000000E+01  0.373120000000E+01  0.214860000000E+01
 -0.636100000000E+01  0.220310000000E+01  0.317930000000E+01
 -0.612600000000E+01  0.252660000000E+01  0.287740000000E+01
 -0.587100000000E+01  0.285100000000E+01  0.259180000000E+01
 -0.560500000000E+01  0.317510000000E+01  0.231680000000E+01
 -0.524700000000E+01  0.347840000000E+01  0.215500000000E+01
 -0.481300000000E+01  0.363190000000E+01  0.229600000000E+01
 -0.620000000000E+01  0.226260000000E+01  0.322860000000E+01
 -0.598000000000E+01  0.254490000000E+01  0.297760000000E+01
 -0.574600000000E+01  0.282790000000E+01  0.273890000000E+01
 -0.550300000000E+01  0.311060000000E+01  0.250810000000E+01
 -0.519200000000E+01  0.337780000000E+01  0.236220000000E+01
 -0.482300000000E+01  0.353270000000E+01  0.244340000000E+01
 -0.603800000000E+01  0.232200000000E+01  0.327780000000E+01
 -0.583400000000E+01  0.256320000000E+01  0.307780000000E+01
 -0.562100000000E+01  0.280480000000E+01  0.288590000000E+01
 -0.540100000000E+01  0.304620000000E+01  0.269940000000E+01
 -0.513600000000E+01  0.327720000000E+01  0.256940000000E+01
 -0.483300000000E+01  0.343340000000E+01  0.259090000000E+01
 -0.587600000000E+01  0.238150000000E+01  0.332710000000E+01
 -0.568800000000E+01  0.258150000000E+01  0.317800000000E+01
 -0.549500000000E+01  0.278160000000E+01  0.303300000000E+01
 -0.530000000000E+01  0.298170000000E+01  0.289070000000E+01
 -0.508100000000E+01  0.317660000000E+01  0.277660000000E+01
 -0.484400000000E+01  0.333410000000E+01  0.273830000000E+01
 -0.571400000000E+01  0.244100000000E+01  0.337640000000E+01
 -0.554200000000E+01  0.259980000000E+01  0.327830000000E+01
 -0.537000000000E+01  0.275850000000E+01  0.318010000000E+01
 -0.519800000000E+01  0.291730000000E+01  0.308200000000E+01
 -0.502600000000E+01  0.307600000000E+01  0.298380000000E+01
 -0.485400000000E+01  0.323480000000E+01  0.288570000000E+01
 -0.694300000000E+01  0.395300000000E+01  0.355410000000E+01
 -0.667000000000E+01  0.425970000000E+01  0.315020000000E+01
 -0.631400000000E+01  0.456330000000E+01  0.281610000000E+01
 -0.586200000000E+01  0.484410000000E+01  0.260010000000E+01
 -0.533400000000E+01  0.506430000000E+01  0.256300000000E+01
 -0.479700000000E+01  0.518790000000E+01  0.272560000000E+01
 -0.677800000000E+01  0.398010000000E+01  0.362580000000E+01
 -0.651700000000E+01  0.425010000000E+01  0.328610000000E+01
 -0.618900000000E+01  0.451770000000E+01  0.300230000000E+01
 -0.578400000000E+01  0.476700000000E+01  0.281290000000E+01
 -0.531900000000E+01  0.496790000000E+01  0.276660000000E+01
 -0.484700000000E+01  0.509140000000E+01  0.288020000000E+01
 -0.661300000000E+01  0.400710000000E+01  0.369750000000E+01
 -0.636400000000E+01  0.424050000000E+01  0.342210000000E+01
 -0.606400000000E+01  0.447210000000E+01  0.318840000000E+01
 -0.570700000000E+01  0.469000000000E+01  0.302570000000E+01
 -0.530400000000E+01  0.487150000000E+01  0.297030000000E+01
 -0.489600000000E+01  0.499500000000E+01  0.303480000000E+01
 -0.644800000000E+01  0.403420000000E+01  0.376930000000E+01
 -0.621000000000E+01  0.423090000000E+01  0.355800000000E+01
 -0.593900000000E+01  0.442650000000E+01  0.337460000000E+01
 -0.562900000000E+01  0.461290000000E+01  0.323850000000E+01
 -0.529000000000E+01  0.477500000000E+01  0.317400000000E+01
 -0.494600000000E+01  0.489850000000E+01  0.318930000000E+01
 -0.628300000000E+01  0.406120000000E+01  0.384100000000E+01
 -0.605700000000E+01  0.422130000000E+01  0.369390000000E+01
 -0.581400000000E+01  0.438080000000E+01  0.356080000000E+01
 -0.555200000000E+01  0.453580000000E+01  0.345130000000E+01
 -0.527500000000E+01  0.467860000000E+01  0.337760000000E+01
 -0.499600000000E+01  0.480210000000E+01  0.334390000000E+01
 -0.611800000000E+01  0.408830000000E+01  0.391270000000E+01
 -0.590400000000E+01  0.421170000000E+01  0.382980000000E+01
 -0.568900000000E+01  0.433520000000E+01  0.374700000000E+01
 -0.547500000000E+01  0.445870000000E+01  0.366410000000E+01
 -0.526000000000E+01  0.458220000000E+01  0.358130000000E+01
 -0.504500000000E+01  0.470570000000E+01  0.349840000000E+01
 -0.744600000000E+01  0.523220000000E+01  0.450130000000E+01
 -0.721400000000E+01  0.549120000000E+01  0.408740000000E+01
 -0.690000000000E+01  0.575180000000E+01  0.373280000000E+01
 -0.652900000000E+01  0.600690000000E+01  0.343490000000E+01
 -0.607800000000E+01  0.623700000000E+01  0.325550000000E+01
 -0.556400000000E+01  0.637840000000E+01  0.332700000000E+01
 -0.728400000000E+01  0.527000000000E+01  0.453940000000E+01
 -0.706100000000E+01  0.550010000000E+01  0.418480000000E+01
 -0.677200000000E+01  0.573150000000E+01  0.387760000000E+01
 -0.643800000000E+01  0.595850000000E+01  0.361580000000E+01
 -0.603900000000E+01  0.616550000000E+01  0.344880000000E+01
 -0.559000000000E+01  0.630160000000E+01  0.348260000000E+01
 -0.712200000000E+01  0.530780000000E+01  0.457750000000E+01
 -0.690800000000E+01  0.550910000000E+01  0.428220000000E+01
 -0.664400000000E+01  0.571120000000E+01  0.402250000000E+01
 -0.634600000000E+01  0.591010000000E+01  0.379680000000E+01
 -0.600000000000E+01  0.609410000000E+01  0.364210000000E+01
 -0.561700000000E+01  0.622480000000E+01  0.363810000000E+01
 -0.696000000000E+01  0.534560000000E+01  0.461570000000E+01
 -0.675400000000E+01  0.551800000000E+01  0.437960000000E+01
 -0.651600000000E+01  0.569100000000E+01  0.416730000000E+01
 -0.625500000000E+01  0.586180000000E+01  0.397770000000E+01
 -0.596100000000E+01  0.602260000000E+01  0.383550000000E+01
 -0.564300000000E+01  0.614800000000E+01  0.379370000000E+01
 -0.679800000000E+01  0.538340000000E+01  0.465380000000E+01
 -0.660100000000E+01  0.552690000000E+01  0.447700000000E+01
 -0.638800000000E+01  0.567070000000E+01  0.431220000000E+01
 -0.616300000000E+01  0.581340000000E+01  0.415870000000E+01
 -0.592200000000E+01  0.595110000000E+01  0.402880000000E+01
 -0.566900000000E+01  0.607110000000E+01  0.394920000000E+01
 -0.663600000000E+01  0.542120000000E+01  0.469190000000E+01
 -0.644800000000E+01  0.553580000000E+01  0.457440000000E+01
 -0.626000000000E+01  0.565040000000E+01  0.445700000000E+01
 -0.607100000000E+01  0.576510000000E+01  0.433960000000E+01
 -0.588300000000E+01  0.587970000000E+01  0.422220000000E+01
 -0.569500000000E+01  0.599430000000E+01  0.410470000000E+01
 -0.800600000000E+01  0.674580000000E+01  0.524530000000E+01
 -0.777300000000E+01  0.693830000000E+01  0.479450000000E+01
 -0.749400000000E+01  0.713300000000E+01  0.437230000000E+01
 -0.712800000000E+01  0.732590000000E+01  0.402210000000E+01
 -0.666100000000E+01  0.749930000000E+01  0.381550000000E+01
 -0.613500000000E+01  0.762810000000E+01  0.379990000000E+01
 -0.783000000000E+01  0.678110000000E+01  0.526650000000E+01
 -0.760600000000E+01  0.695270000000E+01  0.487690000000E+01
 -0.734500000000E+01  0.712610000000E+01  0.451030000000E+01
 -0.701500000000E+01  0.729810000000E+01  0.420120000000E+01
 -0.660300000000E+01  0.745450000000E+01  0.400700000000E+01
 -0.614600000000E+01  0.757510000000E+01  0.396560000000E+01
 -0.765300000000E+01  0.681630000000E+01  0.528770000000E+01
 -0.743800000000E+01  0.696710000000E+01  0.495940000000E+01
 -0.719500000000E+01  0.711920000000E+01  0.464820000000E+01
 -0.690200000000E+01  0.727020000000E+01  0.438030000000E+01
 -0.654600000000E+01  0.740960000000E+01  0.419850000000E+01
 -0.615600000000E+01  0.752210000000E+01  0.413140000000E+01
 -0.747600000000E+01  0.685160000000E+01  0.530890000000E+01
 -0.727000000000E+01  0.698150000000E+01  0.504180000000E+01
 -0.704600000000E+01  0.711230000000E+01  0.478620000000E+01
 -0.678800000000E+01  0.724240000000E+01  0.455950000000E+01
 -0.648900000000E+01  0.736470000000E+01  0.439010000000E+01
 -0.616600000000E+01  0.746920000000E+01  0.429710000000E+01
 -0.729900000000E+01  0.688690000000E+01  0.533010000000E+01
 -0.710300000000E+01  0.699590000000E+01  0.512430000000E+01
 -0.689700000000E+01  0.710540000000E+01  0.492420000000E+01
 -0.667500000000E+01  0.721460000000E+01  0.473860000000E+01
 -0.643100000000E+01  0.731990000000E+01  0.458160000000E+01
 -0.617700000000E+01  0.741620000000E+01  0.446280000000E+01
 -0.712300000000E+01  0.692210000000E+01  0.535130000000E+01
 -0.693500000000E+01  0.701030000000E+01  0.520670000000E+01
 -0.674800000000E+01  0.709860000000E+01  0.506220000000E+01
 -0.656100000000E+01  0.718680000000E+01  0.491770000000E+01
 -0.637400000000E+01  0.727500000000E+01  0.477310000000E+01
 -0.618700000000E+01  0.736320000000E+01  0.462860000000E+01
 -0.809800000000E+01  0.842710000000E+01  0.578020000000E+01
 -0.798900000000E+01  0.854800000000E+01  0.525780000000E+01
 -0.774300000000E+01  0.868010000000E+01  0.478880000000E+01
 -0.735300000000E+01  0.881270000000E+01  0.443060000000E+01
 -0.686800000000E+01  0.893340000000E+01  0.420690000000E+01
 -0.634700000000E+01  0.904130000000E+01  0.407680000000E+01
 -0.792900000000E+01  0.845160000000E+01  0.579120000000E+01
 -0.780700000000E+01  0.856060000000E+01  0.533910000000E+01
 -0.757500000000E+01  0.867850000000E+01  0.492980000000E+01
 -0.722800000000E+01  0.879690000000E+01  0.460930000000E+01
 -0.680500000000E+01  0.890570000000E+01  0.439620000000E+01
 -0.635300000000E+01  0.900440000000E+01  0.425800000000E+01
 -0.776000000000E+01  0.847600000000E+01  0.580210000000E+01
 -0.762500000000E+01  0.857320000000E+01  0.542040000000E+01
 -0.740700000000E+01  0.867690000000E+01  0.507090000000E+01
 -0.710300000000E+01  0.878110000000E+01  0.478790000000E+01
 -0.674200000000E+01  0.887810000000E+01  0.458550000000E+01
 -0.635900000000E+01  0.896740000000E+01  0.443930000000E+01
 -0.759100000000E+01  0.850050000000E+01  0.581300000000E+01
 -0.744300000000E+01  0.858570000000E+01  0.550180000000E+01
 -0.723900000000E+01  0.867540000000E+01  0.521200000000E+01
 -0.697800000000E+01  0.876530000000E+01  0.496650000000E+01
 -0.667900000000E+01  0.885040000000E+01  0.477480000000E+01
 -0.636500000000E+01  0.893050000000E+01  0.462050000000E+01
 -0.742200000000E+01  0.852500000000E+01  0.582390000000E+01
 -0.726000000000E+01  0.859830000000E+01  0.558310000000E+01
 -0.707100000000E+01  0.867380000000E+01  0.535300000000E+01
 -0.685300000000E+01  0.874950000000E+01  0.514510000000E+01
 -0.661600000000E+01  0.882280000000E+01  0.496410000000E+01
 -0.637200000000E+01  0.889350000000E+01  0.480180000000E+01
 -0.725300000000E+01  0.854940000000E+01  0.583480000000E+01
 -0.707800000000E+01  0.861090000000E+01  0.566440000000E+01
 -0.690300000000E+01  0.867230000000E+01  0.549410000000E+01
 -0.672800000000E+01  0.873370000000E+01  0.532380000000E+01
 -0.655300000000E+01  0.879510000000E+01  0.515340000000E+01
 -0.637800000000E+01  0.885650000000E+01  0.498310000000E+01
 -0.809200000000E+01  0.102570000000E+02  0.581440000000E+01
 -0.796000000000E+01  0.102940000000E+02  0.530720000000E+01
 -0.768700000000E+01  0.103330000000E+02  0.486020000000E+01
 -0.729100000000E+01  0.103690000000E+02  0.451860000000E+01
 -0.679800000000E+01  0.103980000000E+02  0.434830000000E+01
 -0.627700000000E+01  0.104140000000E+02  0.440700000000E+01
 -0.793000000000E+01  0.102610000000E+02  0.584510000000E+01
 -0.778800000000E+01  0.102940000000E+02  0.541120000000E+01
 -0.753400000000E+01  0.103280000000E+02  0.502550000000E+01
 -0.718100000000E+01  0.103600000000E+02  0.472410000000E+01
 -0.674900000000E+01  0.103870000000E+02  0.455970000000E+01
 -0.629700000000E+01  0.104020000000E+02  0.457850000000E+01
 -0.776800000000E+01  0.102650000000E+02  0.587590000000E+01
 -0.761600000000E+01  0.102930000000E+02  0.551530000000E+01
 -0.738000000000E+01  0.103230000000E+02  0.519080000000E+01
 -0.707000000000E+01  0.103510000000E+02  0.492960000000E+01
 -0.670100000000E+01  0.103750000000E+02  0.477110000000E+01
 -0.631600000000E+01  0.103900000000E+02  0.475000000000E+01
 -0.760600000000E+01  0.102690000000E+02  0.590670000000E+01
 -0.744400000000E+01  0.102930000000E+02  0.561940000000E+01
 -0.722600000000E+01  0.103180000000E+02  0.535610000000E+01
 -0.695900000000E+01  0.103420000000E+02  0.513510000000E+01
 -0.665300000000E+01  0.103630000000E+02  0.498250000000E+01
 -0.633500000000E+01  0.103790000000E+02  0.492150000000E+01
 -0.744400000000E+01  0.102730000000E+02  0.593750000000E+01
 -0.727200000000E+01  0.102930000000E+02  0.572340000000E+01
 -0.707300000000E+01  0.103130000000E+02  0.552150000000E+01
 -0.684800000000E+01  0.103330000000E+02  0.534060000000E+01
 -0.660400000000E+01  0.103510000000E+02  0.519390000000E+01
 -0.635500000000E+01  0.103670000000E+02  0.509300000000E+01
 -0.728200000000E+01  0.102760000000E+02  0.596830000000E+01
 -0.710000000000E+01  0.102920000000E+02  0.582750000000E+01
 -0.691900000000E+01  0.103080000000E+02  0.568680000000E+01
 -0.673700000000E+01  0.103240000000E+02  0.554600000000E+01
 -0.655600000000E+01  0.103390000000E+02  0.540530000000E+01
 -0.637400000000E+01  0.103550000000E+02  0.526460000000E+01
 -0.782100000000E+01  0.119790000000E+02  0.550440000000E+01
 -0.772000000000E+01  0.119550000000E+02  0.500030000000E+01
 -0.741000000000E+01  0.119210000000E+02  0.459220000000E+01
 -0.698100000000E+01  0.118840000000E+02  0.431030000000E+01
 -0.648200000000E+01  0.118480000000E+02  0.419250000000E+01
 -0.598200000000E+01  0.118200000000E+02  0.430950000000E+01
 -0.766900000000E+01  0.119710000000E+02  0.554370000000E+01
 -0.755100000000E+01  0.119480000000E+02  0.511660000000E+01
 -0.726600000000E+01  0.119180000000E+02  0.476620000000E+01
 -0.688600000000E+01  0.118850000000E+02  0.451680000000E+01
 -0.645100000000E+01  0.118530000000E+02  0.439860000000E+01
 -0.601400000000E+01  0.118280000000E+02  0.446830000000E+01
 -0.751600000000E+01  0.119620000000E+02  0.558310000000E+01
 -0.738200000000E+01  0.119420000000E+02  0.523280000000E+01
 -0.712300000000E+01  0.119150000000E+02  0.494020000000E+01
 -0.679200000000E+01  0.118860000000E+02  0.472330000000E+01
 -0.641900000000E+01  0.118580000000E+02  0.460480000000E+01
 -0.604500000000E+01  0.118350000000E+02  0.462720000000E+01
 -0.736400000000E+01  0.119540000000E+02  0.562240000000E+01
 -0.721300000000E+01  0.119350000000E+02  0.534910000000E+01
 -0.697900000000E+01  0.119120000000E+02  0.511420000000E+01
 -0.669700000000E+01  0.118870000000E+02  0.492970000000E+01
 -0.638700000000E+01  0.118640000000E+02  0.481090000000E+01
 -0.607700000000E+01  0.118430000000E+02  0.478600000000E+01
 -0.721200000000E+01  0.119450000000E+02  0.566180000000E+01
 -0.704400000000E+01  0.119280000000E+02  0.546540000000E+01
 -0.683500000000E+01  0.119090000000E+02  0.528820000000E+01
 -0.660200000000E+01  0.118880000000E+02  0.513620000000E+01
 -0.635600000000E+01  0.118690000000E+02  0.501710000000E+01
 -0.610800000000E+01  0.118500000000E+02  0.494490000000E+01
 -0.705900000000E+01  0.119370000000E+02  0.570120000000E+01
 -0.687500000000E+01  0.119210000000E+02  0.558170000000E+01
 -0.669200000000E+01  0.119050000000E+02  0.546220000000E+01
 -0.650800000000E+01  0.118900000000E+02  0.534270000000E+01
 -0.632400000000E+01  0.118740000000E+02  0.522320000000E+01
 -0.614000000000E+01  0.118580000000E+02  0.510370000000E+01
 -0.754000000000E+01  0.135140000000E+02  0.487910000000E+01
 -0.728600000000E+01  0.134570000000E+02  0.448820000000E+01
 -0.689600000000E+01  0.134010000000E+02  0.423340000000E+01
 -0.644300000000E+01  0.133540000000E+02  0.412540000000E+01
 -0.598600000000E+01  0.133240000000E+02  0.421620000000E+01
 -0.565500000000E+01  0.133260000000E+02  0.454650000000E+01
 -0.742400000000E+01  0.135120000000E+02  0.496900000000E+01
 -0.718300000000E+01  0.134630000000E+02  0.464960000000E+01
 -0.683400000000E+01  0.134150000000E+02  0.443920000000E+01
 -0.643300000000E+01  0.133730000000E+02  0.434610000000E+01
 -0.603100000000E+01  0.133450000000E+02  0.441210000000E+01
 -0.572800000000E+01  0.133430000000E+02  0.466970000000E+01
 -0.730800000000E+01  0.135110000000E+02  0.505890000000E+01
 -0.708000000000E+01  0.134690000000E+02  0.481110000000E+01
 -0.677100000000E+01  0.134280000000E+02  0.464490000000E+01
 -0.642400000000E+01  0.133920000000E+02  0.456680000000E+01
 -0.607500000000E+01  0.133660000000E+02  0.460790000000E+01
 -0.580000000000E+01  0.133600000000E+02  0.479280000000E+01
 -0.719200000000E+01  0.135090000000E+02  0.514880000000E+01
 -0.697800000000E+01  0.134750000000E+02  0.497250000000E+01
 -0.670900000000E+01  0.134420000000E+02  0.485060000000E+01
 -0.641400000000E+01  0.134110000000E+02  0.478740000000E+01
 -0.611900000000E+01  0.133880000000E+02  0.480380000000E+01
 -0.587300000000E+01  0.133770000000E+02  0.491600000000E+01
 -0.707700000000E+01  0.135080000000E+02  0.523870000000E+01
 -0.687500000000E+01  0.134810000000E+02  0.513390000000E+01
 -0.664600000000E+01  0.134550000000E+02  0.505630000000E+01
 -0.640500000000E+01  0.134300000000E+02  0.500810000000E+01
 -0.616300000000E+01  0.134090000000E+02  0.499970000000E+01
 -0.594600000000E+01  0.133950000000E+02  0.503910000000E+01
 -0.696100000000E+01  0.135060000000E+02  0.532860000000E+01
 -0.677200000000E+01  0.134870000000E+02  0.529530000000E+01
 -0.658400000000E+01  0.134680000000E+02  0.526210000000E+01
 -0.639500000000E+01  0.134500000000E+02  0.522880000000E+01
 -0.620700000000E+01  0.134310000000E+02  0.519550000000E+01
 -0.601800000000E+01  0.134120000000E+02  0.516230000000E+01
 -0.744600000000E+01  0.151080000000E+02  0.503530000000E+01
 -0.732700000000E+01  0.150410000000E+02  0.460730000000E+01
 -0.706700000000E+01  0.149700000000E+02  0.424890000000E+01
 -0.670500000000E+01  0.149050000000E+02  0.399100000000E+01
 -0.628200000000E+01  0.148490000000E+02  0.385290000000E+01
 -0.583400000000E+01  0.148100000000E+02  0.385540000000E+01
 -0.731600000000E+01  0.151000000000E+02  0.506200000000E+01
 -0.718900000000E+01  0.150400000000E+02  0.469600000000E+01
 -0.694800000000E+01  0.149780000000E+02  0.438570000000E+01
 -0.662700000000E+01  0.149200000000E+02  0.415580000000E+01
 -0.625600000000E+01  0.148690000000E+02  0.402170000000E+01
 -0.586500000000E+01  0.148320000000E+02  0.400010000000E+01
 -0.718600000000E+01  0.150920000000E+02  0.508870000000E+01
 -0.705000000000E+01  0.150400000000E+02  0.478470000000E+01
 -0.683000000000E+01  0.149860000000E+02  0.452240000000E+01
 -0.654800000000E+01  0.149340000000E+02  0.432050000000E+01
 -0.623000000000E+01  0.148890000000E+02  0.419050000000E+01
 -0.589700000000E+01  0.148540000000E+02  0.414470000000E+01
 -0.705600000000E+01  0.150840000000E+02  0.511540000000E+01
 -0.691200000000E+01  0.150390000000E+02  0.487340000000E+01
 -0.671100000000E+01  0.149930000000E+02  0.465920000000E+01
 -0.647000000000E+01  0.149490000000E+02  0.448530000000E+01
 -0.620400000000E+01  0.149090000000E+02  0.435930000000E+01
 -0.592800000000E+01  0.148760000000E+02  0.428940000000E+01
 -0.692600000000E+01  0.150760000000E+02  0.514210000000E+01
 -0.677400000000E+01  0.150390000000E+02  0.496210000000E+01
 -0.659300000000E+01  0.150010000000E+02  0.479600000000E+01
 -0.639100000000E+01  0.149640000000E+02  0.465000000000E+01
 -0.617800000000E+01  0.149290000000E+02  0.452800000000E+01
 -0.595900000000E+01  0.148980000000E+02  0.443410000000E+01
 -0.679700000000E+01  0.150680000000E+02  0.516880000000E+01
 -0.663500000000E+01  0.150390000000E+02  0.505080000000E+01
 -0.647400000000E+01  0.150090000000E+02  0.493280000000E+01
 -0.631300000000E+01  0.149790000000E+02  0.481480000000E+01
 -0.615200000000E+01  0.149490000000E+02  0.469680000000E+01
 -0.599100000000E+01  0.149200000000E+02  0.457880000000E+01
 -0.728400000000E+01  0.165830000000E+02  0.432950000000E+01
 -0.718200000000E+01  0.164950000000E+02  0.392920000000E+01
 -0.695100000000E+01  0.164040000000E+02  0.358800000000E+01
 -0.662600000000E+01  0.163200000000E+02  0.333190000000E+01
 -0.623800000000E+01  0.162500000000E+02  0.318300000000E+01
 -0.581900000000E+01  0.161990000000E+02  0.315440000000E+01
 -0.714500000000E+01  0.165690000000E+02  0.433410000000E+01
 -0.703400000000E+01  0.164910000000E+02  0.399040000000E+01
 -0.682000000000E+01  0.164110000000E+02  0.369390000000E+01
 -0.653100000000E+01  0.163360000000E+02  0.346550000000E+01
 -0.619100000000E+01  0.162710000000E+02  0.332290000000E+01
 -0.582700000000E+01  0.162230000000E+02  0.327650000000E+01
 -0.700600000000E+01  0.165550000000E+02  0.433870000000E+01
 -0.688600000000E+01  0.164860000000E+02  0.405150000000E+01
 -0.668900000000E+01  0.164170000000E+02  0.379980000000E+01
 -0.643500000000E+01  0.163510000000E+02  0.359910000000E+01
 -0.614400000000E+01  0.162930000000E+02  0.346280000000E+01
 -0.583400000000E+01  0.162470000000E+02  0.339860000000E+01
 -0.686700000000E+01  0.165400000000E+02  0.434330000000E+01
 -0.673800000000E+01  0.164820000000E+02  0.411270000000E+01
 -0.655800000000E+01  0.164230000000E+02  0.390570000000E+01
 -0.634000000000E+01  0.163660000000E+02  0.373270000000E+01
 -0.609700000000E+01  0.163150000000E+02  0.360270000000E+01
 -0.584100000000E+01  0.162720000000E+02  0.352070000000E+01
 -0.672800000000E+01  0.165260000000E+02  0.434780000000E+01
 -0.659000000000E+01  0.164780000000E+02  0.417380000000E+01
 -0.642600000000E+01  0.164290000000E+02  0.401150000000E+01
 -0.624400000000E+01  0.163820000000E+02  0.386630000000E+01
 -0.604900000000E+01  0.163370000000E+02  0.374260000000E+01
 -0.584800000000E+01  0.162960000000E+02  0.364280000000E+01
 -0.658800000000E+01  0.165120000000E+02  0.435240000000E+01
 -0.644200000000E+01  0.164740000000E+02  0.423490000000E+01
 -0.629500000000E+01  0.164350000000E+02  0.411740000000E+01
 -0.614900000000E+01  0.163970000000E+02  0.399990000000E+01
 -0.600200000000E+01  0.163580000000E+02  0.388240000000E+01
 -0.585600000000E+01  0.163200000000E+02  0.376490000000E+01
 -0.731700000000E+01  0.181040000000E+02  0.381070000000E+01
 -0.717400000000E+01  0.180050000000E+02  0.341020000000E+01
 -0.689800000000E+01  0.179050000000E+02  0.308790000000E+01
 -0.654900000000E+01  0.178120000000E+02  0.284190000000E+01
 -0.615600000000E+01  0.177280000000E+02  0.266930000000E+01
 -0.573000000000E+01  0.176620000000E+02  0.259910000000E+01
 -0.717700000000E+01  0.180890000000E+02  0.382400000000E+01
 -0.703100000000E+01  0.180010000000E+02  0.347940000000E+01
 -0.677800000000E+01  0.179130000000E+02  0.319740000000E+01
 -0.646700000000E+01  0.178290000000E+02  0.297630000000E+01
 -0.612100000000E+01  0.177540000000E+02  0.281410000000E+01
 -0.574800000000E+01  0.176910000000E+02  0.273360000000E+01
 -0.703600000000E+01  0.180750000000E+02  0.383740000000E+01
 -0.688700000000E+01  0.179980000000E+02  0.354870000000E+01
 -0.665800000000E+01  0.179200000000E+02  0.330690000000E+01
 -0.638500000000E+01  0.178470000000E+02  0.311080000000E+01
 -0.608600000000E+01  0.177790000000E+02  0.295880000000E+01
 -0.576600000000E+01  0.177210000000E+02  0.286820000000E+01
 -0.689600000000E+01  0.180600000000E+02  0.385080000000E+01
 -0.674300000000E+01  0.179940000000E+02  0.361790000000E+01
 -0.653700000000E+01  0.179280000000E+02  0.341630000000E+01
 -0.630300000000E+01  0.178640000000E+02  0.324520000000E+01
 -0.605000000000E+01  0.178040000000E+02  0.310350000000E+01
 -0.578400000000E+01  0.177510000000E+02  0.300270000000E+01
 -0.675500000000E+01  0.180460000000E+02  0.386420000000E+01
 -0.659900000000E+01  0.179900000000E+02  0.368720000000E+01
 -0.641700000000E+01  0.179350000000E+02  0.352580000000E+01
 -0.622000000000E+01  0.178810000000E+02  0.337970000000E+01
 -0.601500000000E+01  0.178290000000E+02  0.324820000000E+01
 -0.580300000000E+01  0.177800000000E+02  0.313720000000E+01
 -0.661400000000E+01  0.180310000000E+02  0.387760000000E+01
 -0.645600000000E+01  0.179870000000E+02  0.375640000000E+01
 -0.629700000000E+01  0.179430000000E+02  0.363530000000E+01
 -0.613800000000E+01  0.178980000000E+02  0.351410000000E+01
 -0.598000000000E+01  0.178540000000E+02  0.339290000000E+01
 -0.582100000000E+01  0.178100000000E+02  0.327180000000E+01
 -0.708000000000E+01  0.196330000000E+02  0.336060000000E+01
 -0.677000000000E+01  0.195500000000E+02  0.312680000000E+01
 -0.645600000000E+01  0.194690000000E+02  0.289770000000E+01
 -0.612400000000E+01  0.193890000000E+02  0.269420000000E+01
 -0.576000000000E+01  0.193170000000E+02  0.255720000000E+01
 -0.536700000000E+01  0.192630000000E+02  0.255110000000E+01
 -0.694900000000E+01  0.196210000000E+02  0.339640000000E+01
 -0.666700000000E+01  0.195480000000E+02  0.319320000000E+01
 -0.638100000000E+01  0.194750000000E+02  0.299380000000E+01
 -0.608200000000E+01  0.194040000000E+02  0.281470000000E+01
 -0.575600000000E+01  0.193390000000E+02  0.268900000000E+01
 -0.540800000000E+01  0.192890000000E+02  0.266790000000E+01
 -0.681900000000E+01  0.196100000000E+02  0.343230000000E+01
 -0.656400000000E+01  0.195460000000E+02  0.325960000000E+01
 -0.630700000000E+01  0.194820000000E+02  0.308980000000E+01
 -0.604000000000E+01  0.194200000000E+02  0.293530000000E+01
 -0.575300000000E+01  0.193610000000E+02  0.282070000000E+01
 -0.544900000000E+01  0.193140000000E+02  0.278470000000E+01
 -0.668800000000E+01  0.195990000000E+02  0.346810000000E+01
 -0.646100000000E+01  0.195440000000E+02  0.332600000000E+01
 -0.623300000000E+01  0.194890000000E+02  0.318590000000E+01
 -0.599700000000E+01  0.194350000000E+02  0.305590000000E+01
 -0.574900000000E+01  0.193840000000E+02  0.295250000000E+01
 -0.548900000000E+01  0.193400000000E+02  0.290150000000E+01
 -0.655800000000E+01  0.195870000000E+02  0.350400000000E+01
 -0.635800000000E+01  0.195410000000E+02  0.339250000000E+01
 -0.615900000000E+01  0.194960000000E+02  0.328190000000E+01
 -0.595500000000E+01  0.194500000000E+02  0.317640000000E+01
 -0.574500000000E+01  0.194060000000E+02  0.308430000000E+01
 -0.553000000000E+01  0.193660000000E+02  0.301830000000E+01
 -0.642700000000E+01  0.195760000000E+02  0.353980000000E+01
 -0.625600000000E+01  0.195390000000E+02  0.345890000000E+01
 -0.608400000000E+01  0.195020000000E+02  0.337790000000E+01
 -0.591300000000E+01  0.194650000000E+02  0.329700000000E+01
 -0.574200000000E+01  0.194280000000E+02  0.321610000000E+01
 -0.557000000000E+01  0.193910000000E+02  0.313510000000E+01
 -0.666500000000E+01  0.212140000000E+02  0.330080000000E+01
 -0.657300000000E+01  0.211590000000E+02  0.297510000000E+01
 -0.636500000000E+01  0.210940000000E+02  0.271190000000E+01
 -0.608400000000E+01  0.210280000000E+02  0.252780000000E+01
 -0.575300000000E+01  0.209700000000E+02  0.246410000000E+01
 -0.543100000000E+01  0.209360000000E+02  0.257120000000E+01
 -0.656500000000E+01  0.212030000000E+02  0.333040000000E+01
 -0.646800000000E+01  0.211530000000E+02  0.305520000000E+01
 -0.627600000000E+01  0.210960000000E+02  0.283000000000E+01
 -0.602600000000E+01  0.210370000000E+02  0.266820000000E+01
 -0.573800000000E+01  0.209860000000E+02  0.260260000000E+01
 -0.545500000000E+01  0.209530000000E+02  0.267380000000E+01
 -0.646600000000E+01  0.211920000000E+02  0.335990000000E+01
 -0.636200000000E+01  0.211480000000E+02  0.313530000000E+01
 -0.618700000000E+01  0.210980000000E+02  0.294820000000E+01
 -0.596900000000E+01  0.210470000000E+02  0.280860000000E+01
 -0.572200000000E+01  0.210010000000E+02  0.274120000000E+01
 -0.547900000000E+01  0.209700000000E+02  0.277630000000E+01
 -0.636600000000E+01  0.211810000000E+02  0.338950000000E+01
 -0.625600000000E+01  0.211420000000E+02  0.321540000000E+01
 -0.609800000000E+01  0.211000000000E+02  0.306640000000E+01
 -0.591200000000E+01  0.210570000000E+02  0.294900000000E+01
 -0.570600000000E+01  0.210170000000E+02  0.287970000000E+01
 -0.550300000000E+01  0.209860000000E+02  0.287880000000E+01
 -0.626700000000E+01  0.211700000000E+02  0.341900000000E+01
 -0.615000000000E+01  0.211370000000E+02  0.329550000000E+01
 -0.601000000000E+01  0.211020000000E+02  0.318450000000E+01
 -0.585500000000E+01  0.210660000000E+02  0.308940000000E+01
 -0.569000000000E+01  0.210320000000E+02  0.301820000000E+01
 -0.552700000000E+01  0.210030000000E+02  0.298130000000E+01
 -0.616800000000E+01  0.211590000000E+02  0.344860000000E+01
 -0.604400000000E+01  0.211310000000E+02  0.337570000000E+01
 -0.592100000000E+01  0.211040000000E+02  0.330270000000E+01
 -0.579700000000E+01  0.210760000000E+02  0.322970000000E+01
 -0.567400000000E+01  0.210480000000E+02  0.315680000000E+01
 -0.555100000000E+01  0.210200000000E+02  0.308380000000E+01
 -0.708900000000E+01  0.228930000000E+02  0.322740000000E+01
 -0.711800000000E+01  0.228510000000E+02  0.280680000000E+01
 -0.695400000000E+01  0.227830000000E+02  0.242490000000E+01
 -0.661800000000E+01  0.227040000000E+02  0.218050000000E+01
 -0.622100000000E+01  0.226270000000E+02  0.204870000000E+01
 -0.583100000000E+01  0.225480000000E+02  0.189780000000E+01
 -0.696500000000E+01  0.228730000000E+02  0.322890000000E+01
 -0.696300000000E+01  0.228330000000E+02  0.286590000000E+01
 -0.680600000000E+01  0.227720000000E+02  0.253370000000E+01
 -0.651200000000E+01  0.227010000000E+02  0.231160000000E+01
 -0.616900000000E+01  0.226330000000E+02  0.217950000000E+01
 -0.583200000000E+01  0.225630000000E+02  0.203230000000E+01
 -0.684000000000E+01  0.228530000000E+02  0.323040000000E+01
 -0.680700000000E+01  0.228150000000E+02  0.292490000000E+01
 -0.665800000000E+01  0.227600000000E+02  0.264250000000E+01
 -0.640600000000E+01  0.226990000000E+02  0.244270000000E+01
 -0.611800000000E+01  0.226390000000E+02  0.231040000000E+01
 -0.583300000000E+01  0.225780000000E+02  0.216670000000E+01
 -0.671500000000E+01  0.228340000000E+02  0.323190000000E+01
 -0.665100000000E+01  0.227970000000E+02  0.298390000000E+01
 -0.651000000000E+01  0.227490000000E+02  0.275140000000E+01
 -0.630000000000E+01  0.226960000000E+02  0.257380000000E+01
 -0.606600000000E+01  0.226450000000E+02  0.244130000000E+01
 -0.583400000000E+01  0.225930000000E+02  0.230120000000E+01
 -0.659000000000E+01  0.228140000000E+02  0.323340000000E+01
 -0.649500000000E+01  0.227780000000E+02  0.304290000000E+01
 -0.636200000000E+01  0.227370000000E+02  0.286020000000E+01
 -0.619400000000E+01  0.226940000000E+02  0.270490000000E+01
 -0.601400000000E+01  0.226510000000E+02  0.257220000000E+01
 -0.583500000000E+01  0.226080000000E+02  0.243570000000E+01
 -0.646600000000E+01  0.227950000000E+02  0.323490000000E+01
 -0.634000000000E+01  0.227600000000E+02  0.310200000000E+01
 -0.621400000000E+01  0.227260000000E+02  0.296900000000E+01
 -0.608800000000E+01  0.226910000000E+02  0.283600000000E+01
 -0.596200000000E+01  0.226570000000E+02  0.270310000000E+01
 -0.583600000000E+01  0.226230000000E+02  0.257010000000E+01
 -0.727500000000E+01  0.244950000000E+02  0.241120000000E+01
 -0.701000000000E+01  0.244120000000E+02  0.204900000000E+01
 -0.663600000000E+01  0.243210000000E+02  0.180560000000E+01
 -0.620700000000E+01  0.242310000000E+02  0.167620000000E+01
 -0.575900000000E+01  0.241470000000E+02  0.164630000000E+01
 -0.531200000000E+01  0.240710000000E+02  0.169990000000E+01
 -0.714100000000E+01  0.244760000000E+02  0.247570000000E+01
 -0.688900000000E+01  0.244020000000E+02  0.217170000000E+01
 -0.655100000000E+01  0.243210000000E+02  0.196280000000E+01
 -0.616900000000E+01  0.242400000000E+02  0.184500000000E+01
 -0.577100000000E+01  0.241640000000E+02  0.180690000000E+01
 -0.537300000000E+01  0.240950000000E+02  0.183560000000E+01
 -0.700600000000E+01  0.244580000000E+02  0.254020000000E+01
 -0.676800000000E+01  0.243920000000E+02  0.229440000000E+01
 -0.646500000000E+01  0.243200000000E+02  0.212000000000E+01
 -0.613000000000E+01  0.242490000000E+02  0.201390000000E+01
 -0.578200000000E+01  0.241820000000E+02  0.196740000000E+01
 -0.543500000000E+01  0.241190000000E+02  0.197120000000E+01
 -0.687100000000E+01  0.244400000000E+02  0.260470000000E+01
 -0.664800000000E+01  0.243810000000E+02  0.241710000000E+01
 -0.638000000000E+01  0.243190000000E+02  0.227710000000E+01
 -0.609100000000E+01  0.242580000000E+02  0.218270000000E+01
 -0.579400000000E+01  0.241990000000E+02  0.212800000000E+01
 -0.549700000000E+01  0.241430000000E+02  0.210680000000E+01
 -0.673700000000E+01  0.244210000000E+02  0.266920000000E+01
 -0.652700000000E+01  0.243710000000E+02  0.253980000000E+01
 -0.629500000000E+01  0.243190000000E+02  0.243430000000E+01
 -0.605200000000E+01  0.242670000000E+02  0.235150000000E+01
 -0.580500000000E+01  0.242160000000E+02  0.228860000000E+01
 -0.555900000000E+01  0.241670000000E+02  0.224240000000E+01
 -0.660200000000E+01  0.244030000000E+02  0.273370000000E+01
 -0.640600000000E+01  0.243610000000E+02  0.266260000000E+01
 -0.621000000000E+01  0.243180000000E+02  0.259140000000E+01
 -0.601300000000E+01  0.242760000000E+02  0.252030000000E+01
 -0.581700000000E+01  0.242330000000E+02  0.244920000000E+01
 -0.562100000000E+01  0.241910000000E+02  0.237800000000E+01
 -0.695300000000E+01  0.261700000000E+02  0.266920000000E+01
 -0.683100000000E+01  0.261110000000E+02  0.223890000000E+01
 -0.659600000000E+01  0.260300000000E+02  0.186320000000E+01
 -0.626400000000E+01  0.259330000000E+02  0.157490000000E+01
 -0.585000000000E+01  0.258290000000E+02  0.143800000000E+01
 -0.541900000000E+01  0.257370000000E+02  0.152400000000E+01
 -0.681900000000E+01  0.261420000000E+02  0.269740000000E+01
 -0.669100000000E+01  0.260860000000E+02  0.233030000000E+01
 -0.647200000000E+01  0.260120000000E+02  0.200680000000E+01
 -0.617600000000E+01  0.259260000000E+02  0.175320000000E+01
 -0.581400000000E+01  0.258340000000E+02  0.162080000000E+01
 -0.543800000000E+01  0.257520000000E+02  0.166680000000E+01
 -0.668500000000E+01  0.261130000000E+02  0.272560000000E+01
 -0.655000000000E+01  0.260600000000E+02  0.242170000000E+01
 -0.634800000000E+01  0.259940000000E+02  0.215040000000E+01
 -0.608700000000E+01  0.259190000000E+02  0.193160000000E+01
 -0.577800000000E+01  0.258390000000E+02  0.180370000000E+01
 -0.545700000000E+01  0.257670000000E+02  0.180950000000E+01
 -0.655100000000E+01  0.260850000000E+02  0.275380000000E+01
 -0.641000000000E+01  0.260350000000E+02  0.251300000000E+01
 -0.622400000000E+01  0.259770000000E+02  0.229400000000E+01
 -0.599900000000E+01  0.259120000000E+02  0.211000000000E+01
 -0.574100000000E+01  0.258440000000E+02  0.198650000000E+01
 -0.547700000000E+01  0.257810000000E+02  0.195220000000E+01
 -0.641700000000E+01  0.260560000000E+02  0.278210000000E+01
 -0.626900000000E+01  0.260100000000E+02  0.260440000000E+01
 -0.610000000000E+01  0.259590000000E+02  0.243760000000E+01
 -0.591000000000E+01  0.259050000000E+02  0.228840000000E+01
 -0.570500000000E+01  0.258490000000E+02  0.216940000000E+01
 -0.549600000000E+01  0.257960000000E+02  0.209500000000E+01
 -0.628200000000E+01  0.260280000000E+02  0.281030000000E+01
 -0.612900000000E+01  0.259840000000E+02  0.269580000000E+01
 -0.597500000000E+01  0.259410000000E+02  0.258120000000E+01
 -0.582200000000E+01  0.258980000000E+02  0.246670000000E+01
 -0.566900000000E+01  0.258540000000E+02  0.235220000000E+01
 -0.551500000000E+01  0.258110000000E+02  0.223770000000E+01
 -0.671300000000E+01  0.277280000000E+02  0.194380000000E+01
 -0.646000000000E+01  0.276390000000E+02  0.153040000000E+01
 -0.608300000000E+01  0.275280000000E+02  0.123600000000E+01
 -0.561400000000E+01  0.274070000000E+02  0.115420000000E+01
 -0.513900000000E+01  0.272950000000E+02  0.122300000000E+01
 -0.466000000000E+01  0.271790000000E+02  0.125510000000E+01
 -0.656400000000E+01  0.276960000000E+02  0.201400000000E+01
 -0.632100000000E+01  0.276140000000E+02  0.166950000000E+01
 -0.597800000000E+01  0.275140000000E+02  0.142020000000E+01
 -0.556200000000E+01  0.274060000000E+02  0.134100000000E+01
 -0.514100000000E+01  0.273050000000E+02  0.138230000000E+01
 -0.471600000000E+01  0.272020000000E+02  0.139420000000E+01
 -0.641500000000E+01  0.276630000000E+02  0.208430000000E+01
 -0.618200000000E+01  0.275880000000E+02  0.180870000000E+01
 -0.587300000000E+01  0.275000000000E+02  0.160450000000E+01
 -0.551000000000E+01  0.274060000000E+02  0.152780000000E+01
 -0.514300000000E+01  0.273160000000E+02  0.154160000000E+01
 -0.477300000000E+01  0.272250000000E+02  0.153330000000E+01
 -0.626700000000E+01  0.276310000000E+02  0.215450000000E+01
 -0.604200000000E+01  0.275630000000E+02  0.194780000000E+01
 -0.576900000000E+01  0.274860000000E+02  0.178870000000E+01
 -0.545800000000E+01  0.274050000000E+02  0.171460000000E+01
 -0.514400000000E+01  0.273270000000E+02  0.170090000000E+01
 -0.483000000000E+01  0.272470000000E+02  0.167240000000E+01
 -0.611800000000E+01  0.275990000000E+02  0.222470000000E+01
 -0.590300000000E+01  0.275380000000E+02  0.208690000000E+01
 -0.566400000000E+01  0.274720000000E+02  0.197290000000E+01
 -0.540600000000E+01  0.274040000000E+02  0.190150000000E+01
 -0.514600000000E+01  0.273370000000E+02  0.186010000000E+01
 -0.488600000000E+01  0.272700000000E+02  0.181150000000E+01
 -0.596900000000E+01  0.275670000000E+02  0.229490000000E+01
 -0.576400000000E+01  0.275120000000E+02  0.222610000000E+01
 -0.555900000000E+01  0.274570000000E+02  0.215720000000E+01
 -0.535300000000E+01  0.274030000000E+02  0.208830000000E+01
 -0.514800000000E+01  0.273480000000E+02  0.201940000000E+01
 -0.494300000000E+01  0.272930000000E+02  0.195060000000E+01
 -0.633100000000E+01  0.292650000000E+02  0.185340000000E+01
 -0.606000000000E+01  0.291740000000E+02  0.144300000000E+01
 -0.568900000000E+01  0.290640000000E+02  0.112820000000E+01
 -0.524600000000E+01  0.289420000000E+02  0.934480000000E+00
 -0.476400000000E+01  0.288200000000E+02  0.896980000000E+00
 -0.430200000000E+01  0.287130000000E+02  0.105240000000E+01
 -0.618200000000E+01  0.292320000000E+02  0.191970000000E+01
 -0.592500000000E+01  0.291480000000E+02  0.157540000000E+01
 -0.558700000000E+01  0.290480000000E+02  0.130760000000E+01
 -0.519200000000E+01  0.289400000000E+02  0.113660000000E+01
 -0.476600000000E+01  0.288310000000E+02  0.109060000000E+01
 -0.435600000000E+01  0.287350000000E+02  0.119890000000E+01
 -0.603300000000E+01  0.291980000000E+02  0.198610000000E+01
 -0.578900000000E+01  0.291220000000E+02  0.170780000000E+01
 -0.548500000000E+01  0.290330000000E+02  0.148690000000E+01
 -0.513800000000E+01  0.289380000000E+02  0.133870000000E+01
 -0.476800000000E+01  0.288430000000E+02  0.128410000000E+01
 -0.441000000000E+01  0.287570000000E+02  0.134540000000E+01
 -0.588400000000E+01  0.291650000000E+02  0.205250000000E+01
 -0.565400000000E+01  0.290950000000E+02  0.184030000000E+01
 -0.538300000000E+01  0.290180000000E+02  0.166630000000E+01
 -0.508400000000E+01  0.289360000000E+02  0.154080000000E+01
 -0.477000000000E+01  0.288540000000E+02  0.147770000000E+01
 -0.446400000000E+01  0.287790000000E+02  0.149180000000E+01
 -0.573500000000E+01  0.291320000000E+02  0.211880000000E+01
 -0.551800000000E+01  0.290690000000E+02  0.197270000000E+01
 -0.528200000000E+01  0.290030000000E+02  0.184570000000E+01
 -0.503100000000E+01  0.289340000000E+02  0.174280000000E+01
 -0.477200000000E+01  0.288660000000E+02  0.167130000000E+01
 -0.451700000000E+01  0.288000000000E+02  0.163830000000E+01
 -0.558600000000E+01  0.290980000000E+02  0.218520000000E+01
 -0.538300000000E+01  0.290430000000E+02  0.210510000000E+01
 -0.518000000000E+01  0.289880000000E+02  0.202500000000E+01
 -0.497700000000E+01  0.289330000000E+02  0.194490000000E+01
 -0.477400000000E+01  0.288770000000E+02  0.186480000000E+01
 -0.457100000000E+01  0.288220000000E+02  0.178480000000E+01
 -0.584100000000E+01  0.308150000000E+02  0.227080000000E+01
 -0.563100000000E+01  0.307410000000E+02  0.184200000000E+01
 -0.536600000000E+01  0.306550000000E+02  0.144840000000E+01
 -0.500100000000E+01  0.305480000000E+02  0.115460000000E+01
 -0.455200000000E+01  0.304270000000E+02  0.103330000000E+01
 -0.408800000000E+01  0.303100000000E+02  0.108780000000E+01
 -0.569400000000E+01  0.307780000000E+02  0.230080000000E+01
 -0.549100000000E+01  0.307090000000E+02  0.193410000000E+01
 -0.524400000000E+01  0.306300000000E+02  0.159560000000E+01
 -0.491700000000E+01  0.305350000000E+02  0.133680000000E+01
 -0.452300000000E+01  0.304280000000E+02  0.121610000000E+01
 -0.411700000000E+01  0.303240000000E+02  0.123610000000E+01
 -0.554700000000E+01  0.307420000000E+02  0.233080000000E+01
 -0.535100000000E+01  0.306770000000E+02  0.202620000000E+01
 -0.512200000000E+01  0.306060000000E+02  0.174270000000E+01
 -0.483300000000E+01  0.305210000000E+02  0.151910000000E+01
 -0.449400000000E+01  0.304280000000E+02  0.139900000000E+01
 -0.414500000000E+01  0.303380000000E+02  0.138440000000E+01
 -0.540000000000E+01  0.307050000000E+02  0.236080000000E+01
 -0.521100000000E+01  0.306460000000E+02  0.211830000000E+01
 -0.500000000000E+01  0.305810000000E+02  0.188990000000E+01
 -0.474900000000E+01  0.305080000000E+02  0.170130000000E+01
 -0.446400000000E+01  0.304290000000E+02  0.158180000000E+01
 -0.417400000000E+01  0.303520000000E+02  0.153270000000E+01
 -0.525400000000E+01  0.306690000000E+02  0.239080000000E+01
 -0.507100000000E+01  0.306140000000E+02  0.221040000000E+01
 -0.487800000000E+01  0.305560000000E+02  0.203700000000E+01
 -0.466500000000E+01  0.304940000000E+02  0.188360000000E+01
 -0.443500000000E+01  0.304300000000E+02  0.176470000000E+01
 -0.420200000000E+01  0.303660000000E+02  0.168100000000E+01
 -0.510700000000E+01  0.306320000000E+02  0.242080000000E+01
 -0.493200000000E+01  0.305820000000E+02  0.230250000000E+01
 -0.475600000000E+01  0.305310000000E+02  0.218420000000E+01
 -0.458100000000E+01  0.304810000000E+02  0.206590000000E+01
 -0.440600000000E+01  0.304300000000E+02  0.194760000000E+01
 -0.423100000000E+01  0.303800000000E+02  0.182930000000E+01
 -0.548400000000E+01  0.323500000000E+02  0.234180000000E+01
 -0.527500000000E+01  0.322780000000E+02  0.193760000000E+01
 -0.500700000000E+01  0.321930000000E+02  0.157490000000E+01
 -0.463900000000E+01  0.320870000000E+02  0.132480000000E+01
 -0.419900000000E+01  0.319720000000E+02  0.128440000000E+01
 -0.378500000000E+01  0.318720000000E+02  0.145310000000E+01
 -0.534800000000E+01  0.323170000000E+02  0.238360000000E+01
 -0.514800000000E+01  0.322500000000E+02  0.204250000000E+01
 -0.489900000000E+01  0.321720000000E+02  0.173460000000E+01
 -0.457000000000E+01  0.320780000000E+02  0.151670000000E+01
 -0.418500000000E+01  0.319760000000E+02  0.146660000000E+01
 -0.381900000000E+01  0.318870000000E+02  0.158390000000E+01
 -0.521300000000E+01  0.322840000000E+02  0.242550000000E+01
 -0.502000000000E+01  0.322220000000E+02  0.214750000000E+01
 -0.479100000000E+01  0.321510000000E+02  0.189430000000E+01
 -0.450200000000E+01  0.320690000000E+02  0.170870000000E+01
 -0.417000000000E+01  0.319800000000E+02  0.164890000000E+01
 -0.385300000000E+01  0.319020000000E+02  0.171460000000E+01
 -0.507700000000E+01  0.322510000000E+02  0.246740000000E+01
 -0.489200000000E+01  0.321940000000E+02  0.225240000000E+01
 -0.468200000000E+01  0.321310000000E+02  0.205400000000E+01
 -0.443300000000E+01  0.320600000000E+02  0.190060000000E+01
 -0.415600000000E+01  0.319850000000E+02  0.183120000000E+01
 -0.388800000000E+01  0.319170000000E+02  0.184540000000E+01
 -0.494200000000E+01  0.322180000000E+02  0.250930000000E+01
 -0.476400000000E+01  0.321650000000E+02  0.235730000000E+01
 -0.457400000000E+01  0.321100000000E+02  0.221370000000E+01
 -0.436500000000E+01  0.320510000000E+02  0.209260000000E+01
 -0.414100000000E+01  0.319890000000E+02  0.201340000000E+01
 -0.392200000000E+01  0.319310000000E+02  0.197610000000E+01
 -0.480600000000E+01  0.321850000000E+02  0.255110000000E+01
 -0.463600000000E+01  0.321370000000E+02  0.246230000000E+01
 -0.446600000000E+01  0.320890000000E+02  0.237340000000E+01
 -0.429700000000E+01  0.320420000000E+02  0.228460000000E+01
 -0.412700000000E+01  0.319940000000E+02  0.219570000000E+01
 -0.395700000000E+01  0.319460000000E+02  0.210680000000E+01
 -0.683100000000E-01  0.109460000000E+01 -0.432790000000E-01
  0.162200000000E+00  0.122160000000E+01  0.500550000000E+00
  0.345100000000E+00  0.118130000000E+01  0.107640000000E+01
  0.490800000000E+00  0.103940000000E+01  0.164780000000E+01
  0.621200000000E+00  0.860180000000E+00  0.221270000000E+01
 -0.896100000000E-01  0.908190000000E+00  0.855480000000E-01
  0.113900000000E+00  0.101150000000E+01  0.574580000000E+00
  0.279200000000E+00  0.980880000000E+00  0.108920000000E+01
  0.414800000000E+00  0.869030000000E+00  0.160030000000E+01
  0.538200000000E+00  0.727360000000E+00  0.210620000000E+01
 -0.110900000000E+00  0.721770000000E+00  0.214380000000E+00
  0.655200000000E-01  0.801320000000E+00  0.648610000000E+00
  0.213300000000E+00  0.780480000000E+00  0.110200000000E+01
  0.338800000000E+00  0.698690000000E+00  0.155280000000E+01
  0.455200000000E+00  0.594530000000E+00  0.199970000000E+01
 -0.132200000000E+00  0.535350000000E+00  0.343200000000E+00
  0.171600000000E-01  0.591180000000E+00  0.722640000000E+00
  0.147400000000E+00  0.580080000000E+00  0.111490000000E+01
  0.262900000000E+00  0.528350000000E+00  0.150530000000E+01
  0.372200000000E+00  0.461710000000E+00  0.189320000000E+01
 -0.153500000000E+00  0.348930000000E+00  0.472030000000E+00
 -0.312000000000E-01  0.381040000000E+00  0.796660000000E+00
  0.815600000000E-01  0.379680000000E+00  0.112770000000E+01
  0.186900000000E+00  0.358010000000E+00  0.145780000000E+01
  0.289200000000E+00  0.328880000000E+00  0.178670000000E+01
 -0.174800000000E+00  0.162510000000E+00  0.600860000000E+00
 -0.795600000000E-01  0.170890000000E+00  0.870690000000E+00
  0.156800000000E-01  0.179280000000E+00  0.114050000000E+01
  0.110900000000E+00  0.187670000000E+00  0.141040000000E+01
  0.206200000000E+00  0.196060000000E+00  0.168020000000E+01
 -0.127800000000E+01  0.160540000000E+01  0.641650000000E+00
 -0.101300000000E+01  0.169150000000E+01  0.113410000000E+01
 -0.812600000000E+00  0.161490000000E+01  0.165690000000E+01
 -0.705000000000E+00  0.136860000000E+01  0.215360000000E+01
 -0.708900000000E+00  0.974960000000E+00  0.256030000000E+01
 -0.133500000000E+01  0.141880000000E+01  0.715080000000E+00
 -0.110500000000E+01  0.147950000000E+01  0.115600000000E+01
 -0.927100000000E+00  0.141000000000E+01  0.162110000000E+01
 -0.823600000000E+00  0.120460000000E+01  0.206550000000E+01
 -0.809400000000E+00  0.881460000000E+00  0.243780000000E+01
 -0.139100000000E+01  0.123220000000E+01  0.788500000000E+00
 -0.119700000000E+01  0.126740000000E+01  0.117790000000E+01
 -0.104200000000E+01  0.120500000000E+01  0.158540000000E+01
 -0.942300000000E+00  0.104060000000E+01  0.197740000000E+01
 -0.909800000000E+00  0.787970000000E+00  0.231530000000E+01
 -0.144700000000E+01  0.104560000000E+01  0.861930000000E+00
 -0.128900000000E+01  0.105540000000E+01  0.119980000000E+01
 -0.115600000000E+01  0.999970000000E+00  0.154970000000E+01
 -0.106100000000E+01  0.876670000000E+00  0.188930000000E+01
 -0.101000000000E+01  0.694480000000E+00  0.219280000000E+01
 -0.150300000000E+01  0.859060000000E+00  0.935360000000E+00
 -0.138000000000E+01  0.843290000000E+00  0.122170000000E+01
 -0.127100000000E+01  0.794980000000E+00  0.151400000000E+01
 -0.118000000000E+01  0.712710000000E+00  0.180120000000E+01
 -0.111100000000E+01  0.600990000000E+00  0.207030000000E+01
 -0.155900000000E+01  0.672480000000E+00  0.100880000000E+01
 -0.147200000000E+01  0.631230000000E+00  0.124360000000E+01
 -0.138500000000E+01  0.589990000000E+00  0.147830000000E+01
 -0.129800000000E+01  0.548740000000E+00  0.171310000000E+01
 -0.121100000000E+01  0.507490000000E+00  0.194790000000E+01
 -0.275100000000E+01  0.202340000000E+01  0.943780000000E+00
 -0.240300000000E+01  0.216260000000E+01  0.139560000000E+01
 -0.212000000000E+01  0.214580000000E+01  0.190700000000E+01
 -0.195100000000E+01  0.193960000000E+01  0.242890000000E+01
 -0.184000000000E+01  0.165860000000E+01  0.293270000000E+01
 -0.278600000000E+01  0.186750000000E+01  0.105550000000E+01
 -0.248200000000E+01  0.197410000000E+01  0.146600000000E+01
 -0.223000000000E+01  0.195580000000E+01  0.192410000000E+01
 -0.207000000000E+01  0.178610000000E+01  0.239050000000E+01
 -0.195700000000E+01  0.155650000000E+01  0.284250000000E+01
 -0.282000000000E+01  0.171160000000E+01  0.116730000000E+01
 -0.256100000000E+01  0.178550000000E+01  0.153630000000E+01
 -0.234100000000E+01  0.176580000000E+01  0.194110000000E+01
 -0.219000000000E+01  0.163250000000E+01  0.235220000000E+01
 -0.207300000000E+01  0.145440000000E+01  0.275240000000E+01
 -0.285500000000E+01  0.155560000000E+01  0.127900000000E+01
 -0.264100000000E+01  0.159690000000E+01  0.160670000000E+01
 -0.245200000000E+01  0.157590000000E+01  0.195820000000E+01
 -0.230900000000E+01  0.147900000000E+01  0.231380000000E+01
 -0.219000000000E+01  0.135230000000E+01  0.266230000000E+01
 -0.289000000000E+01  0.139970000000E+01  0.139080000000E+01
 -0.272000000000E+01  0.140840000000E+01  0.167700000000E+01
 -0.256300000000E+01  0.138590000000E+01  0.197520000000E+01
 -0.242900000000E+01  0.132550000000E+01  0.227550000000E+01
 -0.230600000000E+01  0.125010000000E+01  0.257220000000E+01
 -0.292500000000E+01  0.124370000000E+01  0.150250000000E+01
 -0.279900000000E+01  0.121980000000E+01  0.174740000000E+01
 -0.267400000000E+01  0.119590000000E+01  0.199230000000E+01
 -0.254900000000E+01  0.117200000000E+01  0.223720000000E+01
 -0.242300000000E+01  0.114800000000E+01  0.248200000000E+01
 -0.366200000000E+01  0.278300000000E+01  0.182620000000E+01
 -0.330400000000E+01  0.279090000000E+01  0.227960000000E+01
 -0.300800000000E+01  0.270510000000E+01  0.276760000000E+01
 -0.282000000000E+01  0.249470000000E+01  0.327010000000E+01
 -0.276200000000E+01  0.217090000000E+01  0.374430000000E+01
 -0.372500000000E+01  0.263880000000E+01  0.192220000000E+01
 -0.341300000000E+01  0.263390000000E+01  0.233190000000E+01
 -0.315100000000E+01  0.255390000000E+01  0.276940000000E+01
 -0.297400000000E+01  0.237430000000E+01  0.321840000000E+01
 -0.290200000000E+01  0.210390000000E+01  0.364470000000E+01
 -0.378800000000E+01  0.249470000000E+01  0.201820000000E+01
 -0.352200000000E+01  0.247680000000E+01  0.238430000000E+01
 -0.329300000000E+01  0.240270000000E+01  0.277110000000E+01
 -0.312900000000E+01  0.225390000000E+01  0.316660000000E+01
 -0.304300000000E+01  0.203700000000E+01  0.354520000000E+01
 -0.385100000000E+01  0.235050000000E+01  0.211410000000E+01
 -0.363100000000E+01  0.231980000000E+01  0.243660000000E+01
 -0.343600000000E+01  0.225160000000E+01  0.277280000000E+01
 -0.328400000000E+01  0.213360000000E+01  0.311490000000E+01
 -0.318400000000E+01  0.197010000000E+01  0.344570000000E+01
 -0.391400000000E+01  0.220640000000E+01  0.221010000000E+01
 -0.374000000000E+01  0.216280000000E+01  0.248890000000E+01
 -0.357900000000E+01  0.210040000000E+01  0.277460000000E+01
 -0.343900000000E+01  0.201320000000E+01  0.306320000000E+01
 -0.332500000000E+01  0.190320000000E+01  0.334610000000E+01
 -0.397700000000E+01  0.206220000000E+01  0.230610000000E+01
 -0.384900000000E+01  0.200570000000E+01  0.254120000000E+01
 -0.372100000000E+01  0.194920000000E+01  0.277630000000E+01
 -0.359300000000E+01  0.189280000000E+01  0.301150000000E+01
 -0.346500000000E+01  0.183630000000E+01  0.324660000000E+01
 -0.432000000000E+01  0.384300000000E+01  0.239920000000E+01
 -0.387700000000E+01  0.388290000000E+01  0.272780000000E+01
 -0.362100000000E+01  0.373230000000E+01  0.319080000000E+01
 -0.356100000000E+01  0.345990000000E+01  0.367210000000E+01
 -0.331700000000E+01  0.329840000000E+01  0.414260000000E+01
 -0.439700000000E+01  0.371270000000E+01  0.253640000000E+01
 -0.401300000000E+01  0.373600000000E+01  0.283910000000E+01
 -0.377800000000E+01  0.360680000000E+01  0.324940000000E+01
 -0.370100000000E+01  0.338030000000E+01  0.367440000000E+01
 -0.347600000000E+01  0.324240000000E+01  0.409060000000E+01
 -0.447400000000E+01  0.358240000000E+01  0.267350000000E+01
 -0.414900000000E+01  0.358900000000E+01  0.295050000000E+01
 -0.393600000000E+01  0.348130000000E+01  0.330800000000E+01
 -0.384100000000E+01  0.330060000000E+01  0.367660000000E+01
 -0.363400000000E+01  0.318640000000E+01  0.403860000000E+01
 -0.455100000000E+01  0.345210000000E+01  0.281070000000E+01
 -0.428500000000E+01  0.344210000000E+01  0.306180000000E+01
 -0.409300000000E+01  0.335590000000E+01  0.336660000000E+01
 -0.398000000000E+01  0.322100000000E+01  0.367880000000E+01
 -0.379300000000E+01  0.313040000000E+01  0.398660000000E+01
 -0.462800000000E+01  0.332180000000E+01  0.294790000000E+01
 -0.442100000000E+01  0.329520000000E+01  0.317320000000E+01
 -0.425000000000E+01  0.323040000000E+01  0.342530000000E+01
 -0.412000000000E+01  0.314130000000E+01  0.368100000000E+01
 -0.395200000000E+01  0.307440000000E+01  0.393470000000E+01
 -0.470500000000E+01  0.319150000000E+01  0.308510000000E+01
 -0.455600000000E+01  0.314820000000E+01  0.328450000000E+01
 -0.440800000000E+01  0.310490000000E+01  0.348390000000E+01
 -0.425900000000E+01  0.306160000000E+01  0.368330000000E+01
 -0.411100000000E+01  0.301840000000E+01  0.388270000000E+01
 -0.435200000000E+01  0.517350000000E+01  0.309320000000E+01
 -0.395800000000E+01  0.511550000000E+01  0.350950000000E+01
 -0.366200000000E+01  0.498900000000E+01  0.398700000000E+01
 -0.353300000000E+01  0.477890000000E+01  0.450530000000E+01
 -0.361900000000E+01  0.449800000000E+01  0.499970000000E+01
 -0.446700000000E+01  0.506610000000E+01  0.321970000000E+01
 -0.412800000000E+01  0.500590000000E+01  0.359830000000E+01
 -0.386800000000E+01  0.489100000000E+01  0.402570000000E+01
 -0.374100000000E+01  0.470900000000E+01  0.448580000000E+01
 -0.378600000000E+01  0.447060000000E+01  0.492690000000E+01
 -0.458200000000E+01  0.495880000000E+01  0.334630000000E+01
 -0.429900000000E+01  0.489640000000E+01  0.368700000000E+01
 -0.407400000000E+01  0.479290000000E+01  0.406450000000E+01
 -0.394900000000E+01  0.463920000000E+01  0.446640000000E+01
 -0.395400000000E+01  0.444310000000E+01  0.485400000000E+01
 -0.469700000000E+01  0.485140000000E+01  0.347280000000E+01
 -0.446900000000E+01  0.478680000000E+01  0.377580000000E+01
 -0.428000000000E+01  0.469480000000E+01  0.410320000000E+01
 -0.415800000000E+01  0.456940000000E+01  0.444700000000E+01
 -0.412100000000E+01  0.441570000000E+01  0.478120000000E+01
 -0.481300000000E+01  0.474400000000E+01  0.359930000000E+01
 -0.463900000000E+01  0.467730000000E+01  0.386450000000E+01
 -0.448600000000E+01  0.459680000000E+01  0.414190000000E+01
 -0.436600000000E+01  0.449960000000E+01  0.442750000000E+01
 -0.428900000000E+01  0.438820000000E+01  0.470840000000E+01
 -0.492800000000E+01  0.463670000000E+01  0.372590000000E+01
 -0.481000000000E+01  0.456770000000E+01  0.395330000000E+01
 -0.469200000000E+01  0.449870000000E+01  0.418070000000E+01
 -0.457400000000E+01  0.442970000000E+01  0.440810000000E+01
 -0.445600000000E+01  0.436080000000E+01  0.463550000000E+01
 -0.507900000000E+01  0.643660000000E+01  0.356720000000E+01
 -0.466400000000E+01  0.642190000000E+01  0.391950000000E+01
 -0.433400000000E+01  0.634670000000E+01  0.434530000000E+01
 -0.414100000000E+01  0.619960000000E+01  0.483010000000E+01
 -0.417900000000E+01  0.597190000000E+01  0.532170000000E+01
 -0.517400000000E+01  0.634000000000E+01  0.371460000000E+01
 -0.481500000000E+01  0.632010000000E+01  0.403630000000E+01
 -0.452300000000E+01  0.625180000000E+01  0.441680000000E+01
 -0.434100000000E+01  0.612600000000E+01  0.484460000000E+01
 -0.434400000000E+01  0.593570000000E+01  0.527780000000E+01
 -0.527000000000E+01  0.624340000000E+01  0.386200000000E+01
 -0.496600000000E+01  0.621830000000E+01  0.415310000000E+01
 -0.471200000000E+01  0.615700000000E+01  0.448840000000E+01
 -0.454100000000E+01  0.605240000000E+01  0.485910000000E+01
 -0.450800000000E+01  0.589950000000E+01  0.523390000000E+01
 -0.536600000000E+01  0.614680000000E+01  0.400940000000E+01
 -0.511700000000E+01  0.611650000000E+01  0.427000000000E+01
 -0.490100000000E+01  0.606210000000E+01  0.456000000000E+01
 -0.474100000000E+01  0.597880000000E+01  0.487360000000E+01
 -0.467300000000E+01  0.586330000000E+01  0.518990000000E+01
 -0.546100000000E+01  0.605020000000E+01  0.415680000000E+01
 -0.526700000000E+01  0.601480000000E+01  0.438680000000E+01
 -0.509000000000E+01  0.596720000000E+01  0.463160000000E+01
 -0.494100000000E+01  0.590520000000E+01  0.488810000000E+01
 -0.483800000000E+01  0.582720000000E+01  0.514600000000E+01
 -0.555700000000E+01  0.595360000000E+01  0.430420000000E+01
 -0.541800000000E+01  0.591300000000E+01  0.450370000000E+01
 -0.528000000000E+01  0.587230000000E+01  0.470310000000E+01
 -0.514100000000E+01  0.583170000000E+01  0.490260000000E+01
 -0.500200000000E+01  0.579100000000E+01  0.510210000000E+01
 -0.562000000000E+01  0.770540000000E+01  0.394490000000E+01
 -0.521700000000E+01  0.769080000000E+01  0.430480000000E+01
 -0.490900000000E+01  0.762870000000E+01  0.474720000000E+01
 -0.465900000000E+01  0.754320000000E+01  0.522150000000E+01
 -0.448300000000E+01  0.743170000000E+01  0.572330000000E+01
 -0.570000000000E+01  0.763310000000E+01  0.412010000000E+01
 -0.534500000000E+01  0.761740000000E+01  0.444650000000E+01
 -0.506500000000E+01  0.756380000000E+01  0.483890000000E+01
 -0.483200000000E+01  0.749150000000E+01  0.525680000000E+01
 -0.465800000000E+01  0.739840000000E+01  0.569670000000E+01
 -0.578100000000E+01  0.756070000000E+01  0.429530000000E+01
 -0.547300000000E+01  0.754410000000E+01  0.458820000000E+01
 -0.522200000000E+01  0.749890000000E+01  0.493060000000E+01
 -0.500600000000E+01  0.743980000000E+01  0.529210000000E+01
 -0.483400000000E+01  0.736510000000E+01  0.567010000000E+01
 -0.586100000000E+01  0.748830000000E+01  0.447050000000E+01
 -0.560100000000E+01  0.747070000000E+01  0.472990000000E+01
 -0.537800000000E+01  0.743410000000E+01  0.502220000000E+01
 -0.517900000000E+01  0.738810000000E+01  0.532740000000E+01
 -0.501000000000E+01  0.733170000000E+01  0.564350000000E+01
 -0.594100000000E+01  0.741600000000E+01  0.464570000000E+01
 -0.572900000000E+01  0.739730000000E+01  0.487160000000E+01
 -0.553500000000E+01  0.736920000000E+01  0.511390000000E+01
 -0.535300000000E+01  0.733640000000E+01  0.536270000000E+01
 -0.518500000000E+01  0.729840000000E+01  0.561690000000E+01
 -0.602200000000E+01  0.734360000000E+01  0.482090000000E+01
 -0.585600000000E+01  0.732400000000E+01  0.501330000000E+01
 -0.569100000000E+01  0.730430000000E+01  0.520560000000E+01
 -0.552600000000E+01  0.728470000000E+01  0.539800000000E+01
 -0.536100000000E+01  0.726510000000E+01  0.559030000000E+01
 -0.582900000000E+01  0.908900000000E+01  0.424770000000E+01
 -0.539800000000E+01  0.909010000000E+01  0.458430000000E+01
 -0.507700000000E+01  0.905280000000E+01  0.502690000000E+01
 -0.486800000000E+01  0.898590000000E+01  0.552940000000E+01
 -0.476700000000E+01  0.889600000000E+01  0.606150000000E+01
 -0.590700000000E+01  0.903960000000E+01  0.443450000000E+01
 -0.553000000000E+01  0.903760000000E+01  0.474340000000E+01
 -0.524200000000E+01  0.900480000000E+01  0.513720000000E+01
 -0.504300000000E+01  0.894840000000E+01  0.557890000000E+01
 -0.493100000000E+01  0.887360000000E+01  0.604430000000E+01
 -0.598500000000E+01  0.899020000000E+01  0.462130000000E+01
 -0.566300000000E+01  0.898510000000E+01  0.490260000000E+01
 -0.540800000000E+01  0.895680000000E+01  0.524750000000E+01
 -0.521900000000E+01  0.891090000000E+01  0.562840000000E+01
 -0.509500000000E+01  0.885120000000E+01  0.602710000000E+01
 -0.606300000000E+01  0.894080000000E+01  0.480800000000E+01
 -0.579600000000E+01  0.893260000000E+01  0.506170000000E+01
 -0.557300000000E+01  0.890890000000E+01  0.535780000000E+01
 -0.539500000000E+01  0.887340000000E+01  0.567790000000E+01
 -0.526000000000E+01  0.882880000000E+01  0.600990000000E+01
 -0.614100000000E+01  0.889140000000E+01  0.499480000000E+01
 -0.592900000000E+01  0.888000000000E+01  0.522090000000E+01
 -0.573800000000E+01  0.886090000000E+01  0.546820000000E+01
 -0.557000000000E+01  0.883590000000E+01  0.572740000000E+01
 -0.542400000000E+01  0.880630000000E+01  0.599260000000E+01
 -0.622000000000E+01  0.884200000000E+01  0.518150000000E+01
 -0.606200000000E+01  0.882750000000E+01  0.538000000000E+01
 -0.590400000000E+01  0.881300000000E+01  0.557850000000E+01
 -0.574600000000E+01  0.879840000000E+01  0.577690000000E+01
 -0.558800000000E+01  0.878390000000E+01  0.597540000000E+01
 -0.586100000000E+01  0.104080000000E+02  0.473240000000E+01
 -0.543900000000E+01  0.104030000000E+02  0.504960000000E+01
 -0.507800000000E+01  0.103920000000E+02  0.543320000000E+01
 -0.485800000000E+01  0.103690000000E+02  0.591000000000E+01
 -0.482400000000E+01  0.103370000000E+02  0.643450000000E+01
 -0.593500000000E+01  0.103960000000E+02  0.487940000000E+01
 -0.556800000000E+01  0.103900000000E+02  0.517370000000E+01
 -0.525000000000E+01  0.103800000000E+02  0.552110000000E+01
 -0.504500000000E+01  0.103600000000E+02  0.594310000000E+01
 -0.498900000000E+01  0.103330000000E+02  0.640330000000E+01
 -0.600800000000E+01  0.103840000000E+02  0.502630000000E+01
 -0.569700000000E+01  0.103780000000E+02  0.529780000000E+01
 -0.542200000000E+01  0.103680000000E+02  0.560900000000E+01
 -0.523200000000E+01  0.103510000000E+02  0.597630000000E+01
 -0.515400000000E+01  0.103290000000E+02  0.637200000000E+01
 -0.608200000000E+01  0.103720000000E+02  0.517330000000E+01
 -0.582600000000E+01  0.103650000000E+02  0.542190000000E+01
 -0.559400000000E+01  0.103560000000E+02  0.569700000000E+01
 -0.541900000000E+01  0.103420000000E+02  0.600940000000E+01
 -0.531800000000E+01  0.103250000000E+02  0.634080000000E+01
 -0.615500000000E+01  0.103600000000E+02  0.532030000000E+01
 -0.595500000000E+01  0.103520000000E+02  0.554600000000E+01
 -0.576600000000E+01  0.103440000000E+02  0.578490000000E+01
 -0.560600000000E+01  0.103330000000E+02  0.604250000000E+01
 -0.548300000000E+01  0.103210000000E+02  0.630960000000E+01
 -0.622900000000E+01  0.103470000000E+02  0.546730000000E+01
 -0.608400000000E+01  0.103400000000E+02  0.567010000000E+01
 -0.593800000000E+01  0.103320000000E+02  0.587280000000E+01
 -0.579300000000E+01  0.103240000000E+02  0.607560000000E+01
 -0.564800000000E+01  0.103160000000E+02  0.627830000000E+01
 -0.548200000000E+01  0.117920000000E+02  0.442310000000E+01
 -0.509400000000E+01  0.117790000000E+02  0.475690000000E+01
 -0.486700000000E+01  0.117810000000E+02  0.521840000000E+01
 -0.476300000000E+01  0.117920000000E+02  0.572350000000E+01
 -0.471600000000E+01  0.118060000000E+02  0.623760000000E+01
 -0.558800000000E+01  0.118050000000E+02  0.459780000000E+01
 -0.525200000000E+01  0.117940000000E+02  0.490340000000E+01
 -0.504500000000E+01  0.117950000000E+02  0.531120000000E+01
 -0.493700000000E+01  0.118040000000E+02  0.575380000000E+01
 -0.487500000000E+01  0.118150000000E+02  0.620360000000E+01
 -0.569400000000E+01  0.118180000000E+02  0.477250000000E+01
 -0.541100000000E+01  0.118100000000E+02  0.504990000000E+01
 -0.522400000000E+01  0.118100000000E+02  0.540390000000E+01
 -0.511100000000E+01  0.118160000000E+02  0.578410000000E+01
 -0.503300000000E+01  0.118240000000E+02  0.616970000000E+01
 -0.580100000000E+01  0.118310000000E+02  0.494720000000E+01
 -0.556900000000E+01  0.118250000000E+02  0.519640000000E+01
 -0.540300000000E+01  0.118250000000E+02  0.549670000000E+01
 -0.528500000000E+01  0.118280000000E+02  0.581440000000E+01
 -0.519100000000E+01  0.118330000000E+02  0.613570000000E+01
 -0.590700000000E+01  0.118440000000E+02  0.512190000000E+01
 -0.572800000000E+01  0.118400000000E+02  0.534290000000E+01
 -0.558100000000E+01  0.118390000000E+02  0.558940000000E+01
 -0.545900000000E+01  0.118400000000E+02  0.584470000000E+01
 -0.534900000000E+01  0.118420000000E+02  0.610170000000E+01
 -0.601300000000E+01  0.118570000000E+02  0.529650000000E+01
 -0.588700000000E+01  0.118550000000E+02  0.548930000000E+01
 -0.576000000000E+01  0.118540000000E+02  0.568210000000E+01
 -0.563400000000E+01  0.118520000000E+02  0.587500000000E+01
 -0.550700000000E+01  0.118510000000E+02  0.606780000000E+01
 -0.535900000000E+01  0.133340000000E+02  0.491040000000E+01
 -0.512200000000E+01  0.133500000000E+02  0.531370000000E+01
 -0.502100000000E+01  0.133830000000E+02  0.576910000000E+01
 -0.505100000000E+01  0.134280000000E+02  0.623470000000E+01
 -0.510600000000E+01  0.134740000000E+02  0.669850000000E+01
 -0.548000000000E+01  0.133520000000E+02  0.500380000000E+01
 -0.527900000000E+01  0.133690000000E+02  0.536950000000E+01
 -0.518700000000E+01  0.133980000000E+02  0.577690000000E+01
 -0.520000000000E+01  0.134360000000E+02  0.619240000000E+01
 -0.523400000000E+01  0.134770000000E+02  0.660640000000E+01
 -0.560100000000E+01  0.133710000000E+02  0.509720000000E+01
 -0.543600000000E+01  0.133870000000E+02  0.542530000000E+01
 -0.535400000000E+01  0.134120000000E+02  0.578460000000E+01
 -0.535000000000E+01  0.134450000000E+02  0.615010000000E+01
 -0.536100000000E+01  0.134790000000E+02  0.651440000000E+01
 -0.572200000000E+01  0.133900000000E+02  0.519060000000E+01
 -0.559400000000E+01  0.134050000000E+02  0.548110000000E+01
 -0.552000000000E+01  0.134270000000E+02  0.579240000000E+01
 -0.550000000000E+01  0.134540000000E+02  0.610770000000E+01
 -0.548900000000E+01  0.134810000000E+02  0.642230000000E+01
 -0.584300000000E+01  0.134080000000E+02  0.528410000000E+01
 -0.575100000000E+01  0.134230000000E+02  0.553690000000E+01
 -0.568700000000E+01  0.134420000000E+02  0.580010000000E+01
 -0.564900000000E+01  0.134630000000E+02  0.606540000000E+01
 -0.561600000000E+01  0.134840000000E+02  0.633030000000E+01
 -0.596300000000E+01  0.134270000000E+02  0.537750000000E+01
 -0.590800000000E+01  0.134420000000E+02  0.559270000000E+01
 -0.585400000000E+01  0.134560000000E+02  0.580790000000E+01
 -0.579900000000E+01  0.134710000000E+02  0.602310000000E+01
 -0.574400000000E+01  0.134860000000E+02  0.623830000000E+01
 -0.539900000000E+01  0.147860000000E+02  0.396490000000E+01
 -0.503900000000E+01  0.147900000000E+02  0.423070000000E+01
 -0.482100000000E+01  0.148220000000E+02  0.462060000000E+01
 -0.478400000000E+01  0.148780000000E+02  0.506370000000E+01
 -0.490300000000E+01  0.149450000000E+02  0.549200000000E+01
 -0.549900000000E+01  0.148160000000E+02  0.412040000000E+01
 -0.519200000000E+01  0.148210000000E+02  0.436580000000E+01
 -0.499900000000E+01  0.148500000000E+02  0.471050000000E+01
 -0.495100000000E+01  0.148970000000E+02  0.509770000000E+01
 -0.502800000000E+01  0.149530000000E+02  0.547300000000E+01
 -0.559800000000E+01  0.148450000000E+02  0.427590000000E+01
 -0.534500000000E+01  0.148530000000E+02  0.450090000000E+01
 -0.517700000000E+01  0.148770000000E+02  0.480030000000E+01
 -0.511800000000E+01  0.149160000000E+02  0.513160000000E+01
 -0.515200000000E+01  0.149620000000E+02  0.545400000000E+01
 -0.569800000000E+01  0.148740000000E+02  0.443140000000E+01
 -0.549800000000E+01  0.148840000000E+02  0.463600000000E+01
 -0.535600000000E+01  0.149050000000E+02  0.489010000000E+01
 -0.528500000000E+01  0.149350000000E+02  0.516560000000E+01
 -0.527700000000E+01  0.149700000000E+02  0.543510000000E+01
 -0.579800000000E+01  0.149040000000E+02  0.458700000000E+01
 -0.565100000000E+01  0.149150000000E+02  0.477100000000E+01
 -0.553400000000E+01  0.149320000000E+02  0.498000000000E+01
 -0.545200000000E+01  0.149540000000E+02  0.519950000000E+01
 -0.540100000000E+01  0.149780000000E+02  0.541610000000E+01
 -0.589800000000E+01  0.149330000000E+02  0.474250000000E+01
 -0.580500000000E+01  0.149460000000E+02  0.490610000000E+01
 -0.571200000000E+01  0.149600000000E+02  0.506980000000E+01
 -0.561900000000E+01  0.149730000000E+02  0.523340000000E+01
 -0.552500000000E+01  0.149870000000E+02  0.539710000000E+01
 -0.540400000000E+01  0.161580000000E+02  0.317650000000E+01
 -0.504200000000E+01  0.161590000000E+02  0.338460000000E+01
 -0.476200000000E+01  0.161880000000E+02  0.369360000000E+01
 -0.457100000000E+01  0.162390000000E+02  0.406300000000E+01
 -0.449700000000E+01  0.163090000000E+02  0.446960000000E+01
 -0.546800000000E+01  0.161930000000E+02  0.332050000000E+01
 -0.515200000000E+01  0.161960000000E+02  0.351330000000E+01
 -0.490100000000E+01  0.162210000000E+02  0.378680000000E+01
 -0.472200000000E+01  0.162640000000E+02  0.410860000000E+01
 -0.463700000000E+01  0.163220000000E+02  0.446020000000E+01
 -0.553200000000E+01  0.162270000000E+02  0.346450000000E+01
 -0.526200000000E+01  0.162320000000E+02  0.364190000000E+01
 -0.504100000000E+01  0.162540000000E+02  0.388000000000E+01
 -0.487400000000E+01  0.162890000000E+02  0.415420000000E+01
 -0.477600000000E+01  0.163350000000E+02  0.445080000000E+01
 -0.559600000000E+01  0.162620000000E+02  0.360850000000E+01
 -0.537200000000E+01  0.162690000000E+02  0.377060000000E+01
 -0.518000000000E+01  0.162870000000E+02  0.397310000000E+01
 -0.502500000000E+01  0.163140000000E+02  0.419980000000E+01
 -0.491600000000E+01  0.163480000000E+02  0.444130000000E+01
 -0.566000000000E+01  0.162970000000E+02  0.375250000000E+01
 -0.548200000000E+01  0.163050000000E+02  0.389930000000E+01
 -0.532000000000E+01  0.163200000000E+02  0.406630000000E+01
 -0.517600000000E+01  0.163390000000E+02  0.424540000000E+01
 -0.505500000000E+01  0.163620000000E+02  0.443190000000E+01
 -0.572400000000E+01  0.163310000000E+02  0.389650000000E+01
 -0.559100000000E+01  0.163420000000E+02  0.402800000000E+01
 -0.545900000000E+01  0.163530000000E+02  0.415950000000E+01
 -0.532700000000E+01  0.163640000000E+02  0.429100000000E+01
 -0.519500000000E+01  0.163750000000E+02  0.442250000000E+01
 -0.533400000000E+01  0.176490000000E+02  0.277460000000E+01
 -0.497400000000E+01  0.176540000000E+02  0.301620000000E+01
 -0.468900000000E+01  0.176850000000E+02  0.333980000000E+01
 -0.453000000000E+01  0.177460000000E+02  0.373620000000E+01
 -0.452100000000E+01  0.178310000000E+02  0.416010000000E+01
 -0.540700000000E+01  0.176840000000E+02  0.290520000000E+01
 -0.509500000000E+01  0.176920000000E+02  0.312980000000E+01
 -0.484300000000E+01  0.177200000000E+02  0.341990000000E+01
 -0.469100000000E+01  0.177720000000E+02  0.376820000000E+01
 -0.466000000000E+01  0.178440000000E+02  0.413860000000E+01
 -0.548000000000E+01  0.177200000000E+02  0.303590000000E+01
 -0.521600000000E+01  0.177300000000E+02  0.324330000000E+01
 -0.499700000000E+01  0.177550000000E+02  0.349990000000E+01
 -0.485300000000E+01  0.177990000000E+02  0.380020000000E+01
 -0.480000000000E+01  0.178570000000E+02  0.411700000000E+01
 -0.555300000000E+01  0.177560000000E+02  0.316660000000E+01
 -0.533700000000E+01  0.177680000000E+02  0.335690000000E+01
 -0.515100000000E+01  0.177900000000E+02  0.358000000000E+01
 -0.501400000000E+01  0.178250000000E+02  0.383220000000E+01
 -0.493900000000E+01  0.178690000000E+02  0.409540000000E+01
 -0.562700000000E+01  0.177910000000E+02  0.329720000000E+01
 -0.545800000000E+01  0.178060000000E+02  0.347040000000E+01
 -0.530500000000E+01  0.178260000000E+02  0.366000000000E+01
 -0.517600000000E+01  0.178510000000E+02  0.386420000000E+01
 -0.507800000000E+01  0.178820000000E+02  0.407390000000E+01
 -0.570000000000E+01  0.178270000000E+02  0.342790000000E+01
 -0.557900000000E+01  0.178440000000E+02  0.358400000000E+01
 -0.545800000000E+01  0.178610000000E+02  0.374010000000E+01
 -0.533700000000E+01  0.178780000000E+02  0.389620000000E+01
 -0.521700000000E+01  0.178950000000E+02  0.405230000000E+01
 -0.500300000000E+01  0.192430000000E+02  0.271810000000E+01
 -0.466800000000E+01  0.192360000000E+02  0.293720000000E+01
 -0.444600000000E+01  0.192630000000E+02  0.326580000000E+01
 -0.441500000000E+01  0.193270000000E+02  0.365760000000E+01
 -0.453400000000E+01  0.194080000000E+02  0.403110000000E+01
 -0.510000000000E+01  0.192760000000E+02  0.283110000000E+01
 -0.481500000000E+01  0.192730000000E+02  0.303600000000E+01
 -0.462100000000E+01  0.192980000000E+02  0.332840000000E+01
 -0.458000000000E+01  0.193520000000E+02  0.367150000000E+01
 -0.465800000000E+01  0.194190000000E+02  0.399990000000E+01
 -0.519700000000E+01  0.193080000000E+02  0.294410000000E+01
 -0.496200000000E+01  0.193100000000E+02  0.313480000000E+01
 -0.479600000000E+01  0.193320000000E+02  0.339110000000E+01
 -0.474400000000E+01  0.193760000000E+02  0.368540000000E+01
 -0.478200000000E+01  0.194300000000E+02  0.396870000000E+01
 -0.529300000000E+01  0.193410000000E+02  0.305710000000E+01
 -0.511000000000E+01  0.193470000000E+02  0.323360000000E+01
 -0.497100000000E+01  0.193660000000E+02  0.345380000000E+01
 -0.490800000000E+01  0.194000000000E+02  0.369930000000E+01
 -0.490600000000E+01  0.194410000000E+02  0.393750000000E+01
 -0.539000000000E+01  0.193730000000E+02  0.317010000000E+01
 -0.525700000000E+01  0.193830000000E+02  0.333230000000E+01
 -0.514500000000E+01  0.194010000000E+02  0.351640000000E+01
 -0.507300000000E+01  0.194250000000E+02  0.371320000000E+01
 -0.503000000000E+01  0.194530000000E+02  0.390630000000E+01
 -0.548700000000E+01  0.194060000000E+02  0.328310000000E+01
 -0.540400000000E+01  0.194200000000E+02  0.343110000000E+01
 -0.532000000000E+01  0.194350000000E+02  0.357910000000E+01
 -0.523700000000E+01  0.194490000000E+02  0.372710000000E+01
 -0.515400000000E+01  0.194640000000E+02  0.387510000000E+01
 -0.511400000000E+01  0.209080000000E+02  0.272180000000E+01
 -0.480800000000E+01  0.208840000000E+02  0.289200000000E+01
 -0.457400000000E+01  0.208830000000E+02  0.315080000000E+01
 -0.450100000000E+01  0.209160000000E+02  0.348860000000E+01
 -0.463200000000E+01  0.209760000000E+02  0.380640000000E+01
 -0.518500000000E+01  0.209310000000E+02  0.281890000000E+01
 -0.492400000000E+01  0.209130000000E+02  0.297980000000E+01
 -0.472100000000E+01  0.209130000000E+02  0.321150000000E+01
 -0.464700000000E+01  0.209400000000E+02  0.350640000000E+01
 -0.473600000000E+01  0.209890000000E+02  0.378540000000E+01
 -0.525700000000E+01  0.209550000000E+02  0.291600000000E+01
 -0.504100000000E+01  0.209420000000E+02  0.306760000000E+01
 -0.486900000000E+01  0.209420000000E+02  0.327220000000E+01
 -0.479300000000E+01  0.209640000000E+02  0.352430000000E+01
 -0.484000000000E+01  0.210020000000E+02  0.376440000000E+01
 -0.532800000000E+01  0.209780000000E+02  0.301310000000E+01
 -0.515800000000E+01  0.209710000000E+02  0.315530000000E+01
 -0.501600000000E+01  0.209720000000E+02  0.333290000000E+01
 -0.493900000000E+01  0.209880000000E+02  0.354220000000E+01
 -0.494400000000E+01  0.210140000000E+02  0.374340000000E+01
 -0.539900000000E+01  0.210010000000E+02  0.311020000000E+01
 -0.527400000000E+01  0.209990000000E+02  0.324310000000E+01
 -0.516400000000E+01  0.210020000000E+02  0.339370000000E+01
 -0.508500000000E+01  0.210120000000E+02  0.356000000000E+01
 -0.504700000000E+01  0.210270000000E+02  0.372240000000E+01
 -0.547100000000E+01  0.210240000000E+02  0.320730000000E+01
 -0.539100000000E+01  0.210280000000E+02  0.333090000000E+01
 -0.531100000000E+01  0.210320000000E+02  0.345440000000E+01
 -0.523100000000E+01  0.210360000000E+02  0.357790000000E+01
 -0.515100000000E+01  0.210400000000E+02  0.370140000000E+01
 -0.542300000000E+01  0.224910000000E+02  0.196680000000E+01
 -0.507800000000E+01  0.224620000000E+02  0.219680000000E+01
 -0.488200000000E+01  0.224710000000E+02  0.256450000000E+01
 -0.477100000000E+01  0.224970000000E+02  0.296710000000E+01
 -0.455000000000E+01  0.225010000000E+02  0.332220000000E+01
 -0.548000000000E+01  0.225170000000E+02  0.211590000000E+01
 -0.517800000000E+01  0.224920000000E+02  0.232840000000E+01
 -0.499600000000E+01  0.224980000000E+02  0.265110000000E+01
 -0.488200000000E+01  0.225190000000E+02  0.300160000000E+01
 -0.467900000000E+01  0.225210000000E+02  0.331420000000E+01
 -0.553700000000E+01  0.225420000000E+02  0.226510000000E+01
 -0.527900000000E+01  0.225220000000E+02  0.246010000000E+01
 -0.511000000000E+01  0.225260000000E+02  0.273770000000E+01
 -0.499200000000E+01  0.225400000000E+02  0.303620000000E+01
 -0.480800000000E+01  0.225400000000E+02  0.330630000000E+01
 -0.559400000000E+01  0.225670000000E+02  0.241430000000E+01
 -0.537900000000E+01  0.225530000000E+02  0.259170000000E+01
 -0.522400000000E+01  0.225530000000E+02  0.282430000000E+01
 -0.510300000000E+01  0.225610000000E+02  0.307080000000E+01
 -0.493700000000E+01  0.225600000000E+02  0.329830000000E+01
 -0.565100000000E+01  0.225930000000E+02  0.256340000000E+01
 -0.548000000000E+01  0.225830000000E+02  0.272340000000E+01
 -0.533800000000E+01  0.225810000000E+02  0.291090000000E+01
 -0.521300000000E+01  0.225820000000E+02  0.310530000000E+01
 -0.506700000000E+01  0.225790000000E+02  0.329030000000E+01
 -0.570800000000E+01  0.226180000000E+02  0.271260000000E+01
 -0.558000000000E+01  0.226130000000E+02  0.285500000000E+01
 -0.545200000000E+01  0.226080000000E+02  0.299740000000E+01
 -0.532400000000E+01  0.226040000000E+02  0.313990000000E+01
 -0.519600000000E+01  0.225990000000E+02  0.328230000000E+01
 -0.500100000000E+01  0.240460000000E+02  0.203390000000E+01
 -0.476900000000E+01  0.240410000000E+02  0.242720000000E+01
 -0.462200000000E+01  0.240550000000E+02  0.285970000000E+01
 -0.456600000000E+01  0.240880000000E+02  0.331190000000E+01
 -0.460200000000E+01  0.241370000000E+02  0.376500000000E+01
 -0.511000000000E+01  0.240760000000E+02  0.214400000000E+01
 -0.491100000000E+01  0.240740000000E+02  0.250000000000E+01
 -0.477900000000E+01  0.240860000000E+02  0.288730000000E+01
 -0.472000000000E+01  0.241140000000E+02  0.329030000000E+01
 -0.473400000000E+01  0.241550000000E+02  0.369410000000E+01
 -0.522000000000E+01  0.241070000000E+02  0.225420000000E+01
 -0.505300000000E+01  0.241060000000E+02  0.257280000000E+01
 -0.493600000000E+01  0.241180000000E+02  0.291490000000E+01
 -0.487400000000E+01  0.241400000000E+02  0.326880000000E+01
 -0.486700000000E+01  0.241720000000E+02  0.362320000000E+01
 -0.533000000000E+01  0.241370000000E+02  0.236430000000E+01
 -0.519500000000E+01  0.241390000000E+02  0.264550000000E+01
 -0.509300000000E+01  0.241490000000E+02  0.294240000000E+01
 -0.502800000000E+01  0.241660000000E+02  0.324720000000E+01
 -0.500000000000E+01  0.241890000000E+02  0.355230000000E+01
 -0.544000000000E+01  0.241670000000E+02  0.247440000000E+01
 -0.533700000000E+01  0.241720000000E+02  0.271830000000E+01
 -0.525000000000E+01  0.241800000000E+02  0.297000000000E+01
 -0.518200000000E+01  0.241920000000E+02  0.322560000000E+01
 -0.513300000000E+01  0.242070000000E+02  0.348140000000E+01
 -0.555000000000E+01  0.241980000000E+02  0.258450000000E+01
 -0.547900000000E+01  0.242040000000E+02  0.279100000000E+01
 -0.540800000000E+01  0.242110000000E+02  0.299760000000E+01
 -0.533600000000E+01  0.242180000000E+02  0.320410000000E+01
 -0.526500000000E+01  0.242240000000E+02  0.341060000000E+01
 -0.500600000000E+01  0.256550000000E+02  0.168750000000E+01
 -0.467200000000E+01  0.256010000000E+02  0.198590000000E+01
 -0.443900000000E+01  0.255760000000E+02  0.237200000000E+01
 -0.430300000000E+01  0.255760000000E+02  0.280310000000E+01
 -0.425000000000E+01  0.255970000000E+02  0.325210000000E+01
 -0.508400000000E+01  0.256830000000E+02  0.183210000000E+01
 -0.479400000000E+01  0.256370000000E+02  0.210540000000E+01
 -0.458400000000E+01  0.256140000000E+02  0.244880000000E+01
 -0.445200000000E+01  0.256120000000E+02  0.282820000000E+01
 -0.438600000000E+01  0.256250000000E+02  0.322200000000E+01
 -0.516300000000E+01  0.257120000000E+02  0.197670000000E+01
 -0.491600000000E+01  0.256730000000E+02  0.222490000000E+01
 -0.472900000000E+01  0.256530000000E+02  0.252560000000E+01
 -0.460100000000E+01  0.256470000000E+02  0.285340000000E+01
 -0.452300000000E+01  0.256540000000E+02  0.319200000000E+01
 -0.524100000000E+01  0.257400000000E+02  0.212130000000E+01
 -0.503800000000E+01  0.257100000000E+02  0.234440000000E+01
 -0.487400000000E+01  0.256920000000E+02  0.260250000000E+01
 -0.475000000000E+01  0.256830000000E+02  0.287860000000E+01
 -0.465900000000E+01  0.256830000000E+02  0.316190000000E+01
 -0.532000000000E+01  0.257680000000E+02  0.226590000000E+01
 -0.516000000000E+01  0.257460000000E+02  0.246380000000E+01
 -0.501900000000E+01  0.257300000000E+02  0.267930000000E+01
 -0.489900000000E+01  0.257190000000E+02  0.290380000000E+01
 -0.479500000000E+01  0.257120000000E+02  0.313180000000E+01
 -0.539800000000E+01  0.257970000000E+02  0.241050000000E+01
 -0.528100000000E+01  0.257830000000E+02  0.258330000000E+01
 -0.516500000000E+01  0.257690000000E+02  0.275610000000E+01
 -0.504800000000E+01  0.257550000000E+02  0.292890000000E+01
 -0.493100000000E+01  0.257410000000E+02  0.310170000000E+01
 -0.428700000000E+01  0.271070000000E+02  0.155500000000E+01
 -0.402300000000E+01  0.270670000000E+02  0.195810000000E+01
 -0.381300000000E+01  0.270430000000E+02  0.239390000000E+01
 -0.370000000000E+01  0.270450000000E+02  0.286290000000E+01
 -0.380200000000E+01  0.271000000000E+02  0.333150000000E+01
 -0.440100000000E+01  0.271420000000E+02  0.167570000000E+01
 -0.417200000000E+01  0.271090000000E+02  0.203960000000E+01
 -0.398700000000E+01  0.270880000000E+02  0.242990000000E+01
 -0.388000000000E+01  0.270890000000E+02  0.284660000000E+01
 -0.394400000000E+01  0.271310000000E+02  0.326300000000E+01
 -0.451500000000E+01  0.271780000000E+02  0.179630000000E+01
 -0.432200000000E+01  0.271510000000E+02  0.212120000000E+01
 -0.416200000000E+01  0.271340000000E+02  0.246580000000E+01
 -0.406000000000E+01  0.271320000000E+02  0.283020000000E+01
 -0.408700000000E+01  0.271610000000E+02  0.319440000000E+01
 -0.462900000000E+01  0.272140000000E+02  0.191690000000E+01
 -0.447200000000E+01  0.271930000000E+02  0.220270000000E+01
 -0.433600000000E+01  0.271790000000E+02  0.250170000000E+01
 -0.424000000000E+01  0.271750000000E+02  0.281380000000E+01
 -0.422900000000E+01  0.271920000000E+02  0.312590000000E+01
 -0.474300000000E+01  0.272490000000E+02  0.203760000000E+01
 -0.462200000000E+01  0.272350000000E+02  0.228430000000E+01
 -0.451100000000E+01  0.272240000000E+02  0.253760000000E+01
 -0.442000000000E+01  0.272180000000E+02  0.279750000000E+01
 -0.437100000000E+01  0.272230000000E+02  0.305730000000E+01
 -0.485700000000E+01  0.272850000000E+02  0.215820000000E+01
 -0.477100000000E+01  0.272770000000E+02  0.236580000000E+01
 -0.468500000000E+01  0.272690000000E+02  0.257350000000E+01
 -0.460000000000E+01  0.272610000000E+02  0.278110000000E+01
 -0.451400000000E+01  0.272530000000E+02  0.298880000000E+01
 -0.388800000000E+01  0.286250000000E+02  0.131410000000E+01
 -0.363800000000E+01  0.285870000000E+02  0.174290000000E+01
 -0.345500000000E+01  0.285680000000E+02  0.220750000000E+01
 -0.332800000000E+01  0.285640000000E+02  0.268950000000E+01
 -0.340300000000E+01  0.286110000000E+02  0.317970000000E+01
 -0.400700000000E+01  0.286620000000E+02  0.145080000000E+01
 -0.378900000000E+01  0.286300000000E+02  0.183640000000E+01
 -0.362400000000E+01  0.286130000000E+02  0.225060000000E+01
 -0.350500000000E+01  0.286070000000E+02  0.267870000000E+01
 -0.354700000000E+01  0.286430000000E+02  0.311350000000E+01
 -0.412500000000E+01  0.287000000000E+02  0.158740000000E+01
 -0.394000000000E+01  0.286730000000E+02  0.192980000000E+01
 -0.379300000000E+01  0.286570000000E+02  0.229370000000E+01
 -0.368100000000E+01  0.286510000000E+02  0.266800000000E+01
 -0.369100000000E+01  0.286750000000E+02  0.304720000000E+01
 -0.424400000000E+01  0.287370000000E+02  0.172410000000E+01
 -0.409000000000E+01  0.287160000000E+02  0.202330000000E+01
 -0.396300000000E+01  0.287020000000E+02  0.233680000000E+01
 -0.385800000000E+01  0.286940000000E+02  0.265720000000E+01
 -0.383400000000E+01  0.287070000000E+02  0.298090000000E+01
 -0.436300000000E+01  0.287750000000E+02  0.186080000000E+01
 -0.424100000000E+01  0.287590000000E+02  0.211680000000E+01
 -0.413200000000E+01  0.287470000000E+02  0.237990000000E+01
 -0.403500000000E+01  0.287380000000E+02  0.264640000000E+01
 -0.397800000000E+01  0.287390000000E+02  0.291470000000E+01
 -0.448100000000E+01  0.288120000000E+02  0.199750000000E+01
 -0.439200000000E+01  0.288020000000E+02  0.221020000000E+01
 -0.430200000000E+01  0.287910000000E+02  0.242290000000E+01
 -0.421200000000E+01  0.287810000000E+02  0.263570000000E+01
 -0.412200000000E+01  0.287710000000E+02  0.284840000000E+01
 -0.373000000000E+01  0.302320000000E+02  0.140410000000E+01
 -0.335500000000E+01  0.301490000000E+02  0.169870000000E+01
 -0.306300000000E+01  0.300910000000E+02  0.207750000000E+01
 -0.293600000000E+01  0.300790000000E+02  0.254180000000E+01
 -0.298200000000E+01  0.301120000000E+02  0.302110000000E+01
 -0.380800000000E+01  0.302580000000E+02  0.152780000000E+01
 -0.348600000000E+01  0.301870000000E+02  0.180210000000E+01
 -0.323000000000E+01  0.301370000000E+02  0.214380000000E+01
 -0.310600000000E+01  0.301230000000E+02  0.255390000000E+01
 -0.312100000000E+01  0.301460000000E+02  0.297610000000E+01
 -0.388600000000E+01  0.302830000000E+02  0.165150000000E+01
 -0.361700000000E+01  0.302250000000E+02  0.190560000000E+01
 -0.339700000000E+01  0.301830000000E+02  0.221020000000E+01
 -0.327700000000E+01  0.301680000000E+02  0.256610000000E+01
 -0.326000000000E+01  0.301800000000E+02  0.293110000000E+01
 -0.396400000000E+01  0.303090000000E+02  0.177520000000E+01
 -0.374800000000E+01  0.302640000000E+02  0.200900000000E+01
 -0.356400000000E+01  0.302290000000E+02  0.227660000000E+01
 -0.344700000000E+01  0.302120000000E+02  0.257830000000E+01
 -0.339900000000E+01  0.302140000000E+02  0.288600000000E+01
 -0.404200000000E+01  0.303350000000E+02  0.189890000000E+01
 -0.387800000000E+01  0.303020000000E+02  0.211250000000E+01
 -0.373100000000E+01  0.302750000000E+02  0.234290000000E+01
 -0.361800000000E+01  0.302570000000E+02  0.259040000000E+01
 -0.353800000000E+01  0.302480000000E+02  0.284100000000E+01
 -0.412000000000E+01  0.303600000000E+02  0.202260000000E+01
 -0.400900000000E+01  0.303410000000E+02  0.221590000000E+01
 -0.389900000000E+01  0.303210000000E+02  0.240930000000E+01
 -0.378800000000E+01  0.303010000000E+02  0.260260000000E+01
 -0.367700000000E+01  0.302810000000E+02  0.279600000000E+01
 -0.338100000000E+01  0.317750000000E+02  0.160200000000E+01
 -0.309400000000E+01  0.317160000000E+02  0.193070000000E+01
 -0.288300000000E+01  0.316790000000E+02  0.231740000000E+01
 -0.273300000000E+01  0.316590000000E+02  0.273290000000E+01
 -0.270900000000E+01  0.316720000000E+02  0.317420000000E+01
 -0.347500000000E+01  0.318050000000E+02  0.173740000000E+01
 -0.322400000000E+01  0.317540000000E+02  0.203480000000E+01
 -0.303300000000E+01  0.317200000000E+02  0.237860000000E+01
 -0.289100000000E+01  0.317000000000E+02  0.274530000000E+01
 -0.285100000000E+01  0.317070000000E+02  0.313280000000E+01
 -0.356900000000E+01  0.318360000000E+02  0.187280000000E+01
 -0.335300000000E+01  0.317920000000E+02  0.213890000000E+01
 -0.318300000000E+01  0.317620000000E+02  0.243970000000E+01
 -0.305000000000E+01  0.317420000000E+02  0.275780000000E+01
 -0.299300000000E+01  0.317420000000E+02  0.309140000000E+01
 -0.366200000000E+01  0.318660000000E+02  0.200820000000E+01
 -0.348300000000E+01  0.318300000000E+02  0.224290000000E+01
 -0.333300000000E+01  0.318030000000E+02  0.250090000000E+01
 -0.320900000000E+01  0.317830000000E+02  0.277030000000E+01
 -0.313500000000E+01  0.317770000000E+02  0.305010000000E+01
 -0.375600000000E+01  0.318960000000E+02  0.214360000000E+01
 -0.361200000000E+01  0.318680000000E+02  0.234700000000E+01
 -0.348400000000E+01  0.318450000000E+02  0.256200000000E+01
 -0.336800000000E+01  0.318250000000E+02  0.278280000000E+01
 -0.327700000000E+01  0.318110000000E+02  0.300870000000E+01
 -0.384900000000E+01  0.319260000000E+02  0.227890000000E+01
 -0.374200000000E+01  0.319060000000E+02  0.245100000000E+01
 -0.363400000000E+01  0.318860000000E+02  0.262310000000E+01
 -0.352600000000E+01  0.318660000000E+02  0.279520000000E+01
 -0.341900000000E+01  0.318460000000E+02  0.296730000000E+01
  0.644900000000E+00  0.474920000000E+00  0.267700000000E+01
  0.546200000000E+00 -0.599690000000E-01  0.293680000000E+01
  0.377100000000E+00 -0.633120000000E+00  0.302980000000E+01
  0.158200000000E+00 -0.119200000000E+01  0.296280000000E+01
 -0.101500000000E+00 -0.166350000000E+01  0.268700000000E+01
  0.542700000000E+00  0.368670000000E+00  0.248710000000E+01
  0.449300000000E+00 -0.109710000000E+00  0.270450000000E+01
  0.299500000000E+00 -0.618700000000E+00  0.278830000000E+01
  0.110000000000E+00 -0.111630000000E+01  0.274420000000E+01
 -0.112200000000E+00 -0.154390000000E+01  0.253300000000E+01
  0.440500000000E+00  0.262430000000E+00  0.229720000000E+01
  0.352400000000E+00 -0.159450000000E+00  0.247210000000E+01
  0.222000000000E+00 -0.604280000000E+00  0.254680000000E+01
  0.617500000000E-01 -0.104060000000E+01  0.252560000000E+01
 -0.122900000000E+00 -0.142440000000E+01  0.237910000000E+01
  0.338300000000E+00  0.156180000000E+00  0.210740000000E+01
  0.255500000000E+00 -0.209190000000E+00  0.223980000000E+01
  0.144500000000E+00 -0.589870000000E+00  0.230540000000E+01
  0.135300000000E-01 -0.964850000000E+00  0.230700000000E+01
 -0.133700000000E+00 -0.130480000000E+01  0.222520000000E+01
  0.236100000000E+00  0.499400000000E-01  0.191750000000E+01
  0.158600000000E+00 -0.258930000000E+00  0.200740000000E+01
  0.669100000000E-01 -0.575450000000E+00  0.206390000000E+01
 -0.346800000000E-01 -0.889120000000E+00  0.208850000000E+01
 -0.144400000000E+00 -0.118530000000E+01  0.207120000000E+01
  0.133900000000E+00 -0.563050000000E-01  0.172760000000E+01
  0.616300000000E-01 -0.308670000000E+00  0.177500000000E+01
 -0.106300000000E-01 -0.561030000000E+00  0.182250000000E+01
 -0.829000000000E-01 -0.813400000000E+00  0.186990000000E+01
 -0.155200000000E+00 -0.106580000000E+01  0.191730000000E+01
 -0.829800000000E+00  0.482970000000E+00  0.281310000000E+01
 -0.100100000000E+01 -0.299940000000E-01  0.297810000000E+01
 -0.124000000000E+01 -0.540560000000E+00  0.298980000000E+01
 -0.153500000000E+01 -0.985170000000E+00  0.280960000000E+01
 -0.184500000000E+01 -0.129590000000E+01  0.245460000000E+01
 -0.928800000000E+00  0.442460000000E+00  0.263790000000E+01
 -0.108800000000E+01 -0.133300000000E-01  0.276780000000E+01
 -0.130300000000E+01 -0.467200000000E+00  0.277510000000E+01
 -0.156100000000E+01 -0.868310000000E+00  0.262880000000E+01
 -0.183200000000E+01 -0.116230000000E+01  0.234270000000E+01
 -0.102800000000E+01  0.401950000000E+00  0.246280000000E+01
 -0.117600000000E+01  0.333440000000E-02  0.255760000000E+01
 -0.136500000000E+01 -0.393840000000E+00  0.256040000000E+01
 -0.158700000000E+01 -0.751440000000E+00  0.244800000000E+01
 -0.181900000000E+01 -0.102870000000E+01  0.223080000000E+01
 -0.112700000000E+01  0.361440000000E+00  0.228760000000E+01
 -0.126300000000E+01  0.199990000000E-01  0.234730000000E+01
 -0.142700000000E+01 -0.320480000000E+00  0.234560000000E+01
 -0.161400000000E+01 -0.634570000000E+00  0.226720000000E+01
 -0.180600000000E+01 -0.895110000000E+00  0.211890000000E+01
 -0.122600000000E+01  0.320920000000E+00  0.211240000000E+01
 -0.135100000000E+01  0.366630000000E-01  0.213700000000E+01
 -0.149000000000E+01 -0.247120000000E+00  0.213090000000E+01
 -0.164000000000E+01 -0.517710000000E+00  0.208640000000E+01
 -0.179300000000E+01 -0.761510000000E+00  0.200690000000E+01
 -0.132500000000E+01  0.280410000000E+00  0.193730000000E+01
 -0.143900000000E+01  0.533270000000E-01  0.192670000000E+01
 -0.155200000000E+01 -0.173760000000E+00  0.191620000000E+01
 -0.166600000000E+01 -0.400840000000E+00  0.190560000000E+01
 -0.177900000000E+01 -0.627920000000E+00  0.189500000000E+01
 -0.173200000000E+01  0.137150000000E+01  0.343840000000E+01
 -0.187200000000E+01  0.881940000000E+00  0.373650000000E+01
 -0.213500000000E+01  0.362060000000E+00  0.385260000000E+01
 -0.247600000000E+01 -0.120110000000E+00  0.379250000000E+01
 -0.286200000000E+01 -0.478100000000E+00  0.351620000000E+01
 -0.189000000000E+01  0.128410000000E+01  0.325880000000E+01
 -0.202300000000E+01  0.849680000000E+00  0.350890000000E+01
 -0.225400000000E+01  0.391050000000E+00  0.361350000000E+01
 -0.254700000000E+01 -0.374170000000E-01  0.357710000000E+01
 -0.287600000000E+01 -0.366550000000E+00  0.336770000000E+01
 -0.204900000000E+01  0.119660000000E+01  0.307920000000E+01
 -0.217400000000E+01  0.817430000000E+00  0.328140000000E+01
 -0.237300000000E+01  0.420040000000E+00  0.337440000000E+01
 -0.261800000000E+01  0.452710000000E-01  0.336170000000E+01
 -0.289100000000E+01 -0.255000000000E+00  0.321920000000E+01
 -0.220800000000E+01  0.110920000000E+01  0.289960000000E+01
 -0.232500000000E+01  0.785180000000E+00  0.305380000000E+01
 -0.249200000000E+01  0.449030000000E+00  0.313530000000E+01
 -0.268900000000E+01  0.127960000000E+00  0.314630000000E+01
 -0.290500000000E+01 -0.143440000000E+00  0.307080000000E+01
 -0.236700000000E+01  0.102180000000E+01  0.272000000000E+01
 -0.247600000000E+01  0.752930000000E+00  0.282630000000E+01
 -0.261100000000E+01  0.478020000000E+00  0.289620000000E+01
 -0.276100000000E+01  0.210650000000E+00  0.293080000000E+01
 -0.292000000000E+01 -0.318900000000E-01  0.292230000000E+01
 -0.252500000000E+01  0.934350000000E+00  0.254040000000E+01
 -0.262700000000E+01  0.720680000000E+00  0.259870000000E+01
 -0.273000000000E+01  0.507010000000E+00  0.265710000000E+01
 -0.283200000000E+01  0.293340000000E+00  0.271540000000E+01
 -0.293400000000E+01  0.796630000000E-01  0.277380000000E+01
 -0.278100000000E+01  0.179920000000E+01  0.417660000000E+01
 -0.306800000000E+01  0.134560000000E+01  0.436490000000E+01
 -0.346200000000E+01  0.928320000000E+00  0.436960000000E+01
 -0.389200000000E+01  0.561990000000E+00  0.426520000000E+01
 -0.433700000000E+01  0.291140000000E+00  0.402310000000E+01
 -0.295000000000E+01  0.176900000000E+01  0.399620000000E+01
 -0.321000000000E+01  0.136860000000E+01  0.415240000000E+01
 -0.355700000000E+01  0.997130000000E+00  0.416170000000E+01
 -0.393200000000E+01  0.666470000000E+00  0.408380000000E+01
 -0.432000000000E+01  0.412190000000E+00  0.389570000000E+01
 -0.311800000000E+01  0.173890000000E+01  0.381580000000E+01
 -0.335300000000E+01  0.139150000000E+01  0.393990000000E+01
 -0.365200000000E+01  0.106590000000E+01  0.395390000000E+01
 -0.397300000000E+01  0.770950000000E+00  0.390240000000E+01
 -0.430300000000E+01  0.533250000000E+00  0.376820000000E+01
 -0.328600000000E+01  0.170870000000E+01  0.363530000000E+01
 -0.349500000000E+01  0.141450000000E+01  0.372740000000E+01
 -0.374700000000E+01  0.113480000000E+01  0.374600000000E+01
 -0.401400000000E+01  0.875430000000E+00  0.372090000000E+01
 -0.428600000000E+01  0.654310000000E+00  0.364080000000E+01
 -0.345500000000E+01  0.167850000000E+01  0.345490000000E+01
 -0.363800000000E+01  0.143740000000E+01  0.351490000000E+01
 -0.384300000000E+01  0.120360000000E+01  0.353810000000E+01
 -0.405500000000E+01  0.979910000000E+00  0.353950000000E+01
 -0.427000000000E+01  0.775370000000E+00  0.351340000000E+01
 -0.362300000000E+01  0.164830000000E+01  0.327450000000E+01
 -0.378000000000E+01  0.146030000000E+01  0.330230000000E+01
 -0.393800000000E+01  0.127240000000E+01  0.333020000000E+01
 -0.409500000000E+01  0.108440000000E+01  0.335810000000E+01
 -0.425300000000E+01  0.896420000000E+00  0.338600000000E+01
 -0.332300000000E+01  0.299530000000E+01  0.461460000000E+01
 -0.358800000000E+01  0.263370000000E+01  0.494980000000E+01
 -0.398900000000E+01  0.228840000000E+01  0.513930000000E+01
 -0.446500000000E+01  0.199240000000E+01  0.518520000000E+01
 -0.497400000000E+01  0.178020000000E+01  0.507000000000E+01
 -0.351400000000E+01  0.296950000000E+01  0.448670000000E+01
 -0.375900000000E+01  0.264990000000E+01  0.477350000000E+01
 -0.411300000000E+01  0.234330000000E+01  0.494360000000E+01
 -0.452700000000E+01  0.207620000000E+01  0.499890000000E+01
 -0.496700000000E+01  0.187600000000E+01  0.492530000000E+01
 -0.370400000000E+01  0.294380000000E+01  0.435890000000E+01
 -0.393000000000E+01  0.266610000000E+01  0.459720000000E+01
 -0.423700000000E+01  0.239820000000E+01  0.474790000000E+01
 -0.458900000000E+01  0.215990000000E+01  0.481260000000E+01
 -0.496000000000E+01  0.197180000000E+01  0.478060000000E+01
 -0.389500000000E+01  0.291800000000E+01  0.423110000000E+01
 -0.410000000000E+01  0.268230000000E+01  0.442080000000E+01
 -0.436000000000E+01  0.245310000000E+01  0.455230000000E+01
 -0.465000000000E+01  0.224360000000E+01  0.462630000000E+01
 -0.495300000000E+01  0.206770000000E+01  0.463590000000E+01
 -0.408600000000E+01  0.289230000000E+01  0.410330000000E+01
 -0.427100000000E+01  0.269850000000E+01  0.424450000000E+01
 -0.448400000000E+01  0.250800000000E+01  0.435660000000E+01
 -0.471200000000E+01  0.232740000000E+01  0.444000000000E+01
 -0.494600000000E+01  0.216350000000E+01  0.449110000000E+01
 -0.427600000000E+01  0.286650000000E+01  0.397540000000E+01
 -0.444200000000E+01  0.271470000000E+01  0.406820000000E+01
 -0.460800000000E+01  0.256290000000E+01  0.416090000000E+01
 -0.477400000000E+01  0.241110000000E+01  0.425370000000E+01
 -0.493900000000E+01  0.225930000000E+01  0.434640000000E+01
 -0.388300000000E+01  0.419150000000E+01  0.541000000000E+01
 -0.426400000000E+01  0.389100000000E+01  0.571960000000E+01
 -0.474000000000E+01  0.362080000000E+01  0.589570000000E+01
 -0.527200000000E+01  0.340380000000E+01  0.592330000000E+01
 -0.581600000000E+01  0.325500000000E+01  0.580560000000E+01
 -0.404200000000E+01  0.420050000000E+01  0.527120000000E+01
 -0.439000000000E+01  0.393520000000E+01  0.553500000000E+01
 -0.481500000000E+01  0.369420000000E+01  0.569200000000E+01
 -0.528500000000E+01  0.349580000000E+01  0.573020000000E+01
 -0.576400000000E+01  0.335190000000E+01  0.565220000000E+01
 -0.420000000000E+01  0.420950000000E+01  0.513240000000E+01
 -0.451700000000E+01  0.397950000000E+01  0.535040000000E+01
 -0.489000000000E+01  0.376760000000E+01  0.548830000000E+01
 -0.529700000000E+01  0.358770000000E+01  0.553710000000E+01
 -0.571200000000E+01  0.344870000000E+01  0.549870000000E+01
 -0.435900000000E+01  0.421850000000E+01  0.499370000000E+01
 -0.464300000000E+01  0.402370000000E+01  0.516580000000E+01
 -0.496500000000E+01  0.384110000000E+01  0.528470000000E+01
 -0.531000000000E+01  0.367970000000E+01  0.534400000000E+01
 -0.565900000000E+01  0.354560000000E+01  0.534530000000E+01
 -0.451700000000E+01  0.422750000000E+01  0.485490000000E+01
 -0.476900000000E+01  0.406790000000E+01  0.498130000000E+01
 -0.504000000000E+01  0.391450000000E+01  0.508100000000E+01
 -0.532300000000E+01  0.377160000000E+01  0.515090000000E+01
 -0.560700000000E+01  0.364240000000E+01  0.519190000000E+01
 -0.467600000000E+01  0.423650000000E+01  0.471610000000E+01
 -0.489600000000E+01  0.411220000000E+01  0.479670000000E+01
 -0.511600000000E+01  0.398790000000E+01  0.487730000000E+01
 -0.533500000000E+01  0.386360000000E+01  0.495780000000E+01
 -0.555500000000E+01  0.373930000000E+01  0.503840000000E+01
 -0.439200000000E+01  0.571230000000E+01  0.575080000000E+01
 -0.470000000000E+01  0.544960000000E+01  0.611560000000E+01
 -0.510600000000E+01  0.519920000000E+01  0.637540000000E+01
 -0.559700000000E+01  0.499030000000E+01  0.647600000000E+01
 -0.611500000000E+01  0.485810000000E+01  0.637960000000E+01
 -0.455300000000E+01  0.570580000000E+01  0.564220000000E+01
 -0.483800000000E+01  0.547330000000E+01  0.595520000000E+01
 -0.520200000000E+01  0.525070000000E+01  0.618420000000E+01
 -0.563300000000E+01  0.506130000000E+01  0.628580000000E+01
 -0.608600000000E+01  0.493330000000E+01  0.622990000000E+01
 -0.471400000000E+01  0.569930000000E+01  0.553360000000E+01
 -0.497600000000E+01  0.549700000000E+01  0.579480000000E+01
 -0.529700000000E+01  0.530230000000E+01  0.599300000000E+01
 -0.566900000000E+01  0.513240000000E+01  0.609570000000E+01
 -0.605700000000E+01  0.500850000000E+01  0.608020000000E+01
 -0.487500000000E+01  0.569270000000E+01  0.542500000000E+01
 -0.511400000000E+01  0.552080000000E+01  0.563440000000E+01
 -0.539200000000E+01  0.535380000000E+01  0.580180000000E+01
 -0.570500000000E+01  0.520340000000E+01  0.590550000000E+01
 -0.602800000000E+01  0.508370000000E+01  0.593050000000E+01
 -0.503500000000E+01  0.568620000000E+01  0.531640000000E+01
 -0.525200000000E+01  0.554450000000E+01  0.547400000000E+01
 -0.548800000000E+01  0.540530000000E+01  0.561060000000E+01
 -0.574100000000E+01  0.527450000000E+01  0.571540000000E+01
 -0.600000000000E+01  0.515890000000E+01  0.578070000000E+01
 -0.519600000000E+01  0.567960000000E+01  0.520790000000E+01
 -0.539000000000E+01  0.556830000000E+01  0.531360000000E+01
 -0.558300000000E+01  0.545690000000E+01  0.541940000000E+01
 -0.577700000000E+01  0.534550000000E+01  0.552520000000E+01
 -0.597100000000E+01  0.523410000000E+01  0.563100000000E+01
 -0.464200000000E+01  0.724750000000E+01  0.620480000000E+01
 -0.490600000000E+01  0.705470000000E+01  0.663210000000E+01
 -0.530800000000E+01  0.686740000000E+01  0.693540000000E+01
 -0.580500000000E+01  0.670990000000E+01  0.706710000000E+01
 -0.633100000000E+01  0.658790000000E+01  0.706070000000E+01
 -0.482200000000E+01  0.723410000000E+01  0.610870000000E+01
 -0.507100000000E+01  0.706300000000E+01  0.647730000000E+01
 -0.543000000000E+01  0.689630000000E+01  0.674670000000E+01
 -0.586400000000E+01  0.675350000000E+01  0.687870000000E+01
 -0.632100000000E+01  0.663900000000E+01  0.690040000000E+01
 -0.500300000000E+01  0.722080000000E+01  0.601250000000E+01
 -0.523600000000E+01  0.707140000000E+01  0.632240000000E+01
 -0.555100000000E+01  0.692520000000E+01  0.655790000000E+01
 -0.592300000000E+01  0.679700000000E+01  0.669030000000E+01
 -0.631200000000E+01  0.669000000000E+01  0.674010000000E+01
 -0.518400000000E+01  0.720740000000E+01  0.591640000000E+01
 -0.540100000000E+01  0.707970000000E+01  0.616750000000E+01
 -0.567200000000E+01  0.695410000000E+01  0.636910000000E+01
 -0.598200000000E+01  0.684050000000E+01  0.650200000000E+01
 -0.630300000000E+01  0.674110000000E+01  0.657970000000E+01
 -0.536500000000E+01  0.719400000000E+01  0.582020000000E+01
 -0.556600000000E+01  0.708800000000E+01  0.601270000000E+01
 -0.579400000000E+01  0.698300000000E+01  0.618030000000E+01
 -0.604100000000E+01  0.688400000000E+01  0.631360000000E+01
 -0.629400000000E+01  0.679210000000E+01  0.641940000000E+01
 -0.554600000000E+01  0.718070000000E+01  0.572410000000E+01
 -0.573000000000E+01  0.709630000000E+01  0.585780000000E+01
 -0.591500000000E+01  0.701190000000E+01  0.599150000000E+01
 -0.610000000000E+01  0.692750000000E+01  0.612530000000E+01
 -0.628500000000E+01  0.684320000000E+01  0.625900000000E+01
 -0.471100000000E+01  0.879930000000E+01  0.659300000000E+01
 -0.495100000000E+01  0.866890000000E+01  0.705960000000E+01
 -0.538500000000E+01  0.854050000000E+01  0.736190000000E+01
 -0.589300000000E+01  0.842780000000E+01  0.752610000000E+01
 -0.641800000000E+01  0.832270000000E+01  0.763890000000E+01
 -0.491900000000E+01  0.878480000000E+01  0.650100000000E+01
 -0.514400000000E+01  0.866890000000E+01  0.690590000000E+01
 -0.552400000000E+01  0.855480000000E+01  0.717930000000E+01
 -0.596400000000E+01  0.845320000000E+01  0.734210000000E+01
 -0.641700000000E+01  0.835760000000E+01  0.746390000000E+01
 -0.512800000000E+01  0.877020000000E+01  0.640900000000E+01
 -0.533800000000E+01  0.866900000000E+01  0.675210000000E+01
 -0.566400000000E+01  0.856910000000E+01  0.699660000000E+01
 -0.603500000000E+01  0.847850000000E+01  0.715820000000E+01
 -0.641600000000E+01  0.839250000000E+01  0.728900000000E+01
 -0.533600000000E+01  0.875570000000E+01  0.631710000000E+01
 -0.553100000000E+01  0.866910000000E+01  0.659840000000E+01
 -0.580300000000E+01  0.858340000000E+01  0.681390000000E+01
 -0.610600000000E+01  0.850390000000E+01  0.697420000000E+01
 -0.641500000000E+01  0.842740000000E+01  0.711400000000E+01
 -0.554400000000E+01  0.874110000000E+01  0.622510000000E+01
 -0.572400000000E+01  0.866920000000E+01  0.644460000000E+01
 -0.594300000000E+01  0.859760000000E+01  0.663130000000E+01
 -0.617700000000E+01  0.852920000000E+01  0.679030000000E+01
 -0.641400000000E+01  0.846230000000E+01  0.693910000000E+01
 -0.575300000000E+01  0.872660000000E+01  0.613320000000E+01
 -0.591800000000E+01  0.866920000000E+01  0.629090000000E+01
 -0.608300000000E+01  0.861190000000E+01  0.644860000000E+01
 -0.624800000000E+01  0.855460000000E+01  0.660640000000E+01
 -0.641300000000E+01  0.849720000000E+01  0.676410000000E+01
 -0.489900000000E+01  0.103010000000E+02  0.695120000000E+01
 -0.520300000000E+01  0.102620000000E+02  0.737340000000E+01
 -0.566500000000E+01  0.102300000000E+02  0.761710000000E+01
 -0.617700000000E+01  0.102040000000E+02  0.773210000000E+01
 -0.669200000000E+01  0.101780000000E+02  0.783280000000E+01
 -0.508600000000E+01  0.103010000000E+02  0.684460000000E+01
 -0.536600000000E+01  0.102670000000E+02  0.721030000000E+01
 -0.577300000000E+01  0.102380000000E+02  0.743330000000E+01
 -0.622000000000E+01  0.102130000000E+02  0.755320000000E+01
 -0.667000000000E+01  0.101900000000E+02  0.766170000000E+01
 -0.527300000000E+01  0.103010000000E+02  0.673800000000E+01
 -0.553000000000E+01  0.102710000000E+02  0.704720000000E+01
 -0.588200000000E+01  0.102450000000E+02  0.724940000000E+01
 -0.626400000000E+01  0.102230000000E+02  0.737430000000E+01
 -0.664800000000E+01  0.102020000000E+02  0.749070000000E+01
 -0.546100000000E+01  0.103010000000E+02  0.663140000000E+01
 -0.569400000000E+01  0.102760000000E+02  0.688420000000E+01
 -0.599100000000E+01  0.102530000000E+02  0.706550000000E+01
 -0.630800000000E+01  0.102330000000E+02  0.719540000000E+01
 -0.662600000000E+01  0.102140000000E+02  0.731960000000E+01
 -0.564800000000E+01  0.103010000000E+02  0.652480000000E+01
 -0.585800000000E+01  0.102800000000E+02  0.672110000000E+01
 -0.610000000000E+01  0.102610000000E+02  0.688170000000E+01
 -0.635100000000E+01  0.102430000000E+02  0.701650000000E+01
 -0.660400000000E+01  0.102250000000E+02  0.714850000000E+01
 -0.583500000000E+01  0.103010000000E+02  0.641820000000E+01
 -0.602200000000E+01  0.102850000000E+02  0.655800000000E+01
 -0.620800000000E+01  0.102690000000E+02  0.669780000000E+01
 -0.639500000000E+01  0.102530000000E+02  0.683770000000E+01
 -0.658200000000E+01  0.102370000000E+02  0.697750000000E+01
 -0.487300000000E+01  0.118330000000E+02  0.672630000000E+01
 -0.521200000000E+01  0.118680000000E+02  0.710980000000E+01
 -0.566200000000E+01  0.119050000000E+02  0.735650000000E+01
 -0.615900000000E+01  0.119420000000E+02  0.748820000000E+01
 -0.667100000000E+01  0.119760000000E+02  0.754040000000E+01
 -0.503900000000E+01  0.118400000000E+02  0.662070000000E+01
 -0.535000000000E+01  0.118720000000E+02  0.695350000000E+01
 -0.574800000000E+01  0.119050000000E+02  0.717690000000E+01
 -0.618500000000E+01  0.119370000000E+02  0.730830000000E+01
 -0.663400000000E+01  0.119680000000E+02  0.737610000000E+01
 -0.520500000000E+01  0.118470000000E+02  0.651500000000E+01
 -0.548700000000E+01  0.118750000000E+02  0.679720000000E+01
 -0.583500000000E+01  0.119040000000E+02  0.699740000000E+01
 -0.621100000000E+01  0.119320000000E+02  0.712850000000E+01
 -0.659600000000E+01  0.119600000000E+02  0.721190000000E+01
 -0.537100000000E+01  0.118540000000E+02  0.640940000000E+01
 -0.562400000000E+01  0.118780000000E+02  0.664090000000E+01
 -0.592100000000E+01  0.119030000000E+02  0.681780000000E+01
 -0.623700000000E+01  0.119280000000E+02  0.694860000000E+01
 -0.655900000000E+01  0.119520000000E+02  0.704760000000E+01
 -0.553700000000E+01  0.118610000000E+02  0.630370000000E+01
 -0.576100000000E+01  0.118820000000E+02  0.648460000000E+01
 -0.600700000000E+01  0.119030000000E+02  0.663820000000E+01
 -0.626300000000E+01  0.119230000000E+02  0.676870000000E+01
 -0.652200000000E+01  0.119440000000E+02  0.688340000000E+01
 -0.570200000000E+01  0.118680000000E+02  0.619800000000E+01
 -0.589800000000E+01  0.118850000000E+02  0.632830000000E+01
 -0.609300000000E+01  0.119020000000E+02  0.645860000000E+01
 -0.628900000000E+01  0.119190000000E+02  0.658890000000E+01
 -0.648400000000E+01  0.119360000000E+02  0.671920000000E+01
 -0.545800000000E+01  0.135320000000E+02  0.700460000000E+01
 -0.588200000000E+01  0.135850000000E+02  0.719710000000E+01
 -0.634400000000E+01  0.136300000000E+02  0.726800000000E+01
 -0.680700000000E+01  0.136630000000E+02  0.720170000000E+01
 -0.722500000000E+01  0.136790000000E+02  0.698830000000E+01
 -0.555700000000E+01  0.135270000000E+02  0.685720000000E+01
 -0.593900000000E+01  0.135730000000E+02  0.701690000000E+01
 -0.635100000000E+01  0.136130000000E+02  0.707950000000E+01
 -0.676400000000E+01  0.136440000000E+02  0.703220000000E+01
 -0.714100000000E+01  0.136610000000E+02  0.686720000000E+01
 -0.565700000000E+01  0.135220000000E+02  0.670970000000E+01
 -0.599600000000E+01  0.135620000000E+02  0.683680000000E+01
 -0.635800000000E+01  0.135970000000E+02  0.689090000000E+01
 -0.672100000000E+01  0.136250000000E+02  0.686270000000E+01
 -0.705600000000E+01  0.136420000000E+02  0.674620000000E+01
 -0.575700000000E+01  0.135170000000E+02  0.656220000000E+01
 -0.605400000000E+01  0.135500000000E+02  0.665660000000E+01
 -0.636500000000E+01  0.135800000000E+02  0.670230000000E+01
 -0.667800000000E+01  0.136060000000E+02  0.669320000000E+01
 -0.697200000000E+01  0.136240000000E+02  0.662520000000E+01
 -0.585600000000E+01  0.135120000000E+02  0.641470000000E+01
 -0.611100000000E+01  0.135390000000E+02  0.647640000000E+01
 -0.637200000000E+01  0.135640000000E+02  0.651380000000E+01
 -0.663400000000E+01  0.135870000000E+02  0.652370000000E+01
 -0.688800000000E+01  0.136060000000E+02  0.650420000000E+01
 -0.595600000000E+01  0.135070000000E+02  0.626720000000E+01
 -0.616800000000E+01  0.135270000000E+02  0.629620000000E+01
 -0.637900000000E+01  0.135470000000E+02  0.632520000000E+01
 -0.659100000000E+01  0.135680000000E+02  0.635420000000E+01
 -0.680300000000E+01  0.135880000000E+02  0.638320000000E+01
 -0.503300000000E+01  0.150120000000E+02  0.591690000000E+01
 -0.525600000000E+01  0.150820000000E+02  0.630000000000E+01
 -0.556500000000E+01  0.151520000000E+02  0.661660000000E+01
 -0.596200000000E+01  0.152120000000E+02  0.681430000000E+01
 -0.640700000000E+01  0.152530000000E+02  0.682630000000E+01
 -0.516100000000E+01  0.150130000000E+02  0.583960000000E+01
 -0.537000000000E+01  0.150760000000E+02  0.617280000000E+01
 -0.564800000000E+01  0.151370000000E+02  0.645270000000E+01
 -0.599500000000E+01  0.151920000000E+02  0.663760000000E+01
 -0.638100000000E+01  0.152310000000E+02  0.667390000000E+01
 -0.529000000000E+01  0.150140000000E+02  0.576230000000E+01
 -0.548400000000E+01  0.150690000000E+02  0.604560000000E+01
 -0.573000000000E+01  0.151230000000E+02  0.628890000000E+01
 -0.602800000000E+01  0.151720000000E+02  0.646090000000E+01
 -0.635500000000E+01  0.152080000000E+02  0.652150000000E+01
 -0.541900000000E+01  0.150160000000E+02  0.568510000000E+01
 -0.559800000000E+01  0.150620000000E+02  0.591840000000E+01
 -0.581200000000E+01  0.151080000000E+02  0.612510000000E+01
 -0.606100000000E+01  0.151510000000E+02  0.628420000000E+01
 -0.632900000000E+01  0.151860000000E+02  0.636910000000E+01
 -0.554700000000E+01  0.150170000000E+02  0.560780000000E+01
 -0.571200000000E+01  0.150550000000E+02  0.579120000000E+01
 -0.589400000000E+01  0.150940000000E+02  0.596120000000E+01
 -0.609400000000E+01  0.151310000000E+02  0.610750000000E+01
 -0.630300000000E+01  0.151640000000E+02  0.621670000000E+01
 -0.567600000000E+01  0.150180000000E+02  0.553050000000E+01
 -0.582600000000E+01  0.150490000000E+02  0.566400000000E+01
 -0.597700000000E+01  0.150790000000E+02  0.579740000000E+01
 -0.612700000000E+01  0.151100000000E+02  0.593080000000E+01
 -0.627800000000E+01  0.151410000000E+02  0.606430000000E+01
 -0.459700000000E+01  0.163960000000E+02  0.486890000000E+01
 -0.480600000000E+01  0.164860000000E+02  0.522110000000E+01
 -0.514200000000E+01  0.165680000000E+02  0.545630000000E+01
 -0.554900000000E+01  0.166280000000E+02  0.553970000000E+01
 -0.596800000000E+01  0.166750000000E+02  0.554830000000E+01
 -0.474600000000E+01  0.163990000000E+02  0.480120000000E+01
 -0.494200000000E+01  0.164790000000E+02  0.510450000000E+01
 -0.524100000000E+01  0.165510000000E+02  0.531430000000E+01
 -0.559600000000E+01  0.166060000000E+02  0.540250000000E+01
 -0.596000000000E+01  0.166510000000E+02  0.543100000000E+01
 -0.489500000000E+01  0.164020000000E+02  0.473350000000E+01
 -0.507900000000E+01  0.164710000000E+02  0.498800000000E+01
 -0.534000000000E+01  0.165350000000E+02  0.517220000000E+01
 -0.564300000000E+01  0.165850000000E+02  0.526540000000E+01
 -0.595300000000E+01  0.166280000000E+02  0.531370000000E+01
 -0.504400000000E+01  0.164050000000E+02  0.466580000000E+01
 -0.521600000000E+01  0.164630000000E+02  0.487140000000E+01
 -0.543800000000E+01  0.165180000000E+02  0.503020000000E+01
 -0.569000000000E+01  0.165640000000E+02  0.512830000000E+01
 -0.594500000000E+01  0.166050000000E+02  0.519640000000E+01
 -0.519300000000E+01  0.164080000000E+02  0.459810000000E+01
 -0.535200000000E+01  0.164560000000E+02  0.475480000000E+01
 -0.553700000000E+01  0.165010000000E+02  0.488820000000E+01
 -0.573600000000E+01  0.165430000000E+02  0.499110000000E+01
 -0.593800000000E+01  0.165810000000E+02  0.507910000000E+01
 -0.534200000000E+01  0.164120000000E+02  0.453040000000E+01
 -0.548900000000E+01  0.164480000000E+02  0.463820000000E+01
 -0.563600000000E+01  0.164850000000E+02  0.474610000000E+01
 -0.578300000000E+01  0.165210000000E+02  0.485400000000E+01
 -0.593000000000E+01  0.165580000000E+02  0.496180000000E+01
 -0.460900000000E+01  0.179270000000E+02  0.457430000000E+01
 -0.485500000000E+01  0.180260000000E+02  0.491570000000E+01
 -0.522500000000E+01  0.181140000000E+02  0.512380000000E+01
 -0.564700000000E+01  0.181820000000E+02  0.519930000000E+01
 -0.607900000000E+01  0.182360000000E+02  0.520810000000E+01
 -0.476200000000E+01  0.179280000000E+02  0.449090000000E+01
 -0.499000000000E+01  0.180160000000E+02  0.478490000000E+01
 -0.531700000000E+01  0.180950000000E+02  0.497240000000E+01
 -0.568600000000E+01  0.181570000000E+02  0.505370000000E+01
 -0.606200000000E+01  0.182090000000E+02  0.508170000000E+01
 -0.491400000000E+01  0.179300000000E+02  0.440740000000E+01
 -0.512400000000E+01  0.180060000000E+02  0.465420000000E+01
 -0.540800000000E+01  0.180750000000E+02  0.482100000000E+01
 -0.572400000000E+01  0.181320000000E+02  0.490820000000E+01
 -0.604600000000E+01  0.181810000000E+02  0.495540000000E+01
 -0.506700000000E+01  0.179320000000E+02  0.432400000000E+01
 -0.525900000000E+01  0.179960000000E+02  0.452340000000E+01
 -0.550000000000E+01  0.180560000000E+02  0.466960000000E+01
 -0.576300000000E+01  0.181070000000E+02  0.476260000000E+01
 -0.602900000000E+01  0.181530000000E+02  0.482900000000E+01
 -0.522000000000E+01  0.179340000000E+02  0.424050000000E+01
 -0.539400000000E+01  0.179860000000E+02  0.439270000000E+01
 -0.559200000000E+01  0.180360000000E+02  0.451810000000E+01
 -0.580100000000E+01  0.180820000000E+02  0.461710000000E+01
 -0.601200000000E+01  0.181250000000E+02  0.470260000000E+01
 -0.537200000000E+01  0.179350000000E+02  0.415710000000E+01
 -0.552800000000E+01  0.179760000000E+02  0.426190000000E+01
 -0.568400000000E+01  0.180160000000E+02  0.436670000000E+01
 -0.584000000000E+01  0.180570000000E+02  0.447150000000E+01
 -0.599500000000E+01  0.180970000000E+02  0.457630000000E+01
 -0.470900000000E+01  0.194920000000E+02  0.438270000000E+01
 -0.498500000000E+01  0.195770000000E+02  0.466060000000E+01
 -0.533000000000E+01  0.196560000000E+02  0.485050000000E+01
 -0.571400000000E+01  0.197240000000E+02  0.494450000000E+01
 -0.611300000000E+01  0.197760000000E+02  0.493360000000E+01
 -0.482900000000E+01  0.194940000000E+02  0.429920000000E+01
 -0.508200000000E+01  0.195690000000E+02  0.453960000000E+01
 -0.539000000000E+01  0.196400000000E+02  0.470960000000E+01
 -0.572900000000E+01  0.197020000000E+02  0.480280000000E+01
 -0.607900000000E+01  0.197500000000E+02  0.481220000000E+01
 -0.495000000000E+01  0.194960000000E+02  0.421570000000E+01
 -0.517900000000E+01  0.195610000000E+02  0.441860000000E+01
 -0.544900000000E+01  0.196240000000E+02  0.456870000000E+01
 -0.574300000000E+01  0.196790000000E+02  0.466110000000E+01
 -0.604500000000E+01  0.197240000000E+02  0.469070000000E+01
 -0.507100000000E+01  0.194970000000E+02  0.413230000000E+01
 -0.527600000000E+01  0.195530000000E+02  0.429760000000E+01
 -0.550800000000E+01  0.196070000000E+02  0.442770000000E+01
 -0.575700000000E+01  0.196560000000E+02  0.451950000000E+01
 -0.601100000000E+01  0.196990000000E+02  0.456930000000E+01
 -0.519100000000E+01  0.194990000000E+02  0.404880000000E+01
 -0.537300000000E+01  0.195450000000E+02  0.417660000000E+01
 -0.556800000000E+01  0.195910000000E+02  0.428680000000E+01
 -0.577100000000E+01  0.196340000000E+02  0.437780000000E+01
 -0.597700000000E+01  0.196730000000E+02  0.444780000000E+01
 -0.531200000000E+01  0.195010000000E+02  0.396530000000E+01
 -0.547000000000E+01  0.195370000000E+02  0.405560000000E+01
 -0.562700000000E+01  0.195740000000E+02  0.414580000000E+01
 -0.578500000000E+01  0.196110000000E+02  0.423610000000E+01
 -0.594300000000E+01  0.196480000000E+02  0.432640000000E+01
 -0.475600000000E+01  0.210360000000E+02  0.412500000000E+01
 -0.500600000000E+01  0.211030000000E+02  0.435630000000E+01
 -0.530000000000E+01  0.211690000000E+02  0.453040000000E+01
 -0.561500000000E+01  0.212330000000E+02  0.466410000000E+01
 -0.595600000000E+01  0.212900000000E+02  0.470720000000E+01
 -0.486200000000E+01  0.210430000000E+02  0.405830000000E+01
 -0.508800000000E+01  0.211030000000E+02  0.426130000000E+01
 -0.535000000000E+01  0.211620000000E+02  0.441860000000E+01
 -0.562800000000E+01  0.212200000000E+02  0.454360000000E+01
 -0.592800000000E+01  0.212710000000E+02  0.459610000000E+01
 -0.496700000000E+01  0.210500000000E+02  0.399160000000E+01
 -0.517000000000E+01  0.211030000000E+02  0.416640000000E+01
 -0.540000000000E+01  0.211550000000E+02  0.430690000000E+01
 -0.564200000000E+01  0.212060000000E+02  0.442310000000E+01
 -0.589900000000E+01  0.212530000000E+02  0.448510000000E+01
 -0.507300000000E+01  0.210570000000E+02  0.392490000000E+01
 -0.525200000000E+01  0.211030000000E+02  0.407140000000E+01
 -0.544900000000E+01  0.211480000000E+02  0.419510000000E+01
 -0.565500000000E+01  0.211930000000E+02  0.430270000000E+01
 -0.587100000000E+01  0.212340000000E+02  0.437400000000E+01
 -0.517800000000E+01  0.210640000000E+02  0.385820000000E+01
 -0.533400000000E+01  0.211030000000E+02  0.397650000000E+01
 -0.549900000000E+01  0.211410000000E+02  0.408340000000E+01
 -0.566800000000E+01  0.211790000000E+02  0.418220000000E+01
 -0.584200000000E+01  0.212160000000E+02  0.426290000000E+01
 -0.528400000000E+01  0.210710000000E+02  0.379150000000E+01
 -0.541600000000E+01  0.211030000000E+02  0.388160000000E+01
 -0.554900000000E+01  0.211340000000E+02  0.397160000000E+01
 -0.568100000000E+01  0.211660000000E+02  0.406170000000E+01
 -0.581300000000E+01  0.211970000000E+02  0.415180000000E+01
 -0.463500000000E+01  0.225590000000E+02  0.373130000000E+01
 -0.484300000000E+01  0.226310000000E+02  0.409040000000E+01
 -0.512100000000E+01  0.227090000000E+02  0.439760000000E+01
 -0.548600000000E+01  0.227870000000E+02  0.458620000000E+01
 -0.589600000000E+01  0.228450000000E+02  0.452240000000E+01
 -0.477400000000E+01  0.225740000000E+02  0.366550000000E+01
 -0.496800000000E+01  0.226390000000E+02  0.397680000000E+01
 -0.521700000000E+01  0.227080000000E+02  0.424660000000E+01
 -0.553600000000E+01  0.227770000000E+02  0.442140000000E+01
 -0.589100000000E+01  0.228300000000E+02  0.439440000000E+01
 -0.491300000000E+01  0.225890000000E+02  0.359970000000E+01
 -0.509200000000E+01  0.226460000000E+02  0.386320000000E+01
 -0.531300000000E+01  0.227060000000E+02  0.409550000000E+01
 -0.558500000000E+01  0.227670000000E+02  0.425670000000E+01
 -0.588500000000E+01  0.228160000000E+02  0.426640000000E+01
 -0.505200000000E+01  0.226040000000E+02  0.353390000000E+01
 -0.521600000000E+01  0.226530000000E+02  0.374960000000E+01
 -0.540800000000E+01  0.227050000000E+02  0.394450000000E+01
 -0.563500000000E+01  0.227570000000E+02  0.409190000000E+01
 -0.588000000000E+01  0.228010000000E+02  0.413840000000E+01
 -0.519100000000E+01  0.226190000000E+02  0.346810000000E+01
 -0.534100000000E+01  0.226610000000E+02  0.363600000000E+01
 -0.550400000000E+01  0.227040000000E+02  0.379340000000E+01
 -0.568500000000E+01  0.227470000000E+02  0.392720000000E+01
 -0.587400000000E+01  0.227860000000E+02  0.401040000000E+01
 -0.533000000000E+01  0.226330000000E+02  0.340230000000E+01
 -0.546500000000E+01  0.226680000000E+02  0.352240000000E+01
 -0.560000000000E+01  0.227020000000E+02  0.364240000000E+01
 -0.573400000000E+01  0.227370000000E+02  0.376240000000E+01
 -0.586900000000E+01  0.227710000000E+02  0.388240000000E+01
 -0.485000000000E+01  0.242180000000E+02  0.414280000000E+01
 -0.521400000000E+01  0.243090000000E+02  0.440630000000E+01
 -0.564800000000E+01  0.243990000000E+02  0.452620000000E+01
 -0.609900000000E+01  0.244790000000E+02  0.449880000000E+01
 -0.652900000000E+01  0.245420000000E+02  0.434850000000E+01
 -0.497200000000E+01  0.242270000000E+02  0.400800000000E+01
 -0.530100000000E+01  0.243080000000E+02  0.423050000000E+01
 -0.568700000000E+01  0.243880000000E+02  0.433810000000E+01
 -0.608600000000E+01  0.244600000000E+02  0.432780000000E+01
 -0.646900000000E+01  0.245190000000E+02  0.421930000000E+01
 -0.509300000000E+01  0.242370000000E+02  0.387320000000E+01
 -0.538900000000E+01  0.243080000000E+02  0.405470000000E+01
 -0.572600000000E+01  0.243780000000E+02  0.415000000000E+01
 -0.607400000000E+01  0.244420000000E+02  0.415690000000E+01
 -0.640900000000E+01  0.244960000000E+02  0.409010000000E+01
 -0.521500000000E+01  0.242460000000E+02  0.373850000000E+01
 -0.547600000000E+01  0.243070000000E+02  0.387890000000E+01
 -0.576500000000E+01  0.243670000000E+02  0.396180000000E+01
 -0.606100000000E+01  0.244230000000E+02  0.398590000000E+01
 -0.634900000000E+01  0.244730000000E+02  0.396080000000E+01
 -0.533700000000E+01  0.242550000000E+02  0.360370000000E+01
 -0.556400000000E+01  0.243060000000E+02  0.370310000000E+01
 -0.580400000000E+01  0.243560000000E+02  0.377370000000E+01
 -0.604900000000E+01  0.244050000000E+02  0.381490000000E+01
 -0.628900000000E+01  0.244500000000E+02  0.383160000000E+01
 -0.545800000000E+01  0.242650000000E+02  0.346890000000E+01
 -0.565100000000E+01  0.243050000000E+02  0.352730000000E+01
 -0.584400000000E+01  0.243460000000E+02  0.358560000000E+01
 -0.603600000000E+01  0.243860000000E+02  0.364400000000E+01
 -0.622900000000E+01  0.244270000000E+02  0.370230000000E+01
 -0.431300000000E+01  0.256430000000E+02  0.369210000000E+01
 -0.460200000000E+01  0.257330000000E+02  0.402030000000E+01
 -0.497400000000E+01  0.258340000000E+02  0.424950000000E+01
 -0.538600000000E+01  0.259390000000E+02  0.439270000000E+01
 -0.582300000000E+01  0.260360000000E+02  0.436010000000E+01
 -0.446800000000E+01  0.256710000000E+02  0.359620000000E+01
 -0.473100000000E+01  0.257520000000E+02  0.388090000000E+01
 -0.506000000000E+01  0.258420000000E+02  0.408640000000E+01
 -0.542100000000E+01  0.259340000000E+02  0.422320000000E+01
 -0.580200000000E+01  0.260210000000E+02  0.421920000000E+01
 -0.462300000000E+01  0.257000000000E+02  0.350030000000E+01
 -0.485900000000E+01  0.257710000000E+02  0.374150000000E+01
 -0.514600000000E+01  0.258500000000E+02  0.392340000000E+01
 -0.545600000000E+01  0.259300000000E+02  0.405360000000E+01
 -0.578100000000E+01  0.260060000000E+02  0.407840000000E+01
 -0.477800000000E+01  0.257280000000E+02  0.340430000000E+01
 -0.498800000000E+01  0.257900000000E+02  0.360210000000E+01
 -0.523100000000E+01  0.258570000000E+02  0.376030000000E+01
 -0.549000000000E+01  0.259250000000E+02  0.388410000000E+01
 -0.575900000000E+01  0.259910000000E+02  0.393750000000E+01
 -0.493300000000E+01  0.257560000000E+02  0.330840000000E+01
 -0.511700000000E+01  0.258090000000E+02  0.346270000000E+01
 -0.531700000000E+01  0.258650000000E+02  0.359720000000E+01
 -0.552500000000E+01  0.259210000000E+02  0.371450000000E+01
 -0.573800000000E+01  0.259750000000E+02  0.379660000000E+01
 -0.508800000000E+01  0.257850000000E+02  0.321250000000E+01
 -0.524500000000E+01  0.258290000000E+02  0.332330000000E+01
 -0.540300000000E+01  0.258730000000E+02  0.343410000000E+01
 -0.556000000000E+01  0.259160000000E+02  0.354490000000E+01
 -0.571700000000E+01  0.259600000000E+02  0.365570000000E+01
 -0.398400000000E+01  0.271730000000E+02  0.378160000000E+01
 -0.433400000000E+01  0.272800000000E+02  0.410560000000E+01
 -0.479200000000E+01  0.274010000000E+02  0.423180000000E+01
 -0.526800000000E+01  0.275150000000E+02  0.418800000000E+01
 -0.573000000000E+01  0.276200000000E+02  0.405380000000E+01
 -0.412800000000E+01  0.272000000000E+02  0.363750000000E+01
 -0.444700000000E+01  0.272960000000E+02  0.391110000000E+01
 -0.485200000000E+01  0.274020000000E+02  0.402660000000E+01
 -0.527100000000E+01  0.275040000000E+02  0.400590000000E+01
 -0.568000000000E+01  0.275990000000E+02  0.391300000000E+01
 -0.427300000000E+01  0.272260000000E+02  0.349340000000E+01
 -0.456000000000E+01  0.273110000000E+02  0.371670000000E+01
 -0.491200000000E+01  0.274040000000E+02  0.382130000000E+01
 -0.527500000000E+01  0.274940000000E+02  0.382390000000E+01
 -0.562900000000E+01  0.275770000000E+02  0.377230000000E+01
 -0.441700000000E+01  0.272530000000E+02  0.334920000000E+01
 -0.467300000000E+01  0.273270000000E+02  0.352220000000E+01
 -0.497200000000E+01  0.274060000000E+02  0.361600000000E+01
 -0.527800000000E+01  0.274830000000E+02  0.364180000000E+01
 -0.557900000000E+01  0.275560000000E+02  0.363150000000E+01
 -0.456200000000E+01  0.272790000000E+02  0.320510000000E+01
 -0.478600000000E+01  0.273420000000E+02  0.332770000000E+01
 -0.503200000000E+01  0.274080000000E+02  0.341070000000E+01
 -0.528200000000E+01  0.274720000000E+02  0.345980000000E+01
 -0.552800000000E+01  0.275350000000E+02  0.349070000000E+01
 -0.470700000000E+01  0.273050000000E+02  0.306100000000E+01
 -0.490000000000E+01  0.273570000000E+02  0.313320000000E+01
 -0.509200000000E+01  0.274090000000E+02  0.320550000000E+01
 -0.528500000000E+01  0.274610000000E+02  0.327770000000E+01
 -0.547800000000E+01  0.275130000000E+02  0.334990000000E+01
 -0.358100000000E+01  0.286810000000E+02  0.363870000000E+01
 -0.391600000000E+01  0.287850000000E+02  0.398910000000E+01
 -0.437200000000E+01  0.289070000000E+02  0.413660000000E+01
 -0.485400000000E+01  0.290250000000E+02  0.410040000000E+01
 -0.532600000000E+01  0.291360000000E+02  0.398280000000E+01
 -0.372800000000E+01  0.287100000000E+02  0.349670000000E+01
 -0.403400000000E+01  0.288030000000E+02  0.379310000000E+01
 -0.443700000000E+01  0.289110000000E+02  0.392720000000E+01
 -0.486100000000E+01  0.290160000000E+02  0.391430000000E+01
 -0.527700000000E+01  0.291160000000E+02  0.383630000000E+01
 -0.387400000000E+01  0.287380000000E+02  0.335470000000E+01
 -0.415200000000E+01  0.288210000000E+02  0.359710000000E+01
 -0.450300000000E+01  0.289160000000E+02  0.371770000000E+01
 -0.486900000000E+01  0.290070000000E+02  0.372810000000E+01
 -0.522900000000E+01  0.290950000000E+02  0.368970000000E+01
 -0.402100000000E+01  0.287670000000E+02  0.321270000000E+01
 -0.427000000000E+01  0.288390000000E+02  0.340110000000E+01
 -0.456800000000E+01  0.289200000000E+02  0.350830000000E+01
 -0.487600000000E+01  0.289990000000E+02  0.354200000000E+01
 -0.518000000000E+01  0.290750000000E+02  0.354310000000E+01
 -0.416800000000E+01  0.287950000000E+02  0.307070000000E+01
 -0.438800000000E+01  0.288580000000E+02  0.320500000000E+01
 -0.463300000000E+01  0.289240000000E+02  0.329880000000E+01
 -0.488400000000E+01  0.289900000000E+02  0.335580000000E+01
 -0.513200000000E+01  0.290540000000E+02  0.339650000000E+01
 -0.431400000000E+01  0.288230000000E+02  0.292870000000E+01
 -0.450600000000E+01  0.288760000000E+02  0.300900000000E+01
 -0.469900000000E+01  0.289290000000E+02  0.308930000000E+01
 -0.489100000000E+01  0.289810000000E+02  0.316960000000E+01
 -0.508300000000E+01  0.290340000000E+02  0.325000000000E+01
 -0.309400000000E+01  0.301610000000E+02  0.346070000000E+01
 -0.333300000000E+01  0.302400000000E+02  0.383890000000E+01
 -0.371000000000E+01  0.303470000000E+02  0.406180000000E+01
 -0.414900000000E+01  0.304580000000E+02  0.401640000000E+01
 -0.457900000000E+01  0.305630000000E+02  0.390340000000E+01
 -0.324200000000E+01  0.301940000000E+02  0.334540000000E+01
 -0.346600000000E+01  0.302660000000E+02  0.366560000000E+01
 -0.380000000000E+01  0.303610000000E+02  0.386160000000E+01
 -0.418200000000E+01  0.304580000000E+02  0.384290000000E+01
 -0.455800000000E+01  0.305520000000E+02  0.377020000000E+01
 -0.339100000000E+01  0.302270000000E+02  0.323010000000E+01
 -0.359800000000E+01  0.302920000000E+02  0.349230000000E+01
 -0.388900000000E+01  0.303750000000E+02  0.366140000000E+01
 -0.421600000000E+01  0.304590000000E+02  0.366940000000E+01
 -0.453700000000E+01  0.305410000000E+02  0.363690000000E+01
 -0.354000000000E+01  0.302600000000E+02  0.311480000000E+01
 -0.373100000000E+01  0.303190000000E+02  0.331900000000E+01
 -0.397800000000E+01  0.303890000000E+02  0.346110000000E+01
 -0.424900000000E+01  0.304600000000E+02  0.349590000000E+01
 -0.451700000000E+01  0.305290000000E+02  0.350360000000E+01
 -0.368800000000E+01  0.302930000000E+02  0.299950000000E+01
 -0.386400000000E+01  0.303450000000E+02  0.314570000000E+01
 -0.406700000000E+01  0.304030000000E+02  0.326090000000E+01
 -0.428200000000E+01  0.304610000000E+02  0.332240000000E+01
 -0.449600000000E+01  0.305180000000E+02  0.337040000000E+01
 -0.383700000000E+01  0.303260000000E+02  0.288420000000E+01
 -0.399700000000E+01  0.303710000000E+02  0.297240000000E+01
 -0.415600000000E+01  0.304160000000E+02  0.306060000000E+01
 -0.431600000000E+01  0.304620000000E+02  0.314890000000E+01
 -0.447600000000E+01  0.305070000000E+02  0.323710000000E+01
 -0.286600000000E+01  0.317320000000E+02  0.359950000000E+01
 -0.322900000000E+01  0.318370000000E+02  0.385520000000E+01
 -0.366700000000E+01  0.319530000000E+02  0.392480000000E+01
 -0.411300000000E+01  0.320690000000E+02  0.393970000000E+01
 -0.453800000000E+01  0.321840000000E+02  0.407300000000E+01
 -0.301300000000E+01  0.317650000000E+02  0.349100000000E+01
 -0.334000000000E+01  0.318590000000E+02  0.371350000000E+01
 -0.372700000000E+01  0.319620000000E+02  0.378720000000E+01
 -0.412100000000E+01  0.320650000000E+02  0.381720000000E+01
 -0.449700000000E+01  0.321680000000E+02  0.394180000000E+01
 -0.316000000000E+01  0.317980000000E+02  0.338260000000E+01
 -0.345100000000E+01  0.318820000000E+02  0.357190000000E+01
 -0.378800000000E+01  0.319720000000E+02  0.364970000000E+01
 -0.412800000000E+01  0.320610000000E+02  0.369460000000E+01
 -0.445600000000E+01  0.321510000000E+02  0.381050000000E+01
 -0.330800000000E+01  0.318310000000E+02  0.327410000000E+01
 -0.356200000000E+01  0.319040000000E+02  0.343030000000E+01
 -0.384800000000E+01  0.319810000000E+02  0.351210000000E+01
 -0.413600000000E+01  0.320580000000E+02  0.357200000000E+01
 -0.441500000000E+01  0.321350000000E+02  0.367930000000E+01
 -0.345500000000E+01  0.318640000000E+02  0.316570000000E+01
 -0.367300000000E+01  0.319260000000E+02  0.328870000000E+01
 -0.390800000000E+01  0.319900000000E+02  0.337460000000E+01
 -0.414300000000E+01  0.320540000000E+02  0.344950000000E+01
 -0.437400000000E+01  0.321180000000E+02  0.354800000000E+01
 -0.360200000000E+01  0.318970000000E+02  0.305720000000E+01
 -0.378500000000E+01  0.319480000000E+02  0.314710000000E+01
 -0.396800000000E+01  0.320000000000E+02  0.323700000000E+01
 -0.415100000000E+01  0.320510000000E+02  0.332690000000E+01
 -0.433400000000E+01  0.321020000000E+02  0.341680000000E+01
 -0.367600000000E+00 -0.206720000000E+01  0.232270000000E+01
 -0.617100000000E+00 -0.228600000000E+01  0.181760000000E+01
 -0.823600000000E+00 -0.232100000000E+01  0.124990000000E+01
 -0.967400000000E+00 -0.217600000000E+01  0.680710000000E+00
 -0.343600000000E+00 -0.187060000000E+01  0.219140000000E+01
 -0.561600000000E+00 -0.204920000000E+01  0.173710000000E+01
 -0.745200000000E+00 -0.208090000000E+01  0.123280000000E+01
 -0.878800000000E+00 -0.196850000000E+01  0.727180000000E+00
 -0.319500000000E+00 -0.167390000000E+01  0.206010000000E+01
 -0.506100000000E+00 -0.181250000000E+01  0.165660000000E+01
 -0.666900000000E+00 -0.184070000000E+01  0.121560000000E+01
 -0.790100000000E+00 -0.176100000000E+01  0.773650000000E+00
 -0.295500000000E+00 -0.147730000000E+01  0.192880000000E+01
 -0.450600000000E+00 -0.157570000000E+01  0.157610000000E+01
 -0.588600000000E+00 -0.160060000000E+01  0.119840000000E+01
 -0.701500000000E+00 -0.155350000000E+01  0.820120000000E+00
 -0.271500000000E+00 -0.128060000000E+01  0.179750000000E+01
 -0.395200000000E+00 -0.133890000000E+01  0.149570000000E+01
 -0.510200000000E+00 -0.136040000000E+01  0.118130000000E+01
 -0.612800000000E+00 -0.134600000000E+01  0.866590000000E+00
 -0.247400000000E+00 -0.108390000000E+01  0.166620000000E+01
 -0.339700000000E+00 -0.110210000000E+01  0.141520000000E+01
 -0.431900000000E+00 -0.112030000000E+01  0.116410000000E+01
 -0.524200000000E+00 -0.113850000000E+01  0.913060000000E+00
 -0.213000000000E+01 -0.145010000000E+01  0.199070000000E+01
 -0.240900000000E+01 -0.158220000000E+01  0.151720000000E+01
 -0.263100000000E+01 -0.155770000000E+01  0.100150000000E+01
 -0.273600000000E+01 -0.130890000000E+01  0.508840000000E+00
 -0.207800000000E+01 -0.127790000000E+01  0.192470000000E+01
 -0.231800000000E+01 -0.137580000000E+01  0.149920000000E+01
 -0.251300000000E+01 -0.134840000000E+01  0.103980000000E+01
 -0.261500000000E+01 -0.114150000000E+01  0.598860000000E+00
 -0.202500000000E+01 -0.110570000000E+01  0.185880000000E+01
 -0.222700000000E+01 -0.116930000000E+01  0.148110000000E+01
 -0.239600000000E+01 -0.113910000000E+01  0.107810000000E+01
 -0.249400000000E+01 -0.974180000000E+00  0.688880000000E+00
 -0.197200000000E+01 -0.933430000000E+00  0.179290000000E+01
 -0.213600000000E+01 -0.962890000000E+00  0.146310000000E+01
 -0.227800000000E+01 -0.929730000000E+00  0.111640000000E+01
 -0.237200000000E+01 -0.806820000000E+00  0.778890000000E+00
 -0.192000000000E+01 -0.761200000000E+00  0.172690000000E+01
 -0.204600000000E+01 -0.756450000000E+00  0.144500000000E+01
 -0.216000000000E+01 -0.720400000000E+00  0.115470000000E+01
 -0.225100000000E+01 -0.639470000000E+00  0.868910000000E+00
 -0.186700000000E+01 -0.588970000000E+00  0.166100000000E+01
 -0.195500000000E+01 -0.550020000000E+00  0.142700000000E+01
 -0.204200000000E+01 -0.511070000000E+00  0.119300000000E+01
 -0.213000000000E+01 -0.472110000000E+00  0.958930000000E+00
 -0.324700000000E+01 -0.744630000000E+00  0.313990000000E+01
 -0.360100000000E+01 -0.877520000000E+00  0.267190000000E+01
 -0.393600000000E+01 -0.960870000000E+00  0.217990000000E+01
 -0.420500000000E+01 -0.907390000000E+00  0.165210000000E+01
 -0.321200000000E+01 -0.580780000000E+00  0.302020000000E+01
 -0.352200000000E+01 -0.688110000000E+00  0.259940000000E+01
 -0.381800000000E+01 -0.755800000000E+00  0.215930000000E+01
 -0.406000000000E+01 -0.714030000000E+00  0.169060000000E+01
 -0.317700000000E+01 -0.416930000000E+00  0.290050000000E+01
 -0.344300000000E+01 -0.498700000000E+00  0.252680000000E+01
 -0.369900000000E+01 -0.550730000000E+00  0.213860000000E+01
 -0.391600000000E+01 -0.520660000000E+00  0.172900000000E+01
 -0.314100000000E+01 -0.253090000000E+00  0.278080000000E+01
 -0.336500000000E+01 -0.309280000000E+00  0.245420000000E+01
 -0.358100000000E+01 -0.345660000000E+00  0.211800000000E+01
 -0.377100000000E+01 -0.327300000000E+00  0.176750000000E+01
 -0.310600000000E+01 -0.892430000000E-01  0.266110000000E+01
 -0.328600000000E+01 -0.119870000000E+00  0.238170000000E+01
 -0.346300000000E+01 -0.140590000000E+00  0.209740000000E+01
 -0.362600000000E+01 -0.133940000000E+00  0.180590000000E+01
 -0.307100000000E+01  0.746030000000E-01  0.254140000000E+01
 -0.320700000000E+01  0.695430000000E-01  0.230910000000E+01
 -0.334400000000E+01  0.644840000000E-01  0.207670000000E+01
 -0.348100000000E+01  0.594240000000E-01  0.184440000000E+01
 -0.475100000000E+01  0.142560000000E+00  0.367050000000E+01
 -0.513000000000E+01  0.772460000000E-01  0.326080000000E+01
 -0.537700000000E+01  0.211120000000E+00  0.277630000000E+01
 -0.547500000000E+01  0.494720000000E+00  0.229990000000E+01
 -0.467500000000E+01  0.303690000000E+00  0.356980000000E+01
 -0.500300000000E+01  0.261800000000E+00  0.319830000000E+01
 -0.522400000000E+01  0.379260000000E+00  0.276690000000E+01
 -0.532700000000E+01  0.616510000000E+00  0.234210000000E+01
 -0.460000000000E+01  0.464830000000E+00  0.346920000000E+01
 -0.487500000000E+01  0.446360000000E+00  0.313580000000E+01
 -0.507100000000E+01  0.547410000000E+00  0.275760000000E+01
 -0.517800000000E+01  0.738290000000E+00  0.238430000000E+01
 -0.452400000000E+01  0.625960000000E+00  0.336850000000E+01
 -0.474800000000E+01  0.630920000000E+00  0.307340000000E+01
 -0.491800000000E+01  0.715550000000E+00  0.274830000000E+01
 -0.502900000000E+01  0.860080000000E+00  0.242650000000E+01
 -0.444800000000E+01  0.787100000000E+00  0.326790000000E+01
 -0.462000000000E+01  0.815480000000E+00  0.301090000000E+01
 -0.476500000000E+01  0.883700000000E+00  0.273900000000E+01
 -0.488100000000E+01  0.981870000000E+00  0.246870000000E+01
 -0.437300000000E+01  0.948230000000E+00  0.316720000000E+01
 -0.449300000000E+01  0.100000000000E+01  0.294840000000E+01
 -0.461200000000E+01  0.105180000000E+01  0.272970000000E+01
 -0.473200000000E+01  0.110370000000E+01  0.251090000000E+01
 -0.548200000000E+01  0.161690000000E+01  0.487920000000E+01
 -0.593900000000E+01  0.156850000000E+01  0.455160000000E+01
 -0.628000000000E+01  0.165730000000E+01  0.411070000000E+01
 -0.646900000000E+01  0.186320000000E+01  0.361930000000E+01
 -0.540400000000E+01  0.175270000000E+01  0.473380000000E+01
 -0.580100000000E+01  0.172120000000E+01  0.443300000000E+01
 -0.610500000000E+01  0.179950000000E+01  0.404140000000E+01
 -0.628700000000E+01  0.197150000000E+01  0.360950000000E+01
 -0.532700000000E+01  0.188840000000E+01  0.458850000000E+01
 -0.566300000000E+01  0.187390000000E+01  0.431430000000E+01
 -0.593000000000E+01  0.194170000000E+01  0.397220000000E+01
 -0.610500000000E+01  0.207980000000E+01  0.359980000000E+01
 -0.524900000000E+01  0.202410000000E+01  0.444310000000E+01
 -0.552500000000E+01  0.202660000000E+01  0.419570000000E+01
 -0.575400000000E+01  0.208390000000E+01  0.390290000000E+01
 -0.592300000000E+01  0.218810000000E+01  0.359000000000E+01
 -0.517200000000E+01  0.215990000000E+01  0.429780000000E+01
 -0.538700000000E+01  0.217930000000E+01  0.407700000000E+01
 -0.557900000000E+01  0.222610000000E+01  0.383360000000E+01
 -0.574100000000E+01  0.229640000000E+01  0.358020000000E+01
 -0.509400000000E+01  0.229560000000E+01  0.415240000000E+01
 -0.524900000000E+01  0.233200000000E+01  0.395840000000E+01
 -0.540400000000E+01  0.236830000000E+01  0.376440000000E+01
 -0.555900000000E+01  0.240460000000E+01  0.357040000000E+01
 -0.631200000000E+01  0.320860000000E+01  0.552030000000E+01
 -0.668900000000E+01  0.327760000000E+01  0.509530000000E+01
 -0.688900000000E+01  0.345520000000E+01  0.458840000000E+01
 -0.694600000000E+01  0.369420000000E+01  0.406840000000E+01
 -0.618300000000E+01  0.332870000000E+01  0.537890000000E+01
 -0.650700000000E+01  0.339780000000E+01  0.499390000000E+01
 -0.669000000000E+01  0.355390000000E+01  0.454330000000E+01
 -0.675800000000E+01  0.375910000000E+01  0.408230000000E+01
 -0.605400000000E+01  0.344880000000E+01  0.523750000000E+01
 -0.632600000000E+01  0.351810000000E+01  0.489240000000E+01
 -0.649100000000E+01  0.365260000000E+01  0.449820000000E+01
 -0.657000000000E+01  0.382390000000E+01  0.409620000000E+01
 -0.592500000000E+01  0.356890000000E+01  0.509610000000E+01
 -0.614400000000E+01  0.363830000000E+01  0.479100000000E+01
 -0.629200000000E+01  0.375130000000E+01  0.445310000000E+01
 -0.638200000000E+01  0.388880000000E+01  0.411010000000E+01
 -0.579700000000E+01  0.368900000000E+01  0.495470000000E+01
 -0.596200000000E+01  0.375860000000E+01  0.468960000000E+01
 -0.609200000000E+01  0.385000000000E+01  0.440810000000E+01
 -0.619400000000E+01  0.395360000000E+01  0.412400000000E+01
 -0.566800000000E+01  0.380910000000E+01  0.481330000000E+01
 -0.578000000000E+01  0.387890000000E+01  0.458810000000E+01
 -0.589300000000E+01  0.394870000000E+01  0.436300000000E+01
 -0.600600000000E+01  0.401850000000E+01  0.413780000000E+01
 -0.662600000000E+01  0.474370000000E+01  0.624860000000E+01
 -0.706100000000E+01  0.473590000000E+01  0.593220000000E+01
 -0.735100000000E+01  0.483210000000E+01  0.548920000000E+01
 -0.746800000000E+01  0.500940000000E+01  0.499350000000E+01
 -0.652100000000E+01  0.484930000000E+01  0.608760000000E+01
 -0.689600000000E+01  0.485050000000E+01  0.579680000000E+01
 -0.715500000000E+01  0.493490000000E+01  0.540480000000E+01
 -0.727500000000E+01  0.508430000000E+01  0.497070000000E+01
 -0.641700000000E+01  0.495480000000E+01  0.592650000000E+01
 -0.673100000000E+01  0.496510000000E+01  0.566150000000E+01
 -0.695800000000E+01  0.503780000000E+01  0.532050000000E+01
 -0.708200000000E+01  0.515910000000E+01  0.494800000000E+01
 -0.631300000000E+01  0.506040000000E+01  0.576540000000E+01
 -0.656600000000E+01  0.507970000000E+01  0.552610000000E+01
 -0.676200000000E+01  0.514070000000E+01  0.523620000000E+01
 -0.688900000000E+01  0.523400000000E+01  0.492520000000E+01
 -0.620800000000E+01  0.516600000000E+01  0.560430000000E+01
 -0.640200000000E+01  0.519430000000E+01  0.539070000000E+01
 -0.656600000000E+01  0.524350000000E+01  0.515190000000E+01
 -0.669600000000E+01  0.530890000000E+01  0.490250000000E+01
 -0.610400000000E+01  0.527150000000E+01  0.544320000000E+01
 -0.623700000000E+01  0.530900000000E+01  0.525540000000E+01
 -0.637000000000E+01  0.534640000000E+01  0.506750000000E+01
 -0.650300000000E+01  0.538380000000E+01  0.487970000000E+01
 -0.685000000000E+01  0.650420000000E+01  0.693300000000E+01
 -0.731100000000E+01  0.648140000000E+01  0.665110000000E+01
 -0.766400000000E+01  0.652270000000E+01  0.624280000000E+01
 -0.788800000000E+01  0.661720000000E+01  0.575880000000E+01
 -0.677100000000E+01  0.657510000000E+01  0.676190000000E+01
 -0.717300000000E+01  0.656010000000E+01  0.650000000000E+01
 -0.748800000000E+01  0.659620000000E+01  0.613710000000E+01
 -0.770100000000E+01  0.667500000000E+01  0.571360000000E+01
 -0.669100000000E+01  0.664610000000E+01  0.659080000000E+01
 -0.703500000000E+01  0.663870000000E+01  0.634900000000E+01
 -0.731300000000E+01  0.666980000000E+01  0.603140000000E+01
 -0.751500000000E+01  0.673290000000E+01  0.566840000000E+01
 -0.661100000000E+01  0.671700000000E+01  0.641970000000E+01
 -0.689600000000E+01  0.671740000000E+01  0.619800000000E+01
 -0.713800000000E+01  0.674340000000E+01  0.592570000000E+01
 -0.732800000000E+01  0.679070000000E+01  0.562320000000E+01
 -0.653200000000E+01  0.678800000000E+01  0.624860000000E+01
 -0.675800000000E+01  0.679610000000E+01  0.604690000000E+01
 -0.696300000000E+01  0.681700000000E+01  0.582010000000E+01
 -0.714200000000E+01  0.684850000000E+01  0.557800000000E+01
 -0.645200000000E+01  0.685900000000E+01  0.607750000000E+01
 -0.662000000000E+01  0.687470000000E+01  0.589590000000E+01
 -0.678700000000E+01  0.689050000000E+01  0.571440000000E+01
 -0.695500000000E+01  0.690630000000E+01  0.553280000000E+01
 -0.694900000000E+01  0.826140000000E+01  0.752620000000E+01
 -0.740900000000E+01  0.824680000000E+01  0.723440000000E+01
 -0.774300000000E+01  0.827990000000E+01  0.680350000000E+01
 -0.795100000000E+01  0.834670000000E+01  0.630180000000E+01
 -0.687500000000E+01  0.831070000000E+01  0.733660000000E+01
 -0.727700000000E+01  0.830110000000E+01  0.706600000000E+01
 -0.757800000000E+01  0.832960000000E+01  0.668410000000E+01
 -0.777800000000E+01  0.838520000000E+01  0.624560000000E+01
 -0.680200000000E+01  0.835990000000E+01  0.714700000000E+01
 -0.714500000000E+01  0.835540000000E+01  0.689760000000E+01
 -0.741300000000E+01  0.837930000000E+01  0.656470000000E+01
 -0.760500000000E+01  0.842360000000E+01  0.618940000000E+01
 -0.672800000000E+01  0.840920000000E+01  0.695740000000E+01
 -0.701300000000E+01  0.840960000000E+01  0.672920000000E+01
 -0.724700000000E+01  0.842910000000E+01  0.644530000000E+01
 -0.743100000000E+01  0.846210000000E+01  0.613310000000E+01
 -0.665500000000E+01  0.845840000000E+01  0.676780000000E+01
 -0.688100000000E+01  0.846390000000E+01  0.656080000000E+01
 -0.708200000000E+01  0.847880000000E+01  0.632590000000E+01
 -0.725800000000E+01  0.850050000000E+01  0.607690000000E+01
 -0.658100000000E+01  0.850770000000E+01  0.657820000000E+01
 -0.674900000000E+01  0.851810000000E+01  0.639240000000E+01
 -0.691700000000E+01  0.852860000000E+01  0.620650000000E+01
 -0.708500000000E+01  0.853900000000E+01  0.602070000000E+01
 -0.717300000000E+01  0.101750000000E+02  0.761460000000E+01
 -0.756900000000E+01  0.101820000000E+02  0.726620000000E+01
 -0.787000000000E+01  0.101990000000E+02  0.683280000000E+01
 -0.805600000000E+01  0.102240000000E+02  0.634010000000E+01
 -0.708300000000E+01  0.101890000000E+02  0.744680000000E+01
 -0.742800000000E+01  0.101970000000E+02  0.712780000000E+01
 -0.769600000000E+01  0.102120000000E+02  0.674070000000E+01
 -0.787300000000E+01  0.102330000000E+02  0.630610000000E+01
 -0.699300000000E+01  0.102030000000E+02  0.727900000000E+01
 -0.728600000000E+01  0.102110000000E+02  0.698930000000E+01
 -0.752300000000E+01  0.102240000000E+02  0.664850000000E+01
 -0.769100000000E+01  0.102420000000E+02  0.627210000000E+01
 -0.690200000000E+01  0.102170000000E+02  0.711120000000E+01
 -0.714500000000E+01  0.102250000000E+02  0.685080000000E+01
 -0.734900000000E+01  0.102360000000E+02  0.655630000000E+01
 -0.750800000000E+01  0.102510000000E+02  0.623810000000E+01
 -0.681200000000E+01  0.102310000000E+02  0.694340000000E+01
 -0.700300000000E+01  0.102390000000E+02  0.671230000000E+01
 -0.717600000000E+01  0.102490000000E+02  0.646410000000E+01
 -0.732500000000E+01  0.102600000000E+02  0.620410000000E+01
 -0.672200000000E+01  0.102450000000E+02  0.677560000000E+01
 -0.686200000000E+01  0.102530000000E+02  0.657380000000E+01
 -0.700200000000E+01  0.102610000000E+02  0.637190000000E+01
 -0.714200000000E+01  0.102690000000E+02  0.617010000000E+01
 -0.715900000000E+01  0.120020000000E+02  0.738310000000E+01
 -0.749600000000E+01  0.120100000000E+02  0.699660000000E+01
 -0.770200000000E+01  0.120070000000E+02  0.652370000000E+01
 -0.781700000000E+01  0.119960000000E+02  0.602050000000E+01
 -0.704700000000E+01  0.119890000000E+02  0.720960000000E+01
 -0.734000000000E+01  0.119950000000E+02  0.685970000000E+01
 -0.752800000000E+01  0.119930000000E+02  0.644060000000E+01
 -0.764200000000E+01  0.119850000000E+02  0.599730000000E+01
 -0.693500000000E+01  0.119750000000E+02  0.703610000000E+01
 -0.718300000000E+01  0.119800000000E+02  0.672270000000E+01
 -0.735300000000E+01  0.119790000000E+02  0.635760000000E+01
 -0.746800000000E+01  0.119730000000E+02  0.597420000000E+01
 -0.682300000000E+01  0.119620000000E+02  0.686260000000E+01
 -0.702700000000E+01  0.119660000000E+02  0.658580000000E+01
 -0.717800000000E+01  0.119650000000E+02  0.627450000000E+01
 -0.729300000000E+01  0.119610000000E+02  0.595110000000E+01
 -0.671100000000E+01  0.119490000000E+02  0.668910000000E+01
 -0.687100000000E+01  0.119510000000E+02  0.644890000000E+01
 -0.700400000000E+01  0.119510000000E+02  0.619140000000E+01
 -0.711900000000E+01  0.119490000000E+02  0.592790000000E+01
 -0.659900000000E+01  0.119360000000E+02  0.651560000000E+01
 -0.671400000000E+01  0.119360000000E+02  0.631200000000E+01
 -0.682900000000E+01  0.119370000000E+02  0.610840000000E+01
 -0.694400000000E+01  0.119370000000E+02  0.590480000000E+01
 -0.752200000000E+01  0.136700000000E+02  0.662410000000E+01
 -0.776300000000E+01  0.136540000000E+02  0.622300000000E+01
 -0.783100000000E+01  0.136180000000E+02  0.576250000000E+01
 -0.771800000000E+01  0.135680000000E+02  0.531060000000E+01
 -0.738400000000E+01  0.136510000000E+02  0.653370000000E+01
 -0.758400000000E+01  0.136350000000E+02  0.617060000000E+01
 -0.764400000000E+01  0.136030000000E+02  0.576000000000E+01
 -0.756000000000E+01  0.135590000000E+02  0.535640000000E+01
 -0.724700000000E+01  0.136310000000E+02  0.644340000000E+01
 -0.740400000000E+01  0.136150000000E+02  0.611830000000E+01
 -0.745800000000E+01  0.135870000000E+02  0.575760000000E+01
 -0.740200000000E+01  0.135500000000E+02  0.540210000000E+01
 -0.710900000000E+01  0.136110000000E+02  0.635300000000E+01
 -0.722500000000E+01  0.135950000000E+02  0.606600000000E+01
 -0.727100000000E+01  0.135710000000E+02  0.575520000000E+01
 -0.724500000000E+01  0.135410000000E+02  0.544790000000E+01
 -0.697200000000E+01  0.135920000000E+02  0.626260000000E+01
 -0.704600000000E+01  0.135750000000E+02  0.601370000000E+01
 -0.708400000000E+01  0.135550000000E+02  0.575280000000E+01
 -0.708700000000E+01  0.135320000000E+02  0.549370000000E+01
 -0.683500000000E+01  0.135720000000E+02  0.617230000000E+01
 -0.686600000000E+01  0.135550000000E+02  0.596130000000E+01
 -0.689800000000E+01  0.135390000000E+02  0.575040000000E+01
 -0.692900000000E+01  0.135230000000E+02  0.553950000000E+01
 -0.669400000000E+01  0.152350000000E+02  0.649640000000E+01
 -0.695100000000E+01  0.152110000000E+02  0.614320000000E+01
 -0.725300000000E+01  0.151950000000E+02  0.582630000000E+01
 -0.748700000000E+01  0.151680000000E+02  0.546270000000E+01
 -0.663200000000E+01  0.152130000000E+02  0.637420000000E+01
 -0.685800000000E+01  0.151910000000E+02  0.605580000000E+01
 -0.712000000000E+01  0.151760000000E+02  0.576650000000E+01
 -0.732800000000E+01  0.151510000000E+02  0.543980000000E+01
 -0.656900000000E+01  0.151910000000E+02  0.625190000000E+01
 -0.676500000000E+01  0.151710000000E+02  0.596830000000E+01
 -0.698700000000E+01  0.151560000000E+02  0.570660000000E+01
 -0.716900000000E+01  0.151340000000E+02  0.541680000000E+01
 -0.650700000000E+01  0.151700000000E+02  0.612970000000E+01
 -0.667200000000E+01  0.151510000000E+02  0.588090000000E+01
 -0.685500000000E+01  0.151370000000E+02  0.564670000000E+01
 -0.701000000000E+01  0.151170000000E+02  0.539380000000E+01
 -0.644400000000E+01  0.151480000000E+02  0.600740000000E+01
 -0.657800000000E+01  0.151320000000E+02  0.579350000000E+01
 -0.672200000000E+01  0.151170000000E+02  0.558680000000E+01
 -0.685200000000E+01  0.151000000000E+02  0.537090000000E+01
 -0.638100000000E+01  0.151270000000E+02  0.588520000000E+01
 -0.648500000000E+01  0.151120000000E+02  0.570610000000E+01
 -0.658900000000E+01  0.150970000000E+02  0.552700000000E+01
 -0.669300000000E+01  0.150830000000E+02  0.534790000000E+01
 -0.638400000000E+01  0.167310000000E+02  0.560790000000E+01
 -0.677400000000E+01  0.167420000000E+02  0.544710000000E+01
 -0.705800000000E+01  0.167130000000E+02  0.513300000000E+01
 -0.722200000000E+01  0.166560000000E+02  0.474480000000E+01
 -0.632000000000E+01  0.166950000000E+02  0.545430000000E+01
 -0.665800000000E+01  0.167020000000E+02  0.530130000000E+01
 -0.691100000000E+01  0.166760000000E+02  0.502570000000E+01
 -0.706900000000E+01  0.166290000000E+02  0.469070000000E+01
 -0.625500000000E+01  0.166580000000E+02  0.530070000000E+01
 -0.654200000000E+01  0.166610000000E+02  0.515550000000E+01
 -0.676500000000E+01  0.166400000000E+02  0.491830000000E+01
 -0.691600000000E+01  0.166020000000E+02  0.463660000000E+01
 -0.619100000000E+01  0.166220000000E+02  0.514710000000E+01
 -0.642600000000E+01  0.166210000000E+02  0.500970000000E+01
 -0.661800000000E+01  0.166030000000E+02  0.481090000000E+01
 -0.676300000000E+01  0.165750000000E+02  0.458250000000E+01
 -0.612600000000E+01  0.165850000000E+02  0.499350000000E+01
 -0.631000000000E+01  0.165800000000E+02  0.486390000000E+01
 -0.647200000000E+01  0.165670000000E+02  0.470360000000E+01
 -0.661000000000E+01  0.165480000000E+02  0.452840000000E+01
 -0.606200000000E+01  0.165490000000E+02  0.484000000000E+01
 -0.619300000000E+01  0.165400000000E+02  0.471810000000E+01
 -0.632500000000E+01  0.165300000000E+02  0.459620000000E+01
 -0.645700000000E+01  0.165210000000E+02  0.447430000000E+01
 -0.650600000000E+01  0.182910000000E+02  0.521850000000E+01
 -0.683700000000E+01  0.182760000000E+02  0.494300000000E+01
 -0.710700000000E+01  0.182400000000E+02  0.460430000000E+01
 -0.732700000000E+01  0.181910000000E+02  0.423430000000E+01
 -0.642900000000E+01  0.182500000000E+02  0.506210000000E+01
 -0.671800000000E+01  0.182350000000E+02  0.481370000000E+01
 -0.695900000000E+01  0.182030000000E+02  0.451480000000E+01
 -0.716000000000E+01  0.181620000000E+02  0.419090000000E+01
 -0.635200000000E+01  0.182080000000E+02  0.490570000000E+01
 -0.659900000000E+01  0.181940000000E+02  0.468450000000E+01
 -0.681100000000E+01  0.181670000000E+02  0.442540000000E+01
 -0.699200000000E+01  0.181330000000E+02  0.414750000000E+01
 -0.627400000000E+01  0.181670000000E+02  0.474930000000E+01
 -0.648000000000E+01  0.181530000000E+02  0.455530000000E+01
 -0.666300000000E+01  0.181300000000E+02  0.433590000000E+01
 -0.682500000000E+01  0.181030000000E+02  0.410410000000E+01
 -0.619700000000E+01  0.181260000000E+02  0.459290000000E+01
 -0.636200000000E+01  0.181120000000E+02  0.442600000000E+01
 -0.651500000000E+01  0.180940000000E+02  0.424650000000E+01
 -0.665800000000E+01  0.180740000000E+02  0.406070000000E+01
 -0.611900000000E+01  0.180840000000E+02  0.443650000000E+01
 -0.624300000000E+01  0.180710000000E+02  0.429680000000E+01
 -0.636700000000E+01  0.180580000000E+02  0.415710000000E+01
 -0.649100000000E+01  0.180440000000E+02  0.401730000000E+01
 -0.649400000000E+01  0.198070000000E+02  0.482010000000E+01
 -0.673100000000E+01  0.197830000000E+02  0.450000000000E+01
 -0.688600000000E+01  0.197400000000E+02  0.413110000000E+01
 -0.701900000000E+01  0.196930000000E+02  0.375400000000E+01
 -0.640300000000E+01  0.197720000000E+02  0.468990000000E+01
 -0.661200000000E+01  0.197500000000E+02  0.440230000000E+01
 -0.675600000000E+01  0.197130000000E+02  0.407570000000E+01
 -0.688100000000E+01  0.196720000000E+02  0.374260000000E+01
 -0.631300000000E+01  0.197380000000E+02  0.455970000000E+01
 -0.649300000000E+01  0.197180000000E+02  0.430470000000E+01
 -0.662500000000E+01  0.196860000000E+02  0.402040000000E+01
 -0.674400000000E+01  0.196520000000E+02  0.373130000000E+01
 -0.622200000000E+01  0.197030000000E+02  0.442950000000E+01
 -0.637400000000E+01  0.196850000000E+02  0.420700000000E+01
 -0.649500000000E+01  0.196590000000E+02  0.396510000000E+01
 -0.660600000000E+01  0.196310000000E+02  0.371990000000E+01
 -0.613100000000E+01  0.196680000000E+02  0.429930000000E+01
 -0.625600000000E+01  0.196520000000E+02  0.410940000000E+01
 -0.636400000000E+01  0.196320000000E+02  0.390980000000E+01
 -0.646800000000E+01  0.196110000000E+02  0.370850000000E+01
 -0.604000000000E+01  0.196330000000E+02  0.416910000000E+01
 -0.613700000000E+01  0.196190000000E+02  0.401170000000E+01
 -0.623300000000E+01  0.196050000000E+02  0.385440000000E+01
 -0.633000000000E+01  0.195900000000E+02  0.369710000000E+01
 -0.624700000000E+01  0.213100000000E+02  0.452240000000E+01
 -0.650300000000E+01  0.213180000000E+02  0.429200000000E+01
 -0.665400000000E+01  0.213010000000E+02  0.398370000000E+01
 -0.668400000000E+01  0.212610000000E+02  0.364260000000E+01
 -0.617500000000E+01  0.212850000000E+02  0.442010000000E+01
 -0.639400000000E+01  0.212910000000E+02  0.420770000000E+01
 -0.652800000000E+01  0.212750000000E+02  0.393290000000E+01
 -0.656600000000E+01  0.212420000000E+02  0.363190000000E+01
 -0.610200000000E+01  0.212610000000E+02  0.431790000000E+01
 -0.628400000000E+01  0.212640000000E+02  0.412340000000E+01
 -0.640300000000E+01  0.212500000000E+02  0.388220000000E+01
 -0.644900000000E+01  0.212230000000E+02  0.362120000000E+01
 -0.603000000000E+01  0.212370000000E+02  0.421560000000E+01
 -0.617400000000E+01  0.212360000000E+02  0.403910000000E+01
 -0.627700000000E+01  0.212250000000E+02  0.383140000000E+01
 -0.633200000000E+01  0.212050000000E+02  0.361060000000E+01
 -0.595700000000E+01  0.212130000000E+02  0.411340000000E+01
 -0.606500000000E+01  0.212090000000E+02  0.395480000000E+01
 -0.615200000000E+01  0.212000000000E+02  0.378060000000E+01
 -0.621400000000E+01  0.211860000000E+02  0.359990000000E+01
 -0.588400000000E+01  0.211890000000E+02  0.401120000000E+01
 -0.595500000000E+01  0.211820000000E+02  0.387050000000E+01
 -0.602600000000E+01  0.211740000000E+02  0.372990000000E+01
 -0.609700000000E+01  0.211670000000E+02  0.358930000000E+01
 -0.631500000000E+01  0.229120000000E+02  0.452450000000E+01
 -0.671100000000E+01  0.229590000000E+02  0.438720000000E+01
 -0.697700000000E+01  0.229660000000E+02  0.406230000000E+01
 -0.706500000000E+01  0.229350000000E+02  0.364950000000E+01
 -0.625000000000E+01  0.228840000000E+02  0.437020000000E+01
 -0.659000000000E+01  0.229240000000E+02  0.423450000000E+01
 -0.682700000000E+01  0.229300000000E+02  0.394860000000E+01
 -0.692100000000E+01  0.229060000000E+02  0.359240000000E+01
 -0.618400000000E+01  0.228570000000E+02  0.421590000000E+01
 -0.647000000000E+01  0.228880000000E+02  0.408170000000E+01
 -0.667700000000E+01  0.228940000000E+02  0.383490000000E+01
 -0.677800000000E+01  0.228770000000E+02  0.353540000000E+01
 -0.611900000000E+01  0.228300000000E+02  0.406160000000E+01
 -0.634900000000E+01  0.228520000000E+02  0.392890000000E+01
 -0.652700000000E+01  0.228580000000E+02  0.372130000000E+01
 -0.663400000000E+01  0.228480000000E+02  0.347840000000E+01
 -0.605400000000E+01  0.228030000000E+02  0.390720000000E+01
 -0.622800000000E+01  0.228160000000E+02  0.377620000000E+01
 -0.637700000000E+01  0.228210000000E+02  0.360760000000E+01
 -0.649000000000E+01  0.228190000000E+02  0.342140000000E+01
 -0.598800000000E+01  0.227760000000E+02  0.375290000000E+01
 -0.610800000000E+01  0.227800000000E+02  0.362340000000E+01
 -0.622700000000E+01  0.227850000000E+02  0.349390000000E+01
 -0.634600000000E+01  0.227900000000E+02  0.336440000000E+01
 -0.681000000000E+01  0.245600000000E+02  0.399560000000E+01
 -0.714100000000E+01  0.245910000000E+02  0.369030000000E+01
 -0.735200000000E+01  0.245920000000E+02  0.329440000000E+01
 -0.737500000000E+01  0.245540000000E+02  0.284710000000E+01
 -0.670900000000E+01  0.245320000000E+02  0.389820000000E+01
 -0.698800000000E+01  0.245560000000E+02  0.361520000000E+01
 -0.717200000000E+01  0.245560000000E+02  0.325970000000E+01
 -0.720500000000E+01  0.245250000000E+02  0.286310000000E+01
 -0.660800000000E+01  0.245050000000E+02  0.380080000000E+01
 -0.683600000000E+01  0.245220000000E+02  0.354010000000E+01
 -0.699300000000E+01  0.245200000000E+02  0.322510000000E+01
 -0.703600000000E+01  0.244960000000E+02  0.287920000000E+01
 -0.650600000000E+01  0.244770000000E+02  0.370340000000E+01
 -0.668300000000E+01  0.244870000000E+02  0.346500000000E+01
 -0.681300000000E+01  0.244840000000E+02  0.319040000000E+01
 -0.686700000000E+01  0.244660000000E+02  0.289530000000E+01
 -0.640500000000E+01  0.244500000000E+02  0.360600000000E+01
 -0.653100000000E+01  0.244520000000E+02  0.339000000000E+01
 -0.663300000000E+01  0.244480000000E+02  0.315580000000E+01
 -0.669700000000E+01  0.244370000000E+02  0.291130000000E+01
 -0.630400000000E+01  0.244220000000E+02  0.350860000000E+01
 -0.637800000000E+01  0.244170000000E+02  0.331490000000E+01
 -0.645300000000E+01  0.244130000000E+02  0.312110000000E+01
 -0.652800000000E+01  0.244080000000E+02  0.292740000000E+01
 -0.619400000000E+01  0.261020000000E+02  0.410710000000E+01
 -0.656700000000E+01  0.261690000000E+02  0.385920000000E+01
 -0.687700000000E+01  0.262160000000E+02  0.353430000000E+01
 -0.702800000000E+01  0.262190000000E+02  0.311110000000E+01
 -0.612100000000E+01  0.260760000000E+02  0.398300000000E+01
 -0.644200000000E+01  0.261330000000E+02  0.375090000000E+01
 -0.671300000000E+01  0.261730000000E+02  0.345710000000E+01
 -0.685600000000E+01  0.261780000000E+02  0.308470000000E+01
 -0.604800000000E+01  0.260510000000E+02  0.385890000000E+01
 -0.631700000000E+01  0.260960000000E+02  0.364250000000E+01
 -0.654900000000E+01  0.261300000000E+02  0.338000000000E+01
 -0.668400000000E+01  0.261370000000E+02  0.305840000000E+01
 -0.597600000000E+01  0.260250000000E+02  0.373480000000E+01
 -0.619300000000E+01  0.260600000000E+02  0.353420000000E+01
 -0.638500000000E+01  0.260870000000E+02  0.330280000000E+01
 -0.651300000000E+01  0.260960000000E+02  0.303210000000E+01
 -0.590300000000E+01  0.259990000000E+02  0.361070000000E+01
 -0.606800000000E+01  0.260240000000E+02  0.342590000000E+01
 -0.622000000000E+01  0.260440000000E+02  0.322560000000E+01
 -0.634100000000E+01  0.260550000000E+02  0.300570000000E+01
 -0.583000000000E+01  0.259740000000E+02  0.348660000000E+01
 -0.594300000000E+01  0.259870000000E+02  0.331750000000E+01
 -0.605600000000E+01  0.260010000000E+02  0.314850000000E+01
 -0.616900000000E+01  0.260140000000E+02  0.297940000000E+01
 -0.612100000000E+01  0.276980000000E+02  0.376390000000E+01
 -0.641800000000E+01  0.277460000000E+02  0.337380000000E+01
 -0.661100000000E+01  0.277650000000E+02  0.292060000000E+01
 -0.670500000000E+01  0.277570000000E+02  0.243650000000E+01
 -0.601200000000E+01  0.276630000000E+02  0.363890000000E+01
 -0.626900000000E+01  0.277040000000E+02  0.328470000000E+01
 -0.644300000000E+01  0.277210000000E+02  0.287980000000E+01
 -0.653800000000E+01  0.277170000000E+02  0.245040000000E+01
 -0.590300000000E+01  0.276280000000E+02  0.351390000000E+01
 -0.612100000000E+01  0.276620000000E+02  0.319550000000E+01
 -0.627600000000E+01  0.276770000000E+02  0.283910000000E+01
 -0.637200000000E+01  0.276770000000E+02  0.246430000000E+01
 -0.579400000000E+01  0.275940000000E+02  0.338890000000E+01
 -0.597200000000E+01  0.276190000000E+02  0.310630000000E+01
 -0.610800000000E+01  0.276330000000E+02  0.279840000000E+01
 -0.620500000000E+01  0.276370000000E+02  0.247820000000E+01
 -0.568500000000E+01  0.275590000000E+02  0.326390000000E+01
 -0.582300000000E+01  0.275770000000E+02  0.301710000000E+01
 -0.594000000000E+01  0.275890000000E+02  0.275770000000E+01
 -0.603800000000E+01  0.275970000000E+02  0.249210000000E+01
 -0.557600000000E+01  0.275240000000E+02  0.313890000000E+01
 -0.567500000000E+01  0.275350000000E+02  0.292790000000E+01
 -0.577300000000E+01  0.275460000000E+02  0.271690000000E+01
 -0.587100000000E+01  0.275560000000E+02  0.250590000000E+01
 -0.572400000000E+01  0.292190000000E+02  0.369270000000E+01
 -0.602900000000E+01  0.292720000000E+02  0.330060000000E+01
 -0.622800000000E+01  0.292960000000E+02  0.284320000000E+01
 -0.632600000000E+01  0.292920000000E+02  0.235290000000E+01
 -0.561600000000E+01  0.291840000000E+02  0.356160000000E+01
 -0.588000000000E+01  0.292300000000E+02  0.320530000000E+01
 -0.605900000000E+01  0.292510000000E+02  0.279680000000E+01
 -0.615700000000E+01  0.292510000000E+02  0.236200000000E+01
 -0.550800000000E+01  0.291500000000E+02  0.343040000000E+01
 -0.573100000000E+01  0.291870000000E+02  0.311000000000E+01
 -0.589100000000E+01  0.292070000000E+02  0.275040000000E+01
 -0.598900000000E+01  0.292100000000E+02  0.237100000000E+01
 -0.540000000000E+01  0.291160000000E+02  0.329930000000E+01
 -0.558200000000E+01  0.291450000000E+02  0.301470000000E+01
 -0.572200000000E+01  0.291620000000E+02  0.270390000000E+01
 -0.582100000000E+01  0.291680000000E+02  0.238010000000E+01
 -0.529200000000E+01  0.290810000000E+02  0.316810000000E+01
 -0.543300000000E+01  0.291020000000E+02  0.291940000000E+01
 -0.555300000000E+01  0.291170000000E+02  0.265750000000E+01
 -0.565300000000E+01  0.291270000000E+02  0.238910000000E+01
 -0.518400000000E+01  0.290470000000E+02  0.303700000000E+01
 -0.528400000000E+01  0.290590000000E+02  0.282410000000E+01
 -0.538500000000E+01  0.290720000000E+02  0.261110000000E+01
 -0.548500000000E+01  0.290850000000E+02  0.239820000000E+01
 -0.501500000000E+01  0.306680000000E+02  0.373470000000E+01
 -0.542100000000E+01  0.307620000000E+02  0.349740000000E+01
 -0.576000000000E+01  0.308340000000E+02  0.316780000000E+01
 -0.594600000000E+01  0.308620000000E+02  0.273240000000E+01
 -0.493300000000E+01  0.306410000000E+02  0.360250000000E+01
 -0.528200000000E+01  0.307210000000E+02  0.338000000000E+01
 -0.557900000000E+01  0.307840000000E+02  0.308370000000E+01
 -0.575300000000E+01  0.308110000000E+02  0.270270000000E+01
 -0.485000000000E+01  0.306140000000E+02  0.347030000000E+01
 -0.514400000000E+01  0.306800000000E+02  0.326260000000E+01
 -0.539800000000E+01  0.307330000000E+02  0.299960000000E+01
 -0.556000000000E+01  0.307600000000E+02  0.267310000000E+01
 -0.476700000000E+01  0.305860000000E+02  0.333820000000E+01
 -0.500500000000E+01  0.306390000000E+02  0.314530000000E+01
 -0.521600000000E+01  0.306830000000E+02  0.291550000000E+01
 -0.536700000000E+01  0.307090000000E+02  0.264340000000E+01
 -0.468500000000E+01  0.305590000000E+02  0.320600000000E+01
 -0.486700000000E+01  0.305980000000E+02  0.302790000000E+01
 -0.503500000000E+01  0.306320000000E+02  0.283140000000E+01
 -0.517400000000E+01  0.306580000000E+02  0.261370000000E+01
 -0.460200000000E+01  0.305320000000E+02  0.307380000000E+01
 -0.472800000000E+01  0.305570000000E+02  0.291060000000E+01
 -0.485400000000E+01  0.305820000000E+02  0.274730000000E+01
 -0.498100000000E+01  0.306070000000E+02  0.258400000000E+01
 -0.498000000000E+01  0.322960000000E+02  0.402360000000E+01
 -0.528200000000E+01  0.323580000000E+02  0.368610000000E+01
 -0.545000000000E+01  0.323820000000E+02  0.325640000000E+01
 -0.553000000000E+01  0.323820000000E+02  0.280100000000E+01
 -0.487000000000E+01  0.322600000000E+02  0.386760000000E+01
 -0.513000000000E+01  0.323140000000E+02  0.356300000000E+01
 -0.528300000000E+01  0.323360000000E+02  0.318460000000E+01
 -0.536600000000E+01  0.323400000000E+02  0.278560000000E+01
 -0.475900000000E+01  0.322250000000E+02  0.371160000000E+01
 -0.497800000000E+01  0.322690000000E+02  0.343990000000E+01
 -0.511700000000E+01  0.322900000000E+02  0.311280000000E+01
 -0.520300000000E+01  0.322970000000E+02  0.277030000000E+01
 -0.464900000000E+01  0.321890000000E+02  0.355560000000E+01
 -0.482600000000E+01  0.322240000000E+02  0.331680000000E+01
 -0.495000000000E+01  0.322440000000E+02  0.304100000000E+01
 -0.503900000000E+01  0.322540000000E+02  0.275490000000E+01
 -0.453800000000E+01  0.321540000000E+02  0.339960000000E+01
 -0.467400000000E+01  0.321800000000E+02  0.319360000000E+01
 -0.478400000000E+01  0.321980000000E+02  0.296920000000E+01
 -0.487500000000E+01  0.322110000000E+02  0.273960000000E+01
 -0.442800000000E+01  0.321190000000E+02  0.324360000000E+01
 -0.452300000000E+01  0.321350000000E+02  0.307050000000E+01
 -0.461700000000E+01  0.321520000000E+02  0.289740000000E+01
 -0.471200000000E+01  0.321680000000E+02  0.272430000000E+01
 -0.454300000000E+00 -0.878280000000E+00  0.850620000000E+00
 -0.384400000000E+00 -0.618090000000E+00  0.788180000000E+00
 -0.314500000000E+00 -0.357890000000E+00  0.725740000000E+00
 -0.244700000000E+00 -0.976910000000E-01  0.663300000000E+00
 -0.361400000000E+00 -0.862060000000E+00  0.110540000000E+01
 -0.291000000000E+00 -0.603820000000E+00  0.104670000000E+01
 -0.220500000000E+00 -0.345580000000E+00  0.988060000000E+00
 -0.150000000000E+00 -0.873450000000E-01  0.929380000000E+00
 -0.268600000000E+00 -0.845840000000E+00  0.136020000000E+01
 -0.197500000000E+00 -0.589560000000E+00  0.130530000000E+01
 -0.126500000000E+00 -0.333280000000E+00  0.125040000000E+01
 -0.553900000000E-01 -0.769980000000E-01  0.119550000000E+01
 -0.175700000000E+00 -0.829620000000E+00  0.161510000000E+01
 -0.104100000000E+00 -0.575300000000E+00  0.156390000000E+01
 -0.324100000000E-01 -0.320970000000E+00  0.151270000000E+01
  0.392600000000E-01 -0.666510000000E-01  0.146150000000E+01
 -0.201600000000E+01 -0.243200000000E+00  0.968900000000E+00
 -0.190200000000E+01 -0.142780000000E-01  0.978870000000E+00
 -0.178700000000E+01  0.214640000000E+00  0.988840000000E+00
 -0.167300000000E+01  0.443560000000E+00  0.998820000000E+00
 -0.192800000000E+01 -0.282610000000E+00  0.120310000000E+01
 -0.181400000000E+01 -0.541470000000E-01  0.121320000000E+01
 -0.170000000000E+01  0.174310000000E+00  0.122330000000E+01
 -0.158600000000E+01  0.402770000000E+00  0.123340000000E+01
 -0.184100000000E+01 -0.322020000000E+00  0.143720000000E+01
 -0.172700000000E+01 -0.940170000000E-01  0.144750000000E+01
 -0.161300000000E+01  0.133980000000E+00  0.145780000000E+01
 -0.149900000000E+01  0.361980000000E+00  0.146810000000E+01
 -0.175300000000E+01 -0.361430000000E+00  0.167140000000E+01
 -0.164000000000E+01 -0.133890000000E+00  0.168180000000E+01
 -0.152600000000E+01  0.936560000000E-01  0.169230000000E+01
 -0.141200000000E+01  0.321200000000E+00  0.170270000000E+01
 -0.337000000000E+01  0.296290000000E+00  0.177600000000E+01
 -0.325800000000E+01  0.533150000000E+00  0.170760000000E+01
 -0.314700000000E+01  0.770010000000E+00  0.163930000000E+01
 -0.303600000000E+01  0.100690000000E+01  0.157090000000E+01
 -0.323500000000E+01  0.295550000000E+00  0.201090000000E+01
 -0.312600000000E+01  0.526610000000E+00  0.194500000000E+01
 -0.301700000000E+01  0.757680000000E+00  0.187910000000E+01
 -0.290800000000E+01  0.988740000000E+00  0.181330000000E+01
 -0.310100000000E+01  0.294810000000E+00  0.224570000000E+01
 -0.299400000000E+01  0.520080000000E+00  0.218240000000E+01
 -0.288700000000E+01  0.745350000000E+00  0.211900000000E+01
 -0.278100000000E+01  0.970610000000E+00  0.205560000000E+01
 -0.296600000000E+01  0.294070000000E+00  0.248060000000E+01
 -0.286200000000E+01  0.513540000000E+00  0.241970000000E+01
 -0.275700000000E+01  0.733010000000E+00  0.235890000000E+01
 -0.265300000000E+01  0.952480000000E+00  0.229800000000E+01
 -0.458100000000E+01  0.129540000000E+01  0.246990000000E+01
 -0.443000000000E+01  0.148710000000E+01  0.242890000000E+01
 -0.427900000000E+01  0.167880000000E+01  0.238800000000E+01
 -0.412800000000E+01  0.187050000000E+01  0.234700000000E+01
 -0.446000000000E+01  0.124260000000E+01  0.269200000000E+01
 -0.430700000000E+01  0.143340000000E+01  0.265430000000E+01
 -0.415500000000E+01  0.162420000000E+01  0.261660000000E+01
 -0.400200000000E+01  0.181490000000E+01  0.257890000000E+01
 -0.433800000000E+01  0.118990000000E+01  0.291400000000E+01
 -0.418400000000E+01  0.137970000000E+01  0.287960000000E+01
 -0.403000000000E+01  0.156960000000E+01  0.284520000000E+01
 -0.387600000000E+01  0.175940000000E+01  0.281070000000E+01
 -0.421700000000E+01  0.113710000000E+01  0.313610000000E+01
 -0.406100000000E+01  0.132600000000E+01  0.310490000000E+01
 -0.390500000000E+01  0.151500000000E+01  0.307380000000E+01
 -0.374900000000E+01  0.170390000000E+01  0.304260000000E+01
 -0.538800000000E+01  0.256200000000E+01  0.347330000000E+01
 -0.521700000000E+01  0.271940000000E+01  0.337630000000E+01
 -0.504700000000E+01  0.287680000000E+01  0.327920000000E+01
 -0.487600000000E+01  0.303410000000E+01  0.318220000000E+01
 -0.523500000000E+01  0.252430000000E+01  0.366840000000E+01
 -0.506500000000E+01  0.268030000000E+01  0.357240000000E+01
 -0.489600000000E+01  0.283630000000E+01  0.347650000000E+01
 -0.472600000000E+01  0.299220000000E+01  0.338050000000E+01
 -0.508100000000E+01  0.248660000000E+01  0.386350000000E+01
 -0.491300000000E+01  0.264120000000E+01  0.376860000000E+01
 -0.474400000000E+01  0.279570000000E+01  0.367370000000E+01
 -0.457600000000E+01  0.295030000000E+01  0.357880000000E+01
 -0.492700000000E+01  0.244880000000E+01  0.405860000000E+01
 -0.476000000000E+01  0.260200000000E+01  0.396480000000E+01
 -0.459300000000E+01  0.275520000000E+01  0.387090000000E+01
 -0.442600000000E+01  0.290840000000E+01  0.377710000000E+01
 -0.579000000000E+01  0.414210000000E+01  0.405540000000E+01
 -0.557400000000E+01  0.426570000000E+01  0.397300000000E+01
 -0.535900000000E+01  0.438940000000E+01  0.389070000000E+01
 -0.514300000000E+01  0.451300000000E+01  0.380830000000E+01
 -0.567600000000E+01  0.407250000000E+01  0.428100000000E+01
 -0.546000000000E+01  0.419630000000E+01  0.419910000000E+01
 -0.524300000000E+01  0.432010000000E+01  0.411720000000E+01
 -0.502600000000E+01  0.444390000000E+01  0.403520000000E+01
 -0.556300000000E+01  0.400280000000E+01  0.450660000000E+01
 -0.534500000000E+01  0.412680000000E+01  0.442520000000E+01
 -0.512700000000E+01  0.425080000000E+01  0.434370000000E+01
 -0.491000000000E+01  0.437480000000E+01  0.426220000000E+01
 -0.544900000000E+01  0.393320000000E+01  0.473220000000E+01
 -0.523000000000E+01  0.405730000000E+01  0.465120000000E+01
 -0.501200000000E+01  0.418150000000E+01  0.457020000000E+01
 -0.479300000000E+01  0.430560000000E+01  0.448910000000E+01
 -0.631400000000E+01  0.549770000000E+01  0.476460000000E+01
 -0.612400000000E+01  0.561170000000E+01  0.464950000000E+01
 -0.593500000000E+01  0.572570000000E+01  0.453440000000E+01
 -0.574600000000E+01  0.583970000000E+01  0.441930000000E+01
 -0.617900000000E+01  0.545970000000E+01  0.495480000000E+01
 -0.598900000000E+01  0.557300000000E+01  0.484200000000E+01
 -0.579900000000E+01  0.568630000000E+01  0.472920000000E+01
 -0.560800000000E+01  0.579970000000E+01  0.461640000000E+01
 -0.604500000000E+01  0.542160000000E+01  0.514490000000E+01
 -0.585400000000E+01  0.553430000000E+01  0.503450000000E+01
 -0.566200000000E+01  0.564700000000E+01  0.492400000000E+01
 -0.547100000000E+01  0.575960000000E+01  0.481360000000E+01
 -0.591100000000E+01  0.538360000000E+01  0.533510000000E+01
 -0.571900000000E+01  0.549560000000E+01  0.522700000000E+01
 -0.552600000000E+01  0.560760000000E+01  0.511880000000E+01
 -0.533400000000E+01  0.571960000000E+01  0.501070000000E+01
 -0.676800000000E+01  0.699380000000E+01  0.539040000000E+01
 -0.658200000000E+01  0.708120000000E+01  0.524810000000E+01
 -0.639500000000E+01  0.716870000000E+01  0.510570000000E+01
 -0.620800000000E+01  0.725610000000E+01  0.496330000000E+01
 -0.660100000000E+01  0.697720000000E+01  0.557420000000E+01
 -0.641500000000E+01  0.706390000000E+01  0.543390000000E+01
 -0.622900000000E+01  0.715060000000E+01  0.529370000000E+01
 -0.604300000000E+01  0.723730000000E+01  0.515350000000E+01
 -0.643400000000E+01  0.696070000000E+01  0.575790000000E+01
 -0.624800000000E+01  0.704660000000E+01  0.561980000000E+01
 -0.606300000000E+01  0.713250000000E+01  0.548170000000E+01
 -0.587700000000E+01  0.721840000000E+01  0.534370000000E+01
 -0.626700000000E+01  0.694410000000E+01  0.594160000000E+01
 -0.608200000000E+01  0.702930000000E+01  0.580570000000E+01
 -0.589600000000E+01  0.711440000000E+01  0.566980000000E+01
 -0.571100000000E+01  0.719960000000E+01  0.553390000000E+01
 -0.691200000000E+01  0.859960000000E+01  0.585280000000E+01
 -0.673900000000E+01  0.866020000000E+01  0.568500000000E+01
 -0.656600000000E+01  0.872080000000E+01  0.551720000000E+01
 -0.639300000000E+01  0.878140000000E+01  0.534940000000E+01
 -0.674600000000E+01  0.858830000000E+01  0.604120000000E+01
 -0.657500000000E+01  0.864810000000E+01  0.587590000000E+01
 -0.640400000000E+01  0.870790000000E+01  0.571060000000E+01
 -0.623300000000E+01  0.876770000000E+01  0.554530000000E+01
 -0.658000000000E+01  0.857710000000E+01  0.622960000000E+01
 -0.641100000000E+01  0.863610000000E+01  0.606680000000E+01
 -0.624200000000E+01  0.869500000000E+01  0.590400000000E+01
 -0.607300000000E+01  0.875400000000E+01  0.574130000000E+01
 -0.641400000000E+01  0.856580000000E+01  0.641800000000E+01
 -0.624700000000E+01  0.862400000000E+01  0.625770000000E+01
 -0.608000000000E+01  0.868210000000E+01  0.609750000000E+01
 -0.591300000000E+01  0.874030000000E+01  0.593720000000E+01
 -0.695900000000E+01  0.102840000000E+02  0.602950000000E+01
 -0.677700000000E+01  0.103000000000E+02  0.588900000000E+01
 -0.659400000000E+01  0.103160000000E+02  0.574840000000E+01
 -0.641200000000E+01  0.103320000000E+02  0.560790000000E+01
 -0.681800000000E+01  0.102770000000E+02  0.623160000000E+01
 -0.663500000000E+01  0.102920000000E+02  0.609120000000E+01
 -0.645100000000E+01  0.103080000000E+02  0.595080000000E+01
 -0.626700000000E+01  0.103240000000E+02  0.581040000000E+01
 -0.667700000000E+01  0.102690000000E+02  0.643360000000E+01
 -0.649300000000E+01  0.102850000000E+02  0.629340000000E+01
 -0.630800000000E+01  0.103000000000E+02  0.615320000000E+01
 -0.612300000000E+01  0.103160000000E+02  0.601300000000E+01
 -0.653600000000E+01  0.102610000000E+02  0.663560000000E+01
 -0.635000000000E+01  0.102770000000E+02  0.649560000000E+01
 -0.616500000000E+01  0.102930000000E+02  0.635560000000E+01
 -0.597900000000E+01  0.103080000000E+02  0.621560000000E+01
 -0.675800000000E+01  0.119210000000E+02  0.578310000000E+01
 -0.657200000000E+01  0.119050000000E+02  0.566150000000E+01
 -0.638600000000E+01  0.118890000000E+02  0.553980000000E+01
 -0.620000000000E+01  0.118730000000E+02  0.541820000000E+01
 -0.664100000000E+01  0.119200000000E+02  0.598460000000E+01
 -0.645200000000E+01  0.119040000000E+02  0.586070000000E+01
 -0.626400000000E+01  0.118880000000E+02  0.573690000000E+01
 -0.607500000000E+01  0.118710000000E+02  0.561310000000E+01
 -0.652400000000E+01  0.119200000000E+02  0.618600000000E+01
 -0.633300000000E+01  0.119030000000E+02  0.606000000000E+01
 -0.614200000000E+01  0.118870000000E+02  0.593410000000E+01
 -0.595100000000E+01  0.118700000000E+02  0.580810000000E+01
 -0.640600000000E+01  0.119190000000E+02  0.638740000000E+01
 -0.621300000000E+01  0.119030000000E+02  0.625930000000E+01
 -0.602000000000E+01  0.118860000000E+02  0.613120000000E+01
 -0.582700000000E+01  0.118690000000E+02  0.600310000000E+01
 -0.673600000000E+01  0.135030000000E+02  0.550710000000E+01
 -0.654300000000E+01  0.134840000000E+02  0.547470000000E+01
 -0.635000000000E+01  0.134650000000E+02  0.544230000000E+01
 -0.615700000000E+01  0.134460000000E+02  0.540990000000E+01
 -0.670000000000E+01  0.135190000000E+02  0.571890000000E+01
 -0.650200000000E+01  0.135000000000E+02  0.568730000000E+01
 -0.630400000000E+01  0.134810000000E+02  0.565580000000E+01
 -0.610600000000E+01  0.134610000000E+02  0.562420000000E+01
 -0.666400000000E+01  0.135360000000E+02  0.593060000000E+01
 -0.646100000000E+01  0.135160000000E+02  0.589990000000E+01
 -0.625900000000E+01  0.134960000000E+02  0.586930000000E+01
 -0.605600000000E+01  0.134760000000E+02  0.583860000000E+01
 -0.662800000000E+01  0.135520000000E+02  0.614240000000E+01
 -0.642000000000E+01  0.135320000000E+02  0.611260000000E+01
 -0.621300000000E+01  0.135120000000E+02  0.608270000000E+01
 -0.600600000000E+01  0.134910000000E+02  0.605290000000E+01
 -0.653400000000E+01  0.150530000000E+02  0.522680000000E+01
 -0.637500000000E+01  0.150230000000E+02  0.510570000000E+01
 -0.621600000000E+01  0.149930000000E+02  0.498460000000E+01
 -0.605700000000E+01  0.149630000000E+02  0.486350000000E+01
 -0.643200000000E+01  0.150670000000E+02  0.540280000000E+01
 -0.627500000000E+01  0.150370000000E+02  0.527860000000E+01
 -0.611800000000E+01  0.150070000000E+02  0.515450000000E+01
 -0.596200000000E+01  0.149770000000E+02  0.503030000000E+01
 -0.633000000000E+01  0.150820000000E+02  0.557880000000E+01
 -0.617600000000E+01  0.150510000000E+02  0.545160000000E+01
 -0.602100000000E+01  0.150210000000E+02  0.532430000000E+01
 -0.586600000000E+01  0.149900000000E+02  0.519700000000E+01
 -0.622900000000E+01  0.150960000000E+02  0.575480000000E+01
 -0.607600000000E+01  0.150650000000E+02  0.562450000000E+01
 -0.592400000000E+01  0.150350000000E+02  0.549410000000E+01
 -0.577100000000E+01  0.150040000000E+02  0.536380000000E+01
 -0.631000000000E+01  0.164830000000E+02  0.435880000000E+01
 -0.616300000000E+01  0.164450000000E+02  0.424320000000E+01
 -0.601700000000E+01  0.164070000000E+02  0.412760000000E+01
 -0.587000000000E+01  0.163690000000E+02  0.401200000000E+01
 -0.617800000000E+01  0.164930000000E+02  0.448260000000E+01
 -0.603200000000E+01  0.164550000000E+02  0.436890000000E+01
 -0.588500000000E+01  0.164170000000E+02  0.425530000000E+01
 -0.573800000000E+01  0.163800000000E+02  0.414160000000E+01
 -0.604700000000E+01  0.165020000000E+02  0.460640000000E+01
 -0.590000000000E+01  0.164650000000E+02  0.449460000000E+01
 -0.575300000000E+01  0.164280000000E+02  0.438290000000E+01
 -0.560600000000E+01  0.163900000000E+02  0.427120000000E+01
 -0.591500000000E+01  0.165120000000E+02  0.473020000000E+01
 -0.576800000000E+01  0.164750000000E+02  0.462040000000E+01
 -0.562100000000E+01  0.164380000000E+02  0.451060000000E+01
 -0.547400000000E+01  0.164010000000E+02  0.440080000000E+01
 -0.633300000000E+01  0.180010000000E+02  0.389940000000E+01
 -0.617400000000E+01  0.179570000000E+02  0.378150000000E+01
 -0.601600000000E+01  0.179140000000E+02  0.366370000000E+01
 -0.585800000000E+01  0.178700000000E+02  0.354580000000E+01
 -0.620900000000E+01  0.180150000000E+02  0.404240000000E+01
 -0.605200000000E+01  0.179720000000E+02  0.392780000000E+01
 -0.589400000000E+01  0.179290000000E+02  0.381320000000E+01
 -0.573700000000E+01  0.178870000000E+02  0.369860000000E+01
 -0.608600000000E+01  0.180290000000E+02  0.418550000000E+01
 -0.592900000000E+01  0.179870000000E+02  0.407410000000E+01
 -0.577200000000E+01  0.179450000000E+02  0.396280000000E+01
 -0.561500000000E+01  0.179030000000E+02  0.385140000000E+01
 -0.596300000000E+01  0.180430000000E+02  0.432850000000E+01
 -0.580700000000E+01  0.180020000000E+02  0.422040000000E+01
 -0.565000000000E+01  0.179600000000E+02  0.411230000000E+01
 -0.549400000000E+01  0.179190000000E+02  0.400430000000E+01
 -0.616200000000E+01  0.195540000000E+02  0.361430000000E+01
 -0.599300000000E+01  0.195170000000E+02  0.353150000000E+01
 -0.582400000000E+01  0.194800000000E+02  0.344870000000E+01
 -0.565600000000E+01  0.194430000000E+02  0.336590000000E+01
 -0.606700000000E+01  0.195680000000E+02  0.376980000000E+01
 -0.590200000000E+01  0.195310000000E+02  0.368510000000E+01
 -0.573600000000E+01  0.194940000000E+02  0.360040000000E+01
 -0.557000000000E+01  0.194570000000E+02  0.351580000000E+01
 -0.597300000000E+01  0.195820000000E+02  0.392520000000E+01
 -0.581000000000E+01  0.195450000000E+02  0.383870000000E+01
 -0.564700000000E+01  0.195090000000E+02  0.375220000000E+01
 -0.548400000000E+01  0.194720000000E+02  0.366560000000E+01
 -0.587900000000E+01  0.195970000000E+02  0.408070000000E+01
 -0.571900000000E+01  0.195600000000E+02  0.399230000000E+01
 -0.555800000000E+01  0.195230000000E+02  0.390390000000E+01
 -0.539800000000E+01  0.194860000000E+02  0.381550000000E+01
 -0.597200000000E+01  0.211380000000E+02  0.351290000000E+01
 -0.584600000000E+01  0.211100000000E+02  0.343650000000E+01
 -0.572100000000E+01  0.210810000000E+02  0.336010000000E+01
 -0.559600000000E+01  0.210530000000E+02  0.328370000000E+01
 -0.589900000000E+01  0.211450000000E+02  0.365010000000E+01
 -0.577200000000E+01  0.211160000000E+02  0.357030000000E+01
 -0.564500000000E+01  0.210870000000E+02  0.349050000000E+01
 -0.551800000000E+01  0.210570000000E+02  0.341070000000E+01
 -0.582600000000E+01  0.211520000000E+02  0.378730000000E+01
 -0.569800000000E+01  0.211220000000E+02  0.370410000000E+01
 -0.556900000000E+01  0.210920000000E+02  0.362080000000E+01
 -0.544000000000E+01  0.210620000000E+02  0.353760000000E+01
 -0.575400000000E+01  0.211590000000E+02  0.392450000000E+01
 -0.562300000000E+01  0.211280000000E+02  0.383790000000E+01
 -0.549200000000E+01  0.210970000000E+02  0.375120000000E+01
 -0.536200000000E+01  0.210670000000E+02  0.366450000000E+01
 -0.621900000000E+01  0.227560000000E+02  0.323410000000E+01
 -0.609100000000E+01  0.227210000000E+02  0.310370000000E+01
 -0.596300000000E+01  0.226870000000E+02  0.297330000000E+01
 -0.583600000000E+01  0.226520000000E+02  0.284290000000E+01
 -0.609800000000E+01  0.227510000000E+02  0.336610000000E+01
 -0.596800000000E+01  0.227160000000E+02  0.323840000000E+01
 -0.583900000000E+01  0.226820000000E+02  0.311060000000E+01
 -0.570900000000E+01  0.226480000000E+02  0.298280000000E+01
 -0.597600000000E+01  0.227460000000E+02  0.349820000000E+01
 -0.584500000000E+01  0.227120000000E+02  0.337300000000E+01
 -0.571400000000E+01  0.226770000000E+02  0.324780000000E+01
 -0.558300000000E+01  0.226430000000E+02  0.312260000000E+01
 -0.585500000000E+01  0.227410000000E+02  0.363030000000E+01
 -0.572300000000E+01  0.227070000000E+02  0.350770000000E+01
 -0.559000000000E+01  0.226730000000E+02  0.338510000000E+01
 -0.545700000000E+01  0.226380000000E+02  0.326250000000E+01
 -0.633200000000E+01  0.243660000000E+02  0.285880000000E+01
 -0.613600000000E+01  0.243240000000E+02  0.279030000000E+01
 -0.594100000000E+01  0.242820000000E+02  0.272170000000E+01
 -0.574500000000E+01  0.242400000000E+02  0.265310000000E+01
 -0.625800000000E+01  0.243710000000E+02  0.305510000000E+01
 -0.606300000000E+01  0.243290000000E+02  0.298910000000E+01
 -0.586800000000E+01  0.242880000000E+02  0.292310000000E+01
 -0.567300000000E+01  0.242460000000E+02  0.285710000000E+01
 -0.618400000000E+01  0.243760000000E+02  0.325140000000E+01
 -0.599000000000E+01  0.243350000000E+02  0.318790000000E+01
 -0.579600000000E+01  0.242940000000E+02  0.312450000000E+01
 -0.560200000000E+01  0.242520000000E+02  0.306100000000E+01
 -0.611000000000E+01  0.243810000000E+02  0.344770000000E+01
 -0.591700000000E+01  0.243400000000E+02  0.338680000000E+01
 -0.572300000000E+01  0.242990000000E+02  0.332590000000E+01
 -0.553000000000E+01  0.242580000000E+02  0.326500000000E+01
 -0.601500000000E+01  0.259710000000E+02  0.286560000000E+01
 -0.586100000000E+01  0.259270000000E+02  0.275180000000E+01
 -0.570700000000E+01  0.258840000000E+02  0.263800000000E+01
 -0.555200000000E+01  0.258400000000E+02  0.252430000000E+01
 -0.590100000000E+01  0.259570000000E+02  0.303540000000E+01
 -0.574600000000E+01  0.259140000000E+02  0.292240000000E+01
 -0.559100000000E+01  0.258700000000E+02  0.280940000000E+01
 -0.543600000000E+01  0.258260000000E+02  0.269630000000E+01
 -0.578800000000E+01  0.259440000000E+02  0.320530000000E+01
 -0.563200000000E+01  0.259000000000E+02  0.309300000000E+01
 -0.547600000000E+01  0.258560000000E+02  0.298070000000E+01
 -0.532000000000E+01  0.258130000000E+02  0.286840000000E+01
 -0.567400000000E+01  0.259300000000E+02  0.337510000000E+01
 -0.551700000000E+01  0.258860000000E+02  0.326360000000E+01
 -0.536100000000E+01  0.258420000000E+02  0.315200000000E+01
 -0.520400000000E+01  0.257990000000E+02  0.304050000000E+01
 -0.566800000000E+01  0.275020000000E+02  0.243640000000E+01
 -0.546600000000E+01  0.274480000000E+02  0.236680000000E+01
 -0.526300000000E+01  0.273940000000E+02  0.229730000000E+01
 -0.506000000000E+01  0.273390000000E+02  0.222780000000E+01
 -0.557300000000E+01  0.274920000000E+02  0.264670000000E+01
 -0.537200000000E+01  0.274380000000E+02  0.257650000000E+01
 -0.517200000000E+01  0.273850000000E+02  0.250630000000E+01
 -0.497200000000E+01  0.273310000000E+02  0.243610000000E+01
 -0.547700000000E+01  0.274820000000E+02  0.285700000000E+01
 -0.527900000000E+01  0.274290000000E+02  0.278620000000E+01
 -0.508100000000E+01  0.273750000000E+02  0.271530000000E+01
 -0.488300000000E+01  0.273220000000E+02  0.264440000000E+01
 -0.538100000000E+01  0.274720000000E+02  0.306740000000E+01
 -0.518600000000E+01  0.274190000000E+02  0.299580000000E+01
 -0.499000000000E+01  0.273660000000E+02  0.292430000000E+01
 -0.479500000000E+01  0.273140000000E+02  0.285270000000E+01
 -0.528400000000E+01  0.290310000000E+02  0.231800000000E+01
 -0.508400000000E+01  0.289760000000E+02  0.223790000000E+01
 -0.488300000000E+01  0.289210000000E+02  0.215780000000E+01
 -0.468200000000E+01  0.288670000000E+02  0.207760000000E+01
 -0.518600000000E+01  0.290180000000E+02  0.253090000000E+01
 -0.498700000000E+01  0.289640000000E+02  0.245080000000E+01
 -0.478900000000E+01  0.289100000000E+02  0.237060000000E+01
 -0.459000000000E+01  0.288560000000E+02  0.229040000000E+01
 -0.508800000000E+01  0.290060000000E+02  0.274380000000E+01
 -0.489100000000E+01  0.289520000000E+02  0.266360000000E+01
 -0.469500000000E+01  0.288990000000E+02  0.258340000000E+01
 -0.449800000000E+01  0.288450000000E+02  0.250320000000E+01
 -0.498900000000E+01  0.289930000000E+02  0.295670000000E+01
 -0.479500000000E+01  0.289400000000E+02  0.287650000000E+01
 -0.460100000000E+01  0.288870000000E+02  0.279620000000E+01
 -0.440600000000E+01  0.288340000000E+02  0.271590000000E+01
 -0.480800000000E+01  0.305580000000E+02  0.247180000000E+01
 -0.463600000000E+01  0.305080000000E+02  0.235950000000E+01
 -0.446400000000E+01  0.304590000000E+02  0.224720000000E+01
 -0.429200000000E+01  0.304100000000E+02  0.213490000000E+01
 -0.468500000000E+01  0.305340000000E+02  0.264100000000E+01
 -0.451600000000E+01  0.304850000000E+02  0.253480000000E+01
 -0.434700000000E+01  0.304370000000E+02  0.242850000000E+01
 -0.417800000000E+01  0.303890000000E+02  0.232220000000E+01
 -0.456200000000E+01  0.305100000000E+02  0.281030000000E+01
 -0.439600000000E+01  0.304620000000E+02  0.271010000000E+01
 -0.423000000000E+01  0.304150000000E+02  0.260980000000E+01
 -0.406500000000E+01  0.303680000000E+02  0.250950000000E+01
 -0.443900000000E+01  0.304860000000E+02  0.297960000000E+01
 -0.427600000000E+01  0.304390000000E+02  0.288540000000E+01
 -0.411400000000E+01  0.303930000000E+02  0.279110000000E+01
 -0.395100000000E+01  0.303470000000E+02  0.269690000000E+01
 -0.453900000000E+01  0.321200000000E+02  0.263520000000E+01
 -0.436700000000E+01  0.320710000000E+02  0.254610000000E+01
 -0.419400000000E+01  0.320230000000E+02  0.245710000000E+01
 -0.402200000000E+01  0.319750000000E+02  0.236800000000E+01
 -0.444200000000E+01  0.321030000000E+02  0.280810000000E+01
 -0.426700000000E+01  0.320530000000E+02  0.271880000000E+01
 -0.409200000000E+01  0.320040000000E+02  0.262960000000E+01
 -0.391700000000E+01  0.319550000000E+02  0.254030000000E+01
 -0.434500000000E+01  0.320850000000E+02  0.298100000000E+01
 -0.416700000000E+01  0.320350000000E+02  0.289160000000E+01
 -0.398900000000E+01  0.319860000000E+02  0.280210000000E+01
 -0.381200000000E+01  0.319360000000E+02  0.271260000000E+01
 -0.424800000000E+01  0.320680000000E+02  0.315400000000E+01
 -0.406700000000E+01  0.320180000000E+02  0.306430000000E+01
 -0.388700000000E+01  0.319670000000E+02  0.297460000000E+01
 -0.370700000000E+01  0.319170000000E+02  0.288490000000E+01
 -0.106600000000E+01 -0.193320000000E+01  0.142740000000E+00
 -0.105800000000E+01 -0.146690000000E+01 -0.310390000000E+00
 -0.979100000000E+00 -0.916190000000E+00 -0.644650000000E+00
 -0.817200000000E+00 -0.306920000000E+00 -0.796040000000E+00
 -0.587500000000E+00  0.297360000000E+00 -0.743920000000E+00
 -0.321100000000E+00  0.847500000000E+00 -0.529070000000E+00
 -0.110900000000E+01 -0.202110000000E+01  0.109110000000E+00
 -0.109900000000E+01 -0.152510000000E+01 -0.371810000000E+00
 -0.101600000000E+01 -0.939960000000E+00 -0.727300000000E+00
 -0.843900000000E+00 -0.292710000000E+00 -0.888740000000E+00
 -0.597900000000E+00  0.347480000000E+00 -0.825610000000E+00
 -0.311000000000E+00  0.918700000000E+00 -0.572580000000E+00
 -0.115100000000E+01 -0.210910000000E+01  0.754730000000E-01
 -0.114100000000E+01 -0.158320000000E+01 -0.433230000000E+00
 -0.105200000000E+01 -0.963720000000E+00 -0.809960000000E+00
 -0.870700000000E+00 -0.278490000000E+00 -0.981440000000E+00
 -0.608300000000E+00  0.397590000000E+00 -0.907290000000E+00
 -0.301000000000E+00  0.989900000000E+00 -0.616080000000E+00
 -0.119300000000E+01 -0.219700000000E+01  0.418380000000E-01
 -0.118200000000E+01 -0.164130000000E+01 -0.494640000000E+00
 -0.108900000000E+01 -0.987480000000E+00 -0.892620000000E+00
 -0.897400000000E+00 -0.264270000000E+00 -0.107410000000E+01
 -0.618600000000E+00  0.447710000000E+00 -0.988980000000E+00
 -0.290900000000E+00  0.106110000000E+01 -0.659580000000E+00
 -0.123600000000E+01 -0.228490000000E+01  0.820300000000E-02
 -0.122300000000E+01 -0.169940000000E+01 -0.556060000000E+00
 -0.112500000000E+01 -0.101120000000E+01 -0.975270000000E+00
 -0.924100000000E+00 -0.250060000000E+00 -0.116680000000E+01
 -0.629000000000E+00  0.497830000000E+00 -0.107070000000E+01
 -0.280800000000E+00  0.113230000000E+01 -0.703090000000E+00
 -0.277800000000E+01 -0.987080000000E+00  0.768970000000E-01
 -0.265300000000E+01 -0.459730000000E+00 -0.203990000000E+00
 -0.245100000000E+01  0.976460000000E-01 -0.347620000000E+00
 -0.219200000000E+01  0.649930000000E+00 -0.361150000000E+00
 -0.188300000000E+01  0.115090000000E+01 -0.209220000000E+00
 -0.154800000000E+01  0.149840000000E+01  0.161390000000E+00
 -0.283300000000E+01 -0.106780000000E+01  0.394370000000E-01
 -0.270300000000E+01 -0.503540000000E+00 -0.269710000000E+00
 -0.249000000000E+01  0.952130000000E-01 -0.430610000000E+00
 -0.221200000000E+01  0.689110000000E+00 -0.445570000000E+00
 -0.187900000000E+01  0.122720000000E+01 -0.280180000000E+00
 -0.151800000000E+01  0.160930000000E+01  0.110180000000E+00
 -0.288900000000E+01 -0.114850000000E+01  0.197640000000E-02
 -0.275400000000E+01 -0.547340000000E+00 -0.335430000000E+00
 -0.252800000000E+01  0.927810000000E-01 -0.513610000000E+00
 -0.223100000000E+01  0.728300000000E+00 -0.530000000000E+00
 -0.187400000000E+01  0.130350000000E+01 -0.351140000000E+00
 -0.148800000000E+01  0.172030000000E+01  0.589780000000E-01
 -0.294500000000E+01 -0.122930000000E+01 -0.354840000000E-01
 -0.280500000000E+01 -0.591140000000E+00 -0.401150000000E+00
 -0.256700000000E+01  0.903480000000E-01 -0.596600000000E+00
 -0.225100000000E+01  0.767490000000E+00 -0.614420000000E+00
 -0.187000000000E+01  0.137970000000E+01 -0.422090000000E+00
 -0.145800000000E+01  0.183120000000E+01  0.777330000000E-02
 -0.300100000000E+01 -0.131000000000E+01 -0.729440000000E-01
 -0.285600000000E+01 -0.634950000000E+00 -0.466880000000E+00
 -0.260600000000E+01  0.879160000000E-01 -0.679600000000E+00
 -0.227000000000E+01  0.806680000000E+00 -0.698840000000E+00
 -0.186600000000E+01  0.145600000000E+01 -0.493050000000E+00
 -0.142800000000E+01  0.194220000000E+01 -0.434310000000E-01
 -0.427400000000E+01 -0.640090000000E+00  0.123630000000E+01
 -0.421900000000E+01 -0.169040000000E+00  0.812310000000E+00
 -0.409100000000E+01  0.347980000000E+00  0.462450000000E+00
 -0.385600000000E+01  0.902580000000E+00  0.258140000000E+00
 -0.352500000000E+01  0.144370000000E+01  0.237320000000E+00
 -0.313700000000E+01  0.192680000000E+01  0.378300000000E+00
 -0.432000000000E+01 -0.751480000000E+00  0.128000000000E+01
 -0.428200000000E+01 -0.269740000000E+00  0.813370000000E+00
 -0.415900000000E+01  0.270450000000E+00  0.430600000000E+00
 -0.392100000000E+01  0.855010000000E+00  0.198700000000E+00
 -0.358100000000E+01  0.143190000000E+01  0.152560000000E+00
 -0.317900000000E+01  0.195580000000E+01  0.272670000000E+00
 -0.436600000000E+01 -0.862870000000E+00  0.132360000000E+01
 -0.434600000000E+01 -0.370430000000E+00  0.814420000000E+00
 -0.422600000000E+01  0.192920000000E+00  0.398750000000E+00
 -0.398500000000E+01  0.807440000000E+00  0.139260000000E+00
 -0.363700000000E+01  0.142010000000E+01  0.677990000000E-01
 -0.322100000000E+01  0.198470000000E+01  0.167050000000E+00
 -0.441100000000E+01 -0.974260000000E+00  0.136730000000E+01
 -0.440900000000E+01 -0.471130000000E+00  0.815480000000E+00
 -0.429400000000E+01  0.115390000000E+00  0.366900000000E+00
 -0.405000000000E+01  0.759880000000E+00  0.798150000000E-01
 -0.369300000000E+01  0.140830000000E+01 -0.169640000000E-01
 -0.326400000000E+01  0.201360000000E+01  0.614180000000E-01
 -0.445700000000E+01 -0.108570000000E+01  0.141100000000E+01
 -0.447200000000E+01 -0.571820000000E+00  0.816530000000E+00
 -0.436200000000E+01  0.378630000000E-01  0.335050000000E+00
 -0.411400000000E+01  0.712310000000E+00  0.203740000000E-01
 -0.374900000000E+01  0.139640000000E+01 -0.101730000000E+00
 -0.330600000000E+01  0.204260000000E+01 -0.442100000000E-01
 -0.559700000000E+01  0.729110000000E+00  0.185420000000E+01
 -0.549300000000E+01  0.117620000000E+01  0.143810000000E+01
 -0.527600000000E+01  0.166150000000E+01  0.112060000000E+01
 -0.495100000000E+01  0.215320000000E+01  0.934950000000E+00
 -0.452600000000E+01  0.259350000000E+01  0.941540000000E+00
 -0.406200000000E+01  0.286900000000E+01  0.120240000000E+01
 -0.565800000000E+01  0.649010000000E+00  0.187320000000E+01
 -0.556700000000E+01  0.112030000000E+01  0.141120000000E+01
 -0.535000000000E+01  0.163820000000E+01  0.105280000000E+01
 -0.501700000000E+01  0.216850000000E+01  0.830770000000E+00
 -0.457700000000E+01  0.265640000000E+01  0.798660000000E+00
 -0.408300000000E+01  0.300230000000E+01  0.101180000000E+01
 -0.572000000000E+01  0.568920000000E+00  0.189210000000E+01
 -0.564100000000E+01  0.106440000000E+01  0.138420000000E+01
 -0.542500000000E+01  0.161490000000E+01  0.985020000000E+00
 -0.508300000000E+01  0.218390000000E+01  0.726600000000E+00
 -0.462800000000E+01  0.271930000000E+01  0.655780000000E+00
 -0.410300000000E+01  0.313560000000E+01  0.821180000000E+00
 -0.578200000000E+01  0.488820000000E+00  0.191110000000E+01
 -0.571500000000E+01  0.100840000000E+01  0.135730000000E+01
 -0.550000000000E+01  0.159170000000E+01  0.917220000000E+00
 -0.514900000000E+01  0.219930000000E+01  0.622420000000E+00
 -0.467800000000E+01  0.278220000000E+01  0.512900000000E+00
 -0.412300000000E+01  0.326900000000E+01  0.630580000000E+00
 -0.584300000000E+01  0.408720000000E+00  0.193000000000E+01
 -0.578900000000E+01  0.952500000000E+00  0.133030000000E+01
 -0.557400000000E+01  0.156840000000E+01  0.849430000000E+00
 -0.521500000000E+01  0.221460000000E+01  0.518250000000E+00
 -0.472900000000E+01  0.284510000000E+01  0.370030000000E+00
 -0.414400000000E+01  0.340230000000E+01  0.439980000000E+00
 -0.662700000000E+01  0.210980000000E+01  0.309190000000E+01
 -0.642200000000E+01  0.248770000000E+01  0.267760000000E+01
 -0.613500000000E+01  0.288140000000E+01  0.231060000000E+01
 -0.580200000000E+01  0.327380000000E+01  0.198740000000E+01
 -0.535700000000E+01  0.363870000000E+01  0.180530000000E+01
 -0.482300000000E+01  0.384290000000E+01  0.195520000000E+01
 -0.673000000000E+01  0.207590000000E+01  0.305380000000E+01
 -0.657200000000E+01  0.246700000000E+01  0.257800000000E+01
 -0.627400000000E+01  0.288870000000E+01  0.217650000000E+01
 -0.589700000000E+01  0.330810000000E+01  0.184930000000E+01
 -0.541200000000E+01  0.369840000000E+01  0.166290000000E+01
 -0.484300000000E+01  0.395450000000E+01  0.176190000000E+01
 -0.683400000000E+01  0.204210000000E+01  0.301570000000E+01
 -0.672100000000E+01  0.244630000000E+01  0.247850000000E+01
 -0.641300000000E+01  0.289600000000E+01  0.204230000000E+01
 -0.599200000000E+01  0.334240000000E+01  0.171120000000E+01
 -0.546600000000E+01  0.375810000000E+01  0.152050000000E+01
 -0.486300000000E+01  0.406610000000E+01  0.156850000000E+01
 -0.693700000000E+01  0.200820000000E+01  0.297760000000E+01
 -0.687100000000E+01  0.242560000000E+01  0.237890000000E+01
 -0.655200000000E+01  0.290330000000E+01  0.190820000000E+01
 -0.608700000000E+01  0.337670000000E+01  0.157300000000E+01
 -0.552100000000E+01  0.381790000000E+01  0.137810000000E+01
 -0.488300000000E+01  0.417780000000E+01  0.137520000000E+01
 -0.704100000000E+01  0.197440000000E+01  0.293950000000E+01
 -0.702100000000E+01  0.240490000000E+01  0.227930000000E+01
 -0.669100000000E+01  0.291060000000E+01  0.177410000000E+01
 -0.618300000000E+01  0.341100000000E+01  0.143490000000E+01
 -0.557600000000E+01  0.387760000000E+01  0.123570000000E+01
 -0.490300000000E+01  0.428940000000E+01  0.118180000000E+01
 -0.708500000000E+01  0.390350000000E+01  0.354510000000E+01
 -0.679700000000E+01  0.423110000000E+01  0.311050000000E+01
 -0.642500000000E+01  0.455630000000E+01  0.274540000000E+01
 -0.595100000000E+01  0.485980000000E+01  0.250050000000E+01
 -0.539600000000E+01  0.510550000000E+01  0.243320000000E+01
 -0.482300000000E+01  0.526110000000E+01  0.255970000000E+01
 -0.722600000000E+01  0.385400000000E+01  0.353610000000E+01
 -0.692400000000E+01  0.420260000000E+01  0.307080000000E+01
 -0.653600000000E+01  0.454930000000E+01  0.267480000000E+01
 -0.604100000000E+01  0.487540000000E+01  0.240090000000E+01
 -0.545900000000E+01  0.514660000000E+01  0.230340000000E+01
 -0.484900000000E+01  0.533430000000E+01  0.239370000000E+01
 -0.736700000000E+01  0.380450000000E+01  0.352710000000E+01
 -0.705100000000E+01  0.417400000000E+01  0.303110000000E+01
 -0.664700000000E+01  0.454230000000E+01  0.260410000000E+01
 -0.613100000000E+01  0.489110000000E+01  0.230120000000E+01
 -0.552200000000E+01  0.518780000000E+01  0.217360000000E+01
 -0.487500000000E+01  0.540750000000E+01  0.222780000000E+01
 -0.750900000000E+01  0.375490000000E+01  0.351820000000E+01
 -0.717800000000E+01  0.414540000000E+01  0.299140000000E+01
 -0.675800000000E+01  0.453530000000E+01  0.253350000000E+01
 -0.622100000000E+01  0.490670000000E+01  0.220160000000E+01
 -0.558400000000E+01  0.522890000000E+01  0.204380000000E+01
 -0.490100000000E+01  0.548070000000E+01  0.206180000000E+01
 -0.765000000000E+01  0.370540000000E+01  0.350920000000E+01
 -0.730500000000E+01  0.411680000000E+01  0.295170000000E+01
 -0.686900000000E+01  0.452830000000E+01  0.246280000000E+01
 -0.631100000000E+01  0.492230000000E+01  0.210200000000E+01
 -0.564700000000E+01  0.527010000000E+01  0.191400000000E+01
 -0.492700000000E+01  0.555390000000E+01  0.189590000000E+01
 -0.751900000000E+01  0.520760000000E+01  0.450160000000E+01
 -0.729800000000E+01  0.547870000000E+01  0.405110000000E+01
 -0.697400000000E+01  0.575460000000E+01  0.366960000000E+01
 -0.657000000000E+01  0.602220000000E+01  0.336860000000E+01
 -0.608400000000E+01  0.626120000000E+01  0.319590000000E+01
 -0.554300000000E+01  0.642550000000E+01  0.323550000000E+01
 -0.759100000000E+01  0.518300000000E+01  0.450190000000E+01
 -0.738300000000E+01  0.546620000000E+01  0.401470000000E+01
 -0.704800000000E+01  0.575730000000E+01  0.360650000000E+01
 -0.661100000000E+01  0.603740000000E+01  0.330230000000E+01
 -0.608900000000E+01  0.628540000000E+01  0.313630000000E+01
 -0.552200000000E+01  0.647260000000E+01  0.314400000000E+01
 -0.766400000000E+01  0.515840000000E+01  0.450230000000E+01
 -0.746700000000E+01  0.545370000000E+01  0.397840000000E+01
 -0.712200000000E+01  0.576010000000E+01  0.354340000000E+01
 -0.665100000000E+01  0.605270000000E+01  0.323600000000E+01
 -0.609500000000E+01  0.630960000000E+01  0.307670000000E+01
 -0.550100000000E+01  0.651970000000E+01  0.305250000000E+01
 -0.773700000000E+01  0.513380000000E+01  0.450260000000E+01
 -0.755200000000E+01  0.544120000000E+01  0.394200000000E+01
 -0.719600000000E+01  0.576290000000E+01  0.348030000000E+01
 -0.669200000000E+01  0.606800000000E+01  0.316980000000E+01
 -0.610000000000E+01  0.633380000000E+01  0.301710000000E+01
 -0.548100000000E+01  0.656670000000E+01  0.296090000000E+01
 -0.781000000000E+01  0.510920000000E+01  0.450290000000E+01
 -0.763600000000E+01  0.542870000000E+01  0.390560000000E+01
 -0.726900000000E+01  0.576570000000E+01  0.341720000000E+01
 -0.673300000000E+01  0.608330000000E+01  0.310350000000E+01
 -0.610600000000E+01  0.635790000000E+01  0.295750000000E+01
 -0.546000000000E+01  0.661380000000E+01  0.286940000000E+01
 -0.809200000000E+01  0.673500000000E+01  0.521460000000E+01
 -0.785500000000E+01  0.693790000000E+01  0.473220000000E+01
 -0.754300000000E+01  0.714400000000E+01  0.429820000000E+01
 -0.714100000000E+01  0.734660000000E+01  0.394450000000E+01
 -0.664400000000E+01  0.752980000000E+01  0.372860000000E+01
 -0.608800000000E+01  0.766920000000E+01  0.370110000000E+01
 -0.817700000000E+01  0.672420000000E+01  0.518400000000E+01
 -0.793700000000E+01  0.693750000000E+01  0.466990000000E+01
 -0.759200000000E+01  0.715490000000E+01  0.422410000000E+01
 -0.715400000000E+01  0.736720000000E+01  0.386700000000E+01
 -0.662700000000E+01  0.756030000000E+01  0.364160000000E+01
 -0.604200000000E+01  0.771040000000E+01  0.360240000000E+01
 -0.826200000000E+01  0.671340000000E+01  0.515330000000E+01
 -0.802000000000E+01  0.693710000000E+01  0.460760000000E+01
 -0.764100000000E+01  0.716590000000E+01  0.415000000000E+01
 -0.716600000000E+01  0.738790000000E+01  0.378940000000E+01
 -0.661000000000E+01  0.759080000000E+01  0.355470000000E+01
 -0.599500000000E+01  0.775150000000E+01  0.350370000000E+01
 -0.834800000000E+01  0.670270000000E+01  0.512260000000E+01
 -0.810200000000E+01  0.693670000000E+01  0.454530000000E+01
 -0.769000000000E+01  0.717690000000E+01  0.407580000000E+01
 -0.717900000000E+01  0.740860000000E+01  0.371180000000E+01
 -0.659300000000E+01  0.762140000000E+01  0.346780000000E+01
 -0.594800000000E+01  0.779270000000E+01  0.340490000000E+01
 -0.843300000000E+01  0.669190000000E+01  0.509200000000E+01
 -0.818400000000E+01  0.693630000000E+01  0.448300000000E+01
 -0.774000000000E+01  0.718790000000E+01  0.400170000000E+01
 -0.719200000000E+01  0.742930000000E+01  0.363420000000E+01
 -0.657600000000E+01  0.765190000000E+01  0.338090000000E+01
 -0.590100000000E+01  0.783380000000E+01  0.330620000000E+01
 -0.817400000000E+01  0.841660000000E+01  0.577320000000E+01
 -0.805500000000E+01  0.854580000000E+01  0.521700000000E+01
 -0.778100000000E+01  0.868700000000E+01  0.472350000000E+01
 -0.736000000000E+01  0.882800000000E+01  0.434800000000E+01
 -0.684000000000E+01  0.895580000000E+01  0.411620000000E+01
 -0.628000000000E+01  0.906640000000E+01  0.400370000000E+01
 -0.824900000000E+01  0.840610000000E+01  0.576610000000E+01
 -0.812000000000E+01  0.854360000000E+01  0.517620000000E+01
 -0.781900000000E+01  0.869390000000E+01  0.465830000000E+01
 -0.736600000000E+01  0.884330000000E+01  0.426530000000E+01
 -0.681200000000E+01  0.897820000000E+01  0.402550000000E+01
 -0.621300000000E+01  0.909150000000E+01  0.393060000000E+01
 -0.832500000000E+01  0.839570000000E+01  0.575910000000E+01
 -0.818600000000E+01  0.854140000000E+01  0.513540000000E+01
 -0.785800000000E+01  0.870080000000E+01  0.459310000000E+01
 -0.737300000000E+01  0.885860000000E+01  0.418260000000E+01
 -0.678400000000E+01  0.900060000000E+01  0.393480000000E+01
 -0.614600000000E+01  0.911650000000E+01  0.385750000000E+01
 -0.840000000000E+01  0.838520000000E+01  0.575200000000E+01
 -0.825100000000E+01  0.853920000000E+01  0.509470000000E+01
 -0.789600000000E+01  0.870770000000E+01  0.452790000000E+01
 -0.738000000000E+01  0.887400000000E+01  0.409990000000E+01
 -0.675700000000E+01  0.902300000000E+01  0.384420000000E+01
 -0.607900000000E+01  0.914160000000E+01  0.378440000000E+01
 -0.847500000000E+01  0.837470000000E+01  0.574500000000E+01
 -0.831700000000E+01  0.853690000000E+01  0.505390000000E+01
 -0.793400000000E+01  0.871460000000E+01  0.446270000000E+01
 -0.738700000000E+01  0.888930000000E+01  0.401720000000E+01
 -0.672900000000E+01  0.904550000000E+01  0.375350000000E+01
 -0.601200000000E+01  0.916670000000E+01  0.371130000000E+01
 -0.820400000000E+01  0.102510000000E+02  0.584640000000E+01
 -0.806300000000E+01  0.102910000000E+02  0.529930000000E+01
 -0.776500000000E+01  0.103330000000E+02  0.482080000000E+01
 -0.734300000000E+01  0.103720000000E+02  0.444730000000E+01
 -0.681900000000E+01  0.104040000000E+02  0.424520000000E+01
 -0.625800000000E+01  0.104210000000E+02  0.430120000000E+01
 -0.831600000000E+01  0.102440000000E+02  0.587840000000E+01
 -0.816700000000E+01  0.102880000000E+02  0.529150000000E+01
 -0.784300000000E+01  0.103320000000E+02  0.478140000000E+01
 -0.739400000000E+01  0.103750000000E+02  0.437600000000E+01
 -0.684000000000E+01  0.104100000000E+02  0.414210000000E+01
 -0.623800000000E+01  0.104290000000E+02  0.419550000000E+01
 -0.842700000000E+01  0.102380000000E+02  0.591040000000E+01
 -0.827100000000E+01  0.102840000000E+02  0.528360000000E+01
 -0.792100000000E+01  0.103320000000E+02  0.474190000000E+01
 -0.744600000000E+01  0.103770000000E+02  0.430470000000E+01
 -0.686200000000E+01  0.104160000000E+02  0.403900000000E+01
 -0.621900000000E+01  0.104360000000E+02  0.408980000000E+01
 -0.853900000000E+01  0.102320000000E+02  0.594240000000E+01
 -0.837500000000E+01  0.102810000000E+02  0.527580000000E+01
 -0.799800000000E+01  0.103320000000E+02  0.470250000000E+01
 -0.749700000000E+01  0.103800000000E+02  0.423330000000E+01
 -0.688300000000E+01  0.104220000000E+02  0.393590000000E+01
 -0.619900000000E+01  0.104440000000E+02  0.398410000000E+01
 -0.865000000000E+01  0.102260000000E+02  0.597440000000E+01
 -0.847900000000E+01  0.102780000000E+02  0.526790000000E+01
 -0.807600000000E+01  0.103310000000E+02  0.466310000000E+01
 -0.754900000000E+01  0.103830000000E+02  0.416200000000E+01
 -0.690400000000E+01  0.104280000000E+02  0.383280000000E+01
 -0.618000000000E+01  0.104510000000E+02  0.387830000000E+01
 -0.792200000000E+01  0.119850000000E+02  0.548890000000E+01
 -0.777800000000E+01  0.119570000000E+02  0.496470000000E+01
 -0.744100000000E+01  0.119210000000E+02  0.453490000000E+01
 -0.698600000000E+01  0.118820000000E+02  0.423030000000E+01
 -0.645700000000E+01  0.118430000000E+02  0.409730000000E+01
 -0.592200000000E+01  0.118130000000E+02  0.420850000000E+01
 -0.802300000000E+01  0.119910000000E+02  0.547350000000E+01
 -0.783600000000E+01  0.119600000000E+02  0.492910000000E+01
 -0.747100000000E+01  0.119210000000E+02  0.447760000000E+01
 -0.699200000000E+01  0.118790000000E+02  0.415040000000E+01
 -0.643200000000E+01  0.118380000000E+02  0.400210000000E+01
 -0.586200000000E+01  0.118060000000E+02  0.410750000000E+01
 -0.812400000000E+01  0.119970000000E+02  0.545810000000E+01
 -0.789300000000E+01  0.119620000000E+02  0.489360000000E+01
 -0.750200000000E+01  0.119210000000E+02  0.442040000000E+01
 -0.699800000000E+01  0.118770000000E+02  0.407040000000E+01
 -0.640800000000E+01  0.118340000000E+02  0.390690000000E+01
 -0.580200000000E+01  0.117980000000E+02  0.400640000000E+01
 -0.822500000000E+01  0.120020000000E+02  0.544260000000E+01
 -0.795100000000E+01  0.119650000000E+02  0.485800000000E+01
 -0.753300000000E+01  0.119210000000E+02  0.436310000000E+01
 -0.700300000000E+01  0.118740000000E+02  0.399040000000E+01
 -0.638300000000E+01  0.118290000000E+02  0.381170000000E+01
 -0.574200000000E+01  0.117910000000E+02  0.390540000000E+01
 -0.832700000000E+01  0.120080000000E+02  0.542720000000E+01
 -0.800900000000E+01  0.119670000000E+02  0.482240000000E+01
 -0.756400000000E+01  0.119210000000E+02  0.430580000000E+01
 -0.700900000000E+01  0.118720000000E+02  0.391050000000E+01
 -0.635800000000E+01  0.118240000000E+02  0.371650000000E+01
 -0.568200000000E+01  0.117840000000E+02  0.380440000000E+01
 -0.766800000000E+01  0.135340000000E+02  0.498080000000E+01
 -0.742000000000E+01  0.134740000000E+02  0.454520000000E+01
 -0.703400000000E+01  0.134130000000E+02  0.423400000000E+01
 -0.656900000000E+01  0.133590000000E+02  0.406710000000E+01
 -0.607900000000E+01  0.133210000000E+02  0.410200000000E+01
 -0.568400000000E+01  0.133130000000E+02  0.438140000000E+01
 -0.779500000000E+01  0.135540000000E+02  0.508260000000E+01
 -0.755400000000E+01  0.134900000000E+02  0.460220000000E+01
 -0.717200000000E+01  0.134250000000E+02  0.423470000000E+01
 -0.669500000000E+01  0.133640000000E+02  0.400880000000E+01
 -0.617200000000E+01  0.133180000000E+02  0.398770000000E+01
 -0.571300000000E+01  0.133010000000E+02  0.421630000000E+01
 -0.792300000000E+01  0.135740000000E+02  0.518440000000E+01
 -0.768800000000E+01  0.135070000000E+02  0.465920000000E+01
 -0.731000000000E+01  0.134360000000E+02  0.423530000000E+01
 -0.682100000000E+01  0.133700000000E+02  0.395050000000E+01
 -0.626400000000E+01  0.133160000000E+02  0.387350000000E+01
 -0.574200000000E+01  0.132880000000E+02  0.405120000000E+01
 -0.805000000000E+01  0.135940000000E+02  0.528620000000E+01
 -0.782200000000E+01  0.135230000000E+02  0.471610000000E+01
 -0.744700000000E+01  0.134480000000E+02  0.423590000000E+01
 -0.694700000000E+01  0.133750000000E+02  0.389220000000E+01
 -0.635700000000E+01  0.133130000000E+02  0.375930000000E+01
 -0.577100000000E+01  0.132750000000E+02  0.388610000000E+01
 -0.817800000000E+01  0.136140000000E+02  0.538800000000E+01
 -0.795600000000E+01  0.135390000000E+02  0.477310000000E+01
 -0.758500000000E+01  0.134600000000E+02  0.423650000000E+01
 -0.707300000000E+01  0.133800000000E+02  0.383390000000E+01
 -0.645000000000E+01  0.133110000000E+02  0.364510000000E+01
 -0.579900000000E+01  0.132630000000E+02  0.372100000000E+01
 -0.759500000000E+01  0.151320000000E+02  0.511880000000E+01
 -0.747700000000E+01  0.150590000000E+02  0.464410000000E+01
 -0.719500000000E+01  0.149810000000E+02  0.424580000000E+01
 -0.680100000000E+01  0.149080000000E+02  0.395460000000E+01
 -0.634400000000E+01  0.148450000000E+02  0.378090000000E+01
 -0.585800000000E+01  0.147970000000E+02  0.373940000000E+01
 -0.774400000000E+01  0.151560000000E+02  0.520240000000E+01
 -0.762600000000E+01  0.150770000000E+02  0.468100000000E+01
 -0.732200000000E+01  0.149920000000E+02  0.424280000000E+01
 -0.689800000000E+01  0.149120000000E+02  0.391810000000E+01
 -0.640600000000E+01  0.148410000000E+02  0.370890000000E+01
 -0.588100000000E+01  0.147840000000E+02  0.362330000000E+01
 -0.789300000000E+01  0.151800000000E+02  0.528590000000E+01
 -0.777600000000E+01  0.150950000000E+02  0.471780000000E+01
 -0.745000000000E+01  0.150030000000E+02  0.423980000000E+01
 -0.699400000000E+01  0.149160000000E+02  0.388170000000E+01
 -0.646700000000E+01  0.148370000000E+02  0.363690000000E+01
 -0.590500000000E+01  0.147700000000E+02  0.350730000000E+01
 -0.804200000000E+01  0.152040000000E+02  0.536940000000E+01
 -0.792600000000E+01  0.151130000000E+02  0.475470000000E+01
 -0.757800000000E+01  0.150140000000E+02  0.423680000000E+01
 -0.709000000000E+01  0.149190000000E+02  0.384520000000E+01
 -0.652900000000E+01  0.148330000000E+02  0.356490000000E+01
 -0.592800000000E+01  0.147570000000E+02  0.339130000000E+01
 -0.819200000000E+01  0.152280000000E+02  0.545290000000E+01
 -0.807600000000E+01  0.151310000000E+02  0.479150000000E+01
 -0.770600000000E+01  0.150250000000E+02  0.423370000000E+01
 -0.718600000000E+01  0.149230000000E+02  0.380870000000E+01
 -0.659100000000E+01  0.148290000000E+02  0.349290000000E+01
 -0.595200000000E+01  0.147440000000E+02  0.327530000000E+01
 -0.753500000000E+01  0.166100000000E+02  0.433210000000E+01
 -0.735600000000E+01  0.165080000000E+02  0.390080000000E+01
 -0.707500000000E+01  0.164040000000E+02  0.351670000000E+01
 -0.669800000000E+01  0.163070000000E+02  0.322300000000E+01
 -0.624600000000E+01  0.162270000000E+02  0.305870000000E+01
 -0.576200000000E+01  0.161710000000E+02  0.304100000000E+01
 -0.778600000000E+01  0.166380000000E+02  0.433470000000E+01
 -0.753100000000E+01  0.165220000000E+02  0.387230000000E+01
 -0.719900000000E+01  0.164040000000E+02  0.344550000000E+01
 -0.677000000000E+01  0.162940000000E+02  0.311420000000E+01
 -0.625500000000E+01  0.162040000000E+02  0.293450000000E+01
 -0.570500000000E+01  0.161430000000E+02  0.292750000000E+01
 -0.803600000000E+01  0.166660000000E+02  0.433730000000E+01
 -0.770600000000E+01  0.165350000000E+02  0.384380000000E+01
 -0.732400000000E+01  0.164040000000E+02  0.337430000000E+01
 -0.684200000000E+01  0.162810000000E+02  0.300530000000E+01
 -0.626300000000E+01  0.161810000000E+02  0.281020000000E+01
 -0.564800000000E+01  0.161150000000E+02  0.281410000000E+01
 -0.828700000000E+01  0.166930000000E+02  0.433990000000E+01
 -0.788000000000E+01  0.165490000000E+02  0.381530000000E+01
 -0.744800000000E+01  0.164030000000E+02  0.330300000000E+01
 -0.691300000000E+01  0.162680000000E+02  0.289640000000E+01
 -0.627200000000E+01  0.161580000000E+02  0.268590000000E+01
 -0.559100000000E+01  0.160870000000E+02  0.270060000000E+01
 -0.853700000000E+01  0.167210000000E+02  0.434250000000E+01
 -0.805500000000E+01  0.165620000000E+02  0.378690000000E+01
 -0.757200000000E+01  0.164030000000E+02  0.323180000000E+01
 -0.698500000000E+01  0.162540000000E+02  0.278750000000E+01
 -0.628100000000E+01  0.161350000000E+02  0.256160000000E+01
 -0.553400000000E+01  0.160590000000E+02  0.258720000000E+01
 -0.755500000000E+01  0.181520000000E+02  0.390460000000E+01
 -0.739500000000E+01  0.180400000000E+02  0.344830000000E+01
 -0.708300000000E+01  0.179260000000E+02  0.307960000000E+01
 -0.668700000000E+01  0.178200000000E+02  0.279790000000E+01
 -0.624300000000E+01  0.177240000000E+02  0.259650000000E+01
 -0.576200000000E+01  0.176460000000E+02  0.250010000000E+01
 -0.779400000000E+01  0.182010000000E+02  0.399860000000E+01
 -0.761600000000E+01  0.180740000000E+02  0.348650000000E+01
 -0.726800000000E+01  0.179470000000E+02  0.307130000000E+01
 -0.682600000000E+01  0.178280000000E+02  0.275400000000E+01
 -0.633000000000E+01  0.177200000000E+02  0.252370000000E+01
 -0.579400000000E+01  0.176290000000E+02  0.240120000000E+01
 -0.803200000000E+01  0.182490000000E+02  0.409250000000E+01
 -0.783600000000E+01  0.181090000000E+02  0.352460000000E+01
 -0.745300000000E+01  0.179680000000E+02  0.306300000000E+01
 -0.696400000000E+01  0.178360000000E+02  0.271010000000E+01
 -0.641600000000E+01  0.177160000000E+02  0.245080000000E+01
 -0.582600000000E+01  0.176130000000E+02  0.230230000000E+01
 -0.827100000000E+01  0.182980000000E+02  0.418650000000E+01
 -0.805700000000E+01  0.181440000000E+02  0.356270000000E+01
 -0.763800000000E+01  0.179890000000E+02  0.305470000000E+01
 -0.710200000000E+01  0.178440000000E+02  0.266610000000E+01
 -0.650300000000E+01  0.177120000000E+02  0.237800000000E+01
 -0.585800000000E+01  0.175970000000E+02  0.220340000000E+01
 -0.850900000000E+01  0.183460000000E+02  0.428040000000E+01
 -0.827700000000E+01  0.181790000000E+02  0.360090000000E+01
 -0.782300000000E+01  0.180100000000E+02  0.304640000000E+01
 -0.724000000000E+01  0.178520000000E+02  0.262220000000E+01
 -0.659000000000E+01  0.177080000000E+02  0.230520000000E+01
 -0.589000000000E+01  0.175810000000E+02  0.210440000000E+01
 -0.721800000000E+01  0.196360000000E+02  0.327560000000E+01
 -0.687800000000E+01  0.195410000000E+02  0.298750000000E+01
 -0.651400000000E+01  0.194470000000E+02  0.272640000000E+01
 -0.612100000000E+01  0.193580000000E+02  0.251550000000E+01
 -0.569200000000E+01  0.192810000000E+02  0.240640000000E+01
 -0.525800000000E+01  0.192350000000E+02  0.247230000000E+01
 -0.735600000000E+01  0.196400000000E+02  0.319060000000E+01
 -0.698600000000E+01  0.195310000000E+02  0.284810000000E+01
 -0.657300000000E+01  0.194250000000E+02  0.255500000000E+01
 -0.611800000000E+01  0.193260000000E+02  0.233690000000E+01
 -0.562400000000E+01  0.192460000000E+02  0.225560000000E+01
 -0.515000000000E+01  0.192060000000E+02  0.239340000000E+01
 -0.749400000000E+01  0.196440000000E+02  0.310560000000E+01
 -0.709500000000E+01  0.195220000000E+02  0.270880000000E+01
 -0.663200000000E+01  0.194030000000E+02  0.238360000000E+01
 -0.611500000000E+01  0.192950000000E+02  0.215820000000E+01
 -0.555700000000E+01  0.192110000000E+02  0.210480000000E+01
 -0.504100000000E+01  0.191780000000E+02  0.231450000000E+01
 -0.763200000000E+01  0.196480000000E+02  0.302070000000E+01
 -0.720300000000E+01  0.195120000000E+02  0.256950000000E+01
 -0.669100000000E+01  0.193810000000E+02  0.221230000000E+01
 -0.611100000000E+01  0.192640000000E+02  0.197960000000E+01
 -0.548900000000E+01  0.191760000000E+02  0.195400000000E+01
 -0.493200000000E+01  0.191500000000E+02  0.223560000000E+01
 -0.777000000000E+01  0.196510000000E+02  0.293570000000E+01
 -0.731100000000E+01  0.195020000000E+02  0.243020000000E+01
 -0.675000000000E+01  0.193600000000E+02  0.204090000000E+01
 -0.610800000000E+01  0.192320000000E+02  0.180100000000E+01
 -0.542100000000E+01  0.191410000000E+02  0.180320000000E+01
 -0.482300000000E+01  0.191220000000E+02  0.215670000000E+01
 -0.690200000000E+01  0.212680000000E+02  0.344270000000E+01
 -0.684300000000E+01  0.212100000000E+02  0.305770000000E+01
 -0.662900000000E+01  0.211360000000E+02  0.273250000000E+01
 -0.631900000000E+01  0.210590000000E+02  0.249550000000E+01
 -0.595200000000E+01  0.209890000000E+02  0.237540000000E+01
 -0.558500000000E+01  0.209370000000E+02  0.240010000000E+01
 -0.713900000000E+01  0.213220000000E+02  0.358450000000E+01
 -0.711200000000E+01  0.212600000000E+02  0.314020000000E+01
 -0.689400000000E+01  0.211780000000E+02  0.275310000000E+01
 -0.655400000000E+01  0.210900000000E+02  0.246320000000E+01
 -0.615000000000E+01  0.210070000000E+02  0.228670000000E+01
 -0.573900000000E+01  0.209380000000E+02  0.222900000000E+01
 -0.737600000000E+01  0.213750000000E+02  0.372640000000E+01
 -0.738200000000E+01  0.213110000000E+02  0.322280000000E+01
 -0.715800000000E+01  0.212200000000E+02  0.277360000000E+01
 -0.678900000000E+01  0.211210000000E+02  0.243090000000E+01
 -0.634800000000E+01  0.210250000000E+02  0.219810000000E+01
 -0.589300000000E+01  0.209390000000E+02  0.205790000000E+01
 -0.761400000000E+01  0.214290000000E+02  0.386820000000E+01
 -0.765100000000E+01  0.213620000000E+02  0.330540000000E+01
 -0.742300000000E+01  0.212620000000E+02  0.279420000000E+01
 -0.702500000000E+01  0.211520000000E+02  0.239860000000E+01
 -0.654600000000E+01  0.210430000000E+02  0.210940000000E+01
 -0.604800000000E+01  0.209400000000E+02  0.188670000000E+01
 -0.785100000000E+01  0.214830000000E+02  0.401010000000E+01
 -0.792100000000E+01  0.214130000000E+02  0.338790000000E+01
 -0.768700000000E+01  0.213040000000E+02  0.281480000000E+01
 -0.726000000000E+01  0.211830000000E+02  0.236630000000E+01
 -0.674400000000E+01  0.210610000000E+02  0.202070000000E+01
 -0.620200000000E+01  0.209410000000E+02  0.171560000000E+01
 -0.725400000000E+01  0.229080000000E+02  0.313410000000E+01
 -0.721000000000E+01  0.228530000000E+02  0.268620000000E+01
 -0.698700000000E+01  0.227740000000E+02  0.228870000000E+01
 -0.660500000000E+01  0.226850000000E+02  0.203170000000E+01
 -0.616000000000E+01  0.226010000000E+02  0.190340000000E+01
 -0.571800000000E+01  0.225200000000E+02  0.180140000000E+01
 -0.741800000000E+01  0.229240000000E+02  0.304080000000E+01
 -0.730200000000E+01  0.228540000000E+02  0.256560000000E+01
 -0.702000000000E+01  0.227640000000E+02  0.215250000000E+01
 -0.659100000000E+01  0.226670000000E+02  0.188290000000E+01
 -0.609800000000E+01  0.225750000000E+02  0.175810000000E+01
 -0.560500000000E+01  0.224920000000E+02  0.170510000000E+01
 -0.758300000000E+01  0.229400000000E+02  0.294760000000E+01
 -0.739300000000E+01  0.228550000000E+02  0.244500000000E+01
 -0.705400000000E+01  0.227550000000E+02  0.201640000000E+01
 -0.657800000000E+01  0.226490000000E+02  0.173400000000E+01
 -0.603600000000E+01  0.225500000000E+02  0.161290000000E+01
 -0.549200000000E+01  0.224630000000E+02  0.160880000000E+01
 -0.774700000000E+01  0.229560000000E+02  0.285430000000E+01
 -0.748500000000E+01  0.228570000000E+02  0.232440000000E+01
 -0.708700000000E+01  0.227450000000E+02  0.188020000000E+01
 -0.656500000000E+01  0.226300000000E+02  0.158520000000E+01
 -0.597500000000E+01  0.225240000000E+02  0.146760000000E+01
 -0.538000000000E+01  0.224350000000E+02  0.151240000000E+01
 -0.791200000000E+01  0.229720000000E+02  0.276100000000E+01
 -0.757700000000E+01  0.228580000000E+02  0.220390000000E+01
 -0.712000000000E+01  0.227360000000E+02  0.174400000000E+01
 -0.655100000000E+01  0.226120000000E+02  0.143640000000E+01
 -0.591300000000E+01  0.224980000000E+02  0.132230000000E+01
 -0.526700000000E+01  0.224060000000E+02  0.141610000000E+01
 -0.738200000000E+01  0.245150000000E+02  0.242210000000E+01
 -0.710700000000E+01  0.244260000000E+02  0.201360000000E+01
 -0.671700000000E+01  0.243280000000E+02  0.172000000000E+01
 -0.626000000000E+01  0.242290000000E+02  0.154850000000E+01
 -0.577000000000E+01  0.241350000000E+02  0.150110000000E+01
 -0.528100000000E+01  0.240530000000E+02  0.157250000000E+01
 -0.748800000000E+01  0.245350000000E+02  0.243300000000E+01
 -0.720300000000E+01  0.244410000000E+02  0.197810000000E+01
 -0.679900000000E+01  0.243350000000E+02  0.163440000000E+01
 -0.631300000000E+01  0.242260000000E+02  0.142070000000E+01
 -0.578200000000E+01  0.241240000000E+02  0.135580000000E+01
 -0.525000000000E+01  0.240360000000E+02  0.144500000000E+01
 -0.759400000000E+01  0.245560000000E+02  0.244390000000E+01
 -0.729900000000E+01  0.244550000000E+02  0.194270000000E+01
 -0.688000000000E+01  0.243410000000E+02  0.154870000000E+01
 -0.636500000000E+01  0.242240000000E+02  0.129290000000E+01
 -0.579300000000E+01  0.241120000000E+02  0.121060000000E+01
 -0.522000000000E+01  0.240180000000E+02  0.131750000000E+01
 -0.770100000000E+01  0.245760000000E+02  0.245480000000E+01
 -0.739600000000E+01  0.244690000000E+02  0.190730000000E+01
 -0.696100000000E+01  0.243480000000E+02  0.146310000000E+01
 -0.641800000000E+01  0.242210000000E+02  0.116510000000E+01
 -0.580400000000E+01  0.241000000000E+02  0.106540000000E+01
 -0.518900000000E+01  0.240000000000E+02  0.119000000000E+01
 -0.780700000000E+01  0.245960000000E+02  0.246570000000E+01
 -0.749200000000E+01  0.244830000000E+02  0.187190000000E+01
 -0.704300000000E+01  0.243550000000E+02  0.137750000000E+01
 -0.647000000000E+01  0.242190000000E+02  0.103730000000E+01
 -0.581500000000E+01  0.240880000000E+02  0.920140000000E+00
 -0.515800000000E+01  0.239830000000E+02  0.106260000000E+01
 -0.709100000000E+01  0.261960000000E+02  0.259580000000E+01
 -0.693800000000E+01  0.261270000000E+02  0.212840000000E+01
 -0.666600000000E+01  0.260360000000E+02  0.172260000000E+01
 -0.628600000000E+01  0.259280000000E+02  0.142490000000E+01
 -0.582400000000E+01  0.258130000000E+02  0.129340000000E+01
 -0.534500000000E+01  0.257090000000E+02  0.136510000000E+01
 -0.722900000000E+01  0.262220000000E+02  0.252250000000E+01
 -0.704400000000E+01  0.261430000000E+02  0.201790000000E+01
 -0.673700000000E+01  0.260420000000E+02  0.158200000000E+01
 -0.630900000000E+01  0.259220000000E+02  0.127500000000E+01
 -0.579800000000E+01  0.257960000000E+02  0.114870000000E+01
 -0.527200000000E+01  0.256800000000E+02  0.120620000000E+01
 -0.736700000000E+01  0.262480000000E+02  0.244920000000E+01
 -0.715100000000E+01  0.261600000000E+02  0.190740000000E+01
 -0.680800000000E+01  0.260480000000E+02  0.144130000000E+01
 -0.633100000000E+01  0.259160000000E+02  0.112500000000E+01
 -0.577200000000E+01  0.257800000000E+02  0.100410000000E+01
 -0.519800000000E+01  0.256520000000E+02  0.104720000000E+01
 -0.750500000000E+01  0.262740000000E+02  0.237580000000E+01
 -0.725700000000E+01  0.261760000000E+02  0.179690000000E+01
 -0.687800000000E+01  0.260530000000E+02  0.130070000000E+01
 -0.635300000000E+01  0.259100000000E+02  0.975040000000E+00
 -0.574600000000E+01  0.257630000000E+02  0.859490000000E+00
 -0.512500000000E+01  0.256240000000E+02  0.888320000000E+00
 -0.764200000000E+01  0.263000000000E+02  0.230250000000E+01
 -0.736400000000E+01  0.261920000000E+02  0.168640000000E+01
 -0.694900000000E+01  0.260590000000E+02  0.116010000000E+01
 -0.637500000000E+01  0.259040000000E+02  0.825080000000E+00
 -0.571900000000E+01  0.257470000000E+02  0.714860000000E+00
 -0.505100000000E+01  0.255950000000E+02  0.729390000000E+00
 -0.682500000000E+01  0.277580000000E+02  0.199330000000E+01
 -0.656600000000E+01  0.276660000000E+02  0.153860000000E+01
 -0.618500000000E+01  0.275500000000E+02  0.119470000000E+01
 -0.570300000000E+01  0.274220000000E+02  0.104880000000E+01
 -0.519400000000E+01  0.272990000000E+02  0.107140000000E+01
 -0.467900000000E+01  0.271760000000E+02  0.112460000000E+01
 -0.693700000000E+01  0.277890000000E+02  0.204280000000E+01
 -0.667300000000E+01  0.276930000000E+02  0.154680000000E+01
 -0.628600000000E+01  0.275730000000E+02  0.115340000000E+01
 -0.579100000000E+01  0.274370000000E+02  0.943420000000E+00
 -0.524800000000E+01  0.273030000000E+02  0.919740000000E+00
 -0.469900000000E+01  0.271720000000E+02  0.994030000000E+00
 -0.705000000000E+01  0.278200000000E+02  0.209240000000E+01
 -0.678000000000E+01  0.277190000000E+02  0.155500000000E+01
 -0.638800000000E+01  0.275950000000E+02  0.111210000000E+01
 -0.588000000000E+01  0.274530000000E+02  0.838060000000E+00
 -0.530300000000E+01  0.273060000000E+02  0.768110000000E+00
 -0.471800000000E+01  0.271690000000E+02  0.863510000000E+00
 -0.716200000000E+01  0.278510000000E+02  0.214190000000E+01
 -0.688600000000E+01  0.277460000000E+02  0.156330000000E+01
 -0.648900000000E+01  0.276170000000E+02  0.107080000000E+01
 -0.596800000000E+01  0.274680000000E+02  0.732700000000E+00
 -0.535800000000E+01  0.273100000000E+02  0.616470000000E+00
 -0.473800000000E+01  0.271650000000E+02  0.732990000000E+00
 -0.727400000000E+01  0.278810000000E+02  0.219140000000E+01
 -0.699300000000E+01  0.277730000000E+02  0.157150000000E+01
 -0.659000000000E+01  0.276390000000E+02  0.102950000000E+01
 -0.605600000000E+01  0.274830000000E+02  0.627330000000E+00
 -0.541300000000E+01  0.273140000000E+02  0.464840000000E+00
 -0.475700000000E+01  0.271620000000E+02  0.602480000000E+00
 -0.642200000000E+01  0.292850000000E+02  0.180240000000E+01
 -0.613100000000E+01  0.291870000000E+02  0.136020000000E+01
 -0.572400000000E+01  0.290670000000E+02  0.102990000000E+01
 -0.524200000000E+01  0.289350000000E+02  0.833330000000E+00
 -0.472300000000E+01  0.288040000000E+02  0.807510000000E+00
 -0.423300000000E+01  0.286930000000E+02  0.994070000000E+00
 -0.651300000000E+01  0.293050000000E+02  0.175150000000E+01
 -0.620100000000E+01  0.292000000000E+02  0.127750000000E+01
 -0.576000000000E+01  0.290700000000E+02  0.931590000000E+00
 -0.523900000000E+01  0.289290000000E+02  0.732180000000E+00
 -0.468200000000E+01  0.287890000000E+02  0.718040000000E+00
 -0.416400000000E+01  0.286720000000E+02  0.935700000000E+00
 -0.660400000000E+01  0.293250000000E+02  0.170050000000E+01
 -0.627200000000E+01  0.292130000000E+02  0.119470000000E+01
 -0.579500000000E+01  0.290730000000E+02  0.833290000000E+00
 -0.523600000000E+01  0.289220000000E+02  0.631030000000E+00
 -0.464100000000E+01  0.287740000000E+02  0.628570000000E+00
 -0.409400000000E+01  0.286510000000E+02  0.877340000000E+00
 -0.669500000000E+01  0.293440000000E+02  0.164960000000E+01
 -0.634200000000E+01  0.292260000000E+02  0.111200000000E+01
 -0.583100000000E+01  0.290770000000E+02  0.734990000000E+00
 -0.523200000000E+01  0.289150000000E+02  0.529880000000E+00
 -0.460000000000E+01  0.287580000000E+02  0.539100000000E+00
 -0.402500000000E+01  0.286310000000E+02  0.818980000000E+00
 -0.678600000000E+01  0.293640000000E+02  0.159860000000E+01
 -0.641300000000E+01  0.292390000000E+02  0.102920000000E+01
 -0.586600000000E+01  0.290800000000E+02  0.636690000000E+00
 -0.522900000000E+01  0.289090000000E+02  0.428730000000E+00
 -0.455900000000E+01  0.287430000000E+02  0.449630000000E+00
 -0.395600000000E+01  0.286100000000E+02  0.760610000000E+00
 -0.592400000000E+01  0.308340000000E+02  0.222310000000E+01
 -0.570400000000E+01  0.307560000000E+02  0.176110000000E+01
 -0.541800000000E+01  0.306640000000E+02  0.134110000000E+01
 -0.501500000000E+01  0.305470000000E+02  0.104500000000E+01
 -0.453000000000E+01  0.304170000000E+02  0.946240000000E+00
 -0.403700000000E+01  0.302940000000E+02  0.102700000000E+01
 -0.600700000000E+01  0.308530000000E+02  0.217540000000E+01
 -0.577700000000E+01  0.307710000000E+02  0.168010000000E+01
 -0.547000000000E+01  0.306720000000E+02  0.123370000000E+01
 -0.502900000000E+01  0.305450000000E+02  0.935410000000E+00
 -0.450700000000E+01  0.304070000000E+02  0.859220000000E+00
 -0.398500000000E+01  0.302780000000E+02  0.966210000000E+00
 -0.608900000000E+01  0.308720000000E+02  0.212780000000E+01
 -0.584900000000E+01  0.307860000000E+02  0.159920000000E+01
 -0.552100000000E+01  0.306810000000E+02  0.112640000000E+01
 -0.504300000000E+01  0.305440000000E+02  0.825850000000E+00
 -0.448500000000E+01  0.303980000000E+02  0.772200000000E+00
 -0.393300000000E+01  0.302620000000E+02  0.905420000000E+00
 -0.617200000000E+01  0.308910000000E+02  0.208010000000E+01
 -0.592200000000E+01  0.308010000000E+02  0.151830000000E+01
 -0.557300000000E+01  0.306890000000E+02  0.101900000000E+01
 -0.505700000000E+01  0.305430000000E+02  0.716280000000E+00
 -0.446200000000E+01  0.303880000000E+02  0.685180000000E+00
 -0.388100000000E+01  0.302460000000E+02  0.844640000000E+00
 -0.625500000000E+01  0.309100000000E+02  0.203240000000E+01
 -0.599500000000E+01  0.308170000000E+02  0.143740000000E+01
 -0.562500000000E+01  0.306980000000E+02  0.911640000000E+00
 -0.507100000000E+01  0.305410000000E+02  0.606710000000E+00
 -0.443900000000E+01  0.303780000000E+02  0.598160000000E+00
 -0.382900000000E+01  0.302290000000E+02  0.783860000000E+00
 -0.556000000000E+01  0.323660000000E+02  0.226620000000E+01
 -0.532500000000E+01  0.322860000000E+02  0.183680000000E+01
 -0.501700000000E+01  0.321900000000E+02  0.146310000000E+01
 -0.461000000000E+01  0.320740000000E+02  0.121290000000E+01
 -0.413500000000E+01  0.319500000000E+02  0.117190000000E+01
 -0.368400000000E+01  0.318410000000E+02  0.134170000000E+01
 -0.563500000000E+01  0.323820000000E+02  0.219070000000E+01
 -0.537400000000E+01  0.322950000000E+02  0.173600000000E+01
 -0.502800000000E+01  0.321880000000E+02  0.135130000000E+01
 -0.458100000000E+01  0.320620000000E+02  0.110090000000E+01
 -0.407000000000E+01  0.319280000000E+02  0.105940000000E+01
 -0.358300000000E+01  0.318100000000E+02  0.123030000000E+01
 -0.571100000000E+01  0.323980000000E+02  0.211520000000E+01
 -0.542400000000E+01  0.323030000000E+02  0.163520000000E+01
 -0.503800000000E+01  0.321860000000E+02  0.123960000000E+01
 -0.455200000000E+01  0.320490000000E+02  0.988990000000E+00
 -0.400600000000E+01  0.319070000000E+02  0.946850000000E+00
 -0.348200000000E+01  0.317790000000E+02  0.111890000000E+01
 -0.578700000000E+01  0.324150000000E+02  0.203970000000E+01
 -0.547300000000E+01  0.323110000000E+02  0.153440000000E+01
 -0.504900000000E+01  0.321830000000E+02  0.112780000000E+01
 -0.452300000000E+01  0.320370000000E+02  0.877060000000E+00
 -0.394200000000E+01  0.318850000000E+02  0.834340000000E+00
 -0.338100000000E+01  0.317480000000E+02  0.100750000000E+01
 -0.586300000000E+01  0.324310000000E+02  0.196410000000E+01
 -0.552300000000E+01  0.323190000000E+02  0.143360000000E+01
 -0.505900000000E+01  0.321810000000E+02  0.101600000000E+01
 -0.449300000000E+01  0.320240000000E+02  0.765130000000E+00
 -0.387700000000E+01  0.318630000000E+02  0.721830000000E+00
 -0.328000000000E+01  0.317170000000E+02  0.896150000000E+00
 -0.399600000000E-01  0.119810000000E+01 -0.664990000000E-01
  0.207700000000E+00  0.134120000000E+01  0.510930000000E+00
  0.406100000000E+00  0.130850000000E+01  0.112450000000E+01
  0.559400000000E+00  0.115220000000E+01  0.173270000000E+01
  0.674000000000E+00  0.912280000000E+00  0.231360000000E+01
 -0.116100000000E-01  0.130160000000E+01 -0.897180000000E-01
  0.253200000000E+00  0.146090000000E+01  0.521310000000E+00
  0.467200000000E+00  0.143580000000E+01  0.117260000000E+01
  0.627900000000E+00  0.126500000000E+01  0.181750000000E+01
  0.726700000000E+00  0.964370000000E+00  0.241440000000E+01
  0.167400000000E-01  0.140510000000E+01 -0.112940000000E+00
  0.298700000000E+00  0.158050000000E+01  0.531690000000E+00
  0.528300000000E+00  0.156300000000E+01  0.122070000000E+01
  0.696500000000E+00  0.137780000000E+01  0.190240000000E+01
  0.779500000000E+00  0.101650000000E+01  0.251530000000E+01
  0.450900000000E-01  0.150860000000E+01 -0.136160000000E+00
  0.344200000000E+00  0.170010000000E+01  0.542070000000E+00
  0.589400000000E+00  0.169030000000E+01  0.126880000000E+01
  0.765100000000E+00  0.149060000000E+01  0.198720000000E+01
  0.832200000000E+00  0.106860000000E+01  0.261610000000E+01
  0.734400000000E-01  0.161210000000E+01 -0.159380000000E+00
  0.389700000000E+00  0.181970000000E+01  0.552450000000E+00
  0.650400000000E+00  0.181750000000E+01  0.131690000000E+01
  0.833700000000E+00  0.160340000000E+01  0.207210000000E+01
  0.885000000000E+00  0.112070000000E+01  0.271700000000E+01
 -0.122600000000E+01  0.172740000000E+01  0.627610000000E+00
 -0.950800000000E+00  0.179230000000E+01  0.116560000000E+01
 -0.745200000000E+00  0.168760000000E+01  0.172870000000E+01
 -0.635000000000E+00  0.141280000000E+01  0.226100000000E+01
 -0.647000000000E+00  0.980120000000E+00  0.269090000000E+01
 -0.117400000000E+01  0.184940000000E+01  0.613580000000E+00
 -0.888200000000E+00  0.189310000000E+01  0.119710000000E+01
 -0.677700000000E+00  0.176020000000E+01  0.180050000000E+01
 -0.565000000000E+00  0.145700000000E+01  0.236850000000E+01
 -0.585200000000E+00  0.985290000000E+00  0.282160000000E+01
 -0.112200000000E+01  0.197150000000E+01  0.599540000000E+00
 -0.825600000000E+00  0.199390000000E+01  0.122860000000E+01
 -0.610300000000E+00  0.183280000000E+01  0.187240000000E+01
 -0.495000000000E+00  0.150120000000E+01  0.247590000000E+01
 -0.523300000000E+00  0.990460000000E+00  0.295230000000E+01
 -0.107000000000E+01  0.209350000000E+01  0.585510000000E+00
 -0.763000000000E+00  0.209460000000E+01  0.126010000000E+01
 -0.542800000000E+00  0.190540000000E+01  0.194420000000E+01
 -0.424900000000E+00  0.154540000000E+01  0.258340000000E+01
 -0.461500000000E+00  0.995630000000E+00  0.308300000000E+01
 -0.101800000000E+01  0.221550000000E+01  0.571470000000E+00
 -0.700400000000E+00  0.219540000000E+01  0.129160000000E+01
 -0.475300000000E+00  0.197800000000E+01  0.201610000000E+01
 -0.354900000000E+00  0.158960000000E+01  0.269090000000E+01
 -0.399600000000E+00  0.100080000000E+01  0.321360000000E+01
 -0.276800000000E+01  0.214930000000E+01  0.774380000000E+00
 -0.238900000000E+01  0.233840000000E+01  0.122590000000E+01
 -0.206900000000E+01  0.236180000000E+01  0.175580000000E+01
 -0.186200000000E+01  0.218530000000E+01  0.231100000000E+01
 -0.175400000000E+01  0.187480000000E+01  0.284300000000E+01
 -0.278500000000E+01  0.227520000000E+01  0.604980000000E+00
 -0.237400000000E+01  0.251410000000E+01  0.105630000000E+01
 -0.201900000000E+01  0.257770000000E+01  0.160450000000E+01
 -0.177400000000E+01  0.243100000000E+01  0.219310000000E+01
 -0.166800000000E+01  0.209100000000E+01  0.275330000000E+01
 -0.280300000000E+01  0.240110000000E+01  0.435580000000E+00
 -0.236000000000E+01  0.268990000000E+01  0.886610000000E+00
 -0.196900000000E+01  0.279370000000E+01  0.145330000000E+01
 -0.168600000000E+01  0.267670000000E+01  0.207520000000E+01
 -0.158200000000E+01  0.230730000000E+01  0.266360000000E+01
 -0.282000000000E+01  0.252700000000E+01  0.266180000000E+00
 -0.234600000000E+01  0.286560000000E+01  0.716940000000E+00
 -0.191800000000E+01  0.300960000000E+01  0.130210000000E+01
 -0.159700000000E+01  0.292250000000E+01  0.195730000000E+01
 -0.149700000000E+01  0.252350000000E+01  0.257390000000E+01
 -0.283700000000E+01  0.265280000000E+01  0.967750000000E-01
 -0.233200000000E+01  0.304140000000E+01  0.547270000000E+00
 -0.186800000000E+01  0.322560000000E+01  0.115080000000E+01
 -0.150900000000E+01  0.316820000000E+01  0.183930000000E+01
 -0.141100000000E+01  0.273970000000E+01  0.248420000000E+01
 -0.363200000000E+01  0.298760000000E+01  0.161240000000E+01
 -0.322500000000E+01  0.304160000000E+01  0.207260000000E+01
 -0.288300000000E+01  0.298360000000E+01  0.258590000000E+01
 -0.266000000000E+01  0.277870000000E+01  0.312740000000E+01
 -0.259400000000E+01  0.243070000000E+01  0.364090000000E+01
 -0.360300000000E+01  0.319210000000E+01  0.139870000000E+01
 -0.314600000000E+01  0.329230000000E+01  0.186550000000E+01
 -0.275800000000E+01  0.326210000000E+01  0.240420000000E+01
 -0.250000000000E+01  0.306260000000E+01  0.298470000000E+01
 -0.242700000000E+01  0.269050000000E+01  0.353750000000E+01
 -0.357300000000E+01  0.339670000000E+01  0.118490000000E+01
 -0.306800000000E+01  0.354290000000E+01  0.165850000000E+01
 -0.263400000000E+01  0.354060000000E+01  0.222240000000E+01
 -0.233900000000E+01  0.334650000000E+01  0.284200000000E+01
 -0.225900000000E+01  0.295020000000E+01  0.343410000000E+01
 -0.354300000000E+01  0.360130000000E+01  0.971170000000E+00
 -0.298900000000E+01  0.379360000000E+01  0.145140000000E+01
 -0.250900000000E+01  0.381910000000E+01  0.204070000000E+01
 -0.217900000000E+01  0.363040000000E+01  0.269930000000E+01
 -0.209200000000E+01  0.321000000000E+01  0.333070000000E+01
 -0.351400000000E+01  0.380590000000E+01  0.757410000000E+00
 -0.291000000000E+01  0.404430000000E+01  0.124440000000E+01
 -0.238400000000E+01  0.409770000000E+01  0.185900000000E+01
 -0.201900000000E+01  0.391430000000E+01  0.255650000000E+01
 -0.192400000000E+01  0.346980000000E+01  0.322730000000E+01
 -0.429400000000E+01  0.398710000000E+01  0.219530000000E+01
 -0.381100000000E+01  0.403400000000E+01  0.254810000000E+01
 -0.350900000000E+01  0.389030000000E+01  0.304060000000E+01
 -0.339800000000E+01  0.362160000000E+01  0.356150000000E+01
 -0.316400000000E+01  0.342580000000E+01  0.407640000000E+01
 -0.426800000000E+01  0.413130000000E+01  0.199130000000E+01
 -0.374500000000E+01  0.418500000000E+01  0.236840000000E+01
 -0.339700000000E+01  0.404840000000E+01  0.289050000000E+01
 -0.323500000000E+01  0.378330000000E+01  0.345090000000E+01
 -0.301200000000E+01  0.355330000000E+01  0.401030000000E+01
 -0.424200000000E+01  0.427540000000E+01  0.178740000000E+01
 -0.367900000000E+01  0.433600000000E+01  0.218860000000E+01
 -0.328500000000E+01  0.420640000000E+01  0.274040000000E+01
 -0.307200000000E+01  0.394500000000E+01  0.334030000000E+01
 -0.285900000000E+01  0.368080000000E+01  0.394410000000E+01
 -0.421500000000E+01  0.441960000000E+01  0.158350000000E+01
 -0.361300000000E+01  0.448710000000E+01  0.200890000000E+01
 -0.317300000000E+01  0.436440000000E+01  0.259030000000E+01
 -0.290900000000E+01  0.410660000000E+01  0.322970000000E+01
 -0.270700000000E+01  0.380830000000E+01  0.387790000000E+01
 -0.418900000000E+01  0.456370000000E+01  0.137950000000E+01
 -0.354700000000E+01  0.463810000000E+01  0.182920000000E+01
 -0.306200000000E+01  0.452250000000E+01  0.244010000000E+01
 -0.274600000000E+01  0.426830000000E+01  0.311910000000E+01
 -0.255500000000E+01  0.393580000000E+01  0.381180000000E+01
 -0.433300000000E+01  0.526260000000E+01  0.292980000000E+01
 -0.390200000000E+01  0.520940000000E+01  0.336490000000E+01
 -0.358400000000E+01  0.507550000000E+01  0.387390000000E+01
 -0.344400000000E+01  0.485140000000E+01  0.442780000000E+01
 -0.351900000000E+01  0.455580000000E+01  0.496070000000E+01
 -0.431400000000E+01  0.535180000000E+01  0.276650000000E+01
 -0.384600000000E+01  0.530320000000E+01  0.322030000000E+01
 -0.350600000000E+01  0.516190000000E+01  0.376090000000E+01
 -0.335600000000E+01  0.492390000000E+01  0.435030000000E+01
 -0.341900000000E+01  0.461350000000E+01  0.492160000000E+01
 -0.429500000000E+01  0.544100000000E+01  0.260310000000E+01
 -0.379000000000E+01  0.539710000000E+01  0.307560000000E+01
 -0.342800000000E+01  0.524830000000E+01  0.364780000000E+01
 -0.326800000000E+01  0.499650000000E+01  0.427280000000E+01
 -0.331900000000E+01  0.467130000000E+01  0.488250000000E+01
 -0.427600000000E+01  0.553010000000E+01  0.243970000000E+01
 -0.373400000000E+01  0.549090000000E+01  0.293100000000E+01
 -0.335000000000E+01  0.533480000000E+01  0.353480000000E+01
 -0.318000000000E+01  0.506900000000E+01  0.419530000000E+01
 -0.321900000000E+01  0.472900000000E+01  0.484340000000E+01
 -0.425700000000E+01  0.561930000000E+01  0.227640000000E+01
 -0.367800000000E+01  0.558480000000E+01  0.278640000000E+01
 -0.327200000000E+01  0.542120000000E+01  0.342170000000E+01
 -0.309100000000E+01  0.514160000000E+01  0.411780000000E+01
 -0.311900000000E+01  0.478670000000E+01  0.480430000000E+01
 -0.502200000000E+01  0.649780000000E+01  0.347120000000E+01
 -0.457500000000E+01  0.648810000000E+01  0.383650000000E+01
 -0.423300000000E+01  0.640320000000E+01  0.429340000000E+01
 -0.404200000000E+01  0.624110000000E+01  0.481150000000E+01
 -0.405600000000E+01  0.600670000000E+01  0.533670000000E+01
 -0.496500000000E+01  0.655900000000E+01  0.337510000000E+01
 -0.448600000000E+01  0.655440000000E+01  0.375350000000E+01
 -0.413300000000E+01  0.645970000000E+01  0.424160000000E+01
 -0.394200000000E+01  0.628270000000E+01  0.479290000000E+01
 -0.393300000000E+01  0.604160000000E+01  0.535160000000E+01
 -0.490800000000E+01  0.662020000000E+01  0.327900000000E+01
 -0.439700000000E+01  0.662060000000E+01  0.367050000000E+01
 -0.403200000000E+01  0.651620000000E+01  0.418980000000E+01
 -0.384300000000E+01  0.632430000000E+01  0.477430000000E+01
 -0.380900000000E+01  0.607650000000E+01  0.536650000000E+01
 -0.485100000000E+01  0.668140000000E+01  0.318300000000E+01
 -0.430800000000E+01  0.668680000000E+01  0.358750000000E+01
 -0.393200000000E+01  0.657270000000E+01  0.413800000000E+01
 -0.374300000000E+01  0.636590000000E+01  0.475560000000E+01
 -0.368600000000E+01  0.611130000000E+01  0.538150000000E+01
 -0.479400000000E+01  0.674260000000E+01  0.308690000000E+01
 -0.421900000000E+01  0.675300000000E+01  0.350450000000E+01
 -0.383100000000E+01  0.662920000000E+01  0.408620000000E+01
 -0.364400000000E+01  0.640740000000E+01  0.473700000000E+01
 -0.356300000000E+01  0.614620000000E+01  0.539640000000E+01
 -0.554500000000E+01  0.774770000000E+01  0.386450000000E+01
 -0.511300000000E+01  0.773520000000E+01  0.424010000000E+01
 -0.478300000000E+01  0.767100000000E+01  0.470630000000E+01
 -0.452600000000E+01  0.757720000000E+01  0.521240000000E+01
 -0.436300000000E+01  0.745250000000E+01  0.574820000000E+01
 -0.547000000000E+01  0.779000000000E+01  0.378400000000E+01
 -0.500800000000E+01  0.777950000000E+01  0.417540000000E+01
 -0.465600000000E+01  0.771330000000E+01  0.466530000000E+01
 -0.439400000000E+01  0.761110000000E+01  0.520330000000E+01
 -0.424200000000E+01  0.747330000000E+01  0.577310000000E+01
 -0.539400000000E+01  0.783230000000E+01  0.370360000000E+01
 -0.490400000000E+01  0.782390000000E+01  0.411070000000E+01
 -0.453000000000E+01  0.775560000000E+01  0.462440000000E+01
 -0.426200000000E+01  0.764510000000E+01  0.519420000000E+01
 -0.412200000000E+01  0.749410000000E+01  0.579800000000E+01
 -0.531900000000E+01  0.787460000000E+01  0.362310000000E+01
 -0.480000000000E+01  0.786830000000E+01  0.404600000000E+01
 -0.440300000000E+01  0.779790000000E+01  0.458350000000E+01
 -0.413000000000E+01  0.767910000000E+01  0.518510000000E+01
 -0.400200000000E+01  0.751480000000E+01  0.582290000000E+01
 -0.524400000000E+01  0.791690000000E+01  0.354270000000E+01
 -0.469500000000E+01  0.791270000000E+01  0.398130000000E+01
 -0.427700000000E+01  0.784030000000E+01  0.454260000000E+01
 -0.399800000000E+01  0.771300000000E+01  0.517600000000E+01
 -0.388200000000E+01  0.753560000000E+01  0.584780000000E+01
 -0.572800000000E+01  0.911730000000E+01  0.418560000000E+01
 -0.526200000000E+01  0.912130000000E+01  0.453560000000E+01
 -0.490700000000E+01  0.908550000000E+01  0.499690000000E+01
 -0.467300000000E+01  0.901690000000E+01  0.552760000000E+01
 -0.457400000000E+01  0.891980000000E+01  0.609540000000E+01
 -0.562600000000E+01  0.914560000000E+01  0.412340000000E+01
 -0.512500000000E+01  0.915240000000E+01  0.448690000000E+01
 -0.473600000000E+01  0.911830000000E+01  0.496700000000E+01
 -0.447900000000E+01  0.904790000000E+01  0.552590000000E+01
 -0.438000000000E+01  0.894360000000E+01  0.612940000000E+01
 -0.552500000000E+01  0.917400000000E+01  0.406120000000E+01
 -0.498900000000E+01  0.918350000000E+01  0.443820000000E+01
 -0.456600000000E+01  0.915110000000E+01  0.493710000000E+01
 -0.428400000000E+01  0.907890000000E+01  0.552410000000E+01
 -0.418700000000E+01  0.896730000000E+01  0.616330000000E+01
 -0.542400000000E+01  0.920230000000E+01  0.399900000000E+01
 -0.485300000000E+01  0.921460000000E+01  0.438950000000E+01
 -0.439600000000E+01  0.918390000000E+01  0.490720000000E+01
 -0.408900000000E+01  0.911000000000E+01  0.552230000000E+01
 -0.399300000000E+01  0.899110000000E+01  0.619730000000E+01
 -0.532200000000E+01  0.923060000000E+01  0.393680000000E+01
 -0.471700000000E+01  0.924580000000E+01  0.434080000000E+01
 -0.422500000000E+01  0.921670000000E+01  0.487720000000E+01
 -0.389500000000E+01  0.914100000000E+01  0.552050000000E+01
 -0.380000000000E+01  0.901480000000E+01  0.623120000000E+01
 -0.578400000000E+01  0.104190000000E+02  0.460010000000E+01
 -0.532300000000E+01  0.104150000000E+02  0.493260000000E+01
 -0.493400000000E+01  0.104030000000E+02  0.534610000000E+01
 -0.469100000000E+01  0.103790000000E+02  0.585700000000E+01
 -0.464400000000E+01  0.103440000000E+02  0.642120000000E+01
 -0.570600000000E+01  0.104310000000E+02  0.446780000000E+01
 -0.520700000000E+01  0.104270000000E+02  0.481550000000E+01
 -0.479000000000E+01  0.104140000000E+02  0.525910000000E+01
 -0.452300000000E+01  0.103880000000E+02  0.580390000000E+01
 -0.446500000000E+01  0.103520000000E+02  0.640800000000E+01
 -0.562900000000E+01  0.104420000000E+02  0.433550000000E+01
 -0.509100000000E+01  0.104390000000E+02  0.469850000000E+01
 -0.464600000000E+01  0.104240000000E+02  0.517200000000E+01
 -0.435600000000E+01  0.103980000000E+02  0.575080000000E+01
 -0.428500000000E+01  0.103590000000E+02  0.639470000000E+01
 -0.555200000000E+01  0.104540000000E+02  0.420330000000E+01
 -0.497400000000E+01  0.104500000000E+02  0.458140000000E+01
 -0.450200000000E+01  0.104350000000E+02  0.508490000000E+01
 -0.418800000000E+01  0.104070000000E+02  0.569780000000E+01
 -0.410500000000E+01  0.103660000000E+02  0.638140000000E+01
 -0.547400000000E+01  0.104650000000E+02  0.407100000000E+01
 -0.485800000000E+01  0.104620000000E+02  0.446440000000E+01
 -0.435900000000E+01  0.104460000000E+02  0.499790000000E+01
 -0.402100000000E+01  0.104170000000E+02  0.564470000000E+01
 -0.392500000000E+01  0.103740000000E+02  0.636820000000E+01
 -0.539100000000E+01  0.117840000000E+02  0.434590000000E+01
 -0.497000000000E+01  0.117690000000E+02  0.469650000000E+01
 -0.471600000000E+01  0.117700000000E+02  0.518350000000E+01
 -0.460600000000E+01  0.117820000000E+02  0.572360000000E+01
 -0.458000000000E+01  0.117990000000E+02  0.627330000000E+01
 -0.530000000000E+01  0.117760000000E+02  0.426870000000E+01
 -0.484600000000E+01  0.117590000000E+02  0.463600000000E+01
 -0.456500000000E+01  0.117590000000E+02  0.514860000000E+01
 -0.444900000000E+01  0.117720000000E+02  0.572380000000E+01
 -0.444400000000E+01  0.117920000000E+02  0.630900000000E+01
 -0.521000000000E+01  0.117670000000E+02  0.419150000000E+01
 -0.472300000000E+01  0.117490000000E+02  0.457560000000E+01
 -0.441400000000E+01  0.117480000000E+02  0.511380000000E+01
 -0.429300000000E+01  0.117620000000E+02  0.572390000000E+01
 -0.430800000000E+01  0.117840000000E+02  0.634480000000E+01
 -0.511900000000E+01  0.117590000000E+02  0.411430000000E+01
 -0.459900000000E+01  0.117390000000E+02  0.451510000000E+01
 -0.426300000000E+01  0.117380000000E+02  0.507890000000E+01
 -0.413600000000E+01  0.117520000000E+02  0.572410000000E+01
 -0.417200000000E+01  0.117770000000E+02  0.638050000000E+01
 -0.502800000000E+01  0.117500000000E+02  0.403710000000E+01
 -0.447600000000E+01  0.117290000000E+02  0.445460000000E+01
 -0.411200000000E+01  0.117270000000E+02  0.504400000000E+01
 -0.397900000000E+01  0.117420000000E+02  0.572420000000E+01
 -0.403600000000E+01  0.117690000000E+02  0.641620000000E+01
 -0.533200000000E+01  0.133160000000E+02  0.473820000000E+01
 -0.503900000000E+01  0.133280000000E+02  0.514340000000E+01
 -0.488400000000E+01  0.133580000000E+02  0.561660000000E+01
 -0.487000000000E+01  0.134020000000E+02  0.611550000000E+01
 -0.490100000000E+01  0.134500000000E+02  0.661780000000E+01
 -0.530500000000E+01  0.132980000000E+02  0.456600000000E+01
 -0.495600000000E+01  0.133060000000E+02  0.497300000000E+01
 -0.474700000000E+01  0.133320000000E+02  0.546400000000E+01
 -0.468900000000E+01  0.133760000000E+02  0.599630000000E+01
 -0.469600000000E+01  0.134250000000E+02  0.653720000000E+01
 -0.527800000000E+01  0.132800000000E+02  0.439390000000E+01
 -0.487300000000E+01  0.132830000000E+02  0.480260000000E+01
 -0.460900000000E+01  0.133070000000E+02  0.531150000000E+01
 -0.450900000000E+01  0.133500000000E+02  0.587710000000E+01
 -0.449100000000E+01  0.134010000000E+02  0.645650000000E+01
 -0.525200000000E+01  0.132620000000E+02  0.422170000000E+01
 -0.479100000000E+01  0.132610000000E+02  0.463220000000E+01
 -0.447200000000E+01  0.132820000000E+02  0.515900000000E+01
 -0.432800000000E+01  0.133240000000E+02  0.575800000000E+01
 -0.428600000000E+01  0.133760000000E+02  0.637590000000E+01
 -0.522500000000E+01  0.132440000000E+02  0.404950000000E+01
 -0.470800000000E+01  0.132380000000E+02  0.446190000000E+01
 -0.433500000000E+01  0.132560000000E+02  0.500640000000E+01
 -0.414800000000E+01  0.132980000000E+02  0.563880000000E+01
 -0.408000000000E+01  0.133520000000E+02  0.629520000000E+01
 -0.537800000000E+01  0.147710000000E+02  0.386410000000E+01
 -0.498000000000E+01  0.147750000000E+02  0.415720000000E+01
 -0.472800000000E+01  0.148090000000E+02  0.458020000000E+01
 -0.464600000000E+01  0.148650000000E+02  0.506060000000E+01
 -0.470300000000E+01  0.149330000000E+02  0.553390000000E+01
 -0.535800000000E+01  0.147560000000E+02  0.376330000000E+01
 -0.492200000000E+01  0.147600000000E+02  0.408380000000E+01
 -0.463400000000E+01  0.147950000000E+02  0.453980000000E+01
 -0.450700000000E+01  0.148530000000E+02  0.505740000000E+01
 -0.450300000000E+01  0.149210000000E+02  0.557590000000E+01
 -0.533700000000E+01  0.147410000000E+02  0.366250000000E+01
 -0.486300000000E+01  0.147450000000E+02  0.401030000000E+01
 -0.454000000000E+01  0.147820000000E+02  0.449950000000E+01
 -0.436900000000E+01  0.148400000000E+02  0.505430000000E+01
 -0.430300000000E+01  0.149090000000E+02  0.561780000000E+01
 -0.531700000000E+01  0.147260000000E+02  0.356180000000E+01
 -0.480500000000E+01  0.147310000000E+02  0.393680000000E+01
 -0.444600000000E+01  0.147680000000E+02  0.445910000000E+01
 -0.423100000000E+01  0.148270000000E+02  0.505110000000E+01
 -0.410300000000E+01  0.148970000000E+02  0.565980000000E+01
 -0.529600000000E+01  0.147110000000E+02  0.346100000000E+01
 -0.474700000000E+01  0.147160000000E+02  0.386340000000E+01
 -0.435200000000E+01  0.147540000000E+02  0.441870000000E+01
 -0.409200000000E+01  0.148150000000E+02  0.504800000000E+01
 -0.390300000000E+01  0.148850000000E+02  0.570170000000E+01
 -0.530000000000E+01  0.161390000000E+02  0.313370000000E+01
 -0.491500000000E+01  0.161510000000E+02  0.341560000000E+01
 -0.462400000000E+01  0.161930000000E+02  0.379620000000E+01
 -0.443100000000E+01  0.162560000000E+02  0.423470000000E+01
 -0.437300000000E+01  0.163410000000E+02  0.470770000000E+01
 -0.519600000000E+01  0.161190000000E+02  0.309090000000E+01
 -0.478800000000E+01  0.161440000000E+02  0.344660000000E+01
 -0.448600000000E+01  0.161980000000E+02  0.389870000000E+01
 -0.429100000000E+01  0.162740000000E+02  0.440640000000E+01
 -0.424900000000E+01  0.163730000000E+02  0.494570000000E+01
 -0.509200000000E+01  0.161000000000E+02  0.304810000000E+01
 -0.466100000000E+01  0.161360000000E+02  0.347750000000E+01
 -0.434700000000E+01  0.162030000000E+02  0.400120000000E+01
 -0.415100000000E+01  0.162920000000E+02  0.457810000000E+01
 -0.412400000000E+01  0.164050000000E+02  0.518380000000E+01
 -0.498700000000E+01  0.160800000000E+02  0.300530000000E+01
 -0.453400000000E+01  0.161280000000E+02  0.350850000000E+01
 -0.420900000000E+01  0.162070000000E+02  0.410380000000E+01
 -0.401100000000E+01  0.163100000000E+02  0.474970000000E+01
 -0.400000000000E+01  0.164380000000E+02  0.542180000000E+01
 -0.488300000000E+01  0.160610000000E+02  0.296250000000E+01
 -0.440700000000E+01  0.161200000000E+02  0.353950000000E+01
 -0.407100000000E+01  0.162120000000E+02  0.420630000000E+01
 -0.387100000000E+01  0.163280000000E+02  0.492140000000E+01
 -0.387500000000E+01  0.164700000000E+02  0.565990000000E+01
 -0.530300000000E+01  0.176260000000E+02  0.268350000000E+01
 -0.489200000000E+01  0.176320000000E+02  0.295740000000E+01
 -0.457200000000E+01  0.176690000000E+02  0.333180000000E+01
 -0.439500000000E+01  0.177400000000E+02  0.378670000000E+01
 -0.438100000000E+01  0.178370000000E+02  0.427120000000E+01
 -0.527300000000E+01  0.176040000000E+02  0.259230000000E+01
 -0.480900000000E+01  0.176100000000E+02  0.289870000000E+01
 -0.445500000000E+01  0.176530000000E+02  0.332380000000E+01
 -0.426100000000E+01  0.177340000000E+02  0.383730000000E+01
 -0.424100000000E+01  0.178420000000E+02  0.438230000000E+01
 -0.524200000000E+01  0.175820000000E+02  0.250120000000E+01
 -0.472700000000E+01  0.175870000000E+02  0.283990000000E+01
 -0.433800000000E+01  0.176370000000E+02  0.331580000000E+01
 -0.412700000000E+01  0.177270000000E+02  0.388790000000E+01
 -0.410100000000E+01  0.178480000000E+02  0.449340000000E+01
 -0.521200000000E+01  0.175600000000E+02  0.241010000000E+01
 -0.464400000000E+01  0.175650000000E+02  0.278120000000E+01
 -0.422100000000E+01  0.176210000000E+02  0.330790000000E+01
 -0.399200000000E+01  0.177210000000E+02  0.393850000000E+01
 -0.396100000000E+01  0.178530000000E+02  0.460450000000E+01
 -0.518200000000E+01  0.175370000000E+02  0.231890000000E+01
 -0.456100000000E+01  0.175430000000E+02  0.272240000000E+01
 -0.410400000000E+01  0.176050000000E+02  0.329990000000E+01
 -0.385800000000E+01  0.177150000000E+02  0.398910000000E+01
 -0.382100000000E+01  0.178580000000E+02  0.471560000000E+01
 -0.485900000000E+01  0.192200000000E+02  0.269420000000E+01
 -0.453500000000E+01  0.192290000000E+02  0.299580000000E+01
 -0.433900000000E+01  0.192720000000E+02  0.339560000000E+01
 -0.432700000000E+01  0.193480000000E+02  0.384590000000E+01
 -0.446900000000E+01  0.194410000000E+02  0.427300000000E+01
 -0.471600000000E+01  0.191960000000E+02  0.267040000000E+01
 -0.440100000000E+01  0.192210000000E+02  0.305440000000E+01
 -0.423300000000E+01  0.192800000000E+02  0.352540000000E+01
 -0.423900000000E+01  0.193690000000E+02  0.403420000000E+01
 -0.440500000000E+01  0.194740000000E+02  0.451500000000E+01
 -0.457200000000E+01  0.191730000000E+02  0.264650000000E+01
 -0.426800000000E+01  0.192130000000E+02  0.311300000000E+01
 -0.412600000000E+01  0.192880000000E+02  0.365520000000E+01
 -0.415000000000E+01  0.193900000000E+02  0.422250000000E+01
 -0.434000000000E+01  0.195080000000E+02  0.475690000000E+01
 -0.442800000000E+01  0.191500000000E+02  0.262270000000E+01
 -0.413500000000E+01  0.192050000000E+02  0.317160000000E+01
 -0.402000000000E+01  0.192960000000E+02  0.378500000000E+01
 -0.406200000000E+01  0.194100000000E+02  0.441080000000E+01
 -0.427600000000E+01  0.195410000000E+02  0.499890000000E+01
 -0.428500000000E+01  0.191260000000E+02  0.259880000000E+01
 -0.400100000000E+01  0.191980000000E+02  0.323020000000E+01
 -0.391300000000E+01  0.193050000000E+02  0.391470000000E+01
 -0.397400000000E+01  0.194310000000E+02  0.459910000000E+01
 -0.421100000000E+01  0.195740000000E+02  0.524080000000E+01
 -0.521000000000E+01  0.208940000000E+02  0.250120000000E+01
 -0.485100000000E+01  0.208650000000E+02  0.268820000000E+01
 -0.456900000000E+01  0.208600000000E+02  0.297840000000E+01
 -0.443500000000E+01  0.208880000000E+02  0.334870000000E+01
 -0.449200000000E+01  0.209440000000E+02  0.371940000000E+01
 -0.530500000000E+01  0.208800000000E+02  0.228060000000E+01
 -0.489400000000E+01  0.208450000000E+02  0.248440000000E+01
 -0.456500000000E+01  0.208370000000E+02  0.280600000000E+01
 -0.436900000000E+01  0.208600000000E+02  0.320880000000E+01
 -0.435300000000E+01  0.209120000000E+02  0.363250000000E+01
 -0.540100000000E+01  0.208660000000E+02  0.206000000000E+01
 -0.493700000000E+01  0.208250000000E+02  0.228060000000E+01
 -0.456000000000E+01  0.208140000000E+02  0.263360000000E+01
 -0.430200000000E+01  0.208320000000E+02  0.306890000000E+01
 -0.421300000000E+01  0.208800000000E+02  0.354560000000E+01
 -0.549600000000E+01  0.208510000000E+02  0.183940000000E+01
 -0.498000000000E+01  0.208050000000E+02  0.207680000000E+01
 -0.455600000000E+01  0.207910000000E+02  0.246120000000E+01
 -0.423600000000E+01  0.208040000000E+02  0.292900000000E+01
 -0.407400000000E+01  0.208480000000E+02  0.345870000000E+01
 -0.559200000000E+01  0.208370000000E+02  0.161880000000E+01
 -0.502300000000E+01  0.207850000000E+02  0.187300000000E+01
 -0.455100000000E+01  0.207680000000E+02  0.228880000000E+01
 -0.417000000000E+01  0.207760000000E+02  0.278910000000E+01
 -0.393400000000E+01  0.208160000000E+02  0.337180000000E+01
 -0.527900000000E+01  0.224640000000E+02  0.192330000000E+01
 -0.491300000000E+01  0.224360000000E+02  0.220320000000E+01
 -0.469800000000E+01  0.224470000000E+02  0.261460000000E+01
 -0.458800000000E+01  0.224790000000E+02  0.306560000000E+01
 -0.443800000000E+01  0.225000000000E+02  0.347700000000E+01
 -0.513500000000E+01  0.224360000000E+02  0.187990000000E+01
 -0.474900000000E+01  0.224110000000E+02  0.220950000000E+01
 -0.451300000000E+01  0.224240000000E+02  0.266460000000E+01
 -0.440400000000E+01  0.224610000000E+02  0.316410000000E+01
 -0.432500000000E+01  0.224990000000E+02  0.363170000000E+01
 -0.499100000000E+01  0.224090000000E+02  0.183650000000E+01
 -0.458400000000E+01  0.223860000000E+02  0.221590000000E+01
 -0.432800000000E+01  0.224000000000E+02  0.271460000000E+01
 -0.422100000000E+01  0.224430000000E+02  0.326260000000E+01
 -0.421300000000E+01  0.224990000000E+02  0.378640000000E+01
 -0.484700000000E+01  0.223810000000E+02  0.179300000000E+01
 -0.441900000000E+01  0.223600000000E+02  0.222230000000E+01
 -0.414400000000E+01  0.223760000000E+02  0.276470000000E+01
 -0.403700000000E+01  0.224240000000E+02  0.336110000000E+01
 -0.410100000000E+01  0.224980000000E+02  0.394120000000E+01
 -0.470300000000E+01  0.223540000000E+02  0.174960000000E+01
 -0.425400000000E+01  0.223350000000E+02  0.222870000000E+01
 -0.395900000000E+01  0.223520000000E+02  0.281470000000E+01
 -0.385400000000E+01  0.224060000000E+02  0.345960000000E+01
 -0.398800000000E+01  0.224970000000E+02  0.409590000000E+01
 -0.491100000000E+01  0.240170000000E+02  0.190060000000E+01
 -0.462400000000E+01  0.240030000000E+02  0.230590000000E+01
 -0.443900000000E+01  0.240130000000E+02  0.276960000000E+01
 -0.436800000000E+01  0.240480000000E+02  0.326490000000E+01
 -0.441600000000E+01  0.241030000000E+02  0.376140000000E+01
 -0.482200000000E+01  0.239880000000E+02  0.176740000000E+01
 -0.448000000000E+01  0.239660000000E+02  0.218460000000E+01
 -0.425500000000E+01  0.239720000000E+02  0.267950000000E+01
 -0.417100000000E+01  0.240070000000E+02  0.321780000000E+01
 -0.423000000000E+01  0.240690000000E+02  0.375780000000E+01
 -0.473200000000E+01  0.239590000000E+02  0.163410000000E+01
 -0.433500000000E+01  0.239280000000E+02  0.206330000000E+01
 -0.407200000000E+01  0.239300000000E+02  0.258940000000E+01
 -0.397300000000E+01  0.239670000000E+02  0.317080000000E+01
 -0.404500000000E+01  0.240350000000E+02  0.375430000000E+01
 -0.464300000000E+01  0.239310000000E+02  0.150090000000E+01
 -0.419100000000E+01  0.238900000000E+02  0.194190000000E+01
 -0.388800000000E+01  0.238880000000E+02  0.249930000000E+01
 -0.377600000000E+01  0.239270000000E+02  0.312370000000E+01
 -0.385900000000E+01  0.240010000000E+02  0.375070000000E+01
 -0.455300000000E+01  0.239020000000E+02  0.136760000000E+01
 -0.404700000000E+01  0.238530000000E+02  0.182060000000E+01
 -0.370500000000E+01  0.238460000000E+02  0.240920000000E+01
 -0.357800000000E+01  0.238860000000E+02  0.307670000000E+01
 -0.367300000000E+01  0.239670000000E+02  0.374710000000E+01
 -0.490300000000E+01  0.256230000000E+02  0.157320000000E+01
 -0.454100000000E+01  0.255650000000E+02  0.190950000000E+01
 -0.428900000000E+01  0.255390000000E+02  0.233860000000E+01
 -0.415200000000E+01  0.255430000000E+02  0.281770000000E+01
 -0.411600000000E+01  0.255700000000E+02  0.331370000000E+01
 -0.480000000000E+01  0.255910000000E+02  0.145890000000E+01
 -0.440900000000E+01  0.255300000000E+02  0.183320000000E+01
 -0.413900000000E+01  0.255020000000E+02  0.230530000000E+01
 -0.400100000000E+01  0.255090000000E+02  0.283230000000E+01
 -0.398100000000E+01  0.255440000000E+02  0.337520000000E+01
 -0.469800000000E+01  0.255600000000E+02  0.134460000000E+01
 -0.427800000000E+01  0.254940000000E+02  0.175680000000E+01
 -0.398800000000E+01  0.254660000000E+02  0.227190000000E+01
 -0.385000000000E+01  0.254760000000E+02  0.284690000000E+01
 -0.384600000000E+01  0.255180000000E+02  0.343680000000E+01
 -0.459500000000E+01  0.255280000000E+02  0.123040000000E+01
 -0.414700000000E+01  0.254590000000E+02  0.168040000000E+01
 -0.383800000000E+01  0.254290000000E+02  0.223860000000E+01
 -0.370000000000E+01  0.254430000000E+02  0.286160000000E+01
 -0.371100000000E+01  0.254920000000E+02  0.349840000000E+01
 -0.449200000000E+01  0.254960000000E+02  0.111610000000E+01
 -0.401500000000E+01  0.254230000000E+02  0.160400000000E+01
 -0.368800000000E+01  0.253920000000E+02  0.220520000000E+01
 -0.354900000000E+01  0.254090000000E+02  0.287620000000E+01
 -0.357700000000E+01  0.254660000000E+02  0.355990000000E+01
 -0.426500000000E+01  0.270940000000E+02  0.143750000000E+01
 -0.395500000000E+01  0.270440000000E+02  0.185600000000E+01
 -0.372000000000E+01  0.270160000000E+02  0.232570000000E+01
 -0.360100000000E+01  0.270190000000E+02  0.283650000000E+01
 -0.368400000000E+01  0.270720000000E+02  0.335000000000E+01
 -0.424400000000E+01  0.270810000000E+02  0.132000000000E+01
 -0.388800000000E+01  0.270210000000E+02  0.175400000000E+01
 -0.362800000000E+01  0.269890000000E+02  0.225740000000E+01
 -0.350300000000E+01  0.269930000000E+02  0.281010000000E+01
 -0.356600000000E+01  0.270440000000E+02  0.336850000000E+01
 -0.422200000000E+01  0.270680000000E+02  0.120240000000E+01
 -0.382100000000E+01  0.269980000000E+02  0.165190000000E+01
 -0.353600000000E+01  0.269620000000E+02  0.218910000000E+01
 -0.340400000000E+01  0.269670000000E+02  0.278360000000E+01
 -0.344800000000E+01  0.270170000000E+02  0.338700000000E+01
 -0.420000000000E+01  0.270550000000E+02  0.108490000000E+01
 -0.375300000000E+01  0.269750000000E+02  0.154980000000E+01
 -0.344300000000E+01  0.269350000000E+02  0.212090000000E+01
 -0.330500000000E+01  0.269410000000E+02  0.275720000000E+01
 -0.333000000000E+01  0.269890000000E+02  0.340540000000E+01
 -0.417800000000E+01  0.270420000000E+02  0.967380000000E+00
 -0.368600000000E+01  0.269520000000E+02  0.144780000000E+01
 -0.335100000000E+01  0.269080000000E+02  0.205260000000E+01
 -0.320600000000E+01  0.269150000000E+02  0.273080000000E+01
 -0.321200000000E+01  0.269610000000E+02  0.342390000000E+01
 -0.379400000000E+01  0.286000000000E+02  0.128970000000E+01
 -0.351900000000E+01  0.285580000000E+02  0.174880000000E+01
 -0.332800000000E+01  0.285390000000E+02  0.225250000000E+01
 -0.321900000000E+01  0.285420000000E+02  0.277690000000E+01
 -0.332200000000E+01  0.285970000000E+02  0.330060000000E+01
 -0.370100000000E+01  0.285750000000E+02  0.126530000000E+01
 -0.339900000000E+01  0.285280000000E+02  0.175480000000E+01
 -0.320100000000E+01  0.285100000000E+02  0.229760000000E+01
 -0.311100000000E+01  0.285200000000E+02  0.286420000000E+01
 -0.324000000000E+01  0.285840000000E+02  0.342140000000E+01
 -0.360700000000E+01  0.285510000000E+02  0.124090000000E+01
 -0.328000000000E+01  0.284990000000E+02  0.176070000000E+01
 -0.307400000000E+01  0.284800000000E+02  0.234260000000E+01
 -0.300200000000E+01  0.284970000000E+02  0.295160000000E+01
 -0.315900000000E+01  0.285700000000E+02  0.354230000000E+01
 -0.351400000000E+01  0.285260000000E+02  0.121650000000E+01
 -0.316000000000E+01  0.284690000000E+02  0.176670000000E+01
 -0.294700000000E+01  0.284510000000E+02  0.238760000000E+01
 -0.289400000000E+01  0.284750000000E+02  0.303900000000E+01
 -0.307700000000E+01  0.285570000000E+02  0.366310000000E+01
 -0.342000000000E+01  0.285010000000E+02  0.119220000000E+01
 -0.304100000000E+01  0.284400000000E+02  0.177260000000E+01
 -0.282000000000E+01  0.284220000000E+02  0.243260000000E+01
 -0.278600000000E+01  0.284530000000E+02  0.312640000000E+01
 -0.299600000000E+01  0.285430000000E+02  0.378400000000E+01
 -0.363600000000E+01  0.302050000000E+02  0.133850000000E+01
 -0.324600000000E+01  0.301190000000E+02  0.166790000000E+01
 -0.295500000000E+01  0.300630000000E+02  0.208820000000E+01
 -0.283300000000E+01  0.300550000000E+02  0.258890000000E+01
 -0.288900000000E+01  0.300920000000E+02  0.310170000000E+01
 -0.354100000000E+01  0.301770000000E+02  0.127300000000E+01
 -0.313800000000E+01  0.300900000000E+02  0.163710000000E+01
 -0.284800000000E+01  0.300360000000E+02  0.209900000000E+01
 -0.273000000000E+01  0.300300000000E+02  0.263600000000E+01
 -0.279600000000E+01  0.300720000000E+02  0.318220000000E+01
 -0.344700000000E+01  0.301500000000E+02  0.120740000000E+01
 -0.302900000000E+01  0.300610000000E+02  0.160630000000E+01
 -0.274000000000E+01  0.300090000000E+02  0.210970000000E+01
 -0.262800000000E+01  0.300060000000E+02  0.268310000000E+01
 -0.270300000000E+01  0.300510000000E+02  0.326270000000E+01
 -0.335200000000E+01  0.301230000000E+02  0.114190000000E+01
 -0.292000000000E+01  0.300310000000E+02  0.157550000000E+01
 -0.263300000000E+01  0.299820000000E+02  0.212050000000E+01
 -0.252500000000E+01  0.299820000000E+02  0.273020000000E+01
 -0.260900000000E+01  0.300310000000E+02  0.334320000000E+01
 -0.325800000000E+01  0.300960000000E+02  0.107630000000E+01
 -0.281100000000E+01  0.300020000000E+02  0.154470000000E+01
 -0.252500000000E+01  0.299550000000E+02  0.213120000000E+01
 -0.242200000000E+01  0.299570000000E+02  0.277740000000E+01
 -0.251600000000E+01  0.300110000000E+02  0.342370000000E+01
 -0.325800000000E+01  0.317400000000E+02  0.153050000000E+01
 -0.294500000000E+01  0.316760000000E+02  0.188750000000E+01
 -0.272300000000E+01  0.316370000000E+02  0.231190000000E+01
 -0.258500000000E+01  0.316220000000E+02  0.276950000000E+01
 -0.258100000000E+01  0.316430000000E+02  0.324820000000E+01
 -0.313400000000E+01  0.317050000000E+02  0.145890000000E+01
 -0.279600000000E+01  0.316350000000E+02  0.184430000000E+01
 -0.256400000000E+01  0.315960000000E+02  0.230630000000E+01
 -0.243700000000E+01  0.315860000000E+02  0.280620000000E+01
 -0.245300000000E+01  0.316130000000E+02  0.332220000000E+01
 -0.301000000000E+01  0.316700000000E+02  0.138730000000E+01
 -0.264600000000E+01  0.315950000000E+02  0.180100000000E+01
 -0.240400000000E+01  0.315550000000E+02  0.230070000000E+01
 -0.229000000000E+01  0.315500000000E+02  0.284290000000E+01
 -0.232500000000E+01  0.315830000000E+02  0.339630000000E+01
 -0.288600000000E+01  0.316350000000E+02  0.131570000000E+01
 -0.249700000000E+01  0.315540000000E+02  0.175780000000E+01
 -0.224500000000E+01  0.315140000000E+02  0.229510000000E+01
 -0.214200000000E+01  0.315130000000E+02  0.287950000000E+01
 -0.219600000000E+01  0.315540000000E+02  0.347030000000E+01
 -0.276300000000E+01  0.316000000000E+02  0.124420000000E+01
 -0.234700000000E+01  0.315140000000E+02  0.171460000000E+01
 -0.208500000000E+01  0.314720000000E+02  0.228950000000E+01
 -0.199400000000E+01  0.314770000000E+02  0.291620000000E+01
 -0.206800000000E+01  0.315240000000E+02  0.354430000000E+01
  0.690700000000E+00  0.487640000000E+00  0.279790000000E+01
  0.587900000000E+00 -0.816750000000E-01  0.308080000000E+01
  0.407400000000E+00 -0.693560000000E+00  0.318050000000E+01
  0.172200000000E+00 -0.128940000000E+01  0.310370000000E+01
 -0.102600000000E+00 -0.180340000000E+01  0.282700000000E+01
  0.736500000000E+00  0.500360000000E+00  0.291880000000E+01
  0.629500000000E+00 -0.103380000000E+00  0.322480000000E+01
  0.437800000000E+00 -0.754000000000E+00  0.333120000000E+01
  0.186300000000E+00 -0.138680000000E+01  0.324460000000E+01
 -0.103800000000E+00 -0.194330000000E+01  0.296700000000E+01
  0.782400000000E+00  0.513080000000E+00  0.303970000000E+01
  0.671200000000E+00 -0.125090000000E+00  0.336880000000E+01
  0.468200000000E+00 -0.814430000000E+00  0.348200000000E+01
  0.200300000000E+00 -0.148420000000E+01  0.338550000000E+01
 -0.105000000000E+00 -0.208330000000E+01  0.310710000000E+01
  0.828200000000E+00  0.525800000000E+00  0.316060000000E+01
  0.712800000000E+00 -0.146790000000E+00  0.351290000000E+01
  0.498500000000E+00 -0.874870000000E+00  0.363270000000E+01
  0.214400000000E+00 -0.158160000000E+01  0.352640000000E+01
 -0.106100000000E+00 -0.222320000000E+01  0.324710000000E+01
  0.874000000000E+00  0.538520000000E+00  0.328150000000E+01
  0.754500000000E+00 -0.168500000000E+00  0.365690000000E+01
  0.528900000000E+00 -0.935310000000E+00  0.378340000000E+01
  0.228400000000E+00 -0.167900000000E+01  0.366730000000E+01
 -0.107300000000E+00 -0.236320000000E+01  0.338710000000E+01
 -0.779900000000E+00  0.447710000000E+00  0.296010000000E+01
 -0.957200000000E+00 -0.103540000000E+00  0.315150000000E+01
 -0.120600000000E+01 -0.656450000000E+00  0.318820000000E+01
 -0.152000000000E+01 -0.114390000000E+01  0.301070000000E+01
 -0.185500000000E+01 -0.148020000000E+01  0.262880000000E+01
 -0.730000000000E+00  0.412440000000E+00  0.310710000000E+01
 -0.913700000000E+00 -0.177090000000E+00  0.332490000000E+01
 -0.117100000000E+01 -0.772340000000E+00  0.338660000000E+01
 -0.150500000000E+01 -0.130270000000E+01  0.321190000000E+01
 -0.186400000000E+01 -0.166440000000E+01  0.280300000000E+01
 -0.680100000000E+00  0.377170000000E+00  0.325420000000E+01
 -0.870100000000E+00 -0.250630000000E+00  0.349830000000E+01
 -0.113600000000E+01 -0.888240000000E+00  0.358500000000E+01
 -0.148900000000E+01 -0.146150000000E+01  0.341310000000E+01
 -0.187300000000E+01 -0.184870000000E+01  0.297720000000E+01
 -0.630200000000E+00  0.341910000000E+00  0.340120000000E+01
 -0.826600000000E+00 -0.324180000000E+00  0.367170000000E+01
 -0.110200000000E+01 -0.100410000000E+01  0.378340000000E+01
 -0.147400000000E+01 -0.162020000000E+01  0.361430000000E+01
 -0.188200000000E+01 -0.203300000000E+01  0.315140000000E+01
 -0.580300000000E+00  0.306640000000E+00  0.354820000000E+01
 -0.783100000000E+00 -0.397720000000E+00  0.384510000000E+01
 -0.106700000000E+01 -0.112000000000E+01  0.398180000000E+01
 -0.145900000000E+01 -0.177900000000E+01  0.381550000000E+01
 -0.189100000000E+01 -0.221730000000E+01  0.332560000000E+01
 -0.165900000000E+01  0.154770000000E+01  0.337020000000E+01
 -0.178900000000E+01  0.103710000000E+01  0.370900000000E+01
 -0.204400000000E+01  0.488270000000E+00  0.387210000000E+01
 -0.238400000000E+01 -0.345950000000E-01  0.385830000000E+01
 -0.277900000000E+01 -0.451670000000E+00  0.363130000000E+01
 -0.158600000000E+01  0.172390000000E+01  0.330200000000E+01
 -0.170600000000E+01  0.119220000000E+01  0.368150000000E+01
 -0.195200000000E+01  0.614480000000E+00  0.389150000000E+01
 -0.229200000000E+01  0.509150000000E-01  0.392420000000E+01
 -0.269600000000E+01 -0.425230000000E+00  0.374630000000E+01
 -0.151400000000E+01  0.190010000000E+01  0.323380000000E+01
 -0.162300000000E+01  0.134740000000E+01  0.365410000000E+01
 -0.186100000000E+01  0.740690000000E+00  0.391100000000E+01
 -0.219900000000E+01  0.136430000000E+00  0.399000000000E+01
 -0.261300000000E+01 -0.398790000000E+00  0.386140000000E+01
 -0.144100000000E+01  0.207630000000E+01  0.316560000000E+01
 -0.154000000000E+01  0.150250000000E+01  0.362660000000E+01
 -0.177000000000E+01  0.866900000000E+00  0.393050000000E+01
 -0.210700000000E+01  0.221940000000E+00  0.405580000000E+01
 -0.253000000000E+01 -0.372360000000E+00  0.397640000000E+01
 -0.136800000000E+01  0.225250000000E+01  0.309740000000E+01
 -0.145800000000E+01  0.165770000000E+01  0.359910000000E+01
 -0.167800000000E+01  0.993120000000E+00  0.395000000000E+01
 -0.201500000000E+01  0.307450000000E+00  0.412170000000E+01
 -0.244700000000E+01 -0.345920000000E+00  0.409150000000E+01
 -0.260800000000E+01  0.203280000000E+01  0.411340000000E+01
 -0.288600000000E+01  0.154530000000E+01  0.435480000000E+01
 -0.327700000000E+01  0.108210000000E+01  0.441960000000E+01
 -0.371500000000E+01  0.662120000000E+00  0.436970000000E+01
 -0.418700000000E+01  0.331910000000E+00  0.416680000000E+01
 -0.243400000000E+01  0.226630000000E+01  0.405020000000E+01
 -0.270300000000E+01  0.174500000000E+01  0.434460000000E+01
 -0.309200000000E+01  0.123580000000E+01  0.446960000000E+01
 -0.353900000000E+01  0.762250000000E+00  0.447420000000E+01
 -0.403700000000E+01  0.372670000000E+00  0.431060000000E+01
 -0.226000000000E+01  0.249990000000E+01  0.398700000000E+01
 -0.252100000000E+01  0.194470000000E+01  0.433450000000E+01
 -0.290600000000E+01  0.138950000000E+01  0.451960000000E+01
 -0.336300000000E+01  0.862380000000E+00  0.457870000000E+01
 -0.388700000000E+01  0.413440000000E+00  0.445440000000E+01
 -0.208700000000E+01  0.273350000000E+01  0.392380000000E+01
 -0.233800000000E+01  0.214440000000E+01  0.432440000000E+01
 -0.272100000000E+01  0.154330000000E+01  0.456960000000E+01
 -0.318700000000E+01  0.962520000000E+00  0.468320000000E+01
 -0.373700000000E+01  0.454210000000E+00  0.459810000000E+01
 -0.191300000000E+01  0.296700000000E+01  0.386060000000E+01
 -0.215600000000E+01  0.234400000000E+01  0.431420000000E+01
 -0.253600000000E+01  0.169700000000E+01  0.461950000000E+01
 -0.301100000000E+01  0.106270000000E+01  0.478770000000E+01
 -0.358700000000E+01  0.494980000000E+00  0.474190000000E+01
 -0.317700000000E+01  0.309570000000E+01  0.458530000000E+01
 -0.345400000000E+01  0.270530000000E+01  0.495560000000E+01
 -0.387500000000E+01  0.232840000000E+01  0.517780000000E+01
 -0.437600000000E+01  0.199810000000E+01  0.525470000000E+01
 -0.492100000000E+01  0.175010000000E+01  0.516430000000E+01
 -0.303100000000E+01  0.319620000000E+01  0.455600000000E+01
 -0.332000000000E+01  0.277680000000E+01  0.496150000000E+01
 -0.376000000000E+01  0.236830000000E+01  0.521630000000E+01
 -0.428800000000E+01  0.200370000000E+01  0.532420000000E+01
 -0.486800000000E+01  0.171990000000E+01  0.525850000000E+01
 -0.288500000000E+01  0.329660000000E+01  0.452670000000E+01
 -0.318600000000E+01  0.284830000000E+01  0.496730000000E+01
 -0.364500000000E+01  0.240820000000E+01  0.525480000000E+01
 -0.419900000000E+01  0.200940000000E+01  0.539380000000E+01
 -0.481500000000E+01  0.168980000000E+01  0.535270000000E+01
 -0.273900000000E+01  0.339710000000E+01  0.449740000000E+01
 -0.305100000000E+01  0.291980000000E+01  0.497310000000E+01
 -0.353000000000E+01  0.244810000000E+01  0.529330000000E+01
 -0.411000000000E+01  0.201510000000E+01  0.546330000000E+01
 -0.476200000000E+01  0.165960000000E+01  0.544700000000E+01
 -0.259300000000E+01  0.349760000000E+01  0.446820000000E+01
 -0.291700000000E+01  0.299130000000E+01  0.497890000000E+01
 -0.341500000000E+01  0.248800000000E+01  0.533180000000E+01
 -0.402100000000E+01  0.202070000000E+01  0.553280000000E+01
 -0.470900000000E+01  0.162950000000E+01  0.554120000000E+01
 -0.375900000000E+01  0.423400000000E+01  0.541960000000E+01
 -0.414800000000E+01  0.391150000000E+01  0.576670000000E+01
 -0.464700000000E+01  0.361860000000E+01  0.597080000000E+01
 -0.521000000000E+01  0.337950000000E+01  0.601900000000E+01
 -0.579200000000E+01  0.321330000000E+01  0.590740000000E+01
 -0.363600000000E+01  0.427640000000E+01  0.542930000000E+01
 -0.403300000000E+01  0.393200000000E+01  0.581380000000E+01
 -0.455500000000E+01  0.361640000000E+01  0.604580000000E+01
 -0.514900000000E+01  0.335510000000E+01  0.611460000000E+01
 -0.576700000000E+01  0.317160000000E+01  0.600930000000E+01
 -0.351200000000E+01  0.431890000000E+01  0.543890000000E+01
 -0.391700000000E+01  0.395260000000E+01  0.586090000000E+01
 -0.446200000000E+01  0.361420000000E+01  0.612090000000E+01
 -0.508700000000E+01  0.333080000000E+01  0.621020000000E+01
 -0.574300000000E+01  0.312990000000E+01  0.611110000000E+01
 -0.338800000000E+01  0.436130000000E+01  0.544850000000E+01
 -0.380200000000E+01  0.397310000000E+01  0.590800000000E+01
 -0.436900000000E+01  0.361200000000E+01  0.619590000000E+01
 -0.502500000000E+01  0.330650000000E+01  0.630590000000E+01
 -0.571800000000E+01  0.308820000000E+01  0.621300000000E+01
 -0.326400000000E+01  0.440370000000E+01  0.545820000000E+01
 -0.368600000000E+01  0.399360000000E+01  0.595510000000E+01
 -0.427700000000E+01  0.360980000000E+01  0.627090000000E+01
 -0.496300000000E+01  0.328220000000E+01  0.640150000000E+01
 -0.569400000000E+01  0.304640000000E+01  0.631480000000E+01
 -0.425000000000E+01  0.573650000000E+01  0.580530000000E+01
 -0.457400000000E+01  0.545780000000E+01  0.619360000000E+01
 -0.501200000000E+01  0.519400000000E+01  0.645990000000E+01
 -0.553300000000E+01  0.497260000000E+01  0.656510000000E+01
 -0.608400000000E+01  0.482240000000E+01  0.648560000000E+01
 -0.410700000000E+01  0.576060000000E+01  0.585970000000E+01
 -0.444800000000E+01  0.546610000000E+01  0.627160000000E+01
 -0.491700000000E+01  0.518880000000E+01  0.654440000000E+01
 -0.547000000000E+01  0.495490000000E+01  0.665420000000E+01
 -0.605200000000E+01  0.478660000000E+01  0.659160000000E+01
 -0.396500000000E+01  0.578470000000E+01  0.591420000000E+01
 -0.432100000000E+01  0.547430000000E+01  0.634960000000E+01
 -0.482300000000E+01  0.518360000000E+01  0.662900000000E+01
 -0.540700000000E+01  0.493720000000E+01  0.674330000000E+01
 -0.602000000000E+01  0.475090000000E+01  0.669770000000E+01
 -0.382200000000E+01  0.580880000000E+01  0.596870000000E+01
 -0.419500000000E+01  0.548250000000E+01  0.642760000000E+01
 -0.472800000000E+01  0.517840000000E+01  0.671350000000E+01
 -0.534300000000E+01  0.491960000000E+01  0.683240000000E+01
 -0.598900000000E+01  0.471510000000E+01  0.680370000000E+01
 -0.367900000000E+01  0.583300000000E+01  0.602310000000E+01
 -0.406900000000E+01  0.549080000000E+01  0.650560000000E+01
 -0.463400000000E+01  0.517320000000E+01  0.679800000000E+01
 -0.528000000000E+01  0.490190000000E+01  0.692150000000E+01
 -0.595700000000E+01  0.467940000000E+01  0.690970000000E+01
 -0.453100000000E+01  0.725730000000E+01  0.625850000000E+01
 -0.482900000000E+01  0.705290000000E+01  0.669850000000E+01
 -0.526000000000E+01  0.685500000000E+01  0.701320000000E+01
 -0.578500000000E+01  0.668650000000E+01  0.715990000000E+01
 -0.634100000000E+01  0.655940000000E+01  0.714580000000E+01
 -0.441900000000E+01  0.726720000000E+01  0.631230000000E+01
 -0.475100000000E+01  0.705100000000E+01  0.676480000000E+01
 -0.521200000000E+01  0.684260000000E+01  0.709100000000E+01
 -0.576400000000E+01  0.666310000000E+01  0.725280000000E+01
 -0.635200000000E+01  0.653100000000E+01  0.723090000000E+01
 -0.430800000000E+01  0.727700000000E+01  0.636600000000E+01
 -0.467300000000E+01  0.704920000000E+01  0.683110000000E+01
 -0.516400000000E+01  0.683030000000E+01  0.716880000000E+01
 -0.574300000000E+01  0.663970000000E+01  0.734560000000E+01
 -0.636300000000E+01  0.650250000000E+01  0.731590000000E+01
 -0.419700000000E+01  0.728680000000E+01  0.641980000000E+01
 -0.459500000000E+01  0.704730000000E+01  0.689750000000E+01
 -0.511600000000E+01  0.681790000000E+01  0.724660000000E+01
 -0.572200000000E+01  0.661630000000E+01  0.743840000000E+01
 -0.637400000000E+01  0.647400000000E+01  0.740100000000E+01
 -0.408600000000E+01  0.729670000000E+01  0.647350000000E+01
 -0.451700000000E+01  0.704550000000E+01  0.696380000000E+01
 -0.506800000000E+01  0.680550000000E+01  0.732440000000E+01
 -0.570200000000E+01  0.659290000000E+01  0.753130000000E+01
 -0.638500000000E+01  0.644550000000E+01  0.748610000000E+01
 -0.457100000000E+01  0.880900000000E+01  0.665510000000E+01
 -0.486100000000E+01  0.866920000000E+01  0.712880000000E+01
 -0.533000000000E+01  0.853310000000E+01  0.744260000000E+01
 -0.586800000000E+01  0.841140000000E+01  0.762820000000E+01
 -0.642700000000E+01  0.829900000000E+01  0.775110000000E+01
 -0.443200000000E+01  0.881870000000E+01  0.671720000000E+01
 -0.477200000000E+01  0.866960000000E+01  0.719800000000E+01
 -0.527600000000E+01  0.852560000000E+01  0.752330000000E+01
 -0.584300000000E+01  0.839510000000E+01  0.773040000000E+01
 -0.643600000000E+01  0.827530000000E+01  0.786340000000E+01
 -0.429200000000E+01  0.882840000000E+01  0.677930000000E+01
 -0.468200000000E+01  0.867000000000E+01  0.726710000000E+01
 -0.522100000000E+01  0.851820000000E+01  0.760400000000E+01
 -0.581800000000E+01  0.837870000000E+01  0.783260000000E+01
 -0.644500000000E+01  0.825150000000E+01  0.797560000000E+01
 -0.415200000000E+01  0.883810000000E+01  0.684150000000E+01
 -0.459300000000E+01  0.867040000000E+01  0.733630000000E+01
 -0.516700000000E+01  0.851080000000E+01  0.768470000000E+01
 -0.579300000000E+01  0.836240000000E+01  0.793470000000E+01
 -0.645400000000E+01  0.822780000000E+01  0.808780000000E+01
 -0.401200000000E+01  0.884780000000E+01  0.690360000000E+01
 -0.450300000000E+01  0.867080000000E+01  0.740550000000E+01
 -0.511200000000E+01  0.850330000000E+01  0.776540000000E+01
 -0.576800000000E+01  0.834600000000E+01  0.803690000000E+01
 -0.646300000000E+01  0.820410000000E+01  0.820010000000E+01
 -0.474900000000E+01  0.103050000000E+02  0.697260000000E+01
 -0.509000000000E+01  0.102640000000E+02  0.741790000000E+01
 -0.558200000000E+01  0.102280000000E+02  0.769070000000E+01
 -0.612600000000E+01  0.101990000000E+02  0.783900000000E+01
 -0.668100000000E+01  0.101710000000E+02  0.795460000000E+01
 -0.460000000000E+01  0.103090000000E+02  0.699410000000E+01
 -0.497600000000E+01  0.102650000000E+02  0.746230000000E+01
 -0.550000000000E+01  0.102260000000E+02  0.776420000000E+01
 -0.607600000000E+01  0.101940000000E+02  0.794580000000E+01
 -0.666900000000E+01  0.101630000000E+02  0.807630000000E+01
 -0.445000000000E+01  0.103130000000E+02  0.701550000000E+01
 -0.486300000000E+01  0.102660000000E+02  0.750670000000E+01
 -0.541700000000E+01  0.102250000000E+02  0.783770000000E+01
 -0.602500000000E+01  0.101890000000E+02  0.805270000000E+01
 -0.665700000000E+01  0.101560000000E+02  0.819800000000E+01
 -0.430000000000E+01  0.103170000000E+02  0.703700000000E+01
 -0.475000000000E+01  0.102680000000E+02  0.755120000000E+01
 -0.533500000000E+01  0.102230000000E+02  0.791120000000E+01
 -0.597500000000E+01  0.101830000000E+02  0.815960000000E+01
 -0.664500000000E+01  0.101490000000E+02  0.831980000000E+01
 -0.415000000000E+01  0.103210000000E+02  0.705840000000E+01
 -0.463700000000E+01  0.102690000000E+02  0.759560000000E+01
 -0.525200000000E+01  0.102210000000E+02  0.798480000000E+01
 -0.592400000000E+01  0.101780000000E+02  0.826640000000E+01
 -0.663300000000E+01  0.101410000000E+02  0.844150000000E+01
 -0.476100000000E+01  0.118280000000E+02  0.679190000000E+01
 -0.511300000000E+01  0.118650000000E+02  0.721070000000E+01
 -0.558900000000E+01  0.119050000000E+02  0.748250000000E+01
 -0.612300000000E+01  0.119440000000E+02  0.761180000000E+01
 -0.667100000000E+01  0.119790000000E+02  0.764050000000E+01
 -0.464800000000E+01  0.118240000000E+02  0.685750000000E+01
 -0.501400000000E+01  0.118630000000E+02  0.731150000000E+01
 -0.551600000000E+01  0.119050000000E+02  0.760840000000E+01
 -0.608700000000E+01  0.119460000000E+02  0.773550000000E+01
 -0.667000000000E+01  0.119830000000E+02  0.774070000000E+01
 -0.453500000000E+01  0.118190000000E+02  0.692310000000E+01
 -0.491500000000E+01  0.118600000000E+02  0.741240000000E+01
 -0.544300000000E+01  0.119050000000E+02  0.773440000000E+01
 -0.605100000000E+01  0.119480000000E+02  0.785910000000E+01
 -0.667000000000E+01  0.119860000000E+02  0.784090000000E+01
 -0.442200000000E+01  0.118140000000E+02  0.698870000000E+01
 -0.481600000000E+01  0.118570000000E+02  0.751320000000E+01
 -0.537000000000E+01  0.119040000000E+02  0.786030000000E+01
 -0.601400000000E+01  0.119490000000E+02  0.798280000000E+01
 -0.666900000000E+01  0.119900000000E+02  0.794110000000E+01
 -0.430900000000E+01  0.118090000000E+02  0.705430000000E+01
 -0.471600000000E+01  0.118540000000E+02  0.761410000000E+01
 -0.529700000000E+01  0.119040000000E+02  0.798620000000E+01
 -0.597800000000E+01  0.119510000000E+02  0.810640000000E+01
 -0.666900000000E+01  0.119930000000E+02  0.804130000000E+01
 -0.523100000000E+01  0.135110000000E+02  0.698450000000E+01
 -0.565200000000E+01  0.135690000000E+02  0.724010000000E+01
 -0.613000000000E+01  0.136210000000E+02  0.736900000000E+01
 -0.662700000000E+01  0.136610000000E+02  0.734830000000E+01
 -0.709200000000E+01  0.136830000000E+02  0.716230000000E+01
 -0.500300000000E+01  0.134900000000E+02  0.696430000000E+01
 -0.542200000000E+01  0.135540000000E+02  0.728310000000E+01
 -0.591700000000E+01  0.136120000000E+02  0.746990000000E+01
 -0.644700000000E+01  0.136590000000E+02  0.749490000000E+01
 -0.695900000000E+01  0.136880000000E+02  0.733640000000E+01
 -0.477600000000E+01  0.134690000000E+02  0.694410000000E+01
 -0.519200000000E+01  0.135380000000E+02  0.732610000000E+01
 -0.570300000000E+01  0.136030000000E+02  0.757080000000E+01
 -0.626800000000E+01  0.136570000000E+02  0.764150000000E+01
 -0.682600000000E+01  0.136920000000E+02  0.751050000000E+01
 -0.454900000000E+01  0.134480000000E+02  0.692400000000E+01
 -0.496100000000E+01  0.135230000000E+02  0.736910000000E+01
 -0.548900000000E+01  0.135950000000E+02  0.767170000000E+01
 -0.608800000000E+01  0.136550000000E+02  0.778810000000E+01
 -0.669300000000E+01  0.136970000000E+02  0.768450000000E+01
 -0.432100000000E+01  0.134270000000E+02  0.690380000000E+01
 -0.473100000000E+01  0.135070000000E+02  0.741210000000E+01
 -0.527500000000E+01  0.135860000000E+02  0.777270000000E+01
 -0.590800000000E+01  0.136540000000E+02  0.793470000000E+01
 -0.656000000000E+01  0.137020000000E+02  0.785860000000E+01
 -0.484300000000E+01  0.150070000000E+02  0.600320000000E+01
 -0.509000000000E+01  0.150840000000E+02  0.642500000000E+01
 -0.544000000000E+01  0.151600000000E+02  0.676480000000E+01
 -0.588100000000E+01  0.152270000000E+02  0.697460000000E+01
 -0.637000000000E+01  0.152750000000E+02  0.701310000000E+01
 -0.465400000000E+01  0.150020000000E+02  0.608950000000E+01
 -0.492400000000E+01  0.150860000000E+02  0.655000000000E+01
 -0.531400000000E+01  0.151690000000E+02  0.691300000000E+01
 -0.580100000000E+01  0.152410000000E+02  0.713490000000E+01
 -0.633200000000E+01  0.152960000000E+02  0.719990000000E+01
 -0.446400000000E+01  0.149970000000E+02  0.617580000000E+01
 -0.475800000000E+01  0.150880000000E+02  0.667490000000E+01
 -0.518900000000E+01  0.151770000000E+02  0.706110000000E+01
 -0.572000000000E+01  0.152550000000E+02  0.729530000000E+01
 -0.629500000000E+01  0.153170000000E+02  0.738680000000E+01
 -0.427500000000E+01  0.149910000000E+02  0.626210000000E+01
 -0.459200000000E+01  0.150900000000E+02  0.679990000000E+01
 -0.506300000000E+01  0.151860000000E+02  0.720930000000E+01
 -0.564000000000E+01  0.152690000000E+02  0.745560000000E+01
 -0.625700000000E+01  0.153390000000E+02  0.757360000000E+01
 -0.408500000000E+01  0.149860000000E+02  0.634840000000E+01
 -0.442600000000E+01  0.150920000000E+02  0.692490000000E+01
 -0.493800000000E+01  0.151940000000E+02  0.735750000000E+01
 -0.556000000000E+01  0.152830000000E+02  0.761590000000E+01
 -0.622000000000E+01  0.153600000000E+02  0.776040000000E+01
 -0.450000000000E+01  0.164420000000E+02  0.516490000000E+01
 -0.477200000000E+01  0.165450000000E+02  0.554870000000E+01
 -0.517200000000E+01  0.166380000000E+02  0.580340000000E+01
 -0.564200000000E+01  0.167070000000E+02  0.590110000000E+01
 -0.612400000000E+01  0.167560000000E+02  0.588480000000E+01
 -0.440400000000E+01  0.164890000000E+02  0.546080000000E+01
 -0.473800000000E+01  0.166050000000E+02  0.587640000000E+01
 -0.520200000000E+01  0.167070000000E+02  0.615060000000E+01
 -0.573500000000E+01  0.167870000000E+02  0.626250000000E+01
 -0.628100000000E+01  0.168380000000E+02  0.622130000000E+01
 -0.430800000000E+01  0.165350000000E+02  0.575670000000E+01
 -0.470400000000E+01  0.166640000000E+02  0.620400000000E+01
 -0.523200000000E+01  0.167770000000E+02  0.649770000000E+01
 -0.582800000000E+01  0.168660000000E+02  0.662390000000E+01
 -0.643800000000E+01  0.169190000000E+02  0.655790000000E+01
 -0.421200000000E+01  0.165820000000E+02  0.605270000000E+01
 -0.467000000000E+01  0.167230000000E+02  0.653170000000E+01
 -0.526200000000E+01  0.168470000000E+02  0.684480000000E+01
 -0.592100000000E+01  0.169450000000E+02  0.698520000000E+01
 -0.659400000000E+01  0.170010000000E+02  0.689440000000E+01
 -0.411600000000E+01  0.166280000000E+02  0.634860000000E+01
 -0.463600000000E+01  0.167820000000E+02  0.685930000000E+01
 -0.529200000000E+01  0.169170000000E+02  0.719200000000E+01
 -0.601400000000E+01  0.170250000000E+02  0.734660000000E+01
 -0.675100000000E+01  0.170820000000E+02  0.723100000000E+01
 -0.447100000000E+01  0.179440000000E+02  0.474570000000E+01
 -0.474100000000E+01  0.180590000000E+02  0.514240000000E+01
 -0.514500000000E+01  0.181610000000E+02  0.540340000000E+01
 -0.561700000000E+01  0.182430000000E+02  0.551960000000E+01
 -0.610900000000E+01  0.183060000000E+02  0.553000000000E+01
 -0.433200000000E+01  0.179620000000E+02  0.491720000000E+01
 -0.462600000000E+01  0.180910000000E+02  0.536920000000E+01
 -0.506600000000E+01  0.182090000000E+02  0.568290000000E+01
 -0.558700000000E+01  0.183050000000E+02  0.583990000000E+01
 -0.613900000000E+01  0.183750000000E+02  0.585190000000E+01
 -0.419400000000E+01  0.179800000000E+02  0.508860000000E+01
 -0.451200000000E+01  0.181230000000E+02  0.559590000000E+01
 -0.498600000000E+01  0.182560000000E+02  0.596250000000E+01
 -0.555700000000E+01  0.183660000000E+02  0.616020000000E+01
 -0.617000000000E+01  0.184440000000E+02  0.617380000000E+01
 -0.405500000000E+01  0.179980000000E+02  0.526010000000E+01
 -0.439700000000E+01  0.181550000000E+02  0.582270000000E+01
 -0.490700000000E+01  0.183030000000E+02  0.624200000000E+01
 -0.552700000000E+01  0.184280000000E+02  0.648050000000E+01
 -0.620000000000E+01  0.185140000000E+02  0.649570000000E+01
 -0.391700000000E+01  0.180160000000E+02  0.543150000000E+01
 -0.428200000000E+01  0.181870000000E+02  0.604950000000E+01
 -0.482700000000E+01  0.183500000000E+02  0.652160000000E+01
 -0.549700000000E+01  0.184890000000E+02  0.680080000000E+01
 -0.623000000000E+01  0.185830000000E+02  0.681770000000E+01
 -0.468200000000E+01  0.195380000000E+02  0.466970000000E+01
 -0.500700000000E+01  0.196360000000E+02  0.497990000000E+01
 -0.541600000000E+01  0.197220000000E+02  0.516240000000E+01
 -0.585900000000E+01  0.197890000000E+02  0.520640000000E+01
 -0.630000000000E+01  0.198350000000E+02  0.513100000000E+01
 -0.465500000000E+01  0.195840000000E+02  0.495680000000E+01
 -0.502900000000E+01  0.196940000000E+02  0.529910000000E+01
 -0.550200000000E+01  0.197880000000E+02  0.547420000000E+01
 -0.600300000000E+01  0.198540000000E+02  0.546830000000E+01
 -0.648700000000E+01  0.198940000000E+02  0.532840000000E+01
 -0.462800000000E+01  0.196310000000E+02  0.524390000000E+01
 -0.505000000000E+01  0.197520000000E+02  0.561830000000E+01
 -0.558800000000E+01  0.198530000000E+02  0.578610000000E+01
 -0.614700000000E+01  0.199180000000E+02  0.573020000000E+01
 -0.667400000000E+01  0.199530000000E+02  0.552580000000E+01
 -0.460100000000E+01  0.196770000000E+02  0.553100000000E+01
 -0.507200000000E+01  0.198100000000E+02  0.593760000000E+01
 -0.567400000000E+01  0.199190000000E+02  0.609790000000E+01
 -0.629100000000E+01  0.199830000000E+02  0.599220000000E+01
 -0.686100000000E+01  0.200130000000E+02  0.572320000000E+01
 -0.457400000000E+01  0.197230000000E+02  0.581810000000E+01
 -0.509400000000E+01  0.198690000000E+02  0.625680000000E+01
 -0.576000000000E+01  0.199840000000E+02  0.640980000000E+01
 -0.643500000000E+01  0.200480000000E+02  0.625410000000E+01
 -0.704800000000E+01  0.200720000000E+02  0.592070000000E+01
 -0.458300000000E+01  0.210060000000E+02  0.409930000000E+01
 -0.480800000000E+01  0.210800000000E+02  0.440610000000E+01
 -0.511600000000E+01  0.211560000000E+02  0.464500000000E+01
 -0.547300000000E+01  0.212320000000E+02  0.481680000000E+01
 -0.586200000000E+01  0.213000000000E+02  0.489580000000E+01
 -0.441000000000E+01  0.209770000000E+02  0.407370000000E+01
 -0.461000000000E+01  0.210560000000E+02  0.445600000000E+01
 -0.493200000000E+01  0.211440000000E+02  0.475970000000E+01
 -0.533100000000E+01  0.212300000000E+02  0.496960000000E+01
 -0.576800000000E+01  0.213100000000E+02  0.508440000000E+01
 -0.423700000000E+01  0.209480000000E+02  0.404810000000E+01
 -0.441200000000E+01  0.210330000000E+02  0.450580000000E+01
 -0.474700000000E+01  0.211310000000E+02  0.487440000000E+01
 -0.518900000000E+01  0.212290000000E+02  0.512230000000E+01
 -0.567400000000E+01  0.213210000000E+02  0.527300000000E+01
 -0.406300000000E+01  0.209190000000E+02  0.402250000000E+01
 -0.421400000000E+01  0.210100000000E+02  0.455570000000E+01
 -0.456300000000E+01  0.211180000000E+02  0.498900000000E+01
 -0.504700000000E+01  0.212270000000E+02  0.527500000000E+01
 -0.557900000000E+01  0.213310000000E+02  0.546160000000E+01
 -0.389000000000E+01  0.208900000000E+02  0.399680000000E+01
 -0.401500000000E+01  0.209870000000E+02  0.460560000000E+01
 -0.437900000000E+01  0.211050000000E+02  0.510370000000E+01
 -0.490500000000E+01  0.212260000000E+02  0.542780000000E+01
 -0.548500000000E+01  0.213410000000E+02  0.565010000000E+01
 -0.457700000000E+01  0.225700000000E+02  0.391260000000E+01
 -0.483700000000E+01  0.226520000000E+02  0.428900000000E+01
 -0.517700000000E+01  0.227390000000E+02  0.458830000000E+01
 -0.559900000000E+01  0.228230000000E+02  0.475240000000E+01
 -0.605600000000E+01  0.228880000000E+02  0.468660000000E+01
 -0.451900000000E+01  0.225810000000E+02  0.409390000000E+01
 -0.483200000000E+01  0.226730000000E+02  0.448760000000E+01
 -0.523400000000E+01  0.227680000000E+02  0.477890000000E+01
 -0.571100000000E+01  0.228590000000E+02  0.491860000000E+01
 -0.621700000000E+01  0.229320000000E+02  0.485080000000E+01
 -0.446100000000E+01  0.225910000000E+02  0.427530000000E+01
 -0.482600000000E+01  0.226940000000E+02  0.468620000000E+01
 -0.529000000000E+01  0.227980000000E+02  0.496950000000E+01
 -0.582300000000E+01  0.228950000000E+02  0.508480000000E+01
 -0.637700000000E+01  0.229750000000E+02  0.501500000000E+01
 -0.440400000000E+01  0.226020000000E+02  0.445660000000E+01
 -0.482000000000E+01  0.227150000000E+02  0.488480000000E+01
 -0.534600000000E+01  0.228280000000E+02  0.516020000000E+01
 -0.593600000000E+01  0.229310000000E+02  0.525110000000E+01
 -0.653700000000E+01  0.230180000000E+02  0.517920000000E+01
 -0.434600000000E+01  0.226120000000E+02  0.463790000000E+01
 -0.481500000000E+01  0.227350000000E+02  0.508340000000E+01
 -0.540300000000E+01  0.228580000000E+02  0.535080000000E+01
 -0.604800000000E+01  0.229670000000E+02  0.541730000000E+01
 -0.669700000000E+01  0.230620000000E+02  0.534350000000E+01
 -0.468200000000E+01  0.241910000000E+02  0.418080000000E+01
 -0.507000000000E+01  0.242900000000E+02  0.448440000000E+01
 -0.553400000000E+01  0.243900000000E+02  0.464440000000E+01
 -0.602600000000E+01  0.244800000000E+02  0.465210000000E+01
 -0.650500000000E+01  0.245540000000E+02  0.451900000000E+01
 -0.451300000000E+01  0.241640000000E+02  0.421880000000E+01
 -0.492600000000E+01  0.242710000000E+02  0.456250000000E+01
 -0.542100000000E+01  0.243800000000E+02  0.476260000000E+01
 -0.595400000000E+01  0.244810000000E+02  0.480540000000E+01
 -0.648000000000E+01  0.245660000000E+02  0.468940000000E+01
 -0.434500000000E+01  0.241370000000E+02  0.425690000000E+01
 -0.478200000000E+01  0.242530000000E+02  0.464060000000E+01
 -0.530800000000E+01  0.243710000000E+02  0.488080000000E+01
 -0.588100000000E+01  0.244820000000E+02  0.495870000000E+01
 -0.645600000000E+01  0.245770000000E+02  0.485980000000E+01
 -0.417700000000E+01  0.241100000000E+02  0.429490000000E+01
 -0.463700000000E+01  0.242340000000E+02  0.471860000000E+01
 -0.519500000000E+01  0.243620000000E+02  0.499900000000E+01
 -0.580800000000E+01  0.244840000000E+02  0.511210000000E+01
 -0.643100000000E+01  0.245890000000E+02  0.503030000000E+01
 -0.400800000000E+01  0.240830000000E+02  0.433290000000E+01
 -0.449300000000E+01  0.242150000000E+02  0.479670000000E+01
 -0.508200000000E+01  0.243520000000E+02  0.511720000000E+01
 -0.573600000000E+01  0.244850000000E+02  0.526540000000E+01
 -0.640700000000E+01  0.246010000000E+02  0.520070000000E+01
 -0.422500000000E+01  0.256300000000E+02  0.378750000000E+01
 -0.454500000000E+01  0.257290000000E+02  0.415100000000E+01
 -0.495600000000E+01  0.258410000000E+02  0.440640000000E+01
 -0.541500000000E+01  0.259570000000E+02  0.455190000000E+01
 -0.589600000000E+01  0.260630000000E+02  0.450400000000E+01
 -0.413700000000E+01  0.256170000000E+02  0.388280000000E+01
 -0.448800000000E+01  0.257260000000E+02  0.428170000000E+01
 -0.493700000000E+01  0.258490000000E+02  0.456320000000E+01
 -0.544300000000E+01  0.259750000000E+02  0.471110000000E+01
 -0.597000000000E+01  0.260900000000E+02  0.464780000000E+01
 -0.405000000000E+01  0.256040000000E+02  0.397820000000E+01
 -0.443100000000E+01  0.257220000000E+02  0.441230000000E+01
 -0.491800000000E+01  0.258560000000E+02  0.472010000000E+01
 -0.547100000000E+01  0.259930000000E+02  0.487030000000E+01
 -0.604300000000E+01  0.261170000000E+02  0.479170000000E+01
 -0.396200000000E+01  0.255910000000E+02  0.407360000000E+01
 -0.437400000000E+01  0.257190000000E+02  0.454300000000E+01
 -0.489900000000E+01  0.258630000000E+02  0.487690000000E+01
 -0.549900000000E+01  0.260110000000E+02  0.502950000000E+01
 -0.611600000000E+01  0.261450000000E+02  0.493560000000E+01
 -0.387400000000E+01  0.255780000000E+02  0.416900000000E+01
 -0.431800000000E+01  0.257160000000E+02  0.467370000000E+01
 -0.488000000000E+01  0.258700000000E+02  0.503380000000E+01
 -0.552800000000E+01  0.260290000000E+02  0.518870000000E+01
 -0.618900000000E+01  0.261720000000E+02  0.507940000000E+01
 -0.388800000000E+01  0.271530000000E+02  0.383370000000E+01
 -0.425800000000E+01  0.272670000000E+02  0.419450000000E+01
 -0.473400000000E+01  0.273950000000E+02  0.437330000000E+01
 -0.524300000000E+01  0.275210000000E+02  0.437760000000E+01
 -0.574400000000E+01  0.276350000000E+02  0.424160000000E+01
 -0.379200000000E+01  0.271330000000E+02  0.388580000000E+01
 -0.418200000000E+01  0.272540000000E+02  0.428340000000E+01
 -0.467600000000E+01  0.273900000000E+02  0.451470000000E+01
 -0.521700000000E+01  0.275270000000E+02  0.456720000000E+01
 -0.575800000000E+01  0.276510000000E+02  0.442930000000E+01
 -0.369600000000E+01  0.271130000000E+02  0.393790000000E+01
 -0.410500000000E+01  0.272410000000E+02  0.437230000000E+01
 -0.461900000000E+01  0.273850000000E+02  0.465610000000E+01
 -0.519200000000E+01  0.275330000000E+02  0.475670000000E+01
 -0.577200000000E+01  0.276660000000E+02  0.461710000000E+01
 -0.360000000000E+01  0.270920000000E+02  0.398990000000E+01
 -0.402900000000E+01  0.272280000000E+02  0.446120000000E+01
 -0.456100000000E+01  0.273800000000E+02  0.479760000000E+01
 -0.516700000000E+01  0.275380000000E+02  0.494630000000E+01
 -0.578600000000E+01  0.276820000000E+02  0.480480000000E+01
 -0.350500000000E+01  0.270720000000E+02  0.404200000000E+01
 -0.395300000000E+01  0.272150000000E+02  0.455000000000E+01
 -0.450300000000E+01  0.273750000000E+02  0.493900000000E+01
 -0.514200000000E+01  0.275440000000E+02  0.513590000000E+01
 -0.580000000000E+01  0.276970000000E+02  0.499260000000E+01
 -0.355600000000E+01  0.286820000000E+02  0.376840000000E+01
 -0.392900000000E+01  0.287960000000E+02  0.413420000000E+01
 -0.441900000000E+01  0.289280000000E+02  0.430150000000E+01
 -0.493900000000E+01  0.290560000000E+02  0.426570000000E+01
 -0.543800000000E+01  0.291710000000E+02  0.410950000000E+01
 -0.353100000000E+01  0.286830000000E+02  0.389810000000E+01
 -0.394200000000E+01  0.288080000000E+02  0.427930000000E+01
 -0.446600000000E+01  0.289490000000E+02  0.446640000000E+01
 -0.502400000000E+01  0.290860000000E+02  0.443100000000E+01
 -0.555000000000E+01  0.292060000000E+02  0.423620000000E+01
 -0.350600000000E+01  0.286850000000E+02  0.402780000000E+01
 -0.395600000000E+01  0.288190000000E+02  0.442440000000E+01
 -0.451400000000E+01  0.289700000000E+02  0.463130000000E+01
 -0.510900000000E+01  0.291170000000E+02  0.459630000000E+01
 -0.566200000000E+01  0.292420000000E+02  0.436290000000E+01
 -0.348100000000E+01  0.286860000000E+02  0.415760000000E+01
 -0.396900000000E+01  0.288310000000E+02  0.456950000000E+01
 -0.456100000000E+01  0.289920000000E+02  0.479620000000E+01
 -0.519400000000E+01  0.291480000000E+02  0.476150000000E+01
 -0.577400000000E+01  0.292770000000E+02  0.448950000000E+01
 -0.345600000000E+01  0.286870000000E+02  0.428730000000E+01
 -0.398200000000E+01  0.288430000000E+02  0.471450000000E+01
 -0.460800000000E+01  0.290130000000E+02  0.496110000000E+01
 -0.527900000000E+01  0.291780000000E+02  0.492680000000E+01
 -0.588600000000E+01  0.293120000000E+02  0.461620000000E+01
 -0.303200000000E+01  0.301500000000E+02  0.357080000000E+01
 -0.331400000000E+01  0.302400000000E+02  0.396310000000E+01
 -0.372800000000E+01  0.303580000000E+02  0.420040000000E+01
 -0.420300000000E+01  0.304790000000E+02  0.418410000000E+01
 -0.466900000000E+01  0.305940000000E+02  0.406250000000E+01
 -0.297000000000E+01  0.301390000000E+02  0.368080000000E+01
 -0.329400000000E+01  0.302410000000E+02  0.408720000000E+01
 -0.374500000000E+01  0.303680000000E+02  0.433910000000E+01
 -0.425600000000E+01  0.305010000000E+02  0.435190000000E+01
 -0.476000000000E+01  0.306240000000E+02  0.422150000000E+01
 -0.290800000000E+01  0.301280000000E+02  0.379090000000E+01
 -0.327500000000E+01  0.302420000000E+02  0.421130000000E+01
 -0.376200000000E+01  0.303790000000E+02  0.447770000000E+01
 -0.431000000000E+01  0.305220000000E+02  0.451960000000E+01
 -0.485100000000E+01  0.306550000000E+02  0.438060000000E+01
 -0.284600000000E+01  0.301170000000E+02  0.390100000000E+01
 -0.325600000000E+01  0.302420000000E+02  0.433540000000E+01
 -0.377900000000E+01  0.303900000000E+02  0.461630000000E+01
 -0.436400000000E+01  0.305430000000E+02  0.468730000000E+01
 -0.494200000000E+01  0.306860000000E+02  0.453960000000E+01
 -0.278400000000E+01  0.301060000000E+02  0.401110000000E+01
 -0.323700000000E+01  0.302430000000E+02  0.445950000000E+01
 -0.379600000000E+01  0.304000000000E+02  0.475490000000E+01
 -0.441800000000E+01  0.305650000000E+02  0.485500000000E+01
 -0.503300000000E+01  0.307160000000E+02  0.469870000000E+01
 -0.278300000000E+01  0.317150000000E+02  0.368810000000E+01
 -0.316700000000E+01  0.318260000000E+02  0.397300000000E+01
 -0.363000000000E+01  0.319500000000E+02  0.408060000000E+01
 -0.410900000000E+01  0.320750000000E+02  0.410450000000E+01
 -0.456900000000E+01  0.321970000000E+02  0.417920000000E+01
 -0.269900000000E+01  0.316970000000E+02  0.377680000000E+01
 -0.310600000000E+01  0.318160000000E+02  0.409080000000E+01
 -0.359300000000E+01  0.319480000000E+02  0.423640000000E+01
 -0.410500000000E+01  0.320810000000E+02  0.426930000000E+01
 -0.459900000000E+01  0.322090000000E+02  0.428550000000E+01
 -0.261500000000E+01  0.316790000000E+02  0.386540000000E+01
 -0.304400000000E+01  0.318050000000E+02  0.420860000000E+01
 -0.355500000000E+01  0.319450000000E+02  0.439230000000E+01
 -0.410100000000E+01  0.320880000000E+02  0.443410000000E+01
 -0.463000000000E+01  0.322220000000E+02  0.439170000000E+01
 -0.253100000000E+01  0.316620000000E+02  0.395400000000E+01
 -0.298300000000E+01  0.317950000000E+02  0.432650000000E+01
 -0.351800000000E+01  0.319430000000E+02  0.454810000000E+01
 -0.409700000000E+01  0.320940000000E+02  0.459880000000E+01
 -0.466000000000E+01  0.322350000000E+02  0.449800000000E+01
 -0.244700000000E+01  0.316440000000E+02  0.404270000000E+01
 -0.292100000000E+01  0.317840000000E+02  0.444430000000E+01
 -0.348100000000E+01  0.319400000000E+02  0.470390000000E+01
 -0.409200000000E+01  0.321000000000E+02  0.476360000000E+01
 -0.469100000000E+01  0.322470000000E+02  0.460420000000E+01
 -0.386500000000E+00 -0.222150000000E+01  0.242580000000E+01
 -0.652400000000E+00 -0.245370000000E+01  0.188640000000E+01
 -0.866500000000E+00 -0.247230000000E+01  0.127950000000E+01
 -0.100700000000E+01 -0.228740000000E+01  0.680260000000E+00
 -0.405300000000E+00 -0.237590000000E+01  0.252890000000E+01
 -0.687600000000E+00 -0.262130000000E+01  0.195520000000E+01
 -0.909500000000E+00 -0.262370000000E+01  0.130900000000E+01
 -0.104600000000E+01 -0.239880000000E+01  0.679800000000E+00
 -0.424200000000E+00 -0.253020000000E+01  0.263190000000E+01
 -0.722900000000E+00 -0.278890000000E+01  0.202400000000E+01
 -0.952400000000E+00 -0.277500000000E+01  0.133850000000E+01
 -0.108500000000E+01 -0.251020000000E+01  0.679350000000E+00
 -0.443000000000E+00 -0.268450000000E+01  0.273500000000E+01
 -0.758100000000E+00 -0.295660000000E+01  0.209280000000E+01
 -0.995400000000E+00 -0.292630000000E+01  0.136810000000E+01
 -0.112400000000E+01 -0.262160000000E+01  0.678900000000E+00
 -0.461900000000E+00 -0.283880000000E+01  0.283810000000E+01
 -0.793400000000E+00 -0.312420000000E+01  0.216160000000E+01
 -0.103800000000E+01 -0.307760000000E+01  0.139760000000E+01
 -0.116400000000E+01 -0.273300000000E+01  0.678440000000E+00
 -0.216100000000E+01 -0.164380000000E+01  0.212680000000E+01
 -0.245000000000E+01 -0.175070000000E+01  0.160470000000E+01
 -0.266900000000E+01 -0.168190000000E+01  0.104830000000E+01
 -0.277300000000E+01 -0.139920000000E+01  0.521650000000E+00
 -0.219200000000E+01 -0.183740000000E+01  0.226280000000E+01
 -0.249100000000E+01 -0.191930000000E+01  0.169220000000E+01
 -0.270800000000E+01 -0.180610000000E+01  0.109520000000E+01
 -0.281100000000E+01 -0.148950000000E+01  0.534450000000E+00
 -0.222300000000E+01 -0.203110000000E+01  0.239890000000E+01
 -0.253200000000E+01 -0.208790000000E+01  0.177980000000E+01
 -0.274600000000E+01 -0.193020000000E+01  0.114210000000E+01
 -0.284800000000E+01 -0.157980000000E+01  0.547260000000E+00
 -0.225400000000E+01 -0.222470000000E+01  0.253500000000E+01
 -0.257300000000E+01 -0.225640000000E+01  0.186730000000E+01
 -0.278400000000E+01 -0.205440000000E+01  0.118900000000E+01
 -0.288600000000E+01 -0.167020000000E+01  0.560070000000E+00
 -0.228500000000E+01 -0.241840000000E+01  0.267110000000E+01
 -0.261400000000E+01 -0.242500000000E+01  0.195480000000E+01
 -0.282200000000E+01 -0.217850000000E+01  0.123590000000E+01
 -0.292300000000E+01 -0.176050000000E+01  0.572870000000E+00
 -0.318500000000E+01 -0.779090000000E+00  0.328590000000E+01
 -0.356900000000E+01 -0.963970000000E+00  0.282190000000E+01
 -0.392900000000E+01 -0.106210000000E+01  0.230480000000E+01
 -0.421300000000E+01 -0.100200000000E+01  0.174310000000E+01
 -0.312300000000E+01 -0.813550000000E+00  0.343190000000E+01
 -0.353800000000E+01 -0.105040000000E+01  0.297190000000E+01
 -0.392100000000E+01 -0.116340000000E+01  0.242970000000E+01
 -0.422100000000E+01 -0.109660000000E+01  0.183400000000E+01
 -0.306100000000E+01 -0.848010000000E+00  0.357790000000E+01
 -0.350700000000E+01 -0.113690000000E+01  0.312180000000E+01
 -0.391400000000E+01 -0.126460000000E+01  0.255460000000E+01
 -0.422900000000E+01 -0.119120000000E+01  0.192500000000E+01
 -0.299900000000E+01 -0.882470000000E+00  0.372390000000E+01
 -0.347600000000E+01 -0.122330000000E+01  0.327180000000E+01
 -0.390600000000E+01 -0.136590000000E+01  0.267950000000E+01
 -0.423700000000E+01 -0.128580000000E+01  0.201590000000E+01
 -0.293700000000E+01 -0.916930000000E+00  0.386990000000E+01
 -0.344400000000E+01 -0.130980000000E+01  0.342170000000E+01
 -0.389900000000E+01 -0.146710000000E+01  0.280440000000E+01
 -0.424500000000E+01 -0.138040000000E+01  0.210690000000E+01
 -0.464400000000E+01  0.131600000000E+00  0.382290000000E+01
 -0.506800000000E+01  0.286770000000E-01  0.340100000000E+01
 -0.536600000000E+01  0.133530000000E+00  0.288690000000E+01
 -0.551100000000E+01  0.404600000000E+00  0.236540000000E+01
 -0.453600000000E+01  0.120640000000E+00  0.397520000000E+01
 -0.500600000000E+01 -0.198910000000E-01  0.354120000000E+01
 -0.535400000000E+01  0.559350000000E-01  0.299750000000E+01
 -0.554600000000E+01  0.314480000000E+00  0.243080000000E+01
 -0.442900000000E+01  0.109690000000E+00  0.412760000000E+01
 -0.494400000000E+01 -0.684590000000E-01  0.368140000000E+01
 -0.534200000000E+01 -0.216550000000E-01  0.310810000000E+01
 -0.558100000000E+01  0.224360000000E+00  0.249630000000E+01
 -0.432100000000E+01  0.987310000000E-01  0.427990000000E+01
 -0.488100000000E+01 -0.117030000000E+00  0.382160000000E+01
 -0.533100000000E+01 -0.992450000000E-01  0.321880000000E+01
 -0.561600000000E+01  0.134240000000E+00  0.256170000000E+01
 -0.421400000000E+01  0.877740000000E-01  0.443230000000E+01
 -0.481900000000E+01 -0.165600000000E+00  0.396180000000E+01
 -0.531900000000E+01 -0.176840000000E+00  0.332940000000E+01
 -0.565200000000E+01  0.441160000000E-01  0.262710000000E+01
 -0.547000000000E+01  0.156440000000E+01  0.497220000000E+01
 -0.596500000000E+01  0.150970000000E+01  0.462110000000E+01
 -0.634000000000E+01  0.159940000000E+01  0.414910000000E+01
 -0.655900000000E+01  0.181190000000E+01  0.362130000000E+01
 -0.545800000000E+01  0.151190000000E+01  0.506520000000E+01
 -0.599100000000E+01  0.145090000000E+01  0.469060000000E+01
 -0.640000000000E+01  0.154150000000E+01  0.418750000000E+01
 -0.664800000000E+01  0.176060000000E+01  0.362320000000E+01
 -0.544700000000E+01  0.145940000000E+01  0.515820000000E+01
 -0.601700000000E+01  0.139220000000E+01  0.476020000000E+01
 -0.645900000000E+01  0.148360000000E+01  0.422590000000E+01
 -0.673700000000E+01  0.170930000000E+01  0.362520000000E+01
 -0.543500000000E+01  0.140680000000E+01  0.525120000000E+01
 -0.604300000000E+01  0.133340000000E+01  0.482970000000E+01
 -0.651900000000E+01  0.142570000000E+01  0.426430000000E+01
 -0.682700000000E+01  0.165800000000E+01  0.362710000000E+01
 -0.542300000000E+01  0.135430000000E+01  0.534410000000E+01
 -0.607000000000E+01  0.127460000000E+01  0.489920000000E+01
 -0.657900000000E+01  0.136770000000E+01  0.430270000000E+01
 -0.691600000000E+01  0.160670000000E+01  0.362900000000E+01
 -0.632500000000E+01  0.315880000000E+01  0.560950000000E+01
 -0.675100000000E+01  0.321290000000E+01  0.517730000000E+01
 -0.700000000000E+01  0.338240000000E+01  0.464920000000E+01
 -0.708600000000E+01  0.362730000000E+01  0.409480000000E+01
 -0.633900000000E+01  0.310900000000E+01  0.569880000000E+01
 -0.681300000000E+01  0.314820000000E+01  0.525940000000E+01
 -0.711100000000E+01  0.330960000000E+01  0.471010000000E+01
 -0.722700000000E+01  0.356040000000E+01  0.412110000000E+01
 -0.635200000000E+01  0.305910000000E+01  0.578800000000E+01
 -0.687400000000E+01  0.308350000000E+01  0.534140000000E+01
 -0.722200000000E+01  0.323680000000E+01  0.477090000000E+01
 -0.736800000000E+01  0.349340000000E+01  0.414740000000E+01
 -0.636600000000E+01  0.300930000000E+01  0.587720000000E+01
 -0.693600000000E+01  0.301880000000E+01  0.542350000000E+01
 -0.733300000000E+01  0.316400000000E+01  0.483180000000E+01
 -0.750900000000E+01  0.342650000000E+01  0.417370000000E+01
 -0.637900000000E+01  0.295950000000E+01  0.596640000000E+01
 -0.699800000000E+01  0.295410000000E+01  0.550550000000E+01
 -0.744300000000E+01  0.309120000000E+01  0.489260000000E+01
 -0.764900000000E+01  0.335960000000E+01  0.420010000000E+01
 -0.662700000000E+01  0.469970000000E+01  0.634830000000E+01
 -0.709400000000E+01  0.468700000000E+01  0.601840000000E+01
 -0.741000000000E+01  0.478490000000E+01  0.555150000000E+01
 -0.754100000000E+01  0.497100000000E+01  0.502520000000E+01
 -0.662800000000E+01  0.465570000000E+01  0.644800000000E+01
 -0.712700000000E+01  0.463800000000E+01  0.610460000000E+01
 -0.746900000000E+01  0.473780000000E+01  0.561380000000E+01
 -0.761400000000E+01  0.493250000000E+01  0.505690000000E+01
 -0.663000000000E+01  0.461170000000E+01  0.654760000000E+01
 -0.716100000000E+01  0.458910000000E+01  0.619090000000E+01
 -0.752800000000E+01  0.469060000000E+01  0.567610000000E+01
 -0.768800000000E+01  0.489410000000E+01  0.508860000000E+01
 -0.663100000000E+01  0.456770000000E+01  0.664730000000E+01
 -0.719400000000E+01  0.454010000000E+01  0.627710000000E+01
 -0.758800000000E+01  0.464350000000E+01  0.573850000000E+01
 -0.776100000000E+01  0.485570000000E+01  0.512030000000E+01
 -0.663200000000E+01  0.452370000000E+01  0.674700000000E+01
 -0.722800000000E+01  0.449110000000E+01  0.636330000000E+01
 -0.764700000000E+01  0.459630000000E+01  0.580080000000E+01
 -0.783400000000E+01  0.481730000000E+01  0.515210000000E+01
 -0.689000000000E+01  0.647360000000E+01  0.700240000000E+01
 -0.738000000000E+01  0.644880000000E+01  0.670510000000E+01
 -0.775500000000E+01  0.649150000000E+01  0.627430000000E+01
 -0.798800000000E+01  0.659330000000E+01  0.576020000000E+01
 -0.693000000000E+01  0.644300000000E+01  0.707170000000E+01
 -0.744800000000E+01  0.641620000000E+01  0.675910000000E+01
 -0.784600000000E+01  0.646030000000E+01  0.630590000000E+01
 -0.808800000000E+01  0.656930000000E+01  0.576150000000E+01
 -0.697000000000E+01  0.641240000000E+01  0.714110000000E+01
 -0.751600000000E+01  0.638360000000E+01  0.681310000000E+01
 -0.793800000000E+01  0.642910000000E+01  0.633750000000E+01
 -0.818700000000E+01  0.654530000000E+01  0.576290000000E+01
 -0.701000000000E+01  0.638180000000E+01  0.721040000000E+01
 -0.758500000000E+01  0.635090000000E+01  0.686710000000E+01
 -0.802900000000E+01  0.639790000000E+01  0.636900000000E+01
 -0.828700000000E+01  0.652140000000E+01  0.576420000000E+01
 -0.705100000000E+01  0.635120000000E+01  0.727970000000E+01
 -0.765300000000E+01  0.631830000000E+01  0.692110000000E+01
 -0.812000000000E+01  0.636670000000E+01  0.640060000000E+01
 -0.838700000000E+01  0.649740000000E+01  0.576550000000E+01
 -0.699100000000E+01  0.823510000000E+01  0.762580000000E+01
 -0.748500000000E+01  0.821730000000E+01  0.732310000000E+01
 -0.784400000000E+01  0.825100000000E+01  0.686880000000E+01
 -0.805300000000E+01  0.832470000000E+01  0.633180000000E+01
 -0.703300000000E+01  0.820870000000E+01  0.772530000000E+01
 -0.756000000000E+01  0.818780000000E+01  0.741170000000E+01
 -0.794500000000E+01  0.822210000000E+01  0.693400000000E+01
 -0.815500000000E+01  0.830270000000E+01  0.636170000000E+01
 -0.707400000000E+01  0.818230000000E+01  0.782490000000E+01
 -0.763600000000E+01  0.815830000000E+01  0.750040000000E+01
 -0.804600000000E+01  0.819330000000E+01  0.699920000000E+01
 -0.825700000000E+01  0.828060000000E+01  0.639170000000E+01
 -0.711600000000E+01  0.815600000000E+01  0.792450000000E+01
 -0.771100000000E+01  0.812880000000E+01  0.758910000000E+01
 -0.814700000000E+01  0.816440000000E+01  0.706450000000E+01
 -0.835900000000E+01  0.825860000000E+01  0.642170000000E+01
 -0.715800000000E+01  0.812960000000E+01  0.802410000000E+01
 -0.778700000000E+01  0.809930000000E+01  0.767780000000E+01
 -0.824800000000E+01  0.813560000000E+01  0.712970000000E+01
 -0.846100000000E+01  0.823660000000E+01  0.645160000000E+01
 -0.720600000000E+01  0.101650000000E+02  0.774760000000E+01
 -0.765000000000E+01  0.101710000000E+02  0.740040000000E+01
 -0.798300000000E+01  0.101880000000E+02  0.694320000000E+01
 -0.817400000000E+01  0.102150000000E+02  0.641130000000E+01
 -0.723900000000E+01  0.101550000000E+02  0.788060000000E+01
 -0.773000000000E+01  0.101590000000E+02  0.753460000000E+01
 -0.809500000000E+01  0.101770000000E+02  0.705360000000E+01
 -0.829100000000E+01  0.102060000000E+02  0.648240000000E+01
 -0.727200000000E+01  0.101450000000E+02  0.801350000000E+01
 -0.781100000000E+01  0.101480000000E+02  0.766880000000E+01
 -0.820800000000E+01  0.101660000000E+02  0.716400000000E+01
 -0.840900000000E+01  0.101980000000E+02  0.655360000000E+01
 -0.730400000000E+01  0.101360000000E+02  0.814650000000E+01
 -0.789200000000E+01  0.101360000000E+02  0.780300000000E+01
 -0.832100000000E+01  0.101540000000E+02  0.727440000000E+01
 -0.852600000000E+01  0.101890000000E+02  0.662480000000E+01
 -0.733700000000E+01  0.101260000000E+02  0.827950000000E+01
 -0.797200000000E+01  0.101250000000E+02  0.793720000000E+01
 -0.843300000000E+01  0.101430000000E+02  0.738480000000E+01
 -0.864300000000E+01  0.101800000000E+02  0.669590000000E+01
 -0.719200000000E+01  0.120070000000E+02  0.746840000000E+01
 -0.757100000000E+01  0.120170000000E+02  0.707300000000E+01
 -0.781000000000E+01  0.120150000000E+02  0.657760000000E+01
 -0.793400000000E+01  0.120050000000E+02  0.604000000000E+01
 -0.722500000000E+01  0.120120000000E+02  0.755380000000E+01
 -0.764500000000E+01  0.120250000000E+02  0.714930000000E+01
 -0.791900000000E+01  0.120240000000E+02  0.663160000000E+01
 -0.805200000000E+01  0.120130000000E+02  0.605950000000E+01
 -0.725800000000E+01  0.120170000000E+02  0.763910000000E+01
 -0.772000000000E+01  0.120320000000E+02  0.722570000000E+01
 -0.802700000000E+01  0.120330000000E+02  0.668550000000E+01
 -0.817000000000E+01  0.120210000000E+02  0.607900000000E+01
 -0.729100000000E+01  0.120220000000E+02  0.772450000000E+01
 -0.779400000000E+01  0.120390000000E+02  0.730210000000E+01
 -0.813500000000E+01  0.120420000000E+02  0.673950000000E+01
 -0.828700000000E+01  0.120290000000E+02  0.609850000000E+01
 -0.732400000000E+01  0.120270000000E+02  0.780980000000E+01
 -0.786900000000E+01  0.120470000000E+02  0.737840000000E+01
 -0.824300000000E+01  0.120500000000E+02  0.679340000000E+01
 -0.840500000000E+01  0.120370000000E+02  0.611810000000E+01
 -0.744800000000E+01  0.136810000000E+02  0.681280000000E+01
 -0.774700000000E+01  0.136700000000E+02  0.641370000000E+01
 -0.788300000000E+01  0.136390000000E+02  0.594220000000E+01
 -0.783000000000E+01  0.135910000000E+02  0.545530000000E+01
 -0.737400000000E+01  0.136920000000E+02  0.700140000000E+01
 -0.773100000000E+01  0.136860000000E+02  0.660450000000E+01
 -0.793500000000E+01  0.136600000000E+02  0.612200000000E+01
 -0.794300000000E+01  0.136130000000E+02  0.560000000000E+01
 -0.730000000000E+01  0.137030000000E+02  0.719010000000E+01
 -0.771500000000E+01  0.137020000000E+02  0.679530000000E+01
 -0.798800000000E+01  0.136800000000E+02  0.630180000000E+01
 -0.805500000000E+01  0.136360000000E+02  0.574470000000E+01
 -0.722600000000E+01  0.137140000000E+02  0.737880000000E+01
 -0.769900000000E+01  0.137180000000E+02  0.698600000000E+01
 -0.804000000000E+01  0.137010000000E+02  0.648160000000E+01
 -0.816800000000E+01  0.136580000000E+02  0.588950000000E+01
 -0.715200000000E+01  0.137250000000E+02  0.756740000000E+01
 -0.768400000000E+01  0.137340000000E+02  0.717680000000E+01
 -0.809200000000E+01  0.137220000000E+02  0.666130000000E+01
 -0.828000000000E+01  0.136810000000E+02  0.603420000000E+01
 -0.673200000000E+01  0.152680000000E+02  0.671900000000E+01
 -0.705400000000E+01  0.152490000000E+02  0.636520000000E+01
 -0.738600000000E+01  0.152310000000E+02  0.601060000000E+01
 -0.762800000000E+01  0.151980000000E+02  0.559580000000E+01
 -0.677000000000E+01  0.153000000000E+02  0.694160000000E+01
 -0.715700000000E+01  0.152870000000E+02  0.658720000000E+01
 -0.752000000000E+01  0.152670000000E+02  0.619490000000E+01
 -0.777000000000E+01  0.152280000000E+02  0.572890000000E+01
 -0.680800000000E+01  0.153330000000E+02  0.716420000000E+01
 -0.725900000000E+01  0.153260000000E+02  0.680920000000E+01
 -0.765400000000E+01  0.153040000000E+02  0.637910000000E+01
 -0.791200000000E+01  0.152580000000E+02  0.586200000000E+01
 -0.684600000000E+01  0.153660000000E+02  0.738680000000E+01
 -0.736200000000E+01  0.153640000000E+02  0.703110000000E+01
 -0.778700000000E+01  0.153400000000E+02  0.656340000000E+01
 -0.805300000000E+01  0.152880000000E+02  0.599500000000E+01
 -0.688400000000E+01  0.153990000000E+02  0.760940000000E+01
 -0.746400000000E+01  0.154020000000E+02  0.725310000000E+01
 -0.792100000000E+01  0.153760000000E+02  0.674770000000E+01
 -0.819500000000E+01  0.153180000000E+02  0.612810000000E+01
 -0.658000000000E+01  0.167980000000E+02  0.584510000000E+01
 -0.701100000000E+01  0.168020000000E+02  0.562440000000E+01
 -0.733400000000E+01  0.167670000000E+02  0.525880000000E+01
 -0.751300000000E+01  0.166990000000E+02  0.480830000000E+01
 -0.677600000000E+01  0.168640000000E+02  0.608230000000E+01
 -0.724700000000E+01  0.168610000000E+02  0.580160000000E+01
 -0.761000000000E+01  0.168210000000E+02  0.538460000000E+01
 -0.780300000000E+01  0.167430000000E+02  0.487170000000E+01
 -0.697100000000E+01  0.169310000000E+02  0.631940000000E+01
 -0.748400000000E+01  0.169210000000E+02  0.597880000000E+01
 -0.788600000000E+01  0.168750000000E+02  0.551040000000E+01
 -0.809300000000E+01  0.167860000000E+02  0.493520000000E+01
 -0.716700000000E+01  0.169980000000E+02  0.655660000000E+01
 -0.772000000000E+01  0.169810000000E+02  0.615610000000E+01
 -0.816200000000E+01  0.169290000000E+02  0.563620000000E+01
 -0.838300000000E+01  0.168300000000E+02  0.499860000000E+01
 -0.736300000000E+01  0.170640000000E+02  0.679380000000E+01
 -0.795700000000E+01  0.170400000000E+02  0.633330000000E+01
 -0.843900000000E+01  0.169830000000E+02  0.576190000000E+01
 -0.867300000000E+01  0.168740000000E+02  0.506210000000E+01
 -0.659000000000E+01  0.183560000000E+02  0.548820000000E+01
 -0.697800000000E+01  0.183420000000E+02  0.518560000000E+01
 -0.729900000000E+01  0.183050000000E+02  0.481040000000E+01
 -0.754900000000E+01  0.182500000000E+02  0.438790000000E+01
 -0.667400000000E+01  0.184220000000E+02  0.575800000000E+01
 -0.711900000000E+01  0.184090000000E+02  0.542830000000E+01
 -0.749100000000E+01  0.183710000000E+02  0.501650000000E+01
 -0.777000000000E+01  0.183090000000E+02  0.454150000000E+01
 -0.675800000000E+01  0.184870000000E+02  0.602770000000E+01
 -0.726000000000E+01  0.184760000000E+02  0.567090000000E+01
 -0.768200000000E+01  0.184360000000E+02  0.522260000000E+01
 -0.799200000000E+01  0.183670000000E+02  0.469500000000E+01
 -0.684200000000E+01  0.185520000000E+02  0.629750000000E+01
 -0.740100000000E+01  0.185430000000E+02  0.591350000000E+01
 -0.787400000000E+01  0.185020000000E+02  0.542870000000E+01
 -0.821400000000E+01  0.184260000000E+02  0.484860000000E+01
 -0.692600000000E+01  0.186180000000E+02  0.656730000000E+01
 -0.754200000000E+01  0.186090000000E+02  0.615620000000E+01
 -0.806500000000E+01  0.185680000000E+02  0.563480000000E+01
 -0.843600000000E+01  0.184840000000E+02  0.500220000000E+01
 -0.671200000000E+01  0.198590000000E+02  0.495160000000E+01
 -0.697100000000E+01  0.198290000000E+02  0.457630000000E+01
 -0.713100000000E+01  0.197760000000E+02  0.414830000000E+01
 -0.723200000000E+01  0.197140000000E+02  0.371050000000E+01
 -0.693000000000E+01  0.199110000000E+02  0.508310000000E+01
 -0.721100000000E+01  0.198740000000E+02  0.465260000000E+01
 -0.737500000000E+01  0.198120000000E+02  0.416550000000E+01
 -0.744500000000E+01  0.197350000000E+02  0.366710000000E+01
 -0.714700000000E+01  0.199630000000E+02  0.521460000000E+01
 -0.745100000000E+01  0.199190000000E+02  0.472900000000E+01
 -0.762000000000E+01  0.198470000000E+02  0.418280000000E+01
 -0.765700000000E+01  0.197550000000E+02  0.362360000000E+01
 -0.736500000000E+01  0.200150000000E+02  0.534610000000E+01
 -0.769100000000E+01  0.199650000000E+02  0.480530000000E+01
 -0.786400000000E+01  0.198830000000E+02  0.420000000000E+01
 -0.787000000000E+01  0.197760000000E+02  0.358010000000E+01
 -0.758200000000E+01  0.200670000000E+02  0.547760000000E+01
 -0.793100000000E+01  0.200100000000E+02  0.488160000000E+01
 -0.810800000000E+01  0.199190000000E+02  0.421730000000E+01
 -0.808200000000E+01  0.197970000000E+02  0.353670000000E+01
 -0.622000000000E+01  0.213340000000E+02  0.474390000000E+01
 -0.654500000000E+01  0.213540000000E+02  0.452460000000E+01
 -0.676900000000E+01  0.213470000000E+02  0.420650000000E+01
 -0.686900000000E+01  0.213140000000E+02  0.383280000000E+01
 -0.619300000000E+01  0.213580000000E+02  0.496540000000E+01
 -0.658700000000E+01  0.213910000000E+02  0.475710000000E+01
 -0.688500000000E+01  0.213930000000E+02  0.442930000000E+01
 -0.705500000000E+01  0.213660000000E+02  0.402310000000E+01
 -0.616500000000E+01  0.213830000000E+02  0.518690000000E+01
 -0.662900000000E+01  0.214270000000E+02  0.498970000000E+01
 -0.700100000000E+01  0.214390000000E+02  0.465210000000E+01
 -0.724000000000E+01  0.214180000000E+02  0.421330000000E+01
 -0.613800000000E+01  0.214070000000E+02  0.540840000000E+01
 -0.667100000000E+01  0.214630000000E+02  0.522230000000E+01
 -0.711600000000E+01  0.214850000000E+02  0.487490000000E+01
 -0.742600000000E+01  0.214700000000E+02  0.440360000000E+01
 -0.611100000000E+01  0.214320000000E+02  0.563000000000E+01
 -0.671300000000E+01  0.214990000000E+02  0.545480000000E+01
 -0.723200000000E+01  0.215310000000E+02  0.509770000000E+01
 -0.761100000000E+01  0.215220000000E+02  0.459380000000E+01
 -0.651000000000E+01  0.229540000000E+02  0.463000000000E+01
 -0.692800000000E+01  0.229990000000E+02  0.443570000000E+01
 -0.720000000000E+01  0.230010000000E+02  0.405810000000E+01
 -0.727400000000E+01  0.229620000000E+02  0.359660000000E+01
 -0.670500000000E+01  0.229960000000E+02  0.473550000000E+01
 -0.714500000000E+01  0.230390000000E+02  0.448420000000E+01
 -0.742300000000E+01  0.230360000000E+02  0.405390000000E+01
 -0.748200000000E+01  0.229890000000E+02  0.354380000000E+01
 -0.690000000000E+01  0.230390000000E+02  0.484110000000E+01
 -0.736200000000E+01  0.230780000000E+02  0.453270000000E+01
 -0.764600000000E+01  0.230700000000E+02  0.404970000000E+01
 -0.769100000000E+01  0.230170000000E+02  0.349100000000E+01
 -0.709400000000E+01  0.230810000000E+02  0.494660000000E+01
 -0.757900000000E+01  0.231180000000E+02  0.458120000000E+01
 -0.786900000000E+01  0.231050000000E+02  0.404550000000E+01
 -0.790000000000E+01  0.230440000000E+02  0.343820000000E+01
 -0.728900000000E+01  0.231230000000E+02  0.505210000000E+01
 -0.779600000000E+01  0.231580000000E+02  0.462980000000E+01
 -0.809200000000E+01  0.231400000000E+02  0.404130000000E+01
 -0.810800000000E+01  0.230710000000E+02  0.338540000000E+01
 -0.685200000000E+01  0.245850000000E+02  0.417740000000E+01
 -0.721000000000E+01  0.246170000000E+02  0.383440000000E+01
 -0.744200000000E+01  0.246180000000E+02  0.339610000000E+01
 -0.748500000000E+01  0.245790000000E+02  0.290430000000E+01
 -0.689300000000E+01  0.246100000000E+02  0.435910000000E+01
 -0.727900000000E+01  0.246440000000E+02  0.397850000000E+01
 -0.753100000000E+01  0.246440000000E+02  0.349780000000E+01
 -0.759500000000E+01  0.246050000000E+02  0.296160000000E+01
 -0.693400000000E+01  0.246340000000E+02  0.454090000000E+01
 -0.734900000000E+01  0.246700000000E+02  0.412260000000E+01
 -0.762000000000E+01  0.246700000000E+02  0.359950000000E+01
 -0.770500000000E+01  0.246300000000E+02  0.301890000000E+01
 -0.697600000000E+01  0.246590000000E+02  0.472270000000E+01
 -0.741800000000E+01  0.246960000000E+02  0.426670000000E+01
 -0.771000000000E+01  0.246960000000E+02  0.370120000000E+01
 -0.781500000000E+01  0.246560000000E+02  0.307610000000E+01
 -0.701700000000E+01  0.246840000000E+02  0.490440000000E+01
 -0.748700000000E+01  0.247220000000E+02  0.441080000000E+01
 -0.779900000000E+01  0.247210000000E+02  0.380290000000E+01
 -0.792500000000E+01  0.246810000000E+02  0.313340000000E+01
 -0.631000000000E+01  0.261380000000E+02  0.423370000000E+01
 -0.670500000000E+01  0.262060000000E+02  0.393860000000E+01
 -0.701900000000E+01  0.262500000000E+02  0.355830000000E+01
 -0.716600000000E+01  0.262490000000E+02  0.308520000000E+01
 -0.642700000000E+01  0.261730000000E+02  0.436020000000E+01
 -0.684400000000E+01  0.262430000000E+02  0.401800000000E+01
 -0.716100000000E+01  0.262840000000E+02  0.358220000000E+01
 -0.730500000000E+01  0.262790000000E+02  0.305930000000E+01
 -0.654400000000E+01  0.262090000000E+02  0.448680000000E+01
 -0.698200000000E+01  0.262810000000E+02  0.409740000000E+01
 -0.730300000000E+01  0.263180000000E+02  0.360610000000E+01
 -0.744400000000E+01  0.263080000000E+02  0.303340000000E+01
 -0.666100000000E+01  0.262450000000E+02  0.461340000000E+01
 -0.712000000000E+01  0.263180000000E+02  0.417680000000E+01
 -0.744500000000E+01  0.263520000000E+02  0.363010000000E+01
 -0.758300000000E+01  0.263380000000E+02  0.300760000000E+01
 -0.677700000000E+01  0.262810000000E+02  0.474000000000E+01
 -0.725900000000E+01  0.263550000000E+02  0.425620000000E+01
 -0.758700000000E+01  0.263860000000E+02  0.365400000000E+01
 -0.772100000000E+01  0.263680000000E+02  0.298170000000E+01
 -0.617600000000E+01  0.277230000000E+02  0.394150000000E+01
 -0.651000000000E+01  0.277790000000E+02  0.353180000000E+01
 -0.673200000000E+01  0.278020000000E+02  0.304790000000E+01
 -0.683600000000E+01  0.277950000000E+02  0.252490000000E+01
 -0.623000000000E+01  0.277470000000E+02  0.411910000000E+01
 -0.660300000000E+01  0.278120000000E+02  0.368980000000E+01
 -0.685200000000E+01  0.278400000000E+02  0.317520000000E+01
 -0.696600000000E+01  0.278320000000E+02  0.261320000000E+01
 -0.628400000000E+01  0.277720000000E+02  0.429670000000E+01
 -0.669500000000E+01  0.278440000000E+02  0.384780000000E+01
 -0.697300000000E+01  0.278780000000E+02  0.330250000000E+01
 -0.709600000000E+01  0.278700000000E+02  0.270160000000E+01
 -0.633900000000E+01  0.277970000000E+02  0.447430000000E+01
 -0.678700000000E+01  0.278770000000E+02  0.400580000000E+01
 -0.709400000000E+01  0.279160000000E+02  0.342990000000E+01
 -0.722700000000E+01  0.279080000000E+02  0.279000000000E+01
 -0.639300000000E+01  0.278210000000E+02  0.465190000000E+01
 -0.687900000000E+01  0.279100000000E+02  0.416380000000E+01
 -0.721400000000E+01  0.279530000000E+02  0.355720000000E+01
 -0.735700000000E+01  0.279450000000E+02  0.287830000000E+01
 -0.585900000000E+01  0.292580000000E+02  0.378530000000E+01
 -0.617900000000E+01  0.293130000000E+02  0.335630000000E+01
 -0.638600000000E+01  0.293370000000E+02  0.285980000000E+01
 -0.647000000000E+01  0.293270000000E+02  0.232920000000E+01
 -0.599400000000E+01  0.292970000000E+02  0.387780000000E+01
 -0.633000000000E+01  0.293540000000E+02  0.341210000000E+01
 -0.654500000000E+01  0.293770000000E+02  0.287640000000E+01
 -0.661400000000E+01  0.293620000000E+02  0.230540000000E+01
 -0.612900000000E+01  0.293360000000E+02  0.397040000000E+01
 -0.648100000000E+01  0.293950000000E+02  0.346780000000E+01
 -0.670300000000E+01  0.294170000000E+02  0.289290000000E+01
 -0.675800000000E+01  0.293960000000E+02  0.228170000000E+01
 -0.626300000000E+01  0.293750000000E+02  0.406290000000E+01
 -0.663200000000E+01  0.294360000000E+02  0.352350000000E+01
 -0.686100000000E+01  0.294580000000E+02  0.290950000000E+01
 -0.690300000000E+01  0.294310000000E+02  0.225800000000E+01
 -0.639800000000E+01  0.294130000000E+02  0.415550000000E+01
 -0.678300000000E+01  0.294770000000E+02  0.357920000000E+01
 -0.702000000000E+01  0.294980000000E+02  0.292610000000E+01
 -0.704700000000E+01  0.294660000000E+02  0.223430000000E+01
 -0.512900000000E+01  0.307030000000E+02  0.386160000000E+01
 -0.554200000000E+01  0.307970000000E+02  0.357740000000E+01
 -0.587000000000E+01  0.308640000000E+02  0.319680000000E+01
 -0.603600000000E+01  0.308850000000E+02  0.271920000000E+01
 -0.524300000000E+01  0.307380000000E+02  0.398850000000E+01
 -0.566300000000E+01  0.308310000000E+02  0.365740000000E+01
 -0.598100000000E+01  0.308940000000E+02  0.322580000000E+01
 -0.612700000000E+01  0.309080000000E+02  0.270600000000E+01
 -0.535700000000E+01  0.307730000000E+02  0.411540000000E+01
 -0.578400000000E+01  0.308660000000E+02  0.373740000000E+01
 -0.609200000000E+01  0.309240000000E+02  0.325480000000E+01
 -0.621800000000E+01  0.309310000000E+02  0.269280000000E+01
 -0.547000000000E+01  0.308080000000E+02  0.424230000000E+01
 -0.590500000000E+01  0.309010000000E+02  0.381740000000E+01
 -0.620300000000E+01  0.309530000000E+02  0.328390000000E+01
 -0.630900000000E+01  0.309530000000E+02  0.267960000000E+01
 -0.558400000000E+01  0.308430000000E+02  0.436920000000E+01
 -0.602700000000E+01  0.309360000000E+02  0.389750000000E+01
 -0.631300000000E+01  0.309830000000E+02  0.331290000000E+01
 -0.639900000000E+01  0.309760000000E+02  0.266630000000E+01
 -0.503000000000E+01  0.323110000000E+02  0.407440000000E+01
 -0.535000000000E+01  0.323770000000E+02  0.370510000000E+01
 -0.554100000000E+01  0.324050000000E+02  0.324630000000E+01
 -0.562900000000E+01  0.324060000000E+02  0.275660000000E+01
 -0.507900000000E+01  0.323260000000E+02  0.412520000000E+01
 -0.541800000000E+01  0.323950000000E+02  0.372400000000E+01
 -0.563100000000E+01  0.324280000000E+02  0.323620000000E+01
 -0.572700000000E+01  0.324290000000E+02  0.271220000000E+01
 -0.512900000000E+01  0.323410000000E+02  0.417600000000E+01
 -0.548700000000E+01  0.324140000000E+02  0.374300000000E+01
 -0.572200000000E+01  0.324510000000E+02  0.322610000000E+01
 -0.582600000000E+01  0.324530000000E+02  0.266780000000E+01
 -0.517800000000E+01  0.323560000000E+02  0.422680000000E+01
 -0.555500000000E+01  0.324320000000E+02  0.376190000000E+01
 -0.581200000000E+01  0.324740000000E+02  0.321600000000E+01
 -0.592500000000E+01  0.324760000000E+02  0.262340000000E+01
 -0.522800000000E+01  0.323710000000E+02  0.427760000000E+01
 -0.562300000000E+01  0.324510000000E+02  0.378090000000E+01
 -0.590300000000E+01  0.324970000000E+02  0.320590000000E+01
 -0.602400000000E+01  0.325000000000E+02  0.257900000000E+01
CELLS       5175     46575
8     42     43     37     36      6      7      1      0
8     43     44     38     37      7      8      2      1
8     44     45     39     38      8      9      3      2
8     45     46     40     39      9     10      4      3
8     46     47     41     40     10     11      5      4
8     48     49     43     42     12     13      7      6
8     49     50     44     43     13     14      8      7
8     50     51     45     44     14     15      9      8
8     51     52     46     45     15     16     10      9
8     52     53     47     46     16     17     11     10
8     54     55     49     48     18     19     13     12
8     55     56     50     49     19     20     14     13
8     56     57     51     50     20     21     15     14
8     57     58     52     51     21     22     16     15
8     58     59     53     52     22     23     17     16
8     60     61     55     54     24     25     19     18
8     61     62     56     55     25     26     20     19
8     62     63     57     56     26     27     21     20
8     63     64     58     57     27     28     22     21
8     64     65     59     58     28     29     23     22
8     66     67     61     60     30     31     25     24
8     67     68     62     61     31     32     26     25
8     68     69     63     62     32     33     27     26
8     69     70     64     63     33     34     28     27
8     70     71     65     64     34     35     29     28
8     78     79     73     72     42     43     37     36
8     79     80     74     73     43     44     38     37
8     80     81     75     74     44     45     39     38
8     81     82     76     75     45     46     40     39
8     82     83     77     76     46     47     41     40
8     84     85     79     78     48     49     43     42
8     85     86     80     79     49     50     44     43
8     86     87     81     80     50     51     45     44
8     87     88     82     81     51     52     46     45
8     88     89     83     82     52     53     47     46
8     90     91     85     84     54     55     49     48
8     91     92     86     85     55     56     50     49
8     92     93     87     86     56     57     51     50
8     93     94     88     87     57     58     52     51
8     94     95     89     88     58     59     53     52
8     96     97     91     90     60     61     55     54
8     97     98     92     91     61     62     56     55
8     98     99     93     92     62     63     57     56
8     99    100     94     93     63     64     58     57
8    100    101     95     94     64     65     59     58
8    102    103     97     96     66     67     61     60
8    103    104     98     97     67     68     62     61
8    104    105     99     98     68     69     63     62
8    105    106    100     99     69     70     64     63
8    106    107    101    100     70     71     65     64
8    114    115    109    108     78     79     73     72
8    115    116    110    109     79     80     74     73
8    116    117    111    110     80     81     75     74
8    117    118    112    111     81     82     76     75
8    118    119    113    112     82     83     77     76
8    120    121    115    114     84     85     79     78
8    121    122    116    115     85     86     80     79
8    122    123    117    116     86     87     81     80
8    123    124    118    117     87     88     82     81
8    124    125    119    118     88     89     83     82
8    126    127    121    120     90     91     85     84
8    127    128    122    121     91     92     86     85
8    128    129    123    122     92     93     87     86
8    129    130    124    123     93     94     88     87
8    130    131    125    124     94     95     89     88
8    132    133    127    126     96     97     91     90
8    133    134    128    127     97     98     92     91
8    134    135    129    128     98     99     93     92
8    135    136    130    129     99    100     94     93
8    136    137    131    130    100    101     95     94
8    138    139    133    132    102    103     97     96
8    139    140    134    133    103    104     98     97
8    140    141    135    134    104    105     99     98
8    141    142    136    135    105    106    100     99
8    142    143    137    136    106    107    101    100
8    150    151    145    144    114    115    109    108
8    151    152    146    145    115    116    110    109
8    152    153    147    146    116    117    111    110
8    153    154    148    147    117    118    112    111
8    154    155    149    148    118    119    113    112
8    156    157    151    150    120    121    115    114
8    157    158    152    151    121    122    116    115
8    158    159    153    152    122    123    117    116
8    159    160    154    153    123    124    118    117
8    160    161    155    154    124    125    119    118
8    162    163    157    156    126    127    121    120
8    163    164    158    157    127    128    122    121
8    164    165    159    158    128    129    123    122
8    165    166    160    159    129    130    124    123
8    166    167    161    160    130    131    125    124
8    168    169    163    162    132    133    127    126
8    169    170    164    163    133    134    128    127
8    170    171    165    164    134    135    129    128
8    171    172    166    165    135    136    130    129
8    172    173    167    166    136    137    131    130
8    174    175    169    168    138    139    133    132
8    175    176    170    169    139    140    134    133
8    176    177    171    170    140    141    135    134
8    177    178    172    171    141    142    136    135
8    178    179    173    172    142    143    137    136
8    186    187    181    180    150    151    145    144
8    187    188    182    181    151    152    146    145
8    188    189    183    182    152    153    147    146
8    189    190    184    183    153    154    148    147
8    190    191    185    184    154    155    149    148
8    192    193    187    186    156    157    151    150
8    193    194    188    187    157    158    152    151
8    194    195    189    188    158    159    153    152
8    195    196    190    189    159    160    154    153
8    196    197    191    190    160    161    155    154
8    198    199    193    192    162    163    157    156
8    199    200    194    193    163    164    158    157
8    200    201    195    194    164    165    159    158
8    201    202    196    195    165    166    160    159
8    202    203    197    196    166    167    161    160
8    204    205    199    198    168    169    163    162
8    205    206    200    199    169    170    164    163
8    206    207    201    200    170    171    165    164
8    207    208    202    201    171    172    166    165
8    208    209    203    202    172    173    167    166
8    210    211    205    204    174    175    169    168
8    211    212    206    205    175    176    170    169
8    212    213    207    206    176    177    171    170
8    213    214    208    207    177    178    172    171
8    214    215    209    208    178    179    173    172
8    222    223    217    216    186    187    181    180
8    223    224    218    217    187    188    182    181
8    224    225    219    218    188    189    183    182
8    225    226    220    219    189    190    184    183
8    226    227    221    220    190    191    185    184
8    228    229    223    222    192    193    187    186
8    229    230    224    223    193    194    188    187
8    230    231    225    224    194    195    189    188
8    231    232    226    225    195    196    190    189
8    232    233    227    226    196    197    191    190
8    234    235    229    228    198    199    193    192
8    235    236    230    229    199    200    194    193
8    236    237    231    230    200    201    195    194
8    237    238    232    231    201    202    196    195
8    238    239    233    232    202    203    197    196
8    240    241    235    234    204    205    199    198
8    241    242    236    235    205    206    200    199
8    242    243    237    236    206    207    201    200
8    243    244    238    237    207    208    202    201
8    244    245    239    238    208    209    203    202
8    246    247    241    240    210    211    205    204
8    247    248    242    241    211    212    206    205
8    248    249    243    242    212    213    207    206
8    249    250    244    243    213    214    208    207
8    250    251    245    244    214    215    209    208
8    258    259    253    252    222    223    217    216
8    259    260    254    253    223    224    218    217
8    260    261    255    254    224    225    219    218
8    261    262    256    255    225    226    220    219
8    262    263    257    256    226    227    221    220
8    264    265    259    258    228    229    223    222
8    265    266    260    259    229    230    224    223
8    266    267    261    260    230    231    225    224
8    267    268    262    261    231    232    226    225
8    268    269    263    262    232    233    227    226
8    270    271    265    264    234    235    229    228
8    271    272    266    265    235    236    230    229
8    272    273    267    266    236    237    231    230
8    273    274    268    267    237    238    232    231
8    274    275    269    268    238    239    233    232
8    276    277    271    270    240    241    235    234
8    277    278    272    271    241    242    236    235
8    278    279    273    272    242    243    237    236
8    279    280    274    273    243    244    238    237
8    280    281    275    274    244    245    239    238
8    282    283    277    276    246    247    241    240
8    283    284    278    277    247    248    242    241
8    284    285    279    278    248    249    243    242
8    285    286    280    279    249    250    244    243
8    286    287    281    280    250    251    245    244
8    294    295    289    288    258    259    253    252
8    295    296    290    289    259    260    254    253
8    296    297    291    290    260    261    255    254
8    297    298    292    291    261    262    256    255
8    298    299    293    292    262    263    257    256
8    300    301    295    294    264    265    259    258
8    301    302    296    295    265    266    260    259
8    302    303    297    296    266    267    261    260
8    303    304    298    297    267    268    262    261
8    304    305    299    298    268    269    263    262
8    306    307    301    300    270    271    265    264
8    307    308    302    301    271    272    266    265
8    308    309    303    302    272    273    267    266
8    309    310    304    303    273    274    268    267
8    310    311    305    304    274    275    269    268
8    312    313    307    306    276    277    271    270
8    313    314    308    307    277    278    272    271
8    314    315    309    308    278    279    273    272
8    315    316    310    309    279    280    274    273
8    316    317    311    310    280    281    275    274
8    318    319    313    312    282    283    277    276
8    319    320    314    313    283    284    278    277
8    320    321    315    314    284    285    279    278
8    321    322    316    315    285    286    280    279
8    322    323    317    316    286    287    281    280
8    330    331    325    324    294    295    289    288
8    331    332    326    325    295    296    290    289
8    332    333    327    326    296    297    291    290
8    333    334    328    327    297    298    292    291
8    334    335    329    328    298    299    293    292
8    336    337    331    330    300    301    295    294
8    337    338    332    331    301    302    296    295
8    338    339    333    332    302    303    297    296
8    339    340    334    333    303    304    298    297
8    340    341    335    334    304    305    299    298
8    342    343    337    336    306    307    301    300
8    343    344    338    337    307    308    302    301
8    344    345    339    338    308    309    303    302
8    345    346    340    339    309    310    304    303
8    346    347    341    340    310    311    305    304
8    348    349    343    342    312    313    307    306
8    349    350    344    343    313    314    308    307
8    350    351    345    344    314    315    309    308
8    351    352    346    345    315    316    310    309
8    352    353    347    346    316    317    311    310
8    354    355    349    348    318    319    313    312
8    355    356    350    349    319    320    314    313
8    356    357    351    350    320    321    315    314
8    357    358    352    351    321    322    316    315
8    358    359    353    352    322    323    317    316
8    366    367    361    360    330    331    325    324
8    367    368    362    361    331    332    326    325
8    368    369    363    362    332    333    327    326
8    369    370    364    363    333    334    328    327
8    370    371    365    364    334    335    329    328
8    372    373    367    366    336    337    331    330
8    373    374    368    367    337    338    332    331
8    374    375    369    368    338    339    333    332
8    375    376    370    369    339    340    334    333
8    376    377    371    370    340    341    335    334
8    378    379    373    372    342    343    337    336
8    379    380    374    373    343    344    338    337
8    380    381    375    374    344    345    339    338
8    381    382    376    375    345    346    340    339
8    382    383    377    376    346    347    341    340
8    384    385    379    378    348    349    343    342
8    385    386    380    379    349    350    344    343
8    386    387    381    380    350    351    345    344
8    387    388    382    381    351    352    346    345
8    388    389    383    382    352    353    347    346
8    390    391    385    384    354    355    349    348
8    391    392    386    385    355    356    350    349
8    392    393    387    386    356    357    351    350
8    393    394    388    387    357    358    352    351
8    394    395    389    388    358    359    353    352
8    402    403    397    396    366    367    361    360
8    403    404    398    397    367    368    362    361
8    404    405    399    398    368    369    363    362
8    405    406    400    399    369    370    364    363
8    406    407    401    400    370    371    365    364
8    408    409    403    402    372    373    367    366
8    409    410    404    403    373    374    368    367
8    410    411    405    404    374    375    369    368
8    411    412    406    405    375    376    370    369
8    412    413    407    406    376    377    371    370
8    414    415    409    408    378    379    373    372
8    415    416    410    409    379    380    374    373
8    416    417    411    410    380    381    375    374
8    417    418    412    411    381    382    376    375
8    418    419    413    412    382    383    377    376
8    420    421    415    414    384    385    379    378
8    421    422    416    415    385    386    380    379
8    422    423    417    416    386    387    381    380
8    423    424    418    417    387    388    382    381
8    424    425    419    418    388    389    383    382
8    426    427    421    420    390    391    385    384
8    427    428    422    421    391    392    386    385
8    428    429    423    422    392    393    387    386
8    429    430    424    423    393    394    388    387
8    430    431    425    424    394    395    389    388
8    438    439    433    432    402    403    397    396
8    439    440    434    433    403    404    398    397
8    440    441    435    434    404    405    399    398
8    441    442    436    435    405    406    400    399
8    442    443    437    436    406    407    401    400
8    444    445    439    438    408    409    403    402
8    445    446    440    439    409    410    404    403
8    446    447    441    440    410    411    405    404
8    447    448    442    441    411    412    406    405
8    448    449    443    442    412    413    407    406
8    450    451    445    444    414    415    409    408
8    451    452    446    445    415    416    410    409
8    452    453    447    446    416    417    411    410
8    453    454    448    447    417    418    412    411
8    454    455    449    448    418    419    413    412
8    456    457    451    450    420    421    415    414
8    457    458    452    451    421    422    416    415
8    458    459    453    452    422    423    417    416
8    459    460    454    453    423    424    418    417
8    460    461    455    454    424    425    419    418
8    462    463    457    456    426    427    421    420
8    463    464    458    457    427    428    422    421
8    464    465    459    458    428    429    423    422
8    465    466    460    459    429    430    424    423
8    466    467    461    460    430    431    425    424
8    474    475    469    468    438    439    433    432
8    475    476    470    469    439    440    434    433
8    476    477    471    470    440    441    435    434
8    477    478    472    471    441    442    436    435
8    478    479    473    472    442    443    437    436
8    480    481    475    474    444    445    439    438
8    481    482    476    475    445    446    440    439
8    482    483    477    476    446    447    441    440
8    483    484    478    477    447    448    442    441
8    484    485    479    478    448    449    443    442
8    486    487    481    480    450    451    445    444
8    487    488    482    481    451    452    446    445
8    488    489    483    482    452    453    447    446
8    489    490    484    483    453    454    448    447
8    490    491    485    484    454    455    449    448
8    492    493    487    486    456    457    451    450
8    493    494    488    487    457    458    452    451
8    494    495    489    488    458    459    453    452
8    495    496    490    489    459    460    454    453
8    496    497    491    490    460    461    455    454
8    498    499    493    492    462    463    457    456
8    499    500    494    493    463    464    458    457
8    500    501    495    494    464    465    459    458
8    501    502    496    495    465    466    460    459
8    502    503    497    496    466    467    461    460
8    510    511    505    504    474    475    469    468
8    511    512    506    505    475    476    470    469
8    512    513    507    506    476    477    471    470
8    513    514    508    507    477    478    472    471
8    514    515    509    508    478    479    473    472
8    516    517    511    510    480    481    475    474
8    517    518    512    511    481    482    476    475
8    518    519    513    512    482    483    477    476
8    519    520    514    513    483    484    478    477
8    520    521    515    514    484    485    479    478
8    522    523    517    516    486    487    481    480
8    523    524    518    517    487    488    482    481
8    524    525    519    518    488    489    483    482
8    525    526    520    519    489    490    484    483
8    526    527    521    520    490    491    485    484
8    528    529    523    522    492    493    487    486
8    529    530    524    523    493    494    488    487
8    530    531    525    524    494    495    489    488
8    531    532    526    525    495    496    490    489
8    532    533    527    526    496    497    491    490
8    534    535    529    528    498    499    493    492
8    535    536    530    529    499    500    494    493
8    536    537    531    530    500    501    495    494
8    537    538    532    531    501    502    496    495
8    538    539    533    532    502    503    497    496
8    546    547    541    540    510    511    505    504
8    547    548    542    541    511    512    506    505
8    548    549    543    542    512    513    507    506
8    549    550    544    543    513    514    508    507
8    550    551    545    544    514    515    509    508
8    552    553    547    546    516    517    511    510
8    553    554    548    547    517    518    512    511
8    554    555    549    548    518    519    513    512
8    555    556    550    549    519    520    514    513
8    556    557    551    550    520    521    515    514
8    558    559    553    552    522    523    517    516
8    559    560    554    553    523    524    518    517
8    560    561    555    554    524    525    519    518
8    561    562    556    555    525    526    520    519
8    562    563    557    556    526    527    521    520
8    564    565    559    558    528    529    523    522
8    565    566    560    559    529    530    524    523
8    566    567    561    560    530    531    525    524
8    567    568    562    561    531    532    526    525
8    568    569    563    562    532    533    527    526
8    570    571    565    564    534    535    529    528
8    571    572    566    565    535    536    530    529
8    572    573    567    566    536    537    531    530
8    573    574    568    567    537    538    532    531
8    574    575    569    568    538    539    533    532
8    582    583    577    576    546    547    541    540
8    583    584    578    577    547    548    542    541
8    584    585    579    578    548    549    543    542
8    585    586    580    579    549    550    544    543
8    586    587    581    580    550    551    545    544
8    588    589    583    582    552    553    547    546
8    589    590    584    583    553    554    548    547
8    590    591    585    584    554    555    549    548
8    591    592    586    585    555    556    550    549
8    592    593    587    586    556    557    551    550
8    594    595    589    588    558    559    553    552
8    595    596    590    589    559    560    554    553
8    596    597    591    590    560    561    555    554
8    597    598    592    591    561    562    556    555
8    598    599    593    592    562    563    557    556
8    600    601    595    594    564    565    559    558
8    601    602    596    595    565    566    560    559
8    602    603    597    596    566    567    561    560
8    603    604    598    597    567    568    562    561
8    604    605    599    598    568    569    563    562
8    606    607    601    600    570    571    565    564
8    607    608    602    601    571    572    566    565
8    608    609    603    602    572    573    567    566
8    609    610    604    603    573    574    568    567
8    610    611    605    604    574    575    569    568
8    618    619    613    612    582    583    577    576
8    619    620    614    613    583    584    578    577
8    620    621    615    614    584    585    579    578
8    621    622    616    615    585    586    580    579
8    622    623    617    616    586    587    581    580
8    624    625    619    618    588    589    583    582
8    625    626    620    619    589    590    584    583
8    626    627    621    620    590    591    585    584
8    627    628    622    621    591    592    586    585
8    628    629    623    622    592    593    587    586
8    630    631    625    624    594    595    589    588
8    631    632    626    625    595    596    590    589
8    632    633    627    626    596    597    591    590
8    633    634    628    627    597    598    592    591
8    634    635    629    628    598    599    593    592
8    636    637    631    630    600    601    595    594
8    637    638    632    631    601    602    596    595
8    638    639    633    632    602    603    597    596
8    639    640    634    633    603    604    598    597
8    640    641    635    634    604    605    599    598
8    642    643    637    636    606    607    601    600
8    643    644    638    637    607    608    602    601
8    644    645    639    638    608    609    603    602
8    645    646    640    639    609    610    604    603
8    646    647    641    640    610    611    605    604
8    654    655    649    648    618    619    613    612
8    655    656    650    649    619    620    614    613
8    656    657    651    650    620    621    615    614
8    657    658    652    651    621    622    616    615
8    658    659    653    652    622    623    617    616
8    660    661    655    654    624    625    619    618
8    661    662    656    655    625    626    620    619
8    662    663    657    656    626    627    621    620
8    663    664    658    657    627    628    622    621
8    664    665    659    658    628    629    623    622
8    666    667    661    660    630    631    625    624
8    667    668    662    661    631    632    626    625
8    668    669    663    662    632    633    627    626
8    669    670    664    663    633    634    628    627
8    670    671    665    664    634    635    629    628
8    672    673    667    666    636    637    631    630
8    673    674    668    667    637    638    632    631
8    674    675    669    668    638    639    633    632
8    675    676    670    669    639    640    634    633
8    676    677    671    670    640    641    635    634
8    678    679    673    672    642    643    637    636
8    679    680    674    673    643    644    638    637
8    680    681    675    674    644    645    639    638
8    681    682    676    675    645    646    640    639
8    682    683    677    676    646    647    641    640
8    690    691    685    684    654    655    649    648
8    691    692    686    685    655    656    650    649
8    692    693    687    686    656    657    651    650
8    693    694    688    687    657    658    652    651
8    694    695    689    688    658    659    653    652
8    696    697    691    690    660    661    655    654
8    697    698    692    691    661    662    656    655
8    698    699    693    692    662    663    657    656
8    699    700    694    693    663    664    658    657
8    700    701    695    694    664    665    659    658
8    702    703    697    696    666    667    661    660
8    703    704    698    697    667    668    662    661
8    704    705    699    698    668    669    663    662
8    705    706    700    699    669    670    664    663
8    706    707    701    700    670    671    665    664
8    708    709    703    702    672    673    667    666
8    709    710    704    703    673    674    668    667
8    710    711    705    704    674    675    669    668
8    711    712    706    705    675    676    670    669
8    712    713    707    706    676    677    671    670
8    714    715    709    708    678    679    673    672
8    715    716    710    709    679    680    674    673
8    716    717    711    710    680    681    675    674
8    717    718    712    711    681    682    676    675
8    718    719    713    712    682    683    677    676
8    726    727    721    720    690    691    685    684
8    727    728    722    721    691    692    686    685
8    728    729    723    722    692    693    687    686
8    729    730    724    723    693    694    688    687
8    730    731    725    724    694    695    689    688
8    732    733    727    726    696    697    691    690
8    733    734    728    727    697    698    692    691
8    734    735    729    728    698    699    693    692
8    735    736    730    729    699    700    694    693
8    736    737    731    730    700    701    695    694
8    738    739    733    732    702    703    697    696
8    739    740    734    733    703    704    698    697
8    740    741    735    734    704    705    699    698
8    741    742    736    735    705    706    700    699
8    742    743    737    736    706    707    701    700
8    744    745    739    738    708    709    703    702
8    745    746    740    739    709    710    704    703
8    746    747    741    740    710    711    705    704
8    747    748    742    741    711    712    706    705
8    748    749    743    742    712    713    707    706
8    750    751    745    744    714    715    709    708
8    751    752    746    745    715    716    710    709
8    752    753    747    746    716    717    711    710
8    753    754    748    747    717    718    712    711
8    754    755    749    748    718    719    713    712
8    762    763    757    756    726    727    721    720
8    763    764    758    757    727    728    722    721
8    764    765    759    758    728    729    723    722
8    765    766    760    759    729    730    724    723
8    766    767    761    760    730    731    725    724
8    768    769    763    762    732    733    727    726
8    769    770    764    763    733    734    728    727
8    770    771    765    764    734    735    729    728
8    771    772    766    765    735    736    730    729
8    772    773    767    766    736    737    731    730
8    774    775    769    768    738    739    733    732
8    775    776    770    769    739    740    734    733
8    776    777    771    770    740    741    735    734
8    777    778    772    771    741    742    736    735
8    778    779    773    772    742    743    737    736
8    780    781    775    774    744    745    739    738
8    781    782    776    775    745    746    740    739
8    782    783    777    776    746    747    741    740
8    783    784    778    777    747    748    742    741
8    784    785    779    778    748    749    743    742
8    786    787    781    780    750    751    745    744
8    787    788    782    781    751    752    746    745
8    788    789    783    782    752    753    747    746
8    789    790    784    783    753    754    748    747
8    790    791    785    784    754    755    749    748
8    798    799    793    792    762    763    757    756
8    799    800    794    793    763    764    758    757
8    800    801    795    794    764    765    759    758
8    801    802    796    795    765    766    760    759
8    802    803    797    796    766    767    761    760
8    804    805    799    798    768    769    763    762
8    805    806    800    799    769    770    764    763
8    806    807    801    800    770    771    765    764
8    807    808    802    801    771    772    766    765
8    808    809    803    802    772    773    767    766
8    810    811    805    804    774    775    769    768
8    811    812    806    805    775    776    770    769
8    812    813    807    806    776    777    771    770
8    813    814    808    807    777    778    772    771
8    814    815    809    808    778    779    773    772
8    816    817    811    810    780    781    775    774
8    817    818    812    811    781    782    776    775
8    818    819    813    812    782    783    777    776
8    819    820    814    813    783    784    778    777
8    820    821    815    814    784    785    779    778
8    822    823    817    816    786    787    781    780
8    823    824    818    817    787    788    782    781
8    824    825    819    818    788    789    783    782
8    825    826    820    819    789    790    784    783
8    826    827    821    820    790    791    785    784
8    834    835    829    828    798    799    793    792
8    835    836    830    829    799    800    794    793
8    836    837    831    830    800    801    795    794
8    837    838    832    831    801    802    796    795
8    838    839    833    832    802    803    797    796
8    840    841    835    834    804    805    799    798
8    841    842    836    835    805    806    800    799
8    842    843    837    836    806    807    801    800
8    843    844    838    837    807    808    802    801
8    844    845    839    838    808    809    803    802
8    846    847    841    840    810    811    805    804
8    847    848    842    841    811    812    806    805
8    848    849    843    842    812    813    807    806
8    849    850    844    843    813    814    808    807
8    850    851    845    844    814    815    809    808
8    852    853    847    846    816    817    811    810
8    853    854    848    847    817    818    812    811
8    854    855    849    848    818    819    813    812
8    855    856    850    849    819    820    814    813
8    856    857    851    850    820    821    815    814
8    858    859    853    852    822    823    817    816
8    859    860    854    853    823    824    818    817
8    860    861    855    854    824    825    819    818
8    861    862    856    855    825    826    820    819
8    862    863    857    856    826    827    821    820
8     47    899    894     41     11    869    864      5
8    899    900    895    894    869    870    865    864
8    900    901    896    895    870    871    866    865
8    901    902    897    896    871    872    867    866
8    902    903    898    897    872    873    868    867
8     53    904    899     47     17    874    869     11
8    904    905    900    899    874    875    870    869
8    905    906    901    900    875    876    871    870
8    906    907    902    901    876    877    872    871
8    907    908    903    902    877    878    873    872
8     59    909    904     53     23    879    874     17
8    909    910    905    904    879    880    875    874
8    910    911    906    905    880    881    876    875
8    911    912    907    906    881    882    877    876
8    912    913    908    907    882    883    878    877
8     65    914    909     59     29    884    879     23
8    914    915    910    909    884    885    880    879
8    915    916    911    910    885    886    881    880
8    916    917    912    911    886    887    882    881
8    917    918    913    912    887    888    883    882
8     71    919    914     65     35    889    884     29
8    919    920    915    914    889    890    885    884
8    920    921    916    915    890    891    886    885
8    921    922    917    916    891    892    887    886
8    922    923    918    917    892    893    888    887
8     83    929    924     77     47    899    894     41
8    929    930    925    924    899    900    895    894
8    930    931    926    925    900    901    896    895
8    931    932    927    926    901    902    897    896
8    932    933    928    927    902    903    898    897
8     89    934    929     83     53    904    899     47
8    934    935    930    929    904    905    900    899
8    935    936    931    930    905    906    901    900
8    936    937    932    931    906    907    902    901
8    937    938    933    932    907    908    903    902
8     95    939    934     89     59    909    904     53
8    939    940    935    934    909    910    905    904
8    940    941    936    935    910    911    906    905
8    941    942    937    936    911    912    907    906
8    942    943    938    937    912    913    908    907
8    101    944    939     95     65    914    909     59
8    944    945    940    939    914    915    910    909
8    945    946    941    940    915    916    911    910
8    946    947    942    941    916    917    912    911
8    947    948    943    942    917    918    913    912
8    107    949    944    101     71    919    914     65
8    949    950    945    944    919    920    915    914
8    950    951    946    945    920    921    916    915
8    951    952    947    946    921    922    917    916
8    952    953    948    947    922    923    918    917
8    119    959    954    113     83    929    924     77
8    959    960    955    954    929    930    925    924
8    960    961    956    955    930    931    926    925
8    961    962    957    956    931    932    927    926
8    962    963    958    957    932    933    928    927
8    125    964    959    119     89    934    929     83
8    964    965    960    959    934    935    930    929
8    965    966    961    960    935    936    931    930
8    966    967    962    961    936    937    932    931
8    967    968    963    962    937    938    933    932
8    131    969    964    125     95    939    934     89
8    969    970    965    964    939    940    935    934
8    970    971    966    965    940    941    936    935
8    971    972    967    966    941    942    937    936
8    972    973    968    967    942    943    938    937
8    137    974    969    131    101    944    939     95
8    974    975    970    969    944    945    940    939
8    975    976    971    970    945    946    941    940
8    976    977    972    971    946    947    942    941
8    977    978    973    972    947    948    943    942
8    143    979    974    137    107    949    944    101
8    979    980    975    974    949    950    945    944
8    980    981    976    975    950    951    946    945
8    981    982    977    976    951    952    947    946
8    982    983    978    977    952    953    948    947
8    155    989    984    149    119    959    954    113
8    989    990    985    984    959    960    955    954
8    990    991    986    985    960    961    956    955
8    991    992    987    986    961    962    957    956
8    992    993    988    987    962    963    958    957
8    161    994    989    155    125    964    959    119
8    994    995    990    989    964    965    960    959
8    995    996    991    990    965    966    961    960
8    996    997    992    991    966    967    962    961
8    997    998    993    992    967    968    963    962
8    167    999    994    161    131    969    964    125
8    999   1000    995    994    969    970    965    964
8   1000   1001    996    995    970    971    966    965
8   1001   1002    997    996    971    972    967    966
8   1002   1003    998    997    972    973    968    967
8    173   1004    999    167    137    974    969    131
8   1004   1005   1000    999    974    975    970    969
8   1005   1006   1001   1000    975    976    971    970
8   1006   1007   1002   1001    976    977    972    971
8   1007   1008   1003   1002    977    978    973    972
8    179   1009   1004    173    143    979    974    137
8   1009   1010   1005   1004    979    980    975    974
8   1010   1011   1006   1005    980    981    976    975
8   1011   1012   1007   1006    981    982    977    976
8   1012   1013   1008   1007    982    983    978    977
8    191   1019   1014    185    155    989    984    149
8   1019   1020   1015   1014    989    990    985    984
8   1020   1021   1016   1015    990    991    986    985
8   1021   1022   1017   1016    991    992    987    986
8   1022   1023   1018   1017    992    993    988    987
8    197   1024   1019    191    161    994    989    155
8   1024   1025   1020   1019    994    995    990    989
8   1025   1026   1021   1020    995    996    991    990
8   1026   1027   1022   1021    996    997    992    991
8   1027   1028   1023   1022    997    998    993    992
8    203   1029   1024    197    167    999    994    161
8   1029   1030   1025   1024    999   1000    995    994
8   1030   1031   1026   1025   1000   1001    996    995
8   1031   1032   1027   1026   1001   1002    997    996
8   1032   1033   1028   1027   1002   1003    998    997
8    209   1034   1029    203    173   1004    999    167
8   1034   1035   1030   1029   1004   1005   1000    999
8   1035   1036   1031   1030   1005   1006   1001   1000
8   1036   1037   1032   1031   1006   1007   1002   1001
8   1037   1038   1033   1032   1007   1008   1003   1002
8    215   1039   1034    209    179   1009   1004    173
8   1039   1040   1035   1034   1009   1010   1005   1004
8   1040   1041   1036   1035   1010   1011   1006   1005
8   1041   1042   1037   1036   1011   1012   1007   1006
8   1042   1043   1038   1037   1012   1013   1008   1007
8    227   1049   1044    221    191   1019   1014    185
8   1049   1050   1045   1044   1019   1020   1015   1014
8   1050   1051   1046   1045   1020   1021   1016   1015
8   1051   1052   1047   1046   1021   1022   1017   1016
8   1052   1053   1048   1047   1022   1023   1018   1017
8    233   1054   1049    227    197   1024   1019    191
8   1054   1055   1050   1049   1024   1025   1020   1019
8   1055   1056   1051   1050   1025   1026   1021   1020
8   1056   1057   1052   1051   1026   1027   1022   1021
8   1057   1058   1053   1052   1027   1028   1023   1022
8    239   1059   1054    233    203   1029   1024    197
8   1059   1060   1055   1054   1029   1030   1025   1024
8   1060   1061   1056   1055   1030   1031   1026   1025
8   1061   1062   1057   1056   1031   1032   1027   1026
8   1062   1063   1058   1057   1032   1033   1028   1027
8    245   1064   1059    239    209   1034   1029    203
8   1064   1065   1060   1059   1034   1035   1030   1029
8   1065   1066   1061   1060   1035   1036   1031   1030
8   1066   1067   1062   1061   1036   1037   1032   1031
8   1067   1068   1063   1062   1037   1038   1033   1032
8    251   1069   1064    245    215   1039   1034    209
8   1069   1070   1065   1064   1039   1040   1035   1034
8   1070   1071   1066   1065   1040   1041   1036   1035
8   1071   1072   1067   1066   1041   1042   1037   1036
8   1072   1073   1068   1067   1042   1043   1038   1037
8    263   1079   1074    257    227   1049   1044    221
8   1079   1080   1075   1074   1049   1050   1045   1044
8   1080   1081   1076   1075   1050   1051   1046   1045
8   1081   1082   1077   1076   1051   1052   1047   1046
8   1082   1083   1078   1077   1052   1053   1048   1047
8    269   1084   1079    263    233   1054   1049    227
8   1084   1085   1080   1079   1054   1055   1050   1049
8   1085   1086   1081   1080   1055   1056   1051   1050
8   1086   1087   1082   1081   1056   1057   1052   1051
8   1087   1088   1083   1082   1057   1058   1053   1052
8    275   1089   1084    269    239   1059   1054    233
8   1089   1090   1085   1084   1059   1060   1055   1054
8   1090   1091   1086   1085   1060   1061   1056   1055
8   1091   1092   1087   1086   1061   1062   1057   1056
8   1092   1093   1088   1087   1062   1063   1058   1057
8    281   1094   1089    275    245   1064   1059    239
8   1094   1095   1090   1089   1064   1065   1060   1059
8   1095   1096   1091   1090   1065   1066   1061   1060
8   1096   1097   1092   1091   1066   1067   1062   1061
8   1097   1098   1093   1092   1067   1068   1063   1062
8    287   1099   1094    281    251   1069   1064    245
8   1099   1100   1095   1094   1069   1070   1065   1064
8   1100   1101   1096   1095   1070   1071   1066   1065
8   1101   1102   1097   1096   1071   1072   1067   1066
8   1102   1103   1098   1097   1072   1073   1068   1067
8    299   1109   1104    293    263   1079   1074    257
8   1109   1110   1105   1104   1079   1080   1075   1074
8   1110   1111   1106   1105   1080   1081   1076   1075
8   1111   1112   1107   1106   1081   1082   1077   1076
8   1112   1113   1108   1107   1082   1083   1078   1077
8    305   1114   1109    299    269   1084   1079    263
8   1114   1115   1110   1109   1084   1085   1080   1079
8   1115   1116   1111   1110   1085   1086   1081   1080
8   1116   1117   1112   1111   1086   1087   1082   1081
8   1117   1118   1113   1112   1087   1088   1083   1082
8    311   1119   1114    305    275   1089   1084    269
8   1119   1120   1115   1114   1089   1090   1085   1084
8   1120   1121   1116   1115   1090   1091   1086   1085
8   1121   1122   1117   1116   1091   1092   1087   1086
8   1122   1123   1118   1117   1092   1093   1088   1087
8    317   1124   1119    311    281   1094   1089    275
8   1124   1125   1120   1119   1094   1095   1090   1089
8   1125   1126   1121   1120   1095   1096   1091   1090
8   1126   1127   1122   1121   1096   1097   1092   1091
8   1127   1128   1123   1122   1097   1098   1093   1092
8    323   1129   1124    317    287   1099   1094    281
8   1129   1130   1125   1124   1099   1100   1095   1094
8   1130   1131   1126   1125   1100   1101   1096   1095
8   1131   1132   1127   1126   1101   1102   1097   1096
8   1132   1133   1128   1127   1102   1103   1098   1097
8    335   1139   1134    329    299   1109   1104    293
8   1139   1140   1135   1134   1109   1110   1105   1104
8   1140   1141   1136   1135   1110   1111   1106   1105
8   1141   1142   1137   1136   1111   1112   1107   1106
8   1142   1143   1138   1137   1112   1113   1108   1107
8    341   1144   1139    335    305   1114   1109    299
8   1144   1145   1140   1139   1114   1115   1110   1109
8   1145   1146   1141   1140   1115   1116   1111   1110
8   1146   1147   1142   1141   1116   1117   1112   1111
8   1147   1148   1143   1142   1117   1118   1113   1112
8    347   1149   1144    341    311   1119   1114    305
8   1149   1150   1145   1144   1119   1120   1115   1114
8   1150   1151   1146   1145   1120   1121   1116   1115
8   1151   1152   1147   1146   1121   1122   1117   1116
8   1152   1153   1148   1147   1122   1123   1118   1117
8    353   1154   1149    347    317   1124   1119    311
8   1154   1155   1150   1149   1124   1125   1120   1119
8   1155   1156   1151   1150   1125   1126   1121   1120
8   1156   1157   1152   1151   1126   1127   1122   1121
8   1157   1158   1153   1152   1127   1128   1123   1122
8    359   1159   1154    353    323   1129   1124    317
8   1159   1160   1155   1154   1129   1130   1125   1124
8   1160   1161   1156   1155   1130   1131   1126   1125
8   1161   1162   1157   1156   1131   1132   1127   1126
8   1162   1163   1158   1157   1132   1133   1128   1127
8    371   1169   1164    365    335   1139   1134    329
8   1169   1170   1165   1164   1139   1140   1135   1134
8   1170   1171   1166   1165   1140   1141   1136   1135
8   1171   1172   1167   1166   1141   1142   1137   1136
8   1172   1173   1168   1167   1142   1143   1138   1137
8    377   1174   1169    371    341   1144   1139    335
8   1174   1175   1170   1169   1144   1145   1140   1139
8   1175   1176   1171   1170   1145   1146   1141   1140
8   1176   1177   1172   1171   1146   1147   1142   1141
8   1177   1178   1173   1172   1147   1148   1143   1142
8    383   1179   1174    377    347   1149   1144    341
8   1179   1180   1175   1174   1149   1150   1145   1144
8   1180   1181   1176   1175   1150   1151   1146   1145
8   1181   1182   1177   1176   1151   1152   1147   1146
8   1182   1183   1178   1177   1152   1153   1148   1147
8    389   1184   1179    383    353   1154   1149    347
8   1184   1185   1180   1179   1154   1155   1150   1149
8   1185   1186   1181   1180   1155   1156   1151   1150
8   1186   1187   1182   1181   1156   1157   1152   1151
8   1187   1188   1183   1182   1157   1158   1153   1152
8    395   1189   1184    389    359   1159   1154    353
8   1189   1190   1185   1184   1159   1160   1155   1154
8   1190   1191   1186   1185   1160   1161   1156   1155
8   1191   1192   1187   1186   1161   1162   1157   1156
8   1192   1193   1188   1187   1162   1163   1158   1157
8    407   1199   1194    401    371   1169   1164    365
8   1199   1200   1195   1194   1169   1170   1165   1164
8   1200   1201   1196   1195   1170   1171   1166   1165
8   1201   1202   1197   1196   1171   1172   1167   1166
8   1202   1203   1198   1197   1172   1173   1168   1167
8    413   1204   1199    407    377   1174   1169    371
8   1204   1205   1200   1199   1174   1175   1170   1169
8   1205   1206   1201   1200   1175   1176   1171   1170
8   1206   1207   1202   1201   1176   1177   1172   1171
8   1207   1208   1203   1202   1177   1178   1173   1172
8    419   1209   1204    413    383   1179   1174    377
8   1209   1210   1205   1204   1179   1180   1175   1174
8   1210   1211   1206   1205   1180   1181   1176   1175
8   1211   1212   1207   1206   1181   1182   1177   1176
8   1212   1213   1208   1207   1182   1183   1178   1177
8    425   1214   1209    419    389   1184   1179    383
8   1214   1215   1210   1209   1184   1185   1180   1179
8   1215   1216   1211   1210   1185   1186   1181   1180
8   1216   1217   1212   1211   1186   1187   1182   1181
8   1217   1218   1213   1212   1187   1188   1183   1182
8    431   1219   1214    425    395   1189   1184    389
8   1219   1220   1215   1214   1189   1190   1185   1184
8   1220   1221   1216   1215   1190   1191   1186   1185
8   1221   1222   1217   1216   1191   1192   1187   1186
8   1222   1223   1218   1217   1192   1193   1188   1187
8    443   1229   1224    437    407   1199   1194    401
8   1229   1230   1225   1224   1199   1200   1195   1194
8   1230   1231   1226   1225   1200   1201   1196   1195
8   1231   1232   1227   1226   1201   1202   1197   1196
8   1232   1233   1228   1227   1202   1203   1198   1197
8    449   1234   1229    443    413   1204   1199    407
8   1234   1235   1230   1229   1204   1205   1200   1199
8   1235   1236   1231   1230   1205   1206   1201   1200
8   1236   1237   1232   1231   1206   1207   1202   1201
8   1237   1238   1233   1232   1207   1208   1203   1202
8    455   1239   1234    449    419   1209   1204    413
8   1239   1240   1235   1234   1209   1210   1205   1204
8   1240   1241   1236   1235   1210   1211   1206   1205
8   1241   1242   1237   1236   1211   1212   1207   1206
8   1242   1243   1238   1237   1212   1213   1208   1207
8    461   1244   1239    455    425   1214   1209    419
8   1244   1245   1240   1239   1214   1215   1210   1209
8   1245   1246   1241   1240   1215   1216   1211   1210
8   1246   1247   1242   1241   1216   1217   1212   1211
8   1247   1248   1243   1242   1217   1218   1213   1212
8    467   1249   1244    461    431   1219   1214    425
8   1249   1250   1245   1244   1219   1220   1215   1214
8   1250   1251   1246   1245   1220   1221   1216   1215
8   1251   1252   1247   1246   1221   1222   1217   1216
8   1252   1253   1248   1247   1222   1223   1218   1217
8    479   1259   1254    473    443   1229   1224    437
8   1259   1260   1255   1254   1229   1230   1225   1224
8   1260   1261   1256   1255   1230   1231   1226   1225
8   1261   1262   1257   1256   1231   1232   1227   1226
8   1262   1263   1258   1257   1232   1233   1228   1227
8    485   1264   1259    479    449   1234   1229    443
8   1264   1265   1260   1259   1234   1235   1230   1229
8   1265   1266   1261   1260   1235   1236   1231   1230
8   1266   1267   1262   1261   1236   1237   1232   1231
8   1267   1268   1263   1262   1237   1238   1233   1232
8    491   1269   1264    485    455   1239   1234    449
8   1269   1270   1265   1264   1239   1240   1235   1234
8   1270   1271   1266   1265   1240   1241   1236   1235
8   1271   1272   1267   1266   1241   1242   1237   1236
8   1272   1273   1268   1267   1242   1243   1238   1237
8    497   1274   1269    491    461   1244   1239    455
8   1274   1275   1270   1269   1244   1245   1240   1239
8   1275   1276   1271   1270   1245   1246   1241   1240
8   1276   1277   1272   1271   1246   1247   1242   1241
8   1277   1278   1273   1272   1247   1248   1243   1242
8    503   1279   1274    497    467   1249   1244    461
8   1279   1280   1275   1274   1249   1250   1245   1244
8   1280   1281   1276   1275   1250   1251   1246   1245
8   1281   1282   1277   1276   1251   1252   1247   1246
8   1282   1283   1278   1277   1252   1253   1248   1247
8    515   1289   1284    509    479   1259   1254    473
8   1289   1290   1285   1284   1259   1260   1255   1254
8   1290   1291   1286   1285   1260   1261   1256   1255
8   1291   1292   1287   1286   1261   1262   1257   1256
8   1292   1293   1288   1287   1262   1263   1258   1257
8    521   1294   1289    515    485   1264   1259    479
8   1294   1295   1290   1289   1264   1265   1260   1259
8   1295   1296   1291   1290   1265   1266   1261   1260
8   1296   1297   1292   1291   1266   1267   1262   1261
8   1297   1298   1293   1292   1267   1268   1263   1262
8    527   1299   1294    521    491   1269   1264    485
8   1299   1300   1295   1294   1269   1270   1265   1264
8   1300   1301   1296   1295   1270   1271   1266   1265
8   1301   1302   1297   1296   1271   1272   1267   1266
8   1302   1303   1298   1297   1272   1273   1268   1267
8    533   1304   1299    527    497   1274   1269    491
8   1304   1305   1300   1299   1274   1275   1270   1269
8   1305   1306   1301   1300   1275   1276   1271   1270
8   1306   1307   1302   1301   1276   1277   1272   1271
8   1307   1308   1303   1302   1277   1278   1273   1272
8    539   1309   1304    533    503   1279   1274    497
8   1309   1310   1305   1304   1279   1280   1275   1274
8   1310   1311   1306   1305   1280   1281   1276   1275
8   1311   1312   1307   1306   1281   1282   1277   1276
8   1312   1313   1308   1307   1282   1283   1278   1277
8    551   1319   1314    545    515   1289   1284    509
8   1319   1320   1315   1314   1289   1290   1285   1284
8   1320   1321   1316   1315   1290   1291   1286   1285
8   1321   1322   1317   1316   1291   1292   1287   1286
8   1322   1323   1318   1317   1292   1293   1288   1287
8    557   1324   1319    551    521   1294   1289    515
8   1324   1325   1320   1319   1294   1295   1290   1289
8   1325   1326   1321   1320   1295   1296   1291   1290
8   1326   1327   1322   1321   1296   1297   1292   1291
8   1327   1328   1323   1322   1297   1298   1293   1292
8    563   1329   1324    557    527   1299   1294    521
8   1329   1330   1325   1324   1299   1300   1295   1294
8   1330   1331   1326   1325   1300   1301   1296   1295
8   1331   1332   1327   1326   1301   1302   1297   1296
8   1332   1333   1328   1327   1302   1303   1298   1297
8    569   1334   1329    563    533   1304   1299    527
8   1334   1335   1330   1329   1304   1305   1300   1299
8   1335   1336   1331   1330   1305   1306   1301   1300
8   1336   1337   1332   1331   1306   1307   1302   1301
8   1337   1338   1333   1332   1307   1308   1303   1302
8    575   1339   1334    569    539   1309   1304    533
8   1339   1340   1335   1334   1309   1310   1305   1304
8   1340   1341   1336   1335   1310   1311   1306   1305
8   1341   1342   1337   1336   1311   1312   1307   1306
8   1342   1343   1338   1337   1312   1313   1308   1307
8    587   1349   1344    581    551   1319   1314    545
8   1349   1350   1345   1344   1319   1320   1315   1314
8   1350   1351   1346   1345   1320   1321   1316   1315
8   1351   1352   1347   1346   1321   1322   1317   1316
8   1352   1353   1348   1347   1322   1323   1318   1317
8    593   1354   1349    587    557   1324   1319    551
8   1354   1355   1350   1349   1324   1325   1320   1319
8   1355   1356   1351   1350   1325   1326   1321   1320
8   1356   1357   1352   1351   1326   1327   1322   1321
8   1357   1358   1353   1352   1327   1328   1323   1322
8    599   1359   1354    593    563   1329   1324    557
8   1359   1360   1355   1354   1329   1330   1325   1324
8   1360   1361   1356   1355   1330   1331   1326   1325
8   1361   1362   1357   1356   1331   1332   1327   1326
8   1362   1363   1358   1357   1332   1333   1328   1327
8    605   1364   1359    599    569   1334   1329    563
8   1364   1365   1360   1359   1334   1335   1330   1329
8   1365   1366   1361   1360   1335   1336   1331   1330
8   1366   1367   1362   1361   1336   1337   1332   1331
8   1367   1368   1363   1362   1337   1338   1333   1332
8    611   1369   1364    605    575   1339   1334    569
8   1369   1370   1365   1364   1339   1340   1335   1334
8   1370   1371   1366   1365   1340   1341   1336   1335
8   1371   1372   1367   1366   1341   1342   1337   1336
8   1372   1373   1368   1367   1342   1343   1338   1337
8    623   1379   1374    617    587   1349   1344    581
8   1379   1380   1375   1374   1349   1350   1345   1344
8   1380   1381   1376   1375   1350   1351   1346   1345
8   1381   1382   1377   1376   1351   1352   1347   1346
8   1382   1383   1378   1377   1352   1353   1348   1347
8    629   1384   1379    623    593   1354   1349    587
8   1384   1385   1380   1379   1354   1355   1350   1349
8   1385   1386   1381   1380   1355   1356   1351   1350
8   1386   1387   1382   1381   1356   1357   1352   1351
8   1387   1388   1383   1382   1357   1358   1353   1352
8    635   1389   1384    629    599   1359   1354    593
8   1389   1390   1385   1384   1359   1360   1355   1354
8   1390   1391   1386   1385   1360   1361   1356   1355
8   1391   1392   1387   1386   1361   1362   1357   1356
8   1392   1393   1388   1387   1362   1363   1358   1357
8    641   1394   1389    635    605   1364   1359    599
8   1394   1395   1390   1389   1364   1365   1360   1359
8   1395   1396   1391   1390   1365   1366   1361   1360
8   1396   1397   1392   1391   1366   1367   1362   1361
8   1397   1398   1393   1392   1367   1368   1363   1362
8    647   1399   1394    641    611   1369   1364    605
8   1399   1400   1395   1394   1369   1370   1365   1364
8   1400   1401   1396   1395   1370   1371   1366   1365
8   1401   1402   1397   1396   1371   1372   1367   1366
8   1402   1403   1398   1397   1372   1373   1368   1367
8    659   1409   1404    653    623   1379   1374    617
8   1409   1410   1405   1404   1379   1380   1375   1374
8   1410   1411   1406   1405   1380   1381   1376   1375
8   1411   1412   1407   1406   1381   1382   1377   1376
8   1412   1413   1408   1407   1382   1383   1378   1377
8    665   1414   1409    659    629   1384   1379    623
8   1414   1415   1410   1409   1384   1385   1380   1379
8   1415   1416   1411   1410   1385   1386   1381   1380
8   1416   1417   1412   1411   1386   1387   1382   1381
8   1417   1418   1413   1412   1387   1388   1383   1382
8    671   1419   1414    665    635   1389   1384    629
8   1419   1420   1415   1414   1389   1390   1385   1384
8   1420   1421   1416   1415   1390   1391   1386   1385
8   1421   1422   1417   1416   1391   1392   1387   1386
8   1422   1423   1418   1417   1392   1393   1388   1387
8    677   1424   1419    671    641   1394   1389    635
8   1424   1425   1420   1419   1394   1395   1390   1389
8   1425   1426   1421   1420   1395   1396   1391   1390
8   1426   1427   1422   1421   1396   1397   1392   1391
8   1427   1428   1423   1422   1397   1398   1393   1392
8    683   1429   1424    677    647   1399   1394    641
8   1429   1430   1425   1424   1399   1400   1395   1394
8   1430   1431   1426   1425   1400   1401   1396   1395
8   1431   1432   1427   1426   1401   1402   1397   1396
8   1432   1433   1428   1427   1402   1403   1398   1397
8    695   1439   1434    689    659   1409   1404    653
8   1439   1440   1435   1434   1409   1410   1405   1404
8   1440   1441   1436   1435   1410   1411   1406   1405
8   1441   1442   1437   1436   1411   1412   1407   1406
8   1442   1443   1438   1437   1412   1413   1408   1407
8    701   1444   1439    695    665   1414   1409    659
8   1444   1445   1440   1439   1414   1415   1410   1409
8   1445   1446   1441   1440   1415   1416   1411   1410
8   1446   1447   1442   1441   1416   1417   1412   1411
8   1447   1448   1443   1442   1417   1418   1413   1412
8    707   1449   1444    701    671   1419   1414    665
8   1449   1450   1445   1444   1419   1420   1415   1414
8   1450   1451   1446   1445   1420   1421   1416   1415
8   1451   1452   1447   1446   1421   1422   1417   1416
8   1452   1453   1448   1447   1422   1423   1418   1417
8    713   1454   1449    707    677   1424   1419    671
8   1454   1455   1450   1449   1424   1425   1420   1419
8   1455   1456   1451   1450   1425   1426   1421   1420
8   1456   1457   1452   1451   1426   1427   1422   1421
8   1457   1458   1453   1452   1427   1428   1423   1422
8    719   1459   1454    713    683   1429   1424    677
8   1459   1460   1455   1454   1429   1430   1425   1424
8   1460   1461   1456   1455   1430   1431   1426   1425
8   1461   1462   1457   1456   1431   1432   1427   1426
8   1462   1463   1458   1457   1432   1433   1428   1427
8    731   1469   1464    725    695   1439   1434    689
8   1469   1470   1465   1464   1439   1440   1435   1434
8   1470   1471   1466   1465   1440   1441   1436   1435
8   1471   1472   1467   1466   1441   1442   1437   1436
8   1472   1473   1468   1467   1442   1443   1438   1437
8    737   1474   1469    731    701   1444   1439    695
8   1474   1475   1470   1469   1444   1445   1440   1439
8   1475   1476   1471   1470   1445   1446   1441   1440
8   1476   1477   1472   1471   1446   1447   1442   1441
8   1477   1478   1473   1472   1447   1448   1443   1442
8    743   1479   1474    737    707   1449   1444    701
8   1479   1480   1475   1474   1449   1450   1445   1444
8   1480   1481   1476   1475   1450   1451   1446   1445
8   1481   1482   1477   1476   1451   1452   1447   1446
8   1482   1483   1478   1477   1452   1453   1448   1447
8    749   1484   1479    743    713   1454   1449    707
8   1484   1485   1480   1479   1454   1455   1450   1449
8   1485   1486   1481   1480   1455   1456   1451   1450
8   1486   1487   1482   1481   1456   1457   1452   1451
8   1487   1488   1483   1482   1457   1458   1453   1452
8    755   1489   1484    749    719   1459   1454    713
8   1489   1490   1485   1484   1459   1460   1455   1454
8   1490   1491   1486   1485   1460   1461   1456   1455
8   1491   1492   1487   1486   1461   1462   1457   1456
8   1492   1493   1488   1487   1462   1463   1458   1457
8    767   1499   1494    761    731   1469   1464    725
8   1499   1500   1495   1494   1469   1470   1465   1464
8   1500   1501   1496   1495   1470   1471   1466   1465
8   1501   1502   1497   1496   1471   1472   1467   1466
8   1502   1503   1498   1497   1472   1473   1468   1467
8    773   1504   1499    767    737   1474   1469    731
8   1504   1505   1500   1499   1474   1475   1470   1469
8   1505   1506   1501   1500   1475   1476   1471   1470
8   1506   1507   1502   1501   1476   1477   1472   1471
8   1507   1508   1503   1502   1477   1478   1473   1472
8    779   1509   1504    773    743   1479   1474    737
8   1509   1510   1505   1504   1479   1480   1475   1474
8   1510   1511   1506   1505   1480   1481   1476   1475
8   1511   1512   1507   1506   1481   1482   1477   1476
8   1512   1513   1508   1507   1482   1483   1478   1477
8    785   1514   1509    779    749   1484   1479    743
8   1514   1515   1510   1509   1484   1485   1480   1479
8   1515   1516   1511   1510   1485   1486   1481   1480
8   1516   1517   1512   1511   1486   1487   1482   1481
8   1517   1518   1513   1512   1487   1488   1483   1482
8    791   1519   1514    785    755   1489   1484    749
8   1519   1520   1515   1514   1489   1490   1485   1484
8   1520   1521   1516   1515   1490   1491   1486   1485
8   1521   1522   1517   1516   1491   1492   1487   1486
8   1522   1523   1518   1517   1492   1493   1488   1487
8    803   1529   1524    797    767   1499   1494    761
8   1529   1530   1525   1524   1499   1500   1495   1494
8   1530   1531   1526   1525   1500   1501   1496   1495
8   1531   1532   1527   1526   1501   1502   1497   1496
8   1532   1533   1528   1527   1502   1503   1498   1497
8    809   1534   1529    803    773   1504   1499    767
8   1534   1535   1530   1529   1504   1505   1500   1499
8   1535   1536   1531   1530   1505   1506   1501   1500
8   1536   1537   1532   1531   1506   1507   1502   1501
8   1537   1538   1533   1532   1507   1508   1503   1502
8    815   1539   1534    809    779   1509   1504    773
8   1539   1540   1535   1534   1509   1510   1505   1504
8   1540   1541   1536   1535   1510   1511   1506   1505
8   1541   1542   1537   1536   1511   1512   1507   1506
8   1542   1543   1538   1537   1512   1513   1508   1507
8    821   1544   1539    815    785   1514   1509    779
8   1544   1545   1540   1539   1514   1515   1510   1509
8   1545   1546   1541   1540   1515   1516   1511   1510
8   1546   1547   1542   1541   1516   1517   1512   1511
8   1547   1548   1543   1542   1517   1518   1513   1512
8    827   1549   1544    821    791   1519   1514    785
8   1549   1550   1545   1544   1519   1520   1515   1514
8   1550   1551   1546   1545   1520   1521   1516   1515
8   1551   1552   1547   1546   1521   1522   1517   1516
8   1552   1553   1548   1547   1522   1523   1518   1517
8    839   1559   1554    833    803   1529   1524    797
8   1559   1560   1555   1554   1529   1530   1525   1524
8   1560   1561   1556   1555   1530   1531   1526   1525
8   1561   1562   1557   1556   1531   1532   1527   1526
8   1562   1563   1558   1557   1532   1533   1528   1527
8    845   1564   1559    839    809   1534   1529    803
8   1564   1565   1560   1559   1534   1535   1530   1529
8   1565   1566   1561   1560   1535   1536   1531   1530
8   1566   1567   1562   1561   1536   1537   1532   1531
8   1567   1568   1563   1562   1537   1538   1533   1532
8    851   1569   1564    845    815   1539   1534    809
8   1569   1570   1565   1564   1539   1540   1535   1534
8   1570   1571   1566   1565   1540   1541   1536   1535
8   1571   1572   1567   1566   1541   1542   1537   1536
8   1572   1573   1568   1567   1542   1543   1538   1537
8    857   1574   1569    851    821   1544   1539    815
8   1574   1575   1570   1569   1544   1545   1540   1539
8   1575   1576   1571   1570   1545   1546   1541   1540
8   1576   1577   1572   1571   1546   1547   1542   1541
8   1577   1578   1573   1572   1547   1548   1543   1542
8    863   1579   1574    857    827   1549   1544    821
8   1579   1580   1575   1574   1549   1550   1545   1544
8   1580   1581   1576   1575   1550   1551   1546   1545
8   1581   1582   1577   1576   1551   1552   1547   1546
8   1582   1583   1578   1577   1552   1553   1548   1547
8    903   1619   1614    898    873   1589   1584    868
8   1619   1620   1615   1614   1589   1590   1585   1584
8   1620   1621   1616   1615   1590   1591   1586   1585
8   1621   1622   1617   1616   1591   1592   1587   1586
8   1622   1623   1618   1617   1592   1593   1588   1587
8    908   1624   1619    903    878   1594   1589    873
8   1624   1625   1620   1619   1594   1595   1590   1589
8   1625   1626   1621   1620   1595   1596   1591   1590
8   1626   1627   1622   1621   1596   1597   1592   1591
8   1627   1628   1623   1622   1597   1598   1593   1592
8    913   1629   1624    908    883   1599   1594    878
8   1629   1630   1625   1624   1599   1600   1595   1594
8   1630   1631   1626   1625   1600   1601   1596   1595
8   1631   1632   1627   1626   1601   1602   1597   1596
8   1632   1633   1628   1627   1602   1603   1598   1597
8    918   1634   1629    913    888   1604   1599    883
8   1634   1635   1630   1629   1604   1605   1600   1599
8   1635   1636   1631   1630   1605   1606   1601   1600
8   1636   1637   1632   1631   1606   1607   1602   1601
8   1637   1638   1633   1632   1607   1608   1603   1602
8    923   1639   1634    918    893   1609   1604    888
8   1639   1640   1635   1634   1609   1610   1605   1604
8   1640   1641   1636   1635   1610   1611   1606   1605
8   1641   1642   1637   1636   1611   1612   1607   1606
8   1642   1643   1638   1637   1612   1613   1608   1607
8    933   1649   1644    928    903   1619   1614    898
8   1649   1650   1645   1644   1619   1620   1615   1614
8   1650   1651   1646   1645   1620   1621   1616   1615
8   1651   1652   1647   1646   1621   1622   1617   1616
8   1652   1653   1648   1647   1622   1623   1618   1617
8    938   1654   1649    933    908   1624   1619    903
8   1654   1655   1650   1649   1624   1625   1620   1619
8   1655   1656   1651   1650   1625   1626   1621   1620
8   1656   1657   1652   1651   1626   1627   1622   1621
8   1657   1658   1653   1652   1627   1628   1623   1622
8    943   1659   1654    938    913   1629   1624    908
8   1659   1660   1655   1654   1629   1630   1625   1624
8   1660   1661   1656   1655   1630   1631   1626   1625
8   1661   1662   1657   1656   1631   1632   1627   1626
8   1662   1663   1658   1657   1632   1633   1628   1627
8    948   1664   1659    943    918   1634   1629    913
8   1664   1665   1660   1659   1634   1635   1630   1629
8   1665   1666   1661   1660   1635   1636   1631   1630
8   1666   1667   1662   1661   1636   1637   1632   1631
8   1667   1668   1663   1662   1637   1638   1633   1632
8    953   1669   1664    948    923   1639   1634    918
8   1669   1670   1665   1664   1639   1640   1635   1634
8   1670   1671   1666   1665   1640   1641   1636   1635
8   1671   1672   1667   1666   1641   1642   1637   1636
8   1672   1673   1668   1667   1642   1643   1638   1637
8    963   1679   1674    958    933   1649   1644    928
8   1679   1680   1675   1674   1649   1650   1645   1644
8   1680   1681   1676   1675   1650   1651   1646   1645
8   1681   1682   1677   1676   1651   1652   1647   1646
8   1682   1683   1678   1677   1652   1653   1648   1647
8    968   1684   1679    963    938   1654   1649    933
8   1684   1685   1680   1679   1654   1655   1650   1649
8   1685   1686   1681   1680   1655   1656   1651   1650
8   1686   1687   1682   1681   1656   1657   1652   1651
8   1687   1688   1683   1682   1657   1658   1653   1652
8    973   1689   1684    968    943   1659   1654    938
8   1689   1690   1685   1684   1659   1660   1655   1654
8   1690   1691   1686   1685   1660   1661   1656   1655
8   1691   1692   1687   1686   1661   1662   1657   1656
8   1692   1693   1688   1687   1662   1663   1658   1657
8    978   1694   1689    973    948   1664   1659    943
8   1694   1695   1690   1689   1664   1665   1660   1659
8   1695   1696   1691   1690   1665   1666   1661   1660
8   1696   1697   1692   1691   1666   1667   1662   1661
8   1697   1698   1693   1692   1667   1668   1663   1662
8    983   1699   1694    978    953   1669   1664    948
8   1699   1700   1695   1694   1669   1670   1665   1664
8   1700   1701   1696   1695   1670   1671   1666   1665
8   1701   1702   1697   1696   1671   1672   1667   1666
8   1702   1703   1698   1697   1672   1673   1668   1667
8    993   1709   1704    988    963   1679   1674    958
8   1709   1710   1705   1704   1679   1680   1675   1674
8   1710   1711   1706   1705   1680   1681   1676   1675
8   1711   1712   1707   1706   1681   1682   1677   1676
8   1712   1713   1708   1707   1682   1683   1678   1677
8    998   1714   1709    993    968   1684   1679    963
8   1714   1715   1710   1709   1684   1685   1680   1679
8   1715   1716   1711   1710   1685   1686   1681   1680
8   1716   1717   1712   1711   1686   1687   1682   1681
8   1717   1718   1713   1712   1687   1688   1683   1682
8   1003   1719   1714    998    973   1689   1684    968
8   1719   1720   1715   1714   1689   1690   1685   1684
8   1720   1721   1716   1715   1690   1691   1686   1685
8   1721   1722   1717   1716   1691   1692   1687   1686
8   1722   1723   1718   1717   1692   1693   1688   1687
8   1008   1724   1719   1003    978   1694   1689    973
8   1724   1725   1720   1719   1694   1695   1690   1689
8   1725   1726   1721   1720   1695   1696   1691   1690
8   1726   1727   1722   1721   1696   1697   1692   1691
8   1727   1728   1723   1722   1697   1698   1693   1692
8   1013   1729   1724   1008    983   1699   1694    978
8   1729   1730   1725   1724   1699   1700   1695   1694
8   1730   1731   1726   1725   1700   1701   1696   1695
8   1731   1732   1727   1726   1701   1702   1697   1696
8   1732   1733   1728   1727   1702   1703   1698   1697
8   1023   1739   1734   1018    993   1709   1704    988
8   1739   1740   1735   1734   1709   1710   1705   1704
8   1740   1741   1736   1735   1710   1711   1706   1705
8   1741   1742   1737   1736   1711   1712   1707   1706
8   1742   1743   1738   1737   1712   1713   1708   1707
8   1028   1744   1739   1023    998   1714   1709    993
8   1744   1745   1740   1739   1714   1715   1710   1709
8   1745   1746   1741   1740   1715   1716   1711   1710
8   1746   1747   1742   1741   1716   1717   1712   1711
8   1747   1748   1743   1742   1717   1718   1713   1712
8   1033   1749   1744   1028   1003   1719   1714    998
8   1749   1750   1745   1744   1719   1720   1715   1714
8   1750   1751   1746   1745   1720   1721   1716   1715
8   1751   1752   1747   1746   1721   1722   1717   1716
8   1752   1753   1748   1747   1722   1723   1718   1717
8   1038   1754   1749   1033   1008   1724   1719   1003
8   1754   1755   1750   1749   1724   1725   1720   1719
8   1755   1756   1751   1750   1725   1726   1721   1720
8   1756   1757   1752   1751   1726   1727   1722   1721
8   1757   1758   1753   1752   1727   1728   1723   1722
8   1043   1759   1754   1038   1013   1729   1724   1008
8   1759   1760   1755   1754   1729   1730   1725   1724
8   1760   1761   1756   1755   1730   1731   1726   1725
8   1761   1762   1757   1756   1731   1732   1727   1726
8   1762   1763   1758   1757   1732   1733   1728   1727
8   1053   1769   1764   1048   1023   1739   1734   1018
8   1769   1770   1765   1764   1739   1740   1735   1734
8   1770   1771   1766   1765   1740   1741   1736   1735
8   1771   1772   1767   1766   1741   1742   1737   1736
8   1772   1773   1768   1767   1742   1743   1738   1737
8   1058   1774   1769   1053   1028   1744   1739   1023
8   1774   1775   1770   1769   1744   1745   1740   1739
8   1775   1776   1771   1770   1745   1746   1741   1740
8   1776   1777   1772   1771   1746   1747   1742   1741
8   1777   1778   1773   1772   1747   1748   1743   1742
8   1063   1779   1774   1058   1033   1749   1744   1028
8   1779   1780   1775   1774   1749   1750   1745   1744
8   1780   1781   1776   1775   1750   1751   1746   1745
8   1781   1782   1777   1776   1751   1752   1747   1746
8   1782   1783   1778   1777   1752   1753   1748   1747
8   1068   1784   1779   1063   1038   1754   1749   1033
8   1784   1785   1780   1779   1754   1755   1750   1749
8   1785   1786   1781   1780   1755   1756   1751   1750
8   1786   1787   1782   1781   1756   1757   1752   1751
8   1787   1788   1783   1782   1757   1758   1753   1752
8   1073   1789   1784   1068   1043   1759   1754   1038
8   1789   1790   1785   1784   1759   1760   1755   1754
8   1790   1791   1786   1785   1760   1761   1756   1755
8   1791   1792   1787   1786   1761   1762   1757   1756
8   1792   1793   1788   1787   1762   1763   1758   1757
8   1083   1799   1794   1078   1053   1769   1764   1048
8   1799   1800   1795   1794   1769   1770   1765   1764
8   1800   1801   1796   1795   1770   1771   1766   1765
8   1801   1802   1797   1796   1771   1772   1767   1766
8   1802   1803   1798   1797   1772   1773   1768   1767
8   1088   1804   1799   1083   1058   1774   1769   1053
8   1804   1805   1800   1799   1774   1775   1770   1769
8   1805   1806   1801   1800   1775   1776   1771   1770
8   1806   1807   1802   1801   1776   1777   1772   1771
8   1807   1808   1803   1802   1777   1778   1773   1772
8   1093   1809   1804   1088   1063   1779   1774   1058
8   1809   1810   1805   1804   1779   1780   1775   1774
8   1810   1811   1806   1805   1780   1781   1776   1775
8   1811   1812   1807   1806   1781   1782   1777   1776
8   1812   1813   1808   1807   1782   1783   1778   1777
8   1098   1814   1809   1093   1068   1784   1779   1063
8   1814   1815   1810   1809   1784   1785   1780   1779
8   1815   1816   1811   1810   1785   1786   1781   1780
8   1816   1817   1812   1811   1786   1787   1782   1781
8   1817   1818   1813   1812   1787   1788   1783   1782
8   1103   1819   1814   1098   1073   1789   1784   1068
8   1819   1820   1815   1814   1789   1790   1785   1784
8   1820   1821   1816   1815   1790   1791   1786   1785
8   1821   1822   1817   1816   1791   1792   1787   1786
8   1822   1823   1818   1817   1792   1793   1788   1787
8   1113   1829   1824   1108   1083   1799   1794   1078
8   1829   1830   1825   1824   1799   1800   1795   1794
8   1830   1831   1826   1825   1800   1801   1796   1795
8   1831   1832   1827   1826   1801   1802   1797   1796
8   1832   1833   1828   1827   1802   1803   1798   1797
8   1118   1834   1829   1113   1088   1804   1799   1083
8   1834   1835   1830   1829   1804   1805   1800   1799
8   1835   1836   1831   1830   1805   1806   1801   1800
8   1836   1837   1832   1831   1806   1807   1802   1801
8   1837   1838   1833   1832   1807   1808   1803   1802
8   1123   1839   1834   1118   1093   1809   1804   1088
8   1839   1840   1835   1834   1809   1810   1805   1804
8   1840   1841   1836   1835   1810   1811   1806   1805
8   1841   1842   1837   1836   1811   1812   1807   1806
8   1842   1843   1838   1837   1812   1813   1808   1807
8   1128   1844   1839   1123   1098   1814   1809   1093
8   1844   1845   1840   1839   1814   1815   1810   1809
8   1845   1846   1841   1840   1815   1816   1811   1810
8   1846   1847   1842   1841   1816   1817   1812   1811
8   1847   1848   1843   1842   1817   1818   1813   1812
8   1133   1849   1844   1128   1103   1819   1814   1098
8   1849   1850   1845   1844   1819   1820   1815   1814
8   1850   1851   1846   1845   1820   1821   1816   1815
8   1851   1852   1847   1846   1821   1822   1817   1816
8   1852   1853   1848   1847   1822   1823   1818   1817
8   1143   1859   1854   1138   1113   1829   1824   1108
8   1859   1860   1855   1854   1829   1830   1825   1824
8   1860   1861   1856   1855   1830   1831   1826   1825
8   1861   1862   1857   1856   1831   1832   1827   1826
8   1862   1863   1858   1857   1832   1833   1828   1827
8   1148   1864   1859   1143   1118   1834   1829   1113
8   1864   1865   1860   1859   1834   1835   1830   1829
8   1865   1866   1861   1860   1835   1836   1831   1830
8   1866   1867   1862   1861   1836   1837   1832   1831
8   1867   1868   1863   1862   1837   1838   1833   1832
8   1153   1869   1864   1148   1123   1839   1834   1118
8   1869   1870   1865   1864   1839   1840   1835   1834
8   1870   1871   1866   1865   1840   1841   1836   1835
8   1871   1872   1867   1866   1841   1842   1837   1836
8   1872   1873   1868   1867   1842   1843   1838   1837
8   1158   1874   1869   1153   1128   1844   1839   1123
8   1874   1875   1870   1869   1844   1845   1840   1839
8   1875   1876   1871   1870   1845   1846   1841   1840
8   1876   1877   1872   1871   1846   1847   1842   1841
8   1877   1878   1873   1872   1847   1848   1843   1842
8   1163   1879   1874   1158   1133   1849   1844   1128
8   1879   1880   1875   1874   1849   1850   1845   1844
8   1880   1881   1876   1875   1850   1851   1846   1845
8   1881   1882   1877   1876   1851   1852   1847   1846
8   1882   1883   1878   1877   1852   1853   1848   1847
8   1173   1889   1884   1168   1143   1859   1854   1138
8   1889   1890   1885   1884   1859   1860   1855   1854
8   1890   1891   1886   1885   1860   1861   1856   1855
8   1891   1892   1887   1886   1861   1862   1857   1856
8   1892   1893   1888   1887   1862   1863   1858   1857
8   1178   1894   1889   1173   1148   1864   1859   1143
8   1894   1895   1890   1889   1864   1865   1860   1859
8   1895   1896   1891   1890   1865   1866   1861   1860
8   1896   1897   1892   1891   1866   1867   1862   1861
8   1897   1898   1893   1892   1867   1868   1863   1862
8   1183   1899   1894   1178   1153   1869   1864   1148
8   1899   1900   1895   1894   1869   1870   1865   1864
8   1900   1901   1896   1895   1870   1871   1866   1865
8   1901   1902   1897   1896   1871   1872   1867   1866
8   1902   1903   1898   1897   1872   1873   1868   1867
8   1188   1904   1899   1183   1158   1874   1869   1153
8   1904   1905   1900   1899   1874   1875   1870   1869
8   1905   1906   1901   1900   1875   1876   1871   1870
8   1906   1907   1902   1901   1876   1877   1872   1871
8   1907   1908   1903   1902   1877   1878   1873   1872
8   1193   1909   1904   1188   1163   1879   1874   1158
8   1909   1910   1905   1904   1879   1880   1875   1874
8   1910   1911   1906   1905   1880   1881   1876   1875
8   1911   1912   1907   1906   1881   1882   1877   1876
8   1912   1913   1908   1907   1882   1883   1878   1877
8   1203   1919   1914   1198   1173   1889   1884   1168
8   1919   1920   1915   1914   1889   1890   1885   1884
8   1920   1921   1916   1915   1890   1891   1886   1885
8   1921   1922   1917   1916   1891   1892   1887   1886
8   1922   1923   1918   1917   1892   1893   1888   1887
8   1208   1924   1919   1203   1178   1894   1889   1173
8   1924   1925   1920   1919   1894   1895   1890   1889
8   1925   1926   1921   1920   1895   1896   1891   1890
8   1926   1927   1922   1921   1896   1897   1892   1891
8   1927   1928   1923   1922   1897   1898   1893   1892
8   1213   1929   1924   1208   1183   1899   1894   1178
8   1929   1930   1925   1924   1899   1900   1895   1894
8   1930   1931   1926   1925   1900   1901   1896   1895
8   1931   1932   1927   1926   1901   1902   1897   1896
8   1932   1933   1928   1927   1902   1903   1898   1897
8   1218   1934   1929   1213   1188   1904   1899   1183
8   1934   1935   1930   1929   1904   1905   1900   1899
8   1935   1936   1931   1930   1905   1906   1901   1900
8   1936   1937   1932   1931   1906   1907   1902   1901
8   1937   1938   1933   1932   1907   1908   1903   1902
8   1223   1939   1934   1218   1193   1909   1904   1188
8   1939   1940   1935   1934   1909   1910   1905   1904
8   1940   1941   1936   1935   1910   1911   1906   1905
8   1941   1942   1937   1936   1911   1912   1907   1906
8   1942   1943   1938   1937   1912   1913   1908   1907
8   1233   1949   1944   1228   1203   1919   1914   1198
8   1949   1950   1945   1944   1919   1920   1915   1914
8   1950   1951   1946   1945   1920   1921   1916   1915
8   1951   1952   1947   1946   1921   1922   1917   1916
8   1952   1953   1948   1947   1922   1923   1918   1917
8   1238   1954   1949   1233   1208   1924   1919   1203
8   1954   1955   1950   1949   1924   1925   1920   1919
8   1955   1956   1951   1950   1925   1926   1921   1920
8   1956   1957   1952   1951   1926   1927   1922   1921
8   1957   1958   1953   1952   1927   1928   1923   1922
8   1243   1959   1954   1238   1213   1929   1924   1208
8   1959   1960   1955   1954   1929   1930   1925   1924
8   1960   1961   1956   1955   1930   1931   1926   1925
8   1961   1962   1957   1956   1931   1932   1927   1926
8   1962   1963   1958   1957   1932   1933   1928   1927
8   1248   1964   1959   1243   1218   1934   1929   1213
8   1964   1965   1960   1959   1934   1935   1930   1929
8   1965   1966   1961   1960   1935   1936   1931   1930
8   1966   1967   1962   1961   1936   1937   1932   1931
8   1967   1968   1963   1962   1937   1938   1933   1932
8   1253   1969   1964   1248   1223   1939   1934   1218
8   1969   1970   1965   1964   1939   1940   1935   1934
8   1970   1971   1966   1965   1940   1941   1936   1935
8   1971   1972   1967   1966   1941   1942   1937   1936
8   1972   1973   1968   1967   1942   1943   1938   1937
8   1263   1979   1974   1258   1233   1949   1944   1228
8   1979   1980   1975   1974   1949   1950   1945   1944
8   1980   1981   1976   1975   1950   1951   1946   1945
8   1981   1982   1977   1976   1951   1952   1947   1946
8   1982   1983   1978   1977   1952   1953   1948   1947
8   1268   1984   1979   1263   1238   1954   1949   1233
8   1984   1985   1980   1979   1954   1955   1950   1949
8   1985   1986   1981   1980   1955   1956   1951   1950
8   1986   1987   1982   1981   1956   1957   1952   1951
8   1987   1988   1983   1982   1957   1958   1953   1952
8   1273   1989   1984   1268   1243   1959   1954   1238
8   1989   1990   1985   1984   1959   1960   1955   1954
8   1990   1991   1986   1985   1960   1961   1956   1955
8   1991   1992   1987   1986   1961   1962   1957   1956
8   1992   1993   1988   1987   1962   1963   1958   1957
8   1278   1994   1989   1273   1248   1964   1959   1243
8   1994   1995   1990   1989   1964   1965   1960   1959
8   1995   1996   1991   1990   1965   1966   1961   1960
8   1996   1997   1992   1991   1966   1967   1962   1961
8   1997   1998   1993   1992   1967   1968   1963   1962
8   1283   1999   1994   1278   1253   1969   1964   1248
8   1999   2000   1995   1994   1969   1970   1965   1964
8   2000   2001   1996   1995   1970   1971   1966   1965
8   2001   2002   1997   1996   1971   1972   1967   1966
8   2002   2003   1998   1997   1972   1973   1968   1967
8   1293   2009   2004   1288   1263   1979   1974   1258
8   2009   2010   2005   2004   1979   1980   1975   1974
8   2010   2011   2006   2005   1980   1981   1976   1975
8   2011   2012   2007   2006   1981   1982   1977   1976
8   2012   2013   2008   2007   1982   1983   1978   1977
8   1298   2014   2009   1293   1268   1984   1979   1263
8   2014   2015   2010   2009   1984   1985   1980   1979
8   2015   2016   2011   2010   1985   1986   1981   1980
8   2016   2017   2012   2011   1986   1987   1982   1981
8   2017   2018   2013   2012   1987   1988   1983   1982
8   1303   2019   2014   1298   1273   1989   1984   1268
8   2019   2020   2015   2014   1989   1990   1985   1984
8   2020   2021   2016   2015   1990   1991   1986   1985
8   2021   2022   2017   2016   1991   1992   1987   1986
8   2022   2023   2018   2017   1992   1993   1988   1987
8   1308   2024   2019   1303   1278   1994   1989   1273
8   2024   2025   2020   2019   1994   1995   1990   1989
8   2025   2026   2021   2020   1995   1996   1991   1990
8   2026   2027   2022   2021   1996   1997   1992   1991
8   2027   2028   2023   2022   1997   1998   1993   1992
8   1313   2029   2024   1308   1283   1999   1994   1278
8   2029   2030   2025   2024   1999   2000   1995   1994
8   2030   2031   2026   2025   2000   2001   1996   1995
8   2031   2032   2027   2026   2001   2002   1997   1996
8   2032   2033   2028   2027   2002   2003   1998   1997
8   1323   2039   2034   1318   1293   2009   2004   1288
8   2039   2040   2035   2034   2009   2010   2005   2004
8   2040   2041   2036   2035   2010   2011   2006   2005
8   2041   2042   2037   2036   2011   2012   2007   2006
8   2042   2043   2038   2037   2012   2013   2008   2007
8   1328   2044   2039   1323   1298   2014   2009   1293
8   2044   2045   2040   2039   2014   2015   2010   2009
8   2045   2046   2041   2040   2015   2016   2011   2010
8   2046   2047   2042   2041   2016   2017   2012   2011
8   2047   2048   2043   2042   2017   2018   2013   2012
8   1333   2049   2044   1328   1303   2019   2014   1298
8   2049   2050   2045   2044   2019   2020   2015   2014
8   2050   2051   2046   2045   2020   2021   2016   2015
8   2051   2052   2047   2046   2021   2022   2017   2016
8   2052   2053   2048   2047   2022   2023   2018   2017
8   1338   2054   2049   1333   1308   2024   2019   1303
8   2054   2055   2050   2049   2024   2025   2020   2019
8   2055   2056   2051   2050   2025   2026   2021   2020
8   2056   2057   2052   2051   2026   2027   2022   2021
8   2057   2058   2053   2052   2027   2028   2023   2022
8   1343   2059   2054   1338   1313   2029   2024   1308
8   2059   2060   2055   2054   2029   2030   2025   2024
8   2060   2061   2056   2055   2030   2031   2026   2025
8   2061   2062   2057   2056   2031   2032   2027   2026
8   2062   2063   2058   2057   2032   2033   2028   2027
8   1353   2069   2064   1348   1323   2039   2034   1318
8   2069   2070   2065   2064   2039   2040   2035   2034
8   2070   2071   2066   2065   2040   2041   2036   2035
8   2071   2072   2067   2066   2041   2042   2037   2036
8   2072   2073   2068   2067   2042   2043   2038   2037
8   1358   2074   2069   1353   1328   2044   2039   1323
8   2074   2075   2070   2069   2044   2045   2040   2039
8   2075   2076   2071   2070   2045   2046   2041   2040
8   2076   2077   2072   2071   2046   2047   2042   2041
8   2077   2078   2073   2072   2047   2048   2043   2042
8   1363   2079   2074   1358   1333   2049   2044   1328
8   2079   2080   2075   2074   2049   2050   2045   2044
8   2080   2081   2076   2075   2050   2051   2046   2045
8   2081   2082   2077   2076   2051   2052   2047   2046
8   2082   2083   2078   2077   2052   2053   2048   2047
8   1368   2084   2079   1363   1338   2054   2049   1333
8   2084   2085   2080   2079   2054   2055   2050   2049
8   2085   2086   2081   2080   2055   2056   2051   2050
8   2086   2087   2082   2081   2056   2057   2052   2051
8   2087   2088   2083   2082   2057   2058   2053   2052
8   1373   2089   2084   1368   1343   2059   2054   1338
8   2089   2090   2085   2084   2059   2060   2055   2054
8   2090   2091   2086   2085   2060   2061   2056   2055
8   2091   2092   2087   2086   2061   2062   2057   2056
8   2092   2093   2088   2087   2062   2063   2058   2057
8   1383   2099   2094   1378   1353   2069   2064   1348
8   2099   2100   2095   2094   2069   2070   2065   2064
8   2100   2101   2096   2095   2070   2071   2066   2065
8   2101   2102   2097   2096   2071   2072   2067   2066
8   2102   2103   2098   2097   2072   2073   2068   2067
8   1388   2104   2099   1383   1358   2074   2069   1353
8   2104   2105   2100   2099   2074   2075   2070   2069
8   2105   2106   2101   2100   2075   2076   2071   2070
8   2106   2107   2102   2101   2076   2077   2072   2071
8   2107   2108   2103   2102   2077   2078   2073   2072
8   1393   2109   2104   1388   1363   2079   2074   1358
8   2109   2110   2105   2104   2079   2080   2075   2074
8   2110   2111   2106   2105   2080   2081   2076   2075
8   2111   2112   2107   2106   2081   2082   2077   2076
8   2112   2113   2108   2107   2082   2083   2078   2077
8   1398   2114   2109   1393   1368   2084   2079   1363
8   2114   2115   2110   2109   2084   2085   2080   2079
8   2115   2116   2111   2110   2085   2086   2081   2080
8   2116   2117   2112   2111   2086   2087   2082   2081
8   2117   2118   2113   2112   2087   2088   2083   2082
8   1403   2119   2114   1398   1373   2089   2084   1368
8   2119   2120   2115   2114   2089   2090   2085   2084
8   2120   2121   2116   2115   2090   2091   2086   2085
8   2121   2122   2117   2116   2091   2092   2087   2086
8   2122   2123   2118   2117   2092   2093   2088   2087
8   1413   2129   2124   1408   1383   2099   2094   1378
8   2129   2130   2125   2124   2099   2100   2095   2094
8   2130   2131   2126   2125   2100   2101   2096   2095
8   2131   2132   2127   2126   2101   2102   2097   2096
8   2132   2133   2128   2127   2102   2103   2098   2097
8   1418   2134   2129   1413   1388   2104   2099   1383
8   2134   2135   2130   2129   2104   2105   2100   2099
8   2135   2136   2131   2130   2105   2106   2101   2100
8   2136   2137   2132   2131   2106   2107   2102   2101
8   2137   2138   2133   2132   2107   2108   2103   2102
8   1423   2139   2134   1418   1393   2109   2104   1388
8   2139   2140   2135   2134   2109   2110   2105   2104
8   2140   2141   2136   2135   2110   2111   2106   2105
8   2141   2142   2137   2136   2111   2112   2107   2106
8   2142   2143   2138   2137   2112   2113   2108   2107
8   1428   2144   2139   1423   1398   2114   2109   1393
8   2144   2145   2140   2139   2114   2115   2110   2109
8   2145   2146   2141   2140   2115   2116   2111   2110
8   2146   2147   2142   2141   2116   2117   2112   2111
8   2147   2148   2143   2142   2117   2118   2113   2112
8   1433   2149   2144   1428   1403   2119   2114   1398
8   2149   2150   2145   2144   2119   2120   2115   2114
8   2150   2151   2146   2145   2120   2121   2116   2115
8   2151   2152   2147   2146   2121   2122   2117   2116
8   2152   2153   2148   2147   2122   2123   2118   2117
8   1443   2159   2154   1438   1413   2129   2124   1408
8   2159   2160   2155   2154   2129   2130   2125   2124
8   2160   2161   2156   2155   2130   2131   2126   2125
8   2161   2162   2157   2156   2131   2132   2127   2126
8   2162   2163   2158   2157   2132   2133   2128   2127
8   1448   2164   2159   1443   1418   2134   2129   1413
8   2164   2165   2160   2159   2134   2135   2130   2129
8   2165   2166   2161   2160   2135   2136   2131   2130
8   2166   2167   2162   2161   2136   2137   2132   2131
8   2167   2168   2163   2162   2137   2138   2133   2132
8   1453   2169   2164   1448   1423   2139   2134   1418
8   2169   2170   2165   2164   2139   2140   2135   2134
8   2170   2171   2166   2165   2140   2141   2136   2135
8   2171   2172   2167   2166   2141   2142   2137   2136
8   2172   2173   2168   2167   2142   2143   2138   2137
8   1458   2174   2169   1453   1428   2144   2139   1423
8   2174   2175   2170   2169   2144   2145   2140   2139
8   2175   2176   2171   2170   2145   2146   2141   2140
8   2176   2177   2172   2171   2146   2147   2142   2141
8   2177   2178   2173   2172   2147   2148   2143   2142
8   1463   2179   2174   1458   1433   2149   2144   1428
8   2179   2180   2175   2174   2149   2150   2145   2144
8   2180   2181   2176   2175   2150   2151   2146   2145
8   2181   2182   2177   2176   2151   2152   2147   2146
8   2182   2183   2178   2177   2152   2153   2148   2147
8   1473   2189   2184   1468   1443   2159   2154   1438
8   2189   2190   2185   2184   2159   2160   2155   2154
8   2190   2191   2186   2185   2160   2161   2156   2155
8   2191   2192   2187   2186   2161   2162   2157   2156
8   2192   2193   2188   2187   2162   2163   2158   2157
8   1478   2194   2189   1473   1448   2164   2159   1443
8   2194   2195   2190   2189   2164   2165   2160   2159
8   2195   2196   2191   2190   2165   2166   2161   2160
8   2196   2197   2192   2191   2166   2167   2162   2161
8   2197   2198   2193   2192   2167   2168   2163   2162
8   1483   2199   2194   1478   1453   2169   2164   1448
8   2199   2200   2195   2194   2169   2170   2165   2164
8   2200   2201   2196   2195   2170   2171   2166   2165
8   2201   2202   2197   2196   2171   2172   2167   2166
8   2202   2203   2198   2197   2172   2173   2168   2167
8   1488   2204   2199   1483   1458   2174   2169   1453
8   2204   2205   2200   2199   2174   2175   2170   2169
8   2205   2206   2201   2200   2175   2176   2171   2170
8   2206   2207   2202   2201   2176   2177   2172   2171
8   2207   2208   2203   2202   2177   2178   2173   2172
8   1493   2209   2204   1488   1463   2179   2174   1458
8   2209   2210   2205   2204   2179   2180   2175   2174
8   2210   2211   2206   2205   2180   2181   2176   2175
8   2211   2212   2207   2206   2181   2182   2177   2176
8   2212   2213   2208   2207   2182   2183   2178   2177
8   1503   2219   2214   1498   1473   2189   2184   1468
8   2219   2220   2215   2214   2189   2190   2185   2184
8   2220   2221   2216   2215   2190   2191   2186   2185
8   2221   2222   2217   2216   2191   2192   2187   2186
8   2222   2223   2218   2217   2192   2193   2188   2187
8   1508   2224   2219   1503   1478   2194   2189   1473
8   2224   2225   2220   2219   2194   2195   2190   2189
8   2225   2226   2221   2220   2195   2196   2191   2190
8   2226   2227   2222   2221   2196   2197   2192   2191
8   2227   2228   2223   2222   2197   2198   2193   2192
8   1513   2229   2224   1508   1483   2199   2194   1478
8   2229   2230   2225   2224   2199   2200   2195   2194
8   2230   2231   2226   2225   2200   2201   2196   2195
8   2231   2232   2227   2226   2201   2202   2197   2196
8   2232   2233   2228   2227   2202   2203   2198   2197
8   1518   2234   2229   1513   1488   2204   2199   1483
8   2234   2235   2230   2229   2204   2205   2200   2199
8   2235   2236   2231   2230   2205   2206   2201   2200
8   2236   2237   2232   2231   2206   2207   2202   2201
8   2237   2238   2233   2232   2207   2208   2203   2202
8   1523   2239   2234   1518   1493   2209   2204   1488
8   2239   2240   2235   2234   2209   2210   2205   2204
8   2240   2241   2236   2235   2210   2211   2206   2205
8   2241   2242   2237   2236   2211   2212   2207   2206
8   2242   2243   2238   2237   2212   2213   2208   2207
8   1533   2249   2244   1528   1503   2219   2214   1498
8   2249   2250   2245   2244   2219   2220   2215   2214
8   2250   2251   2246   2245   2220   2221   2216   2215
8   2251   2252   2247   2246   2221   2222   2217   2216
8   2252   2253   2248   2247   2222   2223   2218   2217
8   1538   2254   2249   1533   1508   2224   2219   1503
8   2254   2255   2250   2249   2224   2225   2220   2219
8   2255   2256   2251   2250   2225   2226   2221   2220
8   2256   2257   2252   2251   2226   2227   2222   2221
8   2257   2258   2253   2252   2227   2228   2223   2222
8   1543   2259   2254   1538   1513   2229   2224   1508
8   2259   2260   2255   2254   2229   2230   2225   2224
8   2260   2261   2256   2255   2230   2231   2226   2225
8   2261   2262   2257   2256   2231   2232   2227   2226
8   2262   2263   2258   2257   2232   2233   2228   2227
8   1548   2264   2259   1543   1518   2234   2229   1513
8   2264   2265   2260   2259   2234   2235   2230   2229
8   2265   2266   2261   2260   2235   2236   2231   2230
8   2266   2267   2262   2261   2236   2237   2232   2231
8   2267   2268   2263   2262   2237   2238   2233   2232
8   1553   2269   2264   1548   1523   2239   2234   1518
8   2269   2270   2265   2264   2239   2240   2235   2234
8   2270   2271   2266   2265   2240   2241   2236   2235
8   2271   2272   2267   2266   2241   2242   2237   2236
8   2272   2273   2268   2267   2242   2243   2238   2237
8   1563   2279   2274   1558   1533   2249   2244   1528
8   2279   2280   2275   2274   2249   2250   2245   2244
8   2280   2281   2276   2275   2250   2251   2246   2245
8   2281   2282   2277   2276   2251   2252   2247   2246
8   2282   2283   2278   2277   2252   2253   2248   2247
8   1568   2284   2279   1563   1538   2254   2249   1533
8   2284   2285   2280   2279   2254   2255   2250   2249
8   2285   2286   2281   2280   2255   2256   2251   2250
8   2286   2287   2282   2281   2256   2257   2252   2251
8   2287   2288   2283   2282   2257   2258   2253   2252
8   1573   2289   2284   1568   1543   2259   2254   1538
8   2289   2290   2285   2284   2259   2260   2255   2254
8   2290   2291   2286   2285   2260   2261   2256   2255
8   2291   2292   2287   2286   2261   2262   2257   2256
8   2292   2293   2288   2287   2262   2263   2258   2257
8   1578   2294   2289   1573   1548   2264   2259   1543
8   2294   2295   2290   2289   2264   2265   2260   2259
8   2295   2296   2291   2290   2265   2266   2261   2260
8   2296   2297   2292   2291   2266   2267   2262   2261
8   2297   2298   2293   2292   2267   2268   2263   2262
8   1583   2299   2294   1578   1553   2269   2264   1548
8   2299   2300   2295   2294   2269   2270   2265   2264
8   2300   2301   2296   2295   2270   2271   2266   2265
8   2301   2302   2297   2296   2271   2272   2267   2266
8   2302   2303   2298   2297   2272   2273   2268   2267
8   1623   2332   2328   1618   1593   2308   2304   1588
8   2332   2333   2329   2328   2308   2309   2305   2304
8   2333   2334   2330   2329   2309   2310   2306   2305
8   2334   2335   2331   2330   2310   2311   2307   2306
8   2335     42     36   2331   2311      6      0   2307
8   1628   2336   2332   1623   1598   2312   2308   1593
8   2336   2337   2333   2332   2312   2313   2309   2308
8   2337   2338   2334   2333   2313   2314   2310   2309
8   2338   2339   2335   2334   2314   2315   2311   2310
8   2339     48     42   2335   2315     12      6   2311
8   1633   2340   2336   1628   1603   2316   2312   1598
8   2340   2341   2337   2336   2316   2317   2313   2312
8   2341   2342   2338   2337   2317   2318   2314   2313
8   2342   2343   2339   2338   2318   2319   2315   2314
8   2343     54     48   2339   2319     18     12   2315
8   1638   2344   2340   1633   1608   2320   2316   1603
8   2344   2345   2341   2340   2320   2321   2317   2316
8   2345   2346   2342   2341   2321   2322   2318   2317
8   2346   2347   2343   2342   2322   2323   2319   2318
8   2347     60     54   2343   2323     24     18   2319
8   1643   2348   2344   1638   1613   2324   2320   1608
8   2348   2349   2345   2344   2324   2325   2321   2320
8   2349   2350   2346   2345   2325   2326   2322   2321
8   2350   2351   2347   2346   2326   2327   2323   2322
8   2351     66     60   2347   2327     30     24   2323
8   1653   2356   2352   1648   1623   2332   2328   1618
8   2356   2357   2353   2352   2332   2333   2329   2328
8   2357   2358   2354   2353   2333   2334   2330   2329
8   2358   2359   2355   2354   2334   2335   2331   2330
8   2359     78     72   2355   2335     42     36   2331
8   1658   2360   2356   1653   1628   2336   2332   1623
8   2360   2361   2357   2356   2336   2337   2333   2332
8   2361   2362   2358   2357   2337   2338   2334   2333
8   2362   2363   2359   2358   2338   2339   2335   2334
8   2363     84     78   2359   2339     48     42   2335
8   1663   2364   2360   1658   1633   2340   2336   1628
8   2364   2365   2361   2360   2340   2341   2337   2336
8   2365   2366   2362   2361   2341   2342   2338   2337
8   2366   2367   2363   2362   2342   2343   2339   2338
8   2367     90     84   2363   2343     54     48   2339
8   1668   2368   2364   1663   1638   2344   2340   1633
8   2368   2369   2365   2364   2344   2345   2341   2340
8   2369   2370   2366   2365   2345   2346   2342   2341
8   2370   2371   2367   2366   2346   2347   2343   2342
8   2371     96     90   2367   2347     60     54   2343
8   1673   2372   2368   1668   1643   2348   2344   1638
8   2372   2373   2369   2368   2348   2349   2345   2344
8   2373   2374   2370   2369   2349   2350   2346   2345
8   2374   2375   2371   2370   2350   2351   2347   2346
8   2375    102     96   2371   2351     66     60   2347
8   1683   2380   2376   1678   1653   2356   2352   1648
8   2380   2381   2377   2376   2356   2357   2353   2352
8   2381   2382   2378   2377   2357   2358   2354   2353
8   2382   2383   2379   2378   2358   2359   2355   2354
8   2383    114    108   2379   2359     78     72   2355
8   1688   2384   2380   1683   1658   2360   2356   1653
8   2384   2385   2381   2380   2360   2361   2357   2356
8   2385   2386   2382   2381   2361   2362   2358   2357
8   2386   2387   2383   2382   2362   2363   2359   2358
8   2387    120    114   2383   2363     84     78   2359
8   1693   2388   2384   1688   1663   2364   2360   1658
8   2388   2389   2385   2384   2364   2365   2361   2360
8   2389   2390   2386   2385   2365   2366   2362   2361
8   2390   2391   2387   2386   2366   2367   2363   2362
8   2391    126    120   2387   2367     90     84   2363
8   1698   2392   2388   1693   1668   2368   2364   1663
8   2392   2393   2389   2388   2368   2369   2365   2364
8   2393   2394   2390   2389   2369   2370   2366   2365
8   2394   2395   2391   2390   2370   2371   2367   2366
8   2395    132    126   2391   2371     96     90   2367
8   1703   2396   2392   1698   1673   2372   2368   1668
8   2396   2397   2393   2392   2372   2373   2369   2368
8   2397   2398   2394   2393   2373   2374   2370   2369
8   2398   2399   2395   2394   2374   2375   2371   2370
8   2399    138    132   2395   2375    102     96   2371
8   1713   2404   2400   1708   1683   2380   2376   1678
8   2404   2405   2401   2400   2380   2381   2377   2376
8   2405   2406   2402   2401   2381   2382   2378   2377
8   2406   2407   2403   2402   2382   2383   2379   2378
8   2407    150    144   2403   2383    114    108   2379
8   1718   2408   2404   1713   1688   2384   2380   1683
8   2408   2409   2405   2404   2384   2385   2381   2380
8   2409   2410   2406   2405   2385   2386   2382   2381
8   2410   2411   2407   2406   2386   2387   2383   2382
8   2411    156    150   2407   2387    120    114   2383
8   1723   2412   2408   1718   1693   2388   2384   1688
8   2412   2413   2409   2408   2388   2389   2385   2384
8   2413   2414   2410   2409   2389   2390   2386   2385
8   2414   2415   2411   2410   2390   2391   2387   2386
8   2415    162    156   2411   2391    126    120   2387
8   1728   2416   2412   1723   1698   2392   2388   1693
8   2416   2417   2413   2412   2392   2393   2389   2388
8   2417   2418   2414   2413   2393   2394   2390   2389
8   2418   2419   2415   2414   2394   2395   2391   2390
8   2419    168    162   2415   2395    132    126   2391
8   1733   2420   2416   1728   1703   2396   2392   1698
8   2420   2421   2417   2416   2396   2397   2393   2392
8   2421   2422   2418   2417   2397   2398   2394   2393
8   2422   2423   2419   2418   2398   2399   2395   2394
8   2423    174    168   2419   2399    138    132   2395
8   1743   2428   2424   1738   1713   2404   2400   1708
8   2428   2429   2425   2424   2404   2405   2401   2400
8   2429   2430   2426   2425   2405   2406   2402   2401
8   2430   2431   2427   2426   2406   2407   2403   2402
8   2431    186    180   2427   2407    150    144   2403
8   1748   2432   2428   1743   1718   2408   2404   1713
8   2432   2433   2429   2428   2408   2409   2405   2404
8   2433   2434   2430   2429   2409   2410   2406   2405
8   2434   2435   2431   2430   2410   2411   2407   2406
8   2435    192    186   2431   2411    156    150   2407
8   1753   2436   2432   1748   1723   2412   2408   1718
8   2436   2437   2433   2432   2412   2413   2409   2408
8   2437   2438   2434   2433   2413   2414   2410   2409
8   2438   2439   2435   2434   2414   2415   2411   2410
8   2439    198    192   2435   2415    162    156   2411
8   1758   2440   2436   1753   1728   2416   2412   1723
8   2440   2441   2437   2436   2416   2417   2413   2412
8   2441   2442   2438   2437   2417   2418   2414   2413
8   2442   2443   2439   2438   2418   2419   2415   2414
8   2443    204    198   2439   2419    168    162   2415
8   1763   2444   2440   1758   1733   2420   2416   1728
8   2444   2445   2441   2440   2420   2421   2417   2416
8   2445   2446   2442   2441   2421   2422   2418   2417
8   2446   2447   2443   2442   2422   2423   2419   2418
8   2447    210    204   2443   2423    174    168   2419
8   1773   2452   2448   1768   1743   2428   2424   1738
8   2452   2453   2449   2448   2428   2429   2425   2424
8   2453   2454   2450   2449   2429   2430   2426   2425
8   2454   2455   2451   2450   2430   2431   2427   2426
8   2455    222    216   2451   2431    186    180   2427
8   1778   2456   2452   1773   1748   2432   2428   1743
8   2456   2457   2453   2452   2432   2433   2429   2428
8   2457   2458   2454   2453   2433   2434   2430   2429
8   2458   2459   2455   2454   2434   2435   2431   2430
8   2459    228    222   2455   2435    192    186   2431
8   1783   2460   2456   1778   1753   2436   2432   1748
8   2460   2461   2457   2456   2436   2437   2433   2432
8   2461   2462   2458   2457   2437   2438   2434   2433
8   2462   2463   2459   2458   2438   2439   2435   2434
8   2463    234    228   2459   2439    198    192   2435
8   1788   2464   2460   1783   1758   2440   2436   1753
8   2464   2465   2461   2460   2440   2441   2437   2436
8   2465   2466   2462   2461   2441   2442   2438   2437
8   2466   2467   2463   2462   2442   2443   2439   2438
8   2467    240    234   2463   2443    204    198   2439
8   1793   2468   2464   1788   1763   2444   2440   1758
8   2468   2469   2465   2464   2444   2445   2441   2440
8   2469   2470   2466   2465   2445   2446   2442   2441
8   2470   2471   2467   2466   2446   2447   2443   2442
8   2471    246    240   2467   2447    210    204   2443
8   1803   2476   2472   1798   1773   2452   2448   1768
8   2476   2477   2473   2472   2452   2453   2449   2448
8   2477   2478   2474   2473   2453   2454   2450   2449
8   2478   2479   2475   2474   2454   2455   2451   2450
8   2479    258    252   2475   2455    222    216   2451
8   1808   2480   2476   1803   1778   2456   2452   1773
8   2480   2481   2477   2476   2456   2457   2453   2452
8   2481   2482   2478   2477   2457   2458   2454   2453
8   2482   2483   2479   2478   2458   2459   2455   2454
8   2483    264    258   2479   2459    228    222   2455
8   1813   2484   2480   1808   1783   2460   2456   1778
8   2484   2485   2481   2480   2460   2461   2457   2456
8   2485   2486   2482   2481   2461   2462   2458   2457
8   2486   2487   2483   2482   2462   2463   2459   2458
8   2487    270    264   2483   2463    234    228   2459
8   1818   2488   2484   1813   1788   2464   2460   1783
8   2488   2489   2485   2484   2464   2465   2461   2460
8   2489   2490   2486   2485   2465   2466   2462   2461
8   2490   2491   2487   2486   2466   2467   2463   2462
8   2491    276    270   2487   2467    240    234   2463
8   1823   2492   2488   1818   1793   2468   2464   1788
8   2492   2493   2489   2488   2468   2469   2465   2464
8   2493   2494   2490   2489   2469   2470   2466   2465
8   2494   2495   2491   2490   2470   2471   2467   2466
8   2495    282    276   2491   2471    246    240   2467
8   1833   2500   2496   1828   1803   2476   2472   1798
8   2500   2501   2497   2496   2476   2477   2473   2472
8   2501   2502   2498   2497   2477   2478   2474   2473
8   2502   2503   2499   2498   2478   2479   2475   2474
8   2503    294    288   2499   2479    258    252   2475
8   1838   2504   2500   1833   1808   2480   2476   1803
8   2504   2505   2501   2500   2480   2481   2477   2476
8   2505   2506   2502   2501   2481   2482   2478   2477
8   2506   2507   2503   2502   2482   2483   2479   2478
8   2507    300    294   2503   2483    264    258   2479
8   1843   2508   2504   1838   1813   2484   2480   1808
8   2508   2509   2505   2504   2484   2485   2481   2480
8   2509   2510   2506   2505   2485   2486   2482   2481
8   2510   2511   2507   2506   2486   2487   2483   2482
8   2511    306    300   2507   2487    270    264   2483
8   1848   2512   2508   1843   1818   2488   2484   1813
8   2512   2513   2509   2508   2488   2489   2485   2484
8   2513   2514   2510   2509   2489   2490   2486   2485
8   2514   2515   2511   2510   2490   2491   2487   2486
8   2515    312    306   2511   2491    276    270   2487
8   1853   2516   2512   1848   1823   2492   2488   1818
8   2516   2517   2513   2512   2492   2493   2489   2488
8   2517   2518   2514   2513   2493   2494   2490   2489
8   2518   2519   2515   2514   2494   2495   2491   2490
8   2519    318    312   2515   2495    282    276   2491
8   1863   2524   2520   1858   1833   2500   2496   1828
8   2524   2525   2521   2520   2500   2501   2497   2496
8   2525   2526   2522   2521   2501   2502   2498   2497
8   2526   2527   2523   2522   2502   2503   2499   2498
8   2527    330    324   2523   2503    294    288   2499
8   1868   2528   2524   1863   1838   2504   2500   1833
8   2528   2529   2525   2524   2504   2505   2501   2500
8   2529   2530   2526   2525   2505   2506   2502   2501
8   2530   2531   2527   2526   2506   2507   2503   2502
8   2531    336    330   2527   2507    300    294   2503
8   1873   2532   2528   1868   1843   2508   2504   1838
8   2532   2533   2529   2528   2508   2509   2505   2504
8   2533   2534   2530   2529   2509   2510   2506   2505
8   2534   2535   2531   2530   2510   2511   2507   2506
8   2535    342    336   2531   2511    306    300   2507
8   1878   2536   2532   1873   1848   2512   2508   1843
8   2536   2537   2533   2532   2512   2513   2509   2508
8   2537   2538   2534   2533   2513   2514   2510   2509
8   2538   2539   2535   2534   2514   2515   2511   2510
8   2539    348    342   2535   2515    312    306   2511
8   1883   2540   2536   1878   1853   2516   2512   1848
8   2540   2541   2537   2536   2516   2517   2513   2512
8   2541   2542   2538   2537   2517   2518   2514   2513
8   2542   2543   2539   2538   2518   2519   2515   2514
8   2543    354    348   2539   2519    318    312   2515
8   1893   2548   2544   1888   1863   2524   2520   1858
8   2548   2549   2545   2544   2524   2525   2521   2520
8   2549   2550   2546   2545   2525   2526   2522   2521
8   2550   2551   2547   2546   2526   2527   2523   2522
8   2551    366    360   2547   2527    330    324   2523
8   1898   2552   2548   1893   1868   2528   2524   1863
8   2552   2553   2549   2548   2528   2529   2525   2524
8   2553   2554   2550   2549   2529   2530   2526   2525
8   2554   2555   2551   2550   2530   2531   2527   2526
8   2555    372    366   2551   2531    336    330   2527
8   1903   2556   2552   1898   1873   2532   2528   1868
8   2556   2557   2553   2552   2532   2533   2529   2528
8   2557   2558   2554   2553   2533   2534   2530   2529
8   2558   2559   2555   2554   2534   2535   2531   2530
8   2559    378    372   2555   2535    342    336   2531
8   1908   2560   2556   1903   1878   2536   2532   1873
8   2560   2561   2557   2556   2536   2537   2533   2532
8   2561   2562   2558   2557   2537   2538   2534   2533
8   2562   2563   2559   2558   2538   2539   2535   2534
8   2563    384    378   2559   2539    348    342   2535
8   1913   2564   2560   1908   1883   2540   2536   1878
8   2564   2565   2561   2560   2540   2541   2537   2536
8   2565   2566   2562   2561   2541   2542   2538   2537
8   2566   2567   2563   2562   2542   2543   2539   2538
8   2567    390    384   2563   2543    354    348   2539
8   1923   2572   2568   1918   1893   2548   2544   1888
8   2572   2573   2569   2568   2548   2549   2545   2544
8   2573   2574   2570   2569   2549   2550   2546   2545
8   2574   2575   2571   2570   2550   2551   2547   2546
8   2575    402    396   2571   2551    366    360   2547
8   1928   2576   2572   1923   1898   2552   2548   1893
8   2576   2577   2573   2572   2552   2553   2549   2548
8   2577   2578   2574   2573   2553   2554   2550   2549
8   2578   2579   2575   2574   2554   2555   2551   2550
8   2579    408    402   2575   2555    372    366   2551
8   1933   2580   2576   1928   1903   2556   2552   1898
8   2580   2581   2577   2576   2556   2557   2553   2552
8   2581   2582   2578   2577   2557   2558   2554   2553
8   2582   2583   2579   2578   2558   2559   2555   2554
8   2583    414    408   2579   2559    378    372   2555
8   1938   2584   2580   1933   1908   2560   2556   1903
8   2584   2585   2581   2580   2560   2561   2557   2556
8   2585   2586   2582   2581   2561   2562   2558   2557
8   2586   2587   2583   2582   2562   2563   2559   2558
8   2587    420    414   2583   2563    384    378   2559
8   1943   2588   2584   1938   1913   2564   2560   1908
8   2588   2589   2585   2584   2564   2565   2561   2560
8   2589   2590   2586   2585   2565   2566   2562   2561
8   2590   2591   2587   2586   2566   2567   2563   2562
8   2591    426    420   2587   2567    390    384   2563
8   1953   2596   2592   1948   1923   2572   2568   1918
8   2596   2597   2593   2592   2572   2573   2569   2568
8   2597   2598   2594   2593   2573   2574   2570   2569
8   2598   2599   2595   2594   2574   2575   2571   2570
8   2599    438    432   2595   2575    402    396   2571
8   1958   2600   2596   1953   1928   2576   2572   1923
8   2600   2601   2597   2596   2576   2577   2573   2572
8   2601   2602   2598   2597   2577   2578   2574   2573
8   2602   2603   2599   2598   2578   2579   2575   2574
8   2603    444    438   2599   2579    408    402   2575
8   1963   2604   2600   1958   1933   2580   2576   1928
8   2604   2605   2601   2600   2580   2581   2577   2576
8   2605   2606   2602   2601   2581   2582   2578   2577
8   2606   2607   2603   2602   2582   2583   2579   2578
8   2607    450    444   2603   2583    414    408   2579
8   1968   2608   2604   1963   1938   2584   2580   1933
8   2608   2609   2605   2604   2584   2585   2581   2580
8   2609   2610   2606   2605   2585   2586   2582   2581
8   2610   2611   2607   2606   2586   2587   2583   2582
8   2611    456    450   2607   2587    420    414   2583
8   1973   2612   2608   1968   1943   2588   2584   1938
8   2612   2613   2609   2608   2588   2589   2585   2584
8   2613   2614   2610   2609   2589   2590   2586   2585
8   2614   2615   2611   2610   2590   2591   2587   2586
8   2615    462    456   2611   2591    426    420   2587
8   1983   2620   2616   1978   1953   2596   2592   1948
8   2620   2621   2617   2616   2596   2597   2593   2592
8   2621   2622   2618   2617   2597   2598   2594   2593
8   2622   2623   2619   2618   2598   2599   2595   2594
8   2623    474    468   2619   2599    438    432   2595
8   1988   2624   2620   1983   1958   2600   2596   1953
8   2624   2625   2621   2620   2600   2601   2597   2596
8   2625   2626   2622   2621   2601   2602   2598   2597
8   2626   2627   2623   2622   2602   2603   2599   2598
8   2627    480    474   2623   2603    444    438   2599
8   1993   2628   2624   1988   1963   2604   2600   1958
8   2628   2629   2625   2624   2604   2605   2601   2600
8   2629   2630   2626   2625   2605   2606   2602   2601
8   2630   2631   2627   2626   2606   2607   2603   2602
8   2631    486    480   2627   2607    450    444   2603
8   1998   2632   2628   1993   1968   2608   2604   1963
8   2632   2633   2629   2628   2608   2609   2605   2604
8   2633   2634   2630   2629   2609   2610   2606   2605
8   2634   2635   2631   2630   2610   2611   2607   2606
8   2635    492    486   2631   2611    456    450   2607
8   2003   2636   2632   1998   1973   2612   2608   1968
8   2636   2637   2633   2632   2612   2613   2609   2608
8   2637   2638   2634   2633   2613   2614   2610   2609
8   2638   2639   2635   2634   2614   2615   2611   2610
8   2639    498    492   2635   2615    462    456   2611
8   2013   2644   2640   2008   1983   2620   2616   1978
8   2644   2645   2641   2640   2620   2621   2617   2616
8   2645   2646   2642   2641   2621   2622   2618   2617
8   2646   2647   2643   2642   2622   2623   2619   2618
8   2647    510    504   2643   2623    474    468   2619
8   2018   2648   2644   2013   1988   2624   2620   1983
8   2648   2649   2645   2644   2624   2625   2621   2620
8   2649   2650   2646   2645   2625   2626   2622   2621
8   2650   2651   2647   2646   2626   2627   2623   2622
8   2651    516    510   2647   2627    480    474   2623
8   2023   2652   2648   2018   1993   2628   2624   1988
8   2652   2653   2649   2648   2628   2629   2625   2624
8   2653   2654   2650   2649   2629   2630   2626   2625
8   2654   2655   2651   2650   2630   2631   2627   2626
8   2655    522    516   2651   2631    486    480   2627
8   2028   2656   2652   2023   1998   2632   2628   1993
8   2656   2657   2653   2652   2632   2633   2629   2628
8   2657   2658   2654   2653   2633   2634   2630   2629
8   2658   2659   2655   2654   2634   2635   2631   2630
8   2659    528    522   2655   2635    492    486   2631
8   2033   2660   2656   2028   2003   2636   2632   1998
8   2660   2661   2657   2656   2636   2637   2633   2632
8   2661   2662   2658   2657   2637   2638   2634   2633
8   2662   2663   2659   2658   2638   2639   2635   2634
8   2663    534    528   2659   2639    498    492   2635
8   2043   2668   2664   2038   2013   2644   2640   2008
8   2668   2669   2665   2664   2644   2645   2641   2640
8   2669   2670   2666   2665   2645   2646   2642   2641
8   2670   2671   2667   2666   2646   2647   2643   2642
8   2671    546    540   2667   2647    510    504   2643
8   2048   2672   2668   2043   2018   2648   2644   2013
8   2672   2673   2669   2668   2648   2649   2645   2644
8   2673   2674   2670   2669   2649   2650   2646   2645
8   2674   2675   2671   2670   2650   2651   2647   2646
8   2675    552    546   2671   2651    516    510   2647
8   2053   2676   2672   2048   2023   2652   2648   2018
8   2676   2677   2673   2672   2652   2653   2649   2648
8   2677   2678   2674   2673   2653   2654   2650   2649
8   2678   2679   2675   2674   2654   2655   2651   2650
8   2679    558    552   2675   2655    522    516   2651
8   2058   2680   2676   2053   2028   2656   2652   2023
8   2680   2681   2677   2676   2656   2657   2653   2652
8   2681   2682   2678   2677   2657   2658   2654   2653
8   2682   2683   2679   2678   2658   2659   2655   2654
8   2683    564    558   2679   2659    528    522   2655
8   2063   2684   2680   2058   2033   2660   2656   2028
8   2684   2685   2681   2680   2660   2661   2657   2656
8   2685   2686   2682   2681   2661   2662   2658   2657
8   2686   2687   2683   2682   2662   2663   2659   2658
8   2687    570    564   2683   2663    534    528   2659
8   2073   2692   2688   2068   2043   2668   2664   2038
8   2692   2693   2689   2688   2668   2669   2665   2664
8   2693   2694   2690   2689   2669   2670   2666   2665
8   2694   2695   2691   2690   2670   2671   2667   2666
8   2695    582    576   2691   2671    546    540   2667
8   2078   2696   2692   2073   2048   2672   2668   2043
8   2696   2697   2693   2692   2672   2673   2669   2668
8   2697   2698   2694   2693   2673   2674   2670   2669
8   2698   2699   2695   2694   2674   2675   2671   2670
8   2699    588    582   2695   2675    552    546   2671
8   2083   2700   2696   2078   2053   2676   2672   2048
8   2700   2701   2697   2696   2676   2677   2673   2672
8   2701   2702   2698   2697   2677   2678   2674   2673
8   2702   2703   2699   2698   2678   2679   2675   2674
8   2703    594    588   2699   2679    558    552   2675
8   2088   2704   2700   2083   2058   2680   2676   2053
8   2704   2705   2701   2700   2680   2681   2677   2676
8   2705   2706   2702   2701   2681   2682   2678   2677
8   2706   2707   2703   2702   2682   2683   2679   2678
8   2707    600    594   2703   2683    564    558   2679
8   2093   2708   2704   2088   2063   2684   2680   2058
8   2708   2709   2705   2704   2684   2685   2681   2680
8   2709   2710   2706   2705   2685   2686   2682   2681
8   2710   2711   2707   2706   2686   2687   2683   2682
8   2711    606    600   2707   2687    570    564   2683
8   2103   2716   2712   2098   2073   2692   2688   2068
8   2716   2717   2713   2712   2692   2693   2689   2688
8   2717   2718   2714   2713   2693   2694   2690   2689
8   2718   2719   2715   2714   2694   2695   2691   2690
8   2719    618    612   2715   2695    582    576   2691
8   2108   2720   2716   2103   2078   2696   2692   2073
8   2720   2721   2717   2716   2696   2697   2693   2692
8   2721   2722   2718   2717   2697   2698   2694   2693
8   2722   2723   2719   2718   2698   2699   2695   2694
8   2723    624    618   2719   2699    588    582   2695
8   2113   2724   2720   2108   2083   2700   2696   2078
8   2724   2725   2721   2720   2700   2701   2697   2696
8   2725   2726   2722   2721   2701   2702   2698   2697
8   2726   2727   2723   2722   2702   2703   2699   2698
8   2727    630    624   2723   2703    594    588   2699
8   2118   2728   2724   2113   2088   2704   2700   2083
8   2728   2729   2725   2724   2704   2705   2701   2700
8   2729   2730   2726   2725   2705   2706   2702   2701
8   2730   2731   2727   2726   2706   2707   2703   2702
8   2731    636    630   2727   2707    600    594   2703
8   2123   2732   2728   2118   2093   2708   2704   2088
8   2732   2733   2729   2728   2708   2709   2705   2704
8   2733   2734   2730   2729   2709   2710   2706   2705
8   2734   2735   2731   2730   2710   2711   2707   2706
8   2735    642    636   2731   2711    606    600   2707
8   2133   2740   2736   2128   2103   2716   2712   2098
8   2740   2741   2737   2736   2716   2717   2713   2712
8   2741   2742   2738   2737   2717   2718   2714   2713
8   2742   2743   2739   2738   2718   2719   2715   2714
8   2743    654    648   2739   2719    618    612   2715
8   2138   2744   2740   2133   2108   2720   2716   2103
8   2744   2745   2741   2740   2720   2721   2717   2716
8   2745   2746   2742   2741   2721   2722   2718   2717
8   2746   2747   2743   2742   2722   2723   2719   2718
8   2747    660    654   2743   2723    624    618   2719
8   2143   2748   2744   2138   2113   2724   2720   2108
8   2748   2749   2745   2744   2724   2725   2721   2720
8   2749   2750   2746   2745   2725   2726   2722   2721
8   2750   2751   2747   2746   2726   2727   2723   2722
8   2751    666    660   2747   2727    630    624   2723
8   2148   2752   2748   2143   2118   2728   2724   2113
8   2752   2753   2749   2748   2728   2729   2725   2724
8   2753   2754   2750   2749   2729   2730   2726   2725
8   2754   2755   2751   2750   2730   2731   2727   2726
8   2755    672    666   2751   2731    636    630   2727
8   2153   2756   2752   2148   2123   2732   2728   2118
8   2756   2757   2753   2752   2732   2733   2729   2728
8   2757   2758   2754   2753   2733   2734   2730   2729
8   2758   2759   2755   2754   2734   2735   2731   2730
8   2759    678    672   2755   2735    642    636   2731
8   2163   2764   2760   2158   2133   2740   2736   2128
8   2764   2765   2761   2760   2740   2741   2737   2736
8   2765   2766   2762   2761   2741   2742   2738   2737
8   2766   2767   2763   2762   2742   2743   2739   2738
8   2767    690    684   2763   2743    654    648   2739
8   2168   2768   2764   2163   2138   2744   2740   2133
8   2768   2769   2765   2764   2744   2745   2741   2740
8   2769   2770   2766   2765   2745   2746   2742   2741
8   2770   2771   2767   2766   2746   2747   2743   2742
8   2771    696    690   2767   2747    660    654   2743
8   2173   2772   2768   2168   2143   2748   2744   2138
8   2772   2773   2769   2768   2748   2749   2745   2744
8   2773   2774   2770   2769   2749   2750   2746   2745
8   2774   2775   2771   2770   2750   2751   2747   2746
8   2775    702    696   2771   2751    666    660   2747
8   2178   2776   2772   2173   2148   2752   2748   2143
8   2776   2777   2773   2772   2752   2753   2749   2748
8   2777   2778   2774   2773   2753   2754   2750   2749
8   2778   2779   2775   2774   2754   2755   2751   2750
8   2779    708    702   2775   2755    672    666   2751
8   2183   2780   2776   2178   2153   2756   2752   2148
8   2780   2781   2777   2776   2756   2757   2753   2752
8   2781   2782   2778   2777   2757   2758   2754   2753
8   2782   2783   2779   2778   2758   2759   2755   2754
8   2783    714    708   2779   2759    678    672   2755
8   2193   2788   2784   2188   2163   2764   2760   2158
8   2788   2789   2785   2784   2764   2765   2761   2760
8   2789   2790   2786   2785   2765   2766   2762   2761
8   2790   2791   2787   2786   2766   2767   2763   2762
8   2791    726    720   2787   2767    690    684   2763
8   2198   2792   2788   2193   2168   2768   2764   2163
8   2792   2793   2789   2788   2768   2769   2765   2764
8   2793   2794   2790   2789   2769   2770   2766   2765
8   2794   2795   2791   2790   2770   2771   2767   2766
8   2795    732    726   2791   2771    696    690   2767
8   2203   2796   2792   2198   2173   2772   2768   2168
8   2796   2797   2793   2792   2772   2773   2769   2768
8   2797   2798   2794   2793   2773   2774   2770   2769
8   2798   2799   2795   2794   2774   2775   2771   2770
8   2799    738    732   2795   2775    702    696   2771
8   2208   2800   2796   2203   2178   2776   2772   2173
8   2800   2801   2797   2796   2776   2777   2773   2772
8   2801   2802   2798   2797   2777   2778   2774   2773
8   2802   2803   2799   2798   2778   2779   2775   2774
8   2803    744    738   2799   2779    708    702   2775
8   2213   2804   2800   2208   2183   2780   2776   2178
8   2804   2805   2801   2800   2780   2781   2777   2776
8   2805   2806   2802   2801   2781   2782   2778   2777
8   2806   2807   2803   2802   2782   2783   2779   2778
8   2807    750    744   2803   2783    714    708   2779
8   2223   2812   2808   2218   2193   2788   2784   2188
8   2812   2813   2809   2808   2788   2789   2785   2784
8   2813   2814   2810   2809   2789   2790   2786   2785
8   2814   2815   2811   2810   2790   2791   2787   2786
8   2815    762    756   2811   2791    726    720   2787
8   2228   2816   2812   2223   2198   2792   2788   2193
8   2816   2817   2813   2812   2792   2793   2789   2788
8   2817   2818   2814   2813   2793   2794   2790   2789
8   2818   2819   2815   2814   2794   2795   2791   2790
8   2819    768    762   2815   2795    732    726   2791
8   2233   2820   2816   2228   2203   2796   2792   2198
8   2820   2821   2817   2816   2796   2797   2793   2792
8   2821   2822   2818   2817   2797   2798   2794   2793
8   2822   2823   2819   2818   2798   2799   2795   2794
8   2823    774    768   2819   2799    738    732   2795
8   2238   2824   2820   2233   2208   2800   2796   2203
8   2824   2825   2821   2820   2800   2801   2797   2796
8   2825   2826   2822   2821   2801   2802   2798   2797
8   2826   2827   2823   2822   2802   2803   2799   2798
8   2827    780    774   2823   2803    744    738   2799
8   2243   2828   2824   2238   2213   2804   2800   2208
8   2828   2829   2825   2824   2804   2805   2801   2800
8   2829   2830   2826   2825   2805   2806   2802   2801
8   2830   2831   2827   2826   2806   2807   2803   2802
8   2831    786    780   2827   2807    750    744   2803
8   2253   2836   2832   2248   2223   2812   2808   2218
8   2836   2837   2833   2832   2812   2813   2809   2808
8   2837   2838   2834   2833   2813   2814   2810   2809
8   2838   2839   2835   2834   2814   2815   2811   2810
8   2839    798    792   2835   2815    762    756   2811
8   2258   2840   2836   2253   2228   2816   2812   2223
8   2840   2841   2837   2836   2816   2817   2813   2812
8   2841   2842   2838   2837   2817   2818   2814   2813
8   2842   2843   2839   2838   2818   2819   2815   2814
8   2843    804    798   2839   2819    768    762   2815
8   2263   2844   2840   2258   2233   2820   2816   2228
8   2844   2845   2841   2840   2820   2821   2817   2816
8   2845   2846   2842   2841   2821   2822   2818   2817
8   2846   2847   2843   2842   2822   2823   2819   2818
8   2847    810    804   2843   2823    774    768   2819
8   2268   2848   2844   2263   2238   2824   2820   2233
8   2848   2849   2845   2844   2824   2825   2821   2820
8   2849   2850   2846   2845   2825   2826   2822   2821
8   2850   2851   2847   2846   2826   2827   2823   2822
8   2851    816    810   2847   2827    780    774   2823
8   2273   2852   2848   2268   2243   2828   2824   2238
8   2852   2853   2849   2848   2828   2829   2825   2824
8   2853   2854   2850   2849   2829   2830   2826   2825
8   2854   2855   2851   2850   2830   2831   2827   2826
8   2855    822    816   2851   2831    786    780   2827
8   2283   2860   2856   2278   2253   2836   2832   2248
8   2860   2861   2857   2856   2836   2837   2833   2832
8   2861   2862   2858   2857   2837   2838   2834   2833
8   2862   2863   2859   2858   2838   2839   2835   2834
8   2863    834    828   2859   2839    798    792   2835
8   2288   2864   2860   2283   2258   2840   2836   2253
8   2864   2865   2861   2860   2840   2841   2837   2836
8   2865   2866   2862   2861   2841   2842   2838   2837
8   2866   2867   2863   2862   2842   2843   2839   2838
8   2867    840    834   2863   2843    804    798   2839
8   2293   2868   2864   2288   2263   2844   2840   2258
8   2868   2869   2865   2864   2844   2845   2841   2840
8   2869   2870   2866   2865   2845   2846   2842   2841
8   2870   2871   2867   2866   2846   2847   2843   2842
8   2871    846    840   2867   2847    810    804   2843
8   2298   2872   2868   2293   2268   2848   2844   2263
8   2872   2873   2869   2868   2848   2849   2845   2844
8   2873   2874   2870   2869   2849   2850   2846   2845
8   2874   2875   2871   2870   2850   2851   2847   2846
8   2875    852    846   2871   2851    816    810   2847
8   2303   2876   2872   2298   2273   2852   2848   2268
8   2876   2877   2873   2872   2852   2853   2849   2848
8   2877   2878   2874   2873   2853   2854   2850   2849
8   2878   2879   2875   2874   2854   2855   2851   2850
8   2879    858    852   2875   2855    822    816   2851
8   2351   2896     67     66   2327   2880     31     30
8   2896   2897     68     67   2880   2881     32     31
8   2897   2898     69     68   2881   2882     33     32
8   2898   2899     70     69   2882   2883     34     33
8   2899    919     71     70   2883    889     35     34
8   2350   2900   2896   2351   2326   2884   2880   2327
8   2900   2901   2897   2896   2884   2885   2881   2880
8   2901   2902   2898   2897   2885   2886   2882   2881
8   2902   2903   2899   2898   2886   2887   2883   2882
8   2903    920    919   2899   2887    890    889   2883
8   2349   2904   2900   2350   2325   2888   2884   2326
8   2904   2905   2901   2900   2888   2889   2885   2884
8   2905   2906   2902   2901   2889   2890   2886   2885
8   2906   2907   2903   2902   2890   2891   2887   2886
8   2907    921    920   2903   2891    891    890   2887
8   2348   2908   2904   2349   2324   2892   2888   2325
8   2908   2909   2905   2904   2892   2893   2889   2888
8   2909   2910   2906   2905   2893   2894   2890   2889
8   2910   2911   2907   2906   2894   2895   2891   2890
8   2911    922    921   2907   2895    892    891   2891
8   1643   1642   2908   2348   1613   1612   2892   2324
8   1642   1641   2909   2908   1612   1611   2893   2892
8   1641   1640   2910   2909   1611   1610   2894   2893
8   1640   1639   2911   2910   1610   1609   2895   2894
8   1639    923    922   2911   1609    893    892   2895
8   2375   2912    103    102   2351   2896     67     66
8   2912   2913    104    103   2896   2897     68     67
8   2913   2914    105    104   2897   2898     69     68
8   2914   2915    106    105   2898   2899     70     69
8   2915    949    107    106   2899    919     71     70
8   2374   2916   2912   2375   2350   2900   2896   2351
8   2916   2917   2913   2912   2900   2901   2897   2896
8   2917   2918   2914   2913   2901   2902   2898   2897
8   2918   2919   2915   2914   2902   2903   2899   2898
8   2919    950    949   2915   2903    920    919   2899
8   2373   2920   2916   2374   2349   2904   2900   2350
8   2920   2921   2917   2916   2904   2905   2901   2900
8   2921   2922   2918   2917   2905   2906   2902   2901
8   2922   2923   2919   2918   2906   2907   2903   2902
8   2923    951    950   2919   2907    921    920   2903
8   2372   2924   2920   2373   2348   2908   2904   2349
8   2924   2925   2921   2920   2908   2909   2905   2904
8   2925   2926   2922   2921   2909   2910   2906   2905
8   2926   2927   2923   2922   2910   2911   2907   2906
8   2927    952    951   2923   2911    922    921   2907
8   1673   1672   2924   2372   1643   1642   2908   2348
8   1672   1671   2925   2924   1642   1641   2909   2908
8   1671   1670   2926   2925   1641   1640   2910   2909
8   1670   1669   2927   2926   1640   1639   2911   2910
8   1669    953    952   2927   1639    923    922   2911
8   2399   2928    139    138   2375   2912    103    102
8   2928   2929    140    139   2912   2913    104    103
8   2929   2930    141    140   2913   2914    105    104
8   2930   2931    142    141   2914   2915    106    105
8   2931    979    143    142   2915    949    107    106
8   2398   2932   2928   2399   2374   2916   2912   2375
8   2932   2933   2929   2928   2916   2917   2913   2912
8   2933   2934   2930   2929   2917   2918   2914   2913
8   2934   2935   2931   2930   2918   2919   2915   2914
8   2935    980    979   2931   2919    950    949   2915
8   2397   2936   2932   2398   2373   2920   2916   2374
8   2936   2937   2933   2932   2920   2921   2917   2916
8   2937   2938   2934   2933   2921   2922   2918   2917
8   2938   2939   2935   2934   2922   2923   2919   2918
8   2939    981    980   2935   2923    951    950   2919
8   2396   2940   2936   2397   2372   2924   2920   2373
8   2940   2941   2937   2936   2924   2925   2921   2920
8   2941   2942   2938   2937   2925   2926   2922   2921
8   2942   2943   2939   2938   2926   2927   2923   2922
8   2943    982    981   2939   2927    952    951   2923
8   1703   1702   2940   2396   1673   1672   2924   2372
8   1702   1701   2941   2940   1672   1671   2925   2924
8   1701   1700   2942   2941   1671   1670   2926   2925
8   1700   1699   2943   2942   1670   1669   2927   2926
8   1699    983    982   2943   1669    953    952   2927
8   2423   2944    175    174   2399   2928    139    138
8   2944   2945    176    175   2928   2929    140    139
8   2945   2946    177    176   2929   2930    141    140
8   2946   2947    178    177   2930   2931    142    141
8   2947   1009    179    178   2931    979    143    142
8   2422   2948   2944   2423   2398   2932   2928   2399
8   2948   2949   2945   2944   2932   2933   2929   2928
8   2949   2950   2946   2945   2933   2934   2930   2929
8   2950   2951   2947   2946   2934   2935   2931   2930
8   2951   1010   1009   2947   2935    980    979   2931
8   2421   2952   2948   2422   2397   2936   2932   2398
8   2952   2953   2949   2948   2936   2937   2933   2932
8   2953   2954   2950   2949   2937   2938   2934   2933
8   2954   2955   2951   2950   2938   2939   2935   2934
8   2955   1011   1010   2951   2939    981    980   2935
8   2420   2956   2952   2421   2396   2940   2936   2397
8   2956   2957   2953   2952   2940   2941   2937   2936
8   2957   2958   2954   2953   2941   2942   2938   2937
8   2958   2959   2955   2954   2942   2943   2939   2938
8   2959   1012   1011   2955   2943    982    981   2939
8   1733   1732   2956   2420   1703   1702   2940   2396
8   1732   1731   2957   2956   1702   1701   2941   2940
8   1731   1730   2958   2957   1701   1700   2942   2941
8   1730   1729   2959   2958   1700   1699   2943   2942
8   1729   1013   1012   2959   1699    983    982   2943
8   2447   2960    211    210   2423   2944    175    174
8   2960   2961    212    211   2944   2945    176    175
8   2961   2962    213    212   2945   2946    177    176
8   2962   2963    214    213   2946   2947    178    177
8   2963   1039    215    214   2947   1009    179    178
8   2446   2964   2960   2447   2422   2948   2944   2423
8   2964   2965   2961   2960   2948   2949   2945   2944
8   2965   2966   2962   2961   2949   2950   2946   2945
8   2966   2967   2963   2962   2950   2951   2947   2946
8   2967   1040   1039   2963   2951   1010   1009   2947
8   2445   2968   2964   2446   2421   2952   2948   2422
8   2968   2969   2965   2964   2952   2953   2949   2948
8   2969   2970   2966   2965   2953   2954   2950   2949
8   2970   2971   2967   2966   2954   2955   2951   2950
8   2971   1041   1040   2967   2955   1011   1010   2951
8   2444   2972   2968   2445   2420   2956   2952   2421
8   2972   2973   2969   2968   2956   2957   2953   2952
8   2973   2974   2970   2969   2957   2958   2954   2953
8   2974   2975   2971   2970   2958   2959   2955   2954
8   2975   1042   1041   2971   2959   1012   1011   2955
8   1763   1762   2972   2444   1733   1732   2956   2420
8   1762   1761   2973   2972   1732   1731   2957   2956
8   1761   1760   2974   2973   1731   1730   2958   2957
8   1760   1759   2975   2974   1730   1729   2959   2958
8   1759   1043   1042   2975   1729   1013   1012   2959
8   2471   2976    247    246   2447   2960    211    210
8   2976   2977    248    247   2960   2961    212    211
8   2977   2978    249    248   2961   2962    213    212
8   2978   2979    250    249   2962   2963    214    213
8   2979   1069    251    250   2963   1039    215    214
8   2470   2980   2976   2471   2446   2964   2960   2447
8   2980   2981   2977   2976   2964   2965   2961   2960
8   2981   2982   2978   2977   2965   2966   2962   2961
8   2982   2983   2979   2978   2966   2967   2963   2962
8   2983   1070   1069   2979   2967   1040   1039   2963
8   2469   2984   2980   2470   2445   2968   2964   2446
8   2984   2985   2981   2980   2968   2969   2965   2964
8   2985   2986   2982   2981   2969   2970   2966   2965
8   2986   2987   2983   2982   2970   2971   2967   2966
8   2987   1071   1070   2983   2971   1041   1040   2967
8   2468   2988   2984   2469   2444   2972   2968   2445
8   2988   2989   2985   2984   2972   2973   2969   2968
8   2989   2990   2986   2985   2973   2974   2970   2969
8   2990   2991   2987   2986   2974   2975   2971   2970
8   2991   1072   1071   2987   2975   1042   1041   2971
8   1793   1792   2988   2468   1763   1762   2972   2444
8   1792   1791   2989   2988   1762   1761   2973   2972
8   1791   1790   2990   2989   1761   1760   2974   2973
8   1790   1789   2991   2990   1760   1759   2975   2974
8   1789   1073   1072   2991   1759   1043   1042   2975
8   2495   2992    283    282   2471   2976    247    246
8   2992   2993    284    283   2976   2977    248    247
8   2993   2994    285    284   2977   2978    249    248
8   2994   2995    286    285   2978   2979    250    249
8   2995   1099    287    286   2979   1069    251    250
8   2494   2996   2992   2495   2470   2980   2976   2471
8   2996   2997   2993   2992   2980   2981   2977   2976
8   2997   2998   2994   2993   2981   2982   2978   2977
8   2998   2999   2995   2994   2982   2983   2979   2978
8   2999   1100   1099   2995   2983   1070   1069   2979
8   2493   3000   2996   2494   2469   2984   2980   2470
8   3000   3001   2997   2996   2984   2985   2981   2980
8   3001   3002   2998   2997   2985   2986   2982   2981
8   3002   3003   2999   2998   2986   2987   2983   2982
8   3003   1101   1100   2999   2987   1071   1070   2983
8   2492   3004   3000   2493   2468   2988   2984   2469
8   3004   3005   3001   3000   2988   2989   2985   2984
8   3005   3006   3002   3001   2989   2990   2986   2985
8   3006   3007   3003   3002   2990   2991   2987   2986
8   3007   1102   1101   3003   2991   1072   1071   2987
8   1823   1822   3004   2492   1793   1792   2988   2468
8   1822   1821   3005   3004   1792   1791   2989   2988
8   1821   1820   3006   3005   1791   1790   2990   2989
8   1820   1819   3007   3006   1790   1789   2991   2990
8   1819   1103   1102   3007   1789   1073   1072   2991
8   2519   3008    319    318   2495   2992    283    282
8   3008   3009    320    319   2992   2993    284    283
8   3009   3010    321    320   2993   2994    285    284
8   3010   3011    322    321   2994   2995    286    285
8   3011   1129    323    322   2995   1099    287    286
8   2518   3012   3008   2519   2494   2996   2992   2495
8   3012   3013   3009   3008   2996   2997   2993   2992
8   3013   3014   3010   3009   2997   2998   2994   2993
8   3014   3015   3011   3010   2998   2999   2995   2994
8   3015   1130   1129   3011   2999   1100   1099   2995
8   2517   3016   3012   2518   2493   3000   2996   2494
8   3016   3017   3013   3012   3000   3001   2997   2996
8   3017   3018   3014   3013   3001   3002   2998   2997
8   3018   3019   3015   3014   3002   3003   2999   2998
8   3019   1131   1130   3015   3003   1101   1100   2999
8   2516   3020   3016   2517   2492   3004   3000   2493
8   3020   3021   3017   3016   3004   3005   3001   3000
8   3021   3022   3018   3017   3005   3006   3002   3001
8   3022   3023   3019   3018   3006   3007   3003   3002
8   3023   1132   1131   3019   3007   1102   1101   3003
8   1853   1852   3020   2516   1823   1822   3004   2492
8   1852   1851   3021   3020   1822   1821   3005   3004
8   1851   1850   3022   3021   1821   1820   3006   3005
8   1850   1849   3023   3022   1820   1819   3007   3006
8   1849   1133   1132   3023   1819   1103   1102   3007
8   2543   3024    355    354   2519   3008    319    318
8   3024   3025    356    355   3008   3009    320    319
8   3025   3026    357    356   3009   3010    321    320
8   3026   3027    358    357   3010   3011    322    321
8   3027   1159    359    358   3011   1129    323    322
8   2542   3028   3024   2543   2518   3012   3008   2519
8   3028   3029   3025   3024   3012   3013   3009   3008
8   3029   3030   3026   3025   3013   3014   3010   3009
8   3030   3031   3027   3026   3014   3015   3011   3010
8   3031   1160   1159   3027   3015   1130   1129   3011
8   2541   3032   3028   2542   2517   3016   3012   2518
8   3032   3033   3029   3028   3016   3017   3013   3012
8   3033   3034   3030   3029   3017   3018   3014   3013
8   3034   3035   3031   3030   3018   3019   3015   3014
8   3035   1161   1160   3031   3019   1131   1130   3015
8   2540   3036   3032   2541   2516   3020   3016   2517
8   3036   3037   3033   3032   3020   3021   3017   3016
8   3037   3038   3034   3033   3021   3022   3018   3017
8   3038   3039   3035   3034   3022   3023   3019   3018
8   3039   1162   1161   3035   3023   1132   1131   3019
8   1883   1882   3036   2540   1853   1852   3020   2516
8   1882   1881   3037   3036   1852   1851   3021   3020
8   1881   1880   3038   3037   1851   1850   3022   3021
8   1880   1879   3039   3038   1850   1849   3023   3022
8   1879   1163   1162   3039   1849   1133   1132   3023
8   2567   3040    391    390   2543   3024    355    354
8   3040   3041    392    391   3024   3025    356    355
8   3041   3042    393    392   3025   3026    357    356
8   3042   3043    394    393   3026   3027    358    357
8   3043   1189    395    394   3027   1159    359    358
8   2566   3044   3040   2567   2542   3028   3024   2543
8   3044   3045   3041   3040   3028   3029   3025   3024
8   3045   3046   3042   3041   3029   3030   3026   3025
8   3046   3047   3043   3042   3030   3031   3027   3026
8   3047   1190   1189   3043   3031   1160   1159   3027
8   2565   3048   3044   2566   2541   3032   3028   2542
8   3048   3049   3045   3044   3032   3033   3029   3028
8   3049   3050   3046   3045   3033   3034   3030   3029
8   3050   3051   3047   3046   3034   3035   3031   3030
8   3051   1191   1190   3047   3035   1161   1160   3031
8   2564   3052   3048   2565   2540   3036   3032   2541
8   3052   3053   3049   3048   3036   3037   3033   3032
8   3053   3054   3050   3049   3037   3038   3034   3033
8   3054   3055   3051   3050   3038   3039   3035   3034
8   3055   1192   1191   3051   3039   1162   1161   3035
8   1913   1912   3052   2564   1883   1882   3036   2540
8   1912   1911   3053   3052   1882   1881   3037   3036
8   1911   1910   3054   3053   1881   1880   3038   3037
8   1910   1909   3055   3054   1880   1879   3039   3038
8   1909   1193   1192   3055   1879   1163   1162   3039
8   2591   3056    427    426   2567   3040    391    390
8   3056   3057    428    427   3040   3041    392    391
8   3057   3058    429    428   3041   3042    393    392
8   3058   3059    430    429   3042   3043    394    393
8   3059   1219    431    430   3043   1189    395    394
8   2590   3060   3056   2591   2566   3044   3040   2567
8   3060   3061   3057   3056   3044   3045   3041   3040
8   3061   3062   3058   3057   3045   3046   3042   3041
8   3062   3063   3059   3058   3046   3047   3043   3042
8   3063   1220   1219   3059   3047   1190   1189   3043
8   2589   3064   3060   2590   2565   3048   3044   2566
8   3064   3065   3061   3060   3048   3049   3045   3044
8   3065   3066   3062   3061   3049   3050   3046   3045
8   3066   3067   3063   3062   3050   3051   3047   3046
8   3067   1221   1220   3063   3051   1191   1190   3047
8   2588   3068   3064   2589   2564   3052   3048   2565
8   3068   3069   3065   3064   3052   3053   3049   3048
8   3069   3070   3066   3065   3053   3054   3050   3049
8   3070   3071   3067   3066   3054   3055   3051   3050
8   3071   1222   1221   3067   3055   1192   1191   3051
8   1943   1942   3068   2588   1913   1912   3052   2564
8   1942   1941   3069   3068   1912   1911   3053   3052
8   1941   1940   3070   3069   1911   1910   3054   3053
8   1940   1939   3071   3070   1910   1909   3055   3054
8   1939   1223   1222   3071   1909   1193   1192   3055
8   2615   3072    463    462   2591   3056    427    426
8   3072   3073    464    463   3056   3057    428    427
8   3073   3074    465    464   3057   3058    429    428
8   3074   3075    466    465   3058   3059    430    429
8   3075   1249    467    466   3059   1219    431    430
8   2614   3076   3072   2615   2590   3060   3056   2591
8   3076   3077   3073   3072   3060   3061   3057   3056
8   3077   3078   3074   3073   3061   3062   3058   3057
8   3078   3079   3075   3074   3062   3063   3059   3058
8   3079   1250   1249   3075   3063   1220   1219   3059
8   2613   3080   3076   2614   2589   3064   3060   2590
8   3080   3081   3077   3076   3064   3065   3061   3060
8   3081   3082   3078   3077   3065   3066   3062   3061
8   3082   3083   3079   3078   3066   3067   3063   3062
8   3083   1251   1250   3079   3067   1221   1220   3063
8   2612   3084   3080   2613   2588   3068   3064   2589
8   3084   3085   3081   3080   3068   3069   3065   3064
8   3085   3086   3082   3081   3069   3070   3066   3065
8   3086   3087   3083   3082   3070   3071   3067   3066
8   3087   1252   1251   3083   3071   1222   1221   3067
8   1973   1972   3084   2612   1943   1942   3068   2588
8   1972   1971   3085   3084   1942   1941   3069   3068
8   1971   1970   3086   3085   1941   1940   3070   3069
8   1970   1969   3087   3086   1940   1939   3071   3070
8   1969   1253   1252   3087   1939   1223   1222   3071
8   2639   3088    499    498   2615   3072    463    462
8   3088   3089    500    499   3072   3073    464    463
8   3089   3090    501    500   3073   3074    465    464
8   3090   3091    502    501   3074   3075    466    465
8   3091   1279    503    502   3075   1249    467    466
8   2638   3092   3088   2639   2614   3076   3072   2615
8   3092   3093   3089   3088   3076   3077   3073   3072
8   3093   3094   3090   3089   3077   3078   3074   3073
8   3094   3095   3091   3090   3078   3079   3075   3074
8   3095   1280   1279   3091   3079   1250   1249   3075
8   2637   3096   3092   2638   2613   3080   3076   2614
8   3096   3097   3093   3092   3080   3081   3077   3076
8   3097   3098   3094   3093   3081   3082   3078   3077
8   3098   3099   3095   3094   3082   3083   3079   3078
8   3099   1281   1280   3095   3083   1251   1250   3079
8   2636   3100   3096   2637   2612   3084   3080   2613
8   3100   3101   3097   3096   3084   3085   3081   3080
8   3101   3102   3098   3097   3085   3086   3082   3081
8   3102   3103   3099   3098   3086   3087   3083   3082
8   3103   1282   1281   3099   3087   1252   1251   3083
8   2003   2002   3100   2636   1973   1972   3084   2612
8   2002   2001   3101   3100   1972   1971   3085   3084
8   2001   2000   3102   3101   1971   1970   3086   3085
8   2000   1999   3103   3102   1970   1969   3087   3086
8   1999   1283   1282   3103   1969   1253   1252   3087
8   2663   3104    535    534   2639   3088    499    498
8   3104   3105    536    535   3088   3089    500    499
8   3105   3106    537    536   3089   3090    501    500
8   3106   3107    538    537   3090   3091    502    501
8   3107   1309    539    538   3091   1279    503    502
8   2662   3108   3104   2663   2638   3092   3088   2639
8   3108   3109   3105   3104   3092   3093   3089   3088
8   3109   3110   3106   3105   3093   3094   3090   3089
8   3110   3111   3107   3106   3094   3095   3091   3090
8   3111   1310   1309   3107   3095   1280   1279   3091
8   2661   3112   3108   2662   2637   3096   3092   2638
8   3112   3113   3109   3108   3096   3097   3093   3092
8   3113   3114   3110   3109   3097   3098   3094   3093
8   3114   3115   3111   3110   3098   3099   3095   3094
8   3115   1311   1310   3111   3099   1281   1280   3095
8   2660   3116   3112   2661   2636   3100   3096   2637
8   3116   3117   3113   3112   3100   3101   3097   3096
8   3117   3118   3114   3113   3101   3102   3098   3097
8   3118   3119   3115   3114   3102   3103   3099   3098
8   3119   1312   1311   3115   3103   1282   1281   3099
8   2033   2032   3116   2660   2003   2002   3100   2636
8   2032   2031   3117   3116   2002   2001   3101   3100
8   2031   2030   3118   3117   2001   2000   3102   3101
8   2030   2029   3119   3118   2000   1999   3103   3102
8   2029   1313   1312   3119   1999   1283   1282   3103
8   2687   3120    571    570   2663   3104    535    534
8   3120   3121    572    571   3104   3105    536    535
8   3121   3122    573    572   3105   3106    537    536
8   3122   3123    574    573   3106   3107    538    537
8   3123   1339    575    574   3107   1309    539    538
8   2686   3124   3120   2687   2662   3108   3104   2663
8   3124   3125   3121   3120   3108   3109   3105   3104
8   3125   3126   3122   3121   3109   3110   3106   3105
8   3126   3127   3123   3122   3110   3111   3107   3106
8   3127   1340   1339   3123   3111   1310   1309   3107
8   2685   3128   3124   2686   2661   3112   3108   2662
8   3128   3129   3125   3124   3112   3113   3109   3108
8   3129   3130   3126   3125   3113   3114   3110   3109
8   3130   3131   3127   3126   3114   3115   3111   3110
8   3131   1341   1340   3127   3115   1311   1310   3111
8   2684   3132   3128   2685   2660   3116   3112   2661
8   3132   3133   3129   3128   3116   3117   3113   3112
8   3133   3134   3130   3129   3117   3118   3114   3113
8   3134   3135   3131   3130   3118   3119   3115   3114
8   3135   1342   1341   3131   3119   1312   1311   3115
8   2063   2062   3132   2684   2033   2032   3116   2660
8   2062   2061   3133   3132   2032   2031   3117   3116
8   2061   2060   3134   3133   2031   2030   3118   3117
8   2060   2059   3135   3134   2030   2029   3119   3118
8   2059   1343   1342   3135   2029   1313   1312   3119
8   2711   3136    607    606   2687   3120    571    570
8   3136   3137    608    607   3120   3121    572    571
8   3137   3138    609    608   3121   3122    573    572
8   3138   3139    610    609   3122   3123    574    573
8   3139   1369    611    610   3123   1339    575    574
8   2710   3140   3136   2711   2686   3124   3120   2687
8   3140   3141   3137   3136   3124   3125   3121   3120
8   3141   3142   3138   3137   3125   3126   3122   3121
8   3142   3143   3139   3138   3126   3127   3123   3122
8   3143   1370   1369   3139   3127   1340   1339   3123
8   2709   3144   3140   2710   2685   3128   3124   2686
8   3144   3145   3141   3140   3128   3129   3125   3124
8   3145   3146   3142   3141   3129   3130   3126   3125
8   3146   3147   3143   3142   3130   3131   3127   3126
8   3147   1371   1370   3143   3131   1341   1340   3127
8   2708   3148   3144   2709   2684   3132   3128   2685
8   3148   3149   3145   3144   3132   3133   3129   3128
8   3149   3150   3146   3145   3133   3134   3130   3129
8   3150   3151   3147   3146   3134   3135   3131   3130
8   3151   1372   1371   3147   3135   1342   1341   3131
8   2093   2092   3148   2708   2063   2062   3132   2684
8   2092   2091   3149   3148   2062   2061   3133   3132
8   2091   2090   3150   3149   2061   2060   3134   3133
8   2090   2089   3151   3150   2060   2059   3135   3134
8   2089   1373   1372   3151   2059   1343   1342   3135
8   2735   3152    643    642   2711   3136    607    606
8   3152   3153    644    643   3136   3137    608    607
8   3153   3154    645    644   3137   3138    609    608
8   3154   3155    646    645   3138   3139    610    609
8   3155   1399    647    646   3139   1369    611    610
8   2734   3156   3152   2735   2710   3140   3136   2711
8   3156   3157   3153   3152   3140   3141   3137   3136
8   3157   3158   3154   3153   3141   3142   3138   3137
8   3158   3159   3155   3154   3142   3143   3139   3138
8   3159   1400   1399   3155   3143   1370   1369   3139
8   2733   3160   3156   2734   2709   3144   3140   2710
8   3160   3161   3157   3156   3144   3145   3141   3140
8   3161   3162   3158   3157   3145   3146   3142   3141
8   3162   3163   3159   3158   3146   3147   3143   3142
8   3163   1401   1400   3159   3147   1371   1370   3143
8   2732   3164   3160   2733   2708   3148   3144   2709
8   3164   3165   3161   3160   3148   3149   3145   3144
8   3165   3166   3162   3161   3149   3150   3146   3145
8   3166   3167   3163   3162   3150   3151   3147   3146
8   3167   1402   1401   3163   3151   1372   1371   3147
8   2123   2122   3164   2732   2093   2092   3148   2708
8   2122   2121   3165   3164   2092   2091   3149   3148
8   2121   2120   3166   3165   2091   2090   3150   3149
8   2120   2119   3167   3166   2090   2089   3151   3150
8   2119   1403   1402   3167   2089   1373   1372   3151
8   2759   3168    679    678   2735   3152    643    642
8   3168   3169    680    679   3152   3153    644    643
8   3169   3170    681    680   3153   3154    645    644
8   3170   3171    682    681   3154   3155    646    645
8   3171   1429    683    682   3155   1399    647    646
8   2758   3172   3168   2759   2734   3156   3152   2735
8   3172   3173   3169   3168   3156   3157   3153   3152
8   3173   3174   3170   3169   3157   3158   3154   3153
8   3174   3175   3171   3170   3158   3159   3155   3154
8   3175   1430   1429   3171   3159   1400   1399   3155
8   2757   3176   3172   2758   2733   3160   3156   2734
8   3176   3177   3173   3172   3160   3161   3157   3156
8   3177   3178   3174   3173   3161   3162   3158   3157
8   3178   3179   3175   3174   3162   3163   3159   3158
8   3179   1431   1430   3175   3163   1401   1400   3159
8   2756   3180   3176   2757   2732   3164   3160   2733
8   3180   3181   3177   3176   3164   3165   3161   3160
8   3181   3182   3178   3177   3165   3166   3162   3161
8   3182   3183   3179   3178   3166   3167   3163   3162
8   3183   1432   1431   3179   3167   1402   1401   3163
8   2153   2152   3180   2756   2123   2122   3164   2732
8   2152   2151   3181   3180   2122   2121   3165   3164
8   2151   2150   3182   3181   2121   2120   3166   3165
8   2150   2149   3183   3182   2120   2119   3167   3166
8   2149   1433   1432   3183   2119   1403   1402   3167
8   2783   3184    715    714   2759   3168    679    678
8   3184   3185    716    715   3168   3169    680    679
8   3185   3186    717    716   3169   3170    681    680
8   3186   3187    718    717   3170   3171    682    681
8   3187   1459    719    718   3171   1429    683    682
8   2782   3188   3184   2783   2758   3172   3168   2759
8   3188   3189   3185   3184   3172   3173   3169   3168
8   3189   3190   3186   3185   3173   3174   3170   3169
8   3190   3191   3187   3186   3174   3175   3171   3170
8   3191   1460   1459   3187   3175   1430   1429   3171
8   2781   3192   3188   2782   2757   3176   3172   2758
8   3192   3193   3189   3188   3176   3177   3173   3172
8   3193   3194   3190   3189   3177   3178   3174   3173
8   3194   3195   3191   3190   3178   3179   3175   3174
8   3195   1461   1460   3191   3179   1431   1430   3175
8   2780   3196   3192   2781   2756   3180   3176   2757
8   3196   3197   3193   3192   3180   3181   3177   3176
8   3197   3198   3194   3193   3181   3182   3178   3177
8   3198   3199   3195   3194   3182   3183   3179   3178
8   3199   1462   1461   3195   3183   1432   1431   3179
8   2183   2182   3196   2780   2153   2152   3180   2756
8   2182   2181   3197   3196   2152   2151   3181   3180
8   2181   2180   3198   3197   2151   2150   3182   3181
8   2180   2179   3199   3198   2150   2149   3183   3182
8   2179   1463   1462   3199   2149   1433   1432   3183
8   2807   3200    751    750   2783   3184    715    714
8   3200   3201    752    751   3184   3185    716    715
8   3201   3202    753    752   3185   3186    717    716
8   3202   3203    754    753   3186   3187    718    717
8   3203   1489    755    754   3187   1459    719    718
8   2806   3204   3200   2807   2782   3188   3184   2783
8   3204   3205   3201   3200   3188   3189   3185   3184
8   3205   3206   3202   3201   3189   3190   3186   3185
8   3206   3207   3203   3202   3190   3191   3187   3186
8   3207   1490   1489   3203   3191   1460   1459   3187
8   2805   3208   3204   2806   2781   3192   3188   2782
8   3208   3209   3205   3204   3192   3193   3189   3188
8   3209   3210   3206   3205   3193   3194   3190   3189
8   3210   3211   3207   3206   3194   3195   3191   3190
8   3211   1491   1490   3207   3195   1461   1460   3191
8   2804   3212   3208   2805   2780   3196   3192   2781
8   3212   3213   3209   3208   3196   3197   3193   3192
8   3213   3214   3210   3209   3197   3198   3194   3193
8   3214   3215   3211   3210   3198   3199   3195   3194
8   3215   1492   1491   3211   3199   1462   1461   3195
8   2213   2212   3212   2804   2183   2182   3196   2780
8   2212   2211   3213   3212   2182   2181   3197   3196
8   2211   2210   3214   3213   2181   2180   3198   3197
8   2210   2209   3215   3214   2180   2179   3199   3198
8   2209   1493   1492   3215   2179   1463   1462   3199
8   2831   3216    787    786   2807   3200    751    750
8   3216   3217    788    787   3200   3201    752    751
8   3217   3218    789    788   3201   3202    753    752
8   3218   3219    790    789   3202   3203    754    753
8   3219   1519    791    790   3203   1489    755    754
8   2830   3220   3216   2831   2806   3204   3200   2807
8   3220   3221   3217   3216   3204   3205   3201   3200
8   3221   3222   3218   3217   3205   3206   3202   3201
8   3222   3223   3219   3218   3206   3207   3203   3202
8   3223   1520   1519   3219   3207   1490   1489   3203
8   2829   3224   3220   2830   2805   3208   3204   2806
8   3224   3225   3221   3220   3208   3209   3205   3204
8   3225   3226   3222   3221   3209   3210   3206   3205
8   3226   3227   3223   3222   3210   3211   3207   3206
8   3227   1521   1520   3223   3211   1491   1490   3207
8   2828   3228   3224   2829   2804   3212   3208   2805
8   3228   3229   3225   3224   3212   3213   3209   3208
8   3229   3230   3226   3225   3213   3214   3210   3209
8   3230   3231   3227   3226   3214   3215   3211   3210
8   3231   1522   1521   3227   3215   1492   1491   3211
8   2243   2242   3228   2828   2213   2212   3212   2804
8   2242   2241   3229   3228   2212   2211   3213   3212
8   2241   2240   3230   3229   2211   2210   3214   3213
8   2240   2239   3231   3230   2210   2209   3215   3214
8   2239   1523   1522   3231   2209   1493   1492   3215
8   2855   3232    823    822   2831   3216    787    786
8   3232   3233    824    823   3216   3217    788    787
8   3233   3234    825    824   3217   3218    789    788
8   3234   3235    826    825   3218   3219    790    789
8   3235   1549    827    826   3219   1519    791    790
8   2854   3236   3232   2855   2830   3220   3216   2831
8   3236   3237   3233   3232   3220   3221   3217   3216
8   3237   3238   3234   3233   3221   3222   3218   3217
8   3238   3239   3235   3234   3222   3223   3219   3218
8   3239   1550   1549   3235   3223   1520   1519   3219
8   2853   3240   3236   2854   2829   3224   3220   2830
8   3240   3241   3237   3236   3224   3225   3221   3220
8   3241   3242   3238   3237   3225   3226   3222   3221
8   3242   3243   3239   3238   3226   3227   3223   3222
8   3243   1551   1550   3239   3227   1521   1520   3223
8   2852   3244   3240   2853   2828   3228   3224   2829
8   3244   3245   3241   3240   3228   3229   3225   3224
8   3245   3246   3242   3241   3229   3230   3226   3225
8   3246   3247   3243   3242   3230   3231   3227   3226
8   3247   1552   1551   3243   3231   1522   1521   3227
8   2273   2272   3244   2852   2243   2242   3228   2828
8   2272   2271   3245   3244   2242   2241   3229   3228
8   2271   2270   3246   3245   2241   2240   3230   3229
8   2270   2269   3247   3246   2240   2239   3231   3230
8   2269   1553   1552   3247   2239   1523   1522   3231
8   2879   3248    859    858   2855   3232    823    822
8   3248   3249    860    859   3232   3233    824    823
8   3249   3250    861    860   3233   3234    825    824
8   3250   3251    862    861   3234   3235    826    825
8   3251   1579    863    862   3235   1549    827    826
8   2878   3252   3248   2879   2854   3236   3232   2855
8   3252   3253   3249   3248   3236   3237   3233   3232
8   3253   3254   3250   3249   3237   3238   3234   3233
8   3254   3255   3251   3250   3238   3239   3235   3234
8   3255   1580   1579   3251   3239   1550   1549   3235
8   2877   3256   3252   2878   2853   3240   3236   2854
8   3256   3257   3253   3252   3240   3241   3237   3236
8   3257   3258   3254   3253   3241   3242   3238   3237
8   3258   3259   3255   3254   3242   3243   3239   3238
8   3259   1581   1580   3255   3243   1551   1550   3239
8   2876   3260   3256   2877   2852   3244   3240   2853
8   3260   3261   3257   3256   3244   3245   3241   3240
8   3261   3262   3258   3257   3245   3246   3242   3241
8   3262   3263   3259   3258   3246   3247   3243   3242
8   3263   1582   1581   3259   3247   1552   1551   3243
8   2303   2302   3260   2876   2273   2272   3244   2852
8   2302   2301   3261   3260   2272   2271   3245   3244
8   2301   2300   3262   3261   2271   2270   3246   3245
8   2300   2299   3263   3262   2270   2269   3247   3246
8   2299   1583   1582   3263   2269   1553   1552   3247
8   3295   3294     36     37   3265   3264      0      1
8   3296   3295     37     38   3266   3265      1      2
8   3297   3296     38     39   3267   3266      2      3
8   3298   3297     39     40   3268   3267      3      4
8   3299   3298     40     41   3269   3268      4      5
8   3301   3300   3294   3295   3271   3270   3264   3265
8   3302   3301   3295   3296   3272   3271   3265   3266
8   3303   3302   3296   3297   3273   3272   3266   3267
8   3304   3303   3297   3298   3274   3273   3267   3268
8   3305   3304   3298   3299   3275   3274   3268   3269
8   3307   3306   3300   3301   3277   3276   3270   3271
8   3308   3307   3301   3302   3278   3277   3271   3272
8   3309   3308   3302   3303   3279   3278   3272   3273
8   3310   3309   3303   3304   3280   3279   3273   3274
8   3311   3310   3304   3305   3281   3280   3274   3275
8   3313   3312   3306   3307   3283   3282   3276   3277
8   3314   3313   3307   3308   3284   3283   3277   3278
8   3315   3314   3308   3309   3285   3284   3278   3279
8   3316   3315   3309   3310   3286   3285   3279   3280
8   3317   3316   3310   3311   3287   3286   3280   3281
8   3319   3318   3312   3313   3289   3288   3282   3283
8   3320   3319   3313   3314   3290   3289   3283   3284
8   3321   3320   3314   3315   3291   3290   3284   3285
8   3322   3321   3315   3316   3292   3291   3285   3286
8   3323   3322   3316   3317   3293   3292   3286   3287
8   3325   3324     72     73   3295   3294     36     37
8   3326   3325     73     74   3296   3295     37     38
8   3327   3326     74     75   3297   3296     38     39
8   3328   3327     75     76   3298   3297     39     40
8   3329   3328     76     77   3299   3298     40     41
8   3331   3330   3324   3325   3301   3300   3294   3295
8   3332   3331   3325   3326   3302   3301   3295   3296
8   3333   3332   3326   3327   3303   3302   3296   3297
8   3334   3333   3327   3328   3304   3303   3297   3298
8   3335   3334   3328   3329   3305   3304   3298   3299
8   3337   3336   3330   3331   3307   3306   3300   3301
8   3338   3337   3331   3332   3308   3307   3301   3302
8   3339   3338   3332   3333   3309   3308   3302   3303
8   3340   3339   3333   3334   3310   3309   3303   3304
8   3341   3340   3334   3335   3311   3310   3304   3305
8   3343   3342   3336   3337   3313   3312   3306   3307
8   3344   3343   3337   3338   3314   3313   3307   3308
8   3345   3344   3338   3339   3315   3314   3308   3309
8   3346   3345   3339   3340   3316   3315   3309   3310
8   3347   3346   3340   3341   3317   3316   3310   3311
8   3349   3348   3342   3343   3319   3318   3312   3313
8   3350   3349   3343   3344   3320   3319   3313   3314
8   3351   3350   3344   3345   3321   3320   3314   3315
8   3352   3351   3345   3346   3322   3321   3315   3316
8   3353   3352   3346   3347   3323   3322   3316   3317
8   3355   3354    108    109   3325   3324     72     73
8   3356   3355    109    110   3326   3325     73     74
8   3357   3356    110    111   3327   3326     74     75
8   3358   3357    111    112   3328   3327     75     76
8   3359   3358    112    113   3329   3328     76     77
8   3361   3360   3354   3355   3331   3330   3324   3325
8   3362   3361   3355   3356   3332   3331   3325   3326
8   3363   3362   3356   3357   3333   3332   3326   3327
8   3364   3363   3357   3358   3334   3333   3327   3328
8   3365   3364   3358   3359   3335   3334   3328   3329
8   3367   3366   3360   3361   3337   3336   3330   3331
8   3368   3367   3361   3362   3338   3337   3331   3332
8   3369   3368   3362   3363   3339   3338   3332   3333
8   3370   3369   3363   3364   3340   3339   3333   3334
8   3371   3370   3364   3365   3341   3340   3334   3335
8   3373   3372   3366   3367   3343   3342   3336   3337
8   3374   3373   3367   3368   3344   3343   3337   3338
8   3375   3374   3368   3369   3345   3344   3338   3339
8   3376   3375   3369   3370   3346   3345   3339   3340
8   3377   3376   3370   3371   3347   3346   3340   3341
8   3379   3378   3372   3373   3349   3348   3342   3343
8   3380   3379   3373   3374   3350   3349   3343   3344
8   3381   3380   3374   3375   3351   3350   3344   3345
8   3382   3381   3375   3376   3352   3351   3345   3346
8   3383   3382   3376   3377   3353   3352   3346   3347
8   3385   3384    144    145   3355   3354    108    109
8   3386   3385    145    146   3356   3355    109    110
8   3387   3386    146    147   3357   3356    110    111
8   3388   3387    147    148   3358   3357    111    112
8   3389   3388    148    149   3359   3358    112    113
8   3391   3390   3384   3385   3361   3360   3354   3355
8   3392   3391   3385   3386   3362   3361   3355   3356
8   3393   3392   3386   3387   3363   3362   3356   3357
8   3394   3393   3387   3388   3364   3363   3357   3358
8   3395   3394   3388   3389   3365   3364   3358   3359
8   3397   3396   3390   3391   3367   3366   3360   3361
8   3398   3397   3391   3392   3368   3367   3361   3362
8   3399   3398   3392   3393   3369   3368   3362   3363
8   3400   3399   3393   3394   3370   3369   3363   3364
8   3401   3400   3394   3395   3371   3370   3364   3365
8   3403   3402   3396   3397   3373   3372   3366   3367
8   3404   3403   3397   3398   3374   3373   3367   3368
8   3405   3404   3398   3399   3375   3374   3368   3369
8   3406   3405   3399   3400   3376   3375   3369   3370
8   3407   3406   3400   3401   3377   3376   3370   3371
8   3409   3408   3402   3403   3379   3378   3372   3373
8   3410   3409   3403   3404   3380   3379   3373   3374
8   3411   3410   3404   3405   3381   3380   3374   3375
8   3412   3411   3405   3406   3382   3381   3375   3376
8   3413   3412   3406   3407   3383   3382   3376   3377
8   3415   3414    180    181   3385   3384    144    145
8   3416   3415    181    182   3386   3385    145    146
8   3417   3416    182    183   3387   3386    146    147
8   3418   3417    183    184   3388   3387    147    148
8   3419   3418    184    185   3389   3388    148    149
8   3421   3420   3414   3415   3391   3390   3384   3385
8   3422   3421   3415   3416   3392   3391   3385   3386
8   3423   3422   3416   3417   3393   3392   3386   3387
8   3424   3423   3417   3418   3394   3393   3387   3388
8   3425   3424   3418   3419   3395   3394   3388   3389
8   3427   3426   3420   3421   3397   3396   3390   3391
8   3428   3427   3421   3422   3398   3397   3391   3392
8   3429   3428   3422   3423   3399   3398   3392   3393
8   3430   3429   3423   3424   3400   3399   3393   3394
8   3431   3430   3424   3425   3401   3400   3394   3395
8   3433   3432   3426   3427   3403   3402   3396   3397
8   3434   3433   3427   3428   3404   3403   3397   3398
8   3435   3434   3428   3429   3405   3404   3398   3399
8   3436   3435   3429   3430   3406   3405   3399   3400
8   3437   3436   3430   3431   3407   3406   3400   3401
8   3439   3438   3432   3433   3409   3408   3402   3403
8   3440   3439   3433   3434   3410   3409   3403   3404
8   3441   3440   3434   3435   3411   3410   3404   3405
8   3442   3441   3435   3436   3412   3411   3405   3406
8   3443   3442   3436   3437   3413   3412   3406   3407
8   3445   3444    216    217   3415   3414    180    181
8   3446   3445    217    218   3416   3415    181    182
8   3447   3446    218    219   3417   3416    182    183
8   3448   3447    219    220   3418   3417    183    184
8   3449   3448    220    221   3419   3418    184    185
8   3451   3450   3444   3445   3421   3420   3414   3415
8   3452   3451   3445   3446   3422   3421   3415   3416
8   3453   3452   3446   3447   3423   3422   3416   3417
8   3454   3453   3447   3448   3424   3423   3417   3418
8   3455   3454   3448   3449   3425   3424   3418   3419
8   3457   3456   3450   3451   3427   3426   3420   3421
8   3458   3457   3451   3452   3428   3427   3421   3422
8   3459   3458   3452   3453   3429   3428   3422   3423
8   3460   3459   3453   3454   3430   3429   3423   3424
8   3461   3460   3454   3455   3431   3430   3424   3425
8   3463   3462   3456   3457   3433   3432   3426   3427
8   3464   3463   3457   3458   3434   3433   3427   3428
8   3465   3464   3458   3459   3435   3434   3428   3429
8   3466   3465   3459   3460   3436   3435   3429   3430
8   3467   3466   3460   3461   3437   3436   3430   3431
8   3469   3468   3462   3463   3439   3438   3432   3433
8   3470   3469   3463   3464   3440   3439   3433   3434
8   3471   3470   3464   3465   3441   3440   3434   3435
8   3472   3471   3465   3466   3442   3441   3435   3436
8   3473   3472   3466   3467   3443   3442   3436   3437
8   3475   3474    252    253   3445   3444    216    217
8   3476   3475    253    254   3446   3445    217    218
8   3477   3476    254    255   3447   3446    218    219
8   3478   3477    255    256   3448   3447    219    220
8   3479   3478    256    257   3449   3448    220    221
8   3481   3480   3474   3475   3451   3450   3444   3445
8   3482   3481   3475   3476   3452   3451   3445   3446
8   3483   3482   3476   3477   3453   3452   3446   3447
8   3484   3483   3477   3478   3454   3453   3447   3448
8   3485   3484   3478   3479   3455   3454   3448   3449
8   3487   3486   3480   3481   3457   3456   3450   3451
8   3488   3487   3481   3482   3458   3457   3451   3452
8   3489   3488   3482   3483   3459   3458   3452   3453
8   3490   3489   3483   3484   3460   3459   3453   3454
8   3491   3490   3484   3485   3461   3460   3454   3455
8   3493   3492   3486   3487   3463   3462   3456   3457
8   3494   3493   3487   3488   3464   3463   3457   3458
8   3495   3494   3488   3489   3465   3464   3458   3459
8   3496   3495   3489   3490   3466   3465   3459   3460
8   3497   3496   3490   3491   3467   3466   3460   3461
8   3499   3498   3492   3493   3469   3468   3462   3463
8   3500   3499   3493   3494   3470   3469   3463   3464
8   3501   3500   3494   3495   3471   3470   3464   3465
8   3502   3501   3495   3496   3472   3471   3465   3466
8   3503   3502   3496   3497   3473   3472   3466   3467
8   3505   3504    288    289   3475   3474    252    253
8   3506   3505    289    290   3476   3475    253    254
8   3507   3506    290    291   3477   3476    254    255
8   3508   3507    291    292   3478   3477    255    256
8   3509   3508    292    293   3479   3478    256    257
8   3511   3510   3504   3505   3481   3480   3474   3475
8   3512   3511   3505   3506   3482   3481   3475   3476
8   3513   3512   3506   3507   3483   3482   3476   3477
8   3514   3513   3507   3508   3484   3483   3477   3478
8   3515   3514   3508   3509   3485   3484   3478   3479
8   3517   3516   3510   3511   3487   3486   3480   3481
8   3518   3517   3511   3512   3488   3487   3481   3482
8   3519   3518   3512   3513   3489   3488   3482   3483
8   3520   3519   3513   3514   3490   3489   3483   3484
8   3521   3520   3514   3515   3491   3490   3484   3485
8   3523   3522   3516   3517   3493   3492   3486   3487
8   3524   3523   3517   3518   3494   3493   3487   3488
8   3525   3524   3518   3519   3495   3494   3488   3489
8   3526   3525   3519   3520   3496   3495   3489   3490
8   3527   3526   3520   3521   3497   3496   3490   3491
8   3529   3528   3522   3523   3499   3498   3492   3493
8   3530   3529   3523   3524   3500   3499   3493   3494
8   3531   3530   3524   3525   3501   3500   3494   3495
8   3532   3531   3525   3526   3502   3501   3495   3496
8   3533   3532   3526   3527   3503   3502   3496   3497
8   3535   3534    324    325   3505   3504    288    289
8   3536   3535    325    326   3506   3505    289    290
8   3537   3536    326    327   3507   3506    290    291
8   3538   3537    327    328   3508   3507    291    292
8   3539   3538    328    329   3509   3508    292    293
8   3541   3540   3534   3535   3511   3510   3504   3505
8   3542   3541   3535   3536   3512   3511   3505   3506
8   3543   3542   3536   3537   3513   3512   3506   3507
8   3544   3543   3537   3538   3514   3513   3507   3508
8   3545   3544   3538   3539   3515   3514   3508   3509
8   3547   3546   3540   3541   3517   3516   3510   3511
8   3548   3547   3541   3542   3518   3517   3511   3512
8   3549   3548   3542   3543   3519   3518   3512   3513
8   3550   3549   3543   3544   3520   3519   3513   3514
8   3551   3550   3544   3545   3521   3520   3514   3515
8   3553   3552   3546   3547   3523   3522   3516   3517
8   3554   3553   3547   3548   3524   3523   3517   3518
8   3555   3554   3548   3549   3525   3524   3518   3519
8   3556   3555   3549   3550   3526   3525   3519   3520
8   3557   3556   3550   3551   3527   3526   3520   3521
8   3559   3558   3552   3553   3529   3528   3522   3523
8   3560   3559   3553   3554   3530   3529   3523   3524
8   3561   3560   3554   3555   3531   3530   3524   3525
8   3562   3561   3555   3556   3532   3531   3525   3526
8   3563   3562   3556   3557   3533   3532   3526   3527
8   3565   3564    360    361   3535   3534    324    325
8   3566   3565    361    362   3536   3535    325    326
8   3567   3566    362    363   3537   3536    326    327
8   3568   3567    363    364   3538   3537    327    328
8   3569   3568    364    365   3539   3538    328    329
8   3571   3570   3564   3565   3541   3540   3534   3535
8   3572   3571   3565   3566   3542   3541   3535   3536
8   3573   3572   3566   3567   3543   3542   3536   3537
8   3574   3573   3567   3568   3544   3543   3537   3538
8   3575   3574   3568   3569   3545   3544   3538   3539
8   3577   3576   3570   3571   3547   3546   3540   3541
8   3578   3577   3571   3572   3548   3547   3541   3542
8   3579   3578   3572   3573   3549   3548   3542   3543
8   3580   3579   3573   3574   3550   3549   3543   3544
8   3581   3580   3574   3575   3551   3550   3544   3545
8   3583   3582   3576   3577   3553   3552   3546   3547
8   3584   3583   3577   3578   3554   3553   3547   3548
8   3585   3584   3578   3579   3555   3554   3548   3549
8   3586   3585   3579   3580   3556   3555   3549   3550
8   3587   3586   3580   3581   3557   3556   3550   3551
8   3589   3588   3582   3583   3559   3558   3552   3553
8   3590   3589   3583   3584   3560   3559   3553   3554
8   3591   3590   3584   3585   3561   3560   3554   3555
8   3592   3591   3585   3586   3562   3561   3555   3556
8   3593   3592   3586   3587   3563   3562   3556   3557
8   3595   3594    396    397   3565   3564    360    361
8   3596   3595    397    398   3566   3565    361    362
8   3597   3596    398    399   3567   3566    362    363
8   3598   3597    399    400   3568   3567    363    364
8   3599   3598    400    401   3569   3568    364    365
8   3601   3600   3594   3595   3571   3570   3564   3565
8   3602   3601   3595   3596   3572   3571   3565   3566
8   3603   3602   3596   3597   3573   3572   3566   3567
8   3604   3603   3597   3598   3574   3573   3567   3568
8   3605   3604   3598   3599   3575   3574   3568   3569
8   3607   3606   3600   3601   3577   3576   3570   3571
8   3608   3607   3601   3602   3578   3577   3571   3572
8   3609   3608   3602   3603   3579   3578   3572   3573
8   3610   3609   3603   3604   3580   3579   3573   3574
8   3611   3610   3604   3605   3581   3580   3574   3575
8   3613   3612   3606   3607   3583   3582   3576   3577
8   3614   3613   3607   3608   3584   3583   3577   3578
8   3615   3614   3608   3609   3585   3584   3578   3579
8   3616   3615   3609   3610   3586   3585   3579   3580
8   3617   3616   3610   3611   3587   3586   3580   3581
8   3619   3618   3612   3613   3589   3588   3582   3583
8   3620   3619   3613   3614   3590   3589   3583   3584
8   3621   3620   3614   3615   3591   3590   3584   3585
8   3622   3621   3615   3616   3592   3591   3585   3586
8   3623   3622   3616   3617   3593   3592   3586   3587
8   3625   3624    432    433   3595   3594    396    397
8   3626   3625    433    434   3596   3595    397    398
8   3627   3626    434    435   3597   3596    398    399
8   3628   3627    435    436   3598   3597    399    400
8   3629   3628    436    437   3599   3598    400    401
8   3631   3630   3624   3625   3601   3600   3594   3595
8   3632   3631   3625   3626   3602   3601   3595   3596
8   3633   3632   3626   3627   3603   3602   3596   3597
8   3634   3633   3627   3628   3604   3603   3597   3598
8   3635   3634   3628   3629   3605   3604   3598   3599
8   3637   3636   3630   3631   3607   3606   3600   3601
8   3638   3637   3631   3632   3608   3607   3601   3602
8   3639   3638   3632   3633   3609   3608   3602   3603
8   3640   3639   3633   3634   3610   3609   3603   3604
8   3641   3640   3634   3635   3611   3610   3604   3605
8   3643   3642   3636   3637   3613   3612   3606   3607
8   3644   3643   3637   3638   3614   3613   3607   3608
8   3645   3644   3638   3639   3615   3614   3608   3609
8   3646   3645   3639   3640   3616   3615   3609   3610
8   3647   3646   3640   3641   3617   3616   3610   3611
8   3649   3648   3642   3643   3619   3618   3612   3613
8   3650   3649   3643   3644   3620   3619   3613   3614
8   3651   3650   3644   3645   3621   3620   3614   3615
8   3652   3651   3645   3646   3622   3621   3615   3616
8   3653   3652   3646   3647   3623   3622   3616   3617
8   3655   3654    468    469   3625   3624    432    433
8   3656   3655    469    470   3626   3625    433    434
8   3657   3656    470    471   3627   3626    434    435
8   3658   3657    471    472   3628   3627    435    436
8   3659   3658    472    473   3629   3628    436    437
8   3661   3660   3654   3655   3631   3630   3624   3625
8   3662   3661   3655   3656   3632   3631   3625   3626
8   3663   3662   3656   3657   3633   3632   3626   3627
8   3664   3663   3657   3658   3634   3633   3627   3628
8   3665   3664   3658   3659   3635   3634   3628   3629
8   3667   3666   3660   3661   3637   3636   3630   3631
8   3668   3667   3661   3662   3638   3637   3631   3632
8   3669   3668   3662   3663   3639   3638   3632   3633
8   3670   3669   3663   3664   3640   3639   3633   3634
8   3671   3670   3664   3665   3641   3640   3634   3635
8   3673   3672   3666   3667   3643   3642   3636   3637
8   3674   3673   3667   3668   3644   3643   3637   3638
8   3675   3674   3668   3669   3645   3644   3638   3639
8   3676   3675   3669   3670   3646   3645   3639   3640
8   3677   3676   3670   3671   3647   3646   3640   3641
8   3679   3678   3672   3673   3649   3648   3642   3643
8   3680   3679   3673   3674   3650   3649   3643   3644
8   3681   3680   3674   3675   3651   3650   3644   3645
8   3682   3681   3675   3676   3652   3651   3645   3646
8   3683   3682   3676   3677   3653   3652   3646   3647
8   3685   3684    504    505   3655   3654    468    469
8   3686   3685    505    506   3656   3655    469    470
8   3687   3686    506    507   3657   3656    470    471
8   3688   3687    507    508   3658   3657    471    472
8   3689   3688    508    509   3659   3658    472    473
8   3691   3690   3684   3685   3661   3660   3654   3655
8   3692   3691   3685   3686   3662   3661   3655   3656
8   3693   3692   3686   3687   3663   3662   3656   3657
8   3694   3693   3687   3688   3664   3663   3657   3658
8   3695   3694   3688   3689   3665   3664   3658   3659
8   3697   3696   3690   3691   3667   3666   3660   3661
8   3698   3697   3691   3692   3668   3667   3661   3662
8   3699   3698   3692   3693   3669   3668   3662   3663
8   3700   3699   3693   3694   3670   3669   3663   3664
8   3701   3700   3694   3695   3671   3670   3664   3665
8   3703   3702   3696   3697   3673   3672   3666   3667
8   3704   3703   3697   3698   3674   3673   3667   3668
8   3705   3704   3698   3699   3675   3674   3668   3669
8   3706   3705   3699   3700   3676   3675   3669   3670
8   3707   3706   3700   3701   3677   3676   3670   3671
8   3709   3708   3702   3703   3679   3678   3672   3673
8   3710   3709   3703   3704   3680   3679   3673   3674
8   3711   3710   3704   3705   3681   3680   3674   3675
8   3712   3711   3705   3706   3682   3681   3675   3676
8   3713   3712   3706   3707   3683   3682   3676   3677
8   3715   3714    540    541   3685   3684    504    505
8   3716   3715    541    542   3686   3685    505    506
8   3717   3716    542    543   3687   3686    506    507
8   3718   3717    543    544   3688   3687    507    508
8   3719   3718    544    545   3689   3688    508    509
8   3721   3720   3714   3715   3691   3690   3684   3685
8   3722   3721   3715   3716   3692   3691   3685   3686
8   3723   3722   3716   3717   3693   3692   3686   3687
8   3724   3723   3717   3718   3694   3693   3687   3688
8   3725   3724   3718   3719   3695   3694   3688   3689
8   3727   3726   3720   3721   3697   3696   3690   3691
8   3728   3727   3721   3722   3698   3697   3691   3692
8   3729   3728   3722   3723   3699   3698   3692   3693
8   3730   3729   3723   3724   3700   3699   3693   3694
8   3731   3730   3724   3725   3701   3700   3694   3695
8   3733   3732   3726   3727   3703   3702   3696   3697
8   3734   3733   3727   3728   3704   3703   3697   3698
8   3735   3734   3728   3729   3705   3704   3698   3699
8   3736   3735   3729   3730   3706   3705   3699   3700
8   3737   3736   3730   3731   3707   3706   3700   3701
8   3739   3738   3732   3733   3709   3708   3702   3703
8   3740   3739   3733   3734   3710   3709   3703   3704
8   3741   3740   3734   3735   3711   3710   3704   3705
8   3742   3741   3735   3736   3712   3711   3705   3706
8   3743   3742   3736   3737   3713   3712   3706   3707
8   3745   3744    576    577   3715   3714    540    541
8   3746   3745    577    578   3716   3715    541    542
8   3747   3746    578    579   3717   3716    542    543
8   3748   3747    579    580   3718   3717    543    544
8   3749   3748    580    581   3719   3718    544    545
8   3751   3750   3744   3745   3721   3720   3714   3715
8   3752   3751   3745   3746   3722   3721   3715   3716
8   3753   3752   3746   3747   3723   3722   3716   3717
8   3754   3753   3747   3748   3724   3723   3717   3718
8   3755   3754   3748   3749   3725   3724   3718   3719
8   3757   3756   3750   3751   3727   3726   3720   3721
8   3758   3757   3751   3752   3728   3727   3721   3722
8   3759   3758   3752   3753   3729   3728   3722   3723
8   3760   3759   3753   3754   3730   3729   3723   3724
8   3761   3760   3754   3755   3731   3730   3724   3725
8   3763   3762   3756   3757   3733   3732   3726   3727
8   3764   3763   3757   3758   3734   3733   3727   3728
8   3765   3764   3758   3759   3735   3734   3728   3729
8   3766   3765   3759   3760   3736   3735   3729   3730
8   3767   3766   3760   3761   3737   3736   3730   3731
8   3769   3768   3762   3763   3739   3738   3732   3733
8   3770   3769   3763   3764   3740   3739   3733   3734
8   3771   3770   3764   3765   3741   3740   3734   3735
8   3772   3771   3765   3766   3742   3741   3735   3736
8   3773   3772   3766   3767   3743   3742   3736   3737
8   3775   3774    612    613   3745   3744    576    577
8   3776   3775    613    614   3746   3745    577    578
8   3777   3776    614    615   3747   3746    578    579
8   3778   3777    615    616   3748   3747    579    580
8   3779   3778    616    617   3749   3748    580    581
8   3781   3780   3774   3775   3751   3750   3744   3745
8   3782   3781   3775   3776   3752   3751   3745   3746
8   3783   3782   3776   3777   3753   3752   3746   3747
8   3784   3783   3777   3778   3754   3753   3747   3748
8   3785   3784   3778   3779   3755   3754   3748   3749
8   3787   3786   3780   3781   3757   3756   3750   3751
8   3788   3787   3781   3782   3758   3757   3751   3752
8   3789   3788   3782   3783   3759   3758   3752   3753
8   3790   3789   3783   3784   3760   3759   3753   3754
8   3791   3790   3784   3785   3761   3760   3754   3755
8   3793   3792   3786   3787   3763   3762   3756   3757
8   3794   3793   3787   3788   3764   3763   3757   3758
8   3795   3794   3788   3789   3765   3764   3758   3759
8   3796   3795   3789   3790   3766   3765   3759   3760
8   3797   3796   3790   3791   3767   3766   3760   3761
8   3799   3798   3792   3793   3769   3768   3762   3763
8   3800   3799   3793   3794   3770   3769   3763   3764
8   3801   3800   3794   3795   3771   3770   3764   3765
8   3802   3801   3795   3796   3772   3771   3765   3766
8   3803   3802   3796   3797   3773   3772   3766   3767
8   3805   3804    648    649   3775   3774    612    613
8   3806   3805    649    650   3776   3775    613    614
8   3807   3806    650    651   3777   3776    614    615
8   3808   3807    651    652   3778   3777    615    616
8   3809   3808    652    653   3779   3778    616    617
8   3811   3810   3804   3805   3781   3780   3774   3775
8   3812   3811   3805   3806   3782   3781   3775   3776
8   3813   3812   3806   3807   3783   3782   3776   3777
8   3814   3813   3807   3808   3784   3783   3777   3778
8   3815   3814   3808   3809   3785   3784   3778   3779
8   3817   3816   3810   3811   3787   3786   3780   3781
8   3818   3817   3811   3812   3788   3787   3781   3782
8   3819   3818   3812   3813   3789   3788   3782   3783
8   3820   3819   3813   3814   3790   3789   3783   3784
8   3821   3820   3814   3815   3791   3790   3784   3785
8   3823   3822   3816   3817   3793   3792   3786   3787
8   3824   3823   3817   3818   3794   3793   3787   3788
8   3825   3824   3818   3819   3795   3794   3788   3789
8   3826   3825   3819   3820   3796   3795   3789   3790
8   3827   3826   3820   3821   3797   3796   3790   3791
8   3829   3828   3822   3823   3799   3798   3792   3793
8   3830   3829   3823   3824   3800   3799   3793   3794
8   3831   3830   3824   3825   3801   3800   3794   3795
8   3832   3831   3825   3826   3802   3801   3795   3796
8   3833   3832   3826   3827   3803   3802   3796   3797
8   3835   3834    684    685   3805   3804    648    649
8   3836   3835    685    686   3806   3805    649    650
8   3837   3836    686    687   3807   3806    650    651
8   3838   3837    687    688   3808   3807    651    652
8   3839   3838    688    689   3809   3808    652    653
8   3841   3840   3834   3835   3811   3810   3804   3805
8   3842   3841   3835   3836   3812   3811   3805   3806
8   3843   3842   3836   3837   3813   3812   3806   3807
8   3844   3843   3837   3838   3814   3813   3807   3808
8   3845   3844   3838   3839   3815   3814   3808   3809
8   3847   3846   3840   3841   3817   3816   3810   3811
8   3848   3847   3841   3842   3818   3817   3811   3812
8   3849   3848   3842   3843   3819   3818   3812   3813
8   3850   3849   3843   3844   3820   3819   3813   3814
8   3851   3850   3844   3845   3821   3820   3814   3815
8   3853   3852   3846   3847   3823   3822   3816   3817
8   3854   3853   3847   3848   3824   3823   3817   3818
8   3855   3854   3848   3849   3825   3824   3818   3819
8   3856   3855   3849   3850   3826   3825   3819   3820
8   3857   3856   3850   3851   3827   3826   3820   3821
8   3859   3858   3852   3853   3829   3828   3822   3823
8   3860   3859   3853   3854   3830   3829   3823   3824
8   3861   3860   3854   3855   3831   3830   3824   3825
8   3862   3861   3855   3856   3832   3831   3825   3826
8   3863   3862   3856   3857   3833   3832   3826   3827
8   3865   3864    720    721   3835   3834    684    685
8   3866   3865    721    722   3836   3835    685    686
8   3867   3866    722    723   3837   3836    686    687
8   3868   3867    723    724   3838   3837    687    688
8   3869   3868    724    725   3839   3838    688    689
8   3871   3870   3864   3865   3841   3840   3834   3835
8   3872   3871   3865   3866   3842   3841   3835   3836
8   3873   3872   3866   3867   3843   3842   3836   3837
8   3874   3873   3867   3868   3844   3843   3837   3838
8   3875   3874   3868   3869   3845   3844   3838   3839
8   3877   3876   3870   3871   3847   3846   3840   3841
8   3878   3877   3871   3872   3848   3847   3841   3842
8   3879   3878   3872   3873   3849   3848   3842   3843
8   3880   3879   3873   3874   3850   3849   3843   3844
8   3881   3880   3874   3875   3851   3850   3844   3845
8   3883   3882   3876   3877   3853   3852   3846   3847
8   3884   3883   3877   3878   3854   3853   3847   3848
8   3885   3884   3878   3879   3855   3854   3848   3849
8   3886   3885   3879   3880   3856   3855   3849   3850
8   3887   3886   3880   3881   3857   3856   3850   3851
8   3889   3888   3882   3883   3859   3858   3852   3853
8   3890   3889   3883   3884   3860   3859   3853   3854
8   3891   3890   3884   3885   3861   3860   3854   3855
8   3892   3891   3885   3886   3862   3861   3855   3856
8   3893   3892   3886   3887   3863   3862   3856   3857
8   3895   3894    756    757   3865   3864    720    721
8   3896   3895    757    758   3866   3865    721    722
8   3897   3896    758    759   3867   3866    722    723
8   3898   3897    759    760   3868   3867    723    724
8   3899   3898    760    761   3869   3868    724    725
8   3901   3900   3894   3895   3871   3870   3864   3865
8   3902   3901   3895   3896   3872   3871   3865   3866
8   3903   3902   3896   3897   3873   3872   3866   3867
8   3904   3903   3897   3898   3874   3873   3867   3868
8   3905   3904   3898   3899   3875   3874   3868   3869
8   3907   3906   3900   3901   3877   3876   3870   3871
8   3908   3907   3901   3902   3878   3877   3871   3872
8   3909   3908   3902   3903   3879   3878   3872   3873
8   3910   3909   3903   3904   3880   3879   3873   3874
8   3911   3910   3904   3905   3881   3880   3874   3875
8   3913   3912   3906   3907   3883   3882   3876   3877
8   3914   3913   3907   3908   3884   3883   3877   3878
8   3915   3914   3908   3909   3885   3884   3878   3879
8   3916   3915   3909   3910   3886   3885   3879   3880
8   3917   3916   3910   3911   3887   3886   3880   3881
8   3919   3918   3912   3913   3889   3888   3882   3883
8   3920   3919   3913   3914   3890   3889   3883   3884
8   3921   3920   3914   3915   3891   3890   3884   3885
8   3922   3921   3915   3916   3892   3891   3885   3886
8   3923   3922   3916   3917   3893   3892   3886   3887
8   3925   3924    792    793   3895   3894    756    757
8   3926   3925    793    794   3896   3895    757    758
8   3927   3926    794    795   3897   3896    758    759
8   3928   3927    795    796   3898   3897    759    760
8   3929   3928    796    797   3899   3898    760    761
8   3931   3930   3924   3925   3901   3900   3894   3895
8   3932   3931   3925   3926   3902   3901   3895   3896
8   3933   3932   3926   3927   3903   3902   3896   3897
8   3934   3933   3927   3928   3904   3903   3897   3898
8   3935   3934   3928   3929   3905   3904   3898   3899
8   3937   3936   3930   3931   3907   3906   3900   3901
8   3938   3937   3931   3932   3908   3907   3901   3902
8   3939   3938   3932   3933   3909   3908   3902   3903
8   3940   3939   3933   3934   3910   3909   3903   3904
8   3941   3940   3934   3935   3911   3910   3904   3905
8   3943   3942   3936   3937   3913   3912   3906   3907
8   3944   3943   3937   3938   3914   3913   3907   3908
8   3945   3944   3938   3939   3915   3914   3908   3909
8   3946   3945   3939   3940   3916   3915   3909   3910
8   3947   3946   3940   3941   3917   3916   3910   3911
8   3949   3948   3942   3943   3919   3918   3912   3913
8   3950   3949   3943   3944   3920   3919   3913   3914
8   3951   3950   3944   3945   3921   3920   3914   3915
8   3952   3951   3945   3946   3922   3921   3915   3916
8   3953   3952   3946   3947   3923   3922   3916   3917
8   3955   3954    828    829   3925   3924    792    793
8   3956   3955    829    830   3926   3925    793    794
8   3957   3956    830    831   3927   3926    794    795
8   3958   3957    831    832   3928   3927    795    796
8   3959   3958    832    833   3929   3928    796    797
8   3961   3960   3954   3955   3931   3930   3924   3925
8   3962   3961   3955   3956   3932   3931   3925   3926
8   3963   3962   3956   3957   3933   3932   3926   3927
8   3964   3963   3957   3958   3934   3933   3927   3928
8   3965   3964   3958   3959   3935   3934   3928   3929
8   3967   3966   3960   3961   3937   3936   3930   3931
8   3968   3967   3961   3962   3938   3937   3931   3932
8   3969   3968   3962   3963   3939   3938   3932   3933
8   3970   3969   3963   3964   3940   3939   3933   3934
8   3971   3970   3964   3965   3941   3940   3934   3935
8   3973   3972   3966   3967   3943   3942   3936   3937
8   3974   3973   3967   3968   3944   3943   3937   3938
8   3975   3974   3968   3969   3945   3944   3938   3939
8   3976   3975   3969   3970   3946   3945   3939   3940
8   3977   3976   3970   3971   3947   3946   3940   3941
8   3979   3978   3972   3973   3949   3948   3942   3943
8   3980   3979   3973   3974   3950   3949   3943   3944
8   3981   3980   3974   3975   3951   3950   3944   3945
8   3982   3981   3975   3976   3952   3951   3945   3946
8   3983   3982   3976   3977   3953   3952   3946   3947
8   4009   3299     41    894   3984   3269      5    864
8   4010   4009    894    895   3985   3984    864    865
8   4011   4010    895    896   3986   3985    865    866
8   4012   4011    896    897   3987   3986    866    867
8   4013   4012    897    898   3988   3987    867    868
8   4014   3305   3299   4009   3989   3275   3269   3984
8   4015   4014   4009   4010   3990   3989   3984   3985
8   4016   4015   4010   4011   3991   3990   3985   3986
8   4017   4016   4011   4012   3992   3991   3986   3987
8   4018   4017   4012   4013   3993   3992   3987   3988
8   4019   3311   3305   4014   3994   3281   3275   3989
8   4020   4019   4014   4015   3995   3994   3989   3990
8   4021   4020   4015   4016   3996   3995   3990   3991
8   4022   4021   4016   4017   3997   3996   3991   3992
8   4023   4022   4017   4018   3998   3997   3992   3993
8   4024   3317   3311   4019   3999   3287   3281   3994
8   4025   4024   4019   4020   4000   3999   3994   3995
8   4026   4025   4020   4021   4001   4000   3995   3996
8   4027   4026   4021   4022   4002   4001   3996   3997
8   4028   4027   4022   4023   4003   4002   3997   3998
8   4029   3323   3317   4024   4004   3293   3287   3999
8   4030   4029   4024   4025   4005   4004   3999   4000
8   4031   4030   4025   4026   4006   4005   4000   4001
8   4032   4031   4026   4027   4007   4006   4001   4002
8   4033   4032   4027   4028   4008   4007   4002   4003
8   4034   3329     77    924   4009   3299     41    894
8   4035   4034    924    925   4010   4009    894    895
8   4036   4035    925    926   4011   4010    895    896
8   4037   4036    926    927   4012   4011    896    897
8   4038   4037    927    928   4013   4012    897    898
8   4039   3335   3329   4034   4014   3305   3299   4009
8   4040   4039   4034   4035   4015   4014   4009   4010
8   4041   4040   4035   4036   4016   4015   4010   4011
8   4042   4041   4036   4037   4017   4016   4011   4012
8   4043   4042   4037   4038   4018   4017   4012   4013
8   4044   3341   3335   4039   4019   3311   3305   4014
8   4045   4044   4039   4040   4020   4019   4014   4015
8   4046   4045   4040   4041   4021   4020   4015   4016
8   4047   4046   4041   4042   4022   4021   4016   4017
8   4048   4047   4042   4043   4023   4022   4017   4018
8   4049   3347   3341   4044   4024   3317   3311   4019
8   4050   4049   4044   4045   4025   4024   4019   4020
8   4051   4050   4045   4046   4026   4025   4020   4021
8   4052   4051   4046   4047   4027   4026   4021   4022
8   4053   4052   4047   4048   4028   4027   4022   4023
8   4054   3353   3347   4049   4029   3323   3317   4024
8   4055   4054   4049   4050   4030   4029   4024   4025
8   4056   4055   4050   4051   4031   4030   4025   4026
8   4057   4056   4051   4052   4032   4031   4026   4027
8   4058   4057   4052   4053   4033   4032   4027   4028
8   4059   3359    113    954   4034   3329     77    924
8   4060   4059    954    955   4035   4034    924    925
8   4061   4060    955    956   4036   4035    925    926
8   4062   4061    956    957   4037   4036    926    927
8   4063   4062    957    958   4038   4037    927    928
8   4064   3365   3359   4059   4039   3335   3329   4034
8   4065   4064   4059   4060   4040   4039   4034   4035
8   4066   4065   4060   4061   4041   4040   4035   4036
8   4067   4066   4061   4062   4042   4041   4036   4037
8   4068   4067   4062   4063   4043   4042   4037   4038
8   4069   3371   3365   4064   4044   3341   3335   4039
8   4070   4069   4064   4065   4045   4044   4039   4040
8   4071   4070   4065   4066   4046   4045   4040   4041
8   4072   4071   4066   4067   4047   4046   4041   4042
8   4073   4072   4067   4068   4048   4047   4042   4043
8   4074   3377   3371   4069   4049   3347   3341   4044
8   4075   4074   4069   4070   4050   4049   4044   4045
8   4076   4075   4070   4071   4051   4050   4045   4046
8   4077   4076   4071   4072   4052   4051   4046   4047
8   4078   4077   4072   4073   4053   4052   4047   4048
8   4079   3383   3377   4074   4054   3353   3347   4049
8   4080   4079   4074   4075   4055   4054   4049   4050
8   4081   4080   4075   4076   4056   4055   4050   4051
8   4082   4081   4076   4077   4057   4056   4051   4052
8   4083   4082   4077   4078   4058   4057   4052   4053
8   4084   3389    149    984   4059   3359    113    954
8   4085   4084    984    985   4060   4059    954    955
8   4086   4085    985    986   4061   4060    955    956
8   4087   4086    986    987   4062   4061    956    957
8   4088   4087    987    988   4063   4062    957    958
8   4089   3395   3389   4084   4064   3365   3359   4059
8   4090   4089   4084   4085   4065   4064   4059   4060
8   4091   4090   4085   4086   4066   4065   4060   4061
8   4092   4091   4086   4087   4067   4066   4061   4062
8   4093   4092   4087   4088   4068   4067   4062   4063
8   4094   3401   3395   4089   4069   3371   3365   4064
8   4095   4094   4089   4090   4070   4069   4064   4065
8   4096   4095   4090   4091   4071   4070   4065   4066
8   4097   4096   4091   4092   4072   4071   4066   4067
8   4098   4097   4092   4093   4073   4072   4067   4068
8   4099   3407   3401   4094   4074   3377   3371   4069
8   4100   4099   4094   4095   4075   4074   4069   4070
8   4101   4100   4095   4096   4076   4075   4070   4071
8   4102   4101   4096   4097   4077   4076   4071   4072
8   4103   4102   4097   4098   4078   4077   4072   4073
8   4104   3413   3407   4099   4079   3383   3377   4074
8   4105   4104   4099   4100   4080   4079   4074   4075
8   4106   4105   4100   4101   4081   4080   4075   4076
8   4107   4106   4101   4102   4082   4081   4076   4077
8   4108   4107   4102   4103   4083   4082   4077   4078
8   4109   3419    185   1014   4084   3389    149    984
8   4110   4109   1014   1015   4085   4084    984    985
8   4111   4110   1015   1016   4086   4085    985    986
8   4112   4111   1016   1017   4087   4086    986    987
8   4113   4112   1017   1018   4088   4087    987    988
8   4114   3425   3419   4109   4089   3395   3389   4084
8   4115   4114   4109   4110   4090   4089   4084   4085
8   4116   4115   4110   4111   4091   4090   4085   4086
8   4117   4116   4111   4112   4092   4091   4086   4087
8   4118   4117   4112   4113   4093   4092   4087   4088
8   4119   3431   3425   4114   4094   3401   3395   4089
8   4120   4119   4114   4115   4095   4094   4089   4090
8   4121   4120   4115   4116   4096   4095   4090   4091
8   4122   4121   4116   4117   4097   4096   4091   4092
8   4123   4122   4117   4118   4098   4097   4092   4093
8   4124   3437   3431   4119   4099   3407   3401   4094
8   4125   4124   4119   4120   4100   4099   4094   4095
8   4126   4125   4120   4121   4101   4100   4095   4096
8   4127   4126   4121   4122   4102   4101   4096   4097
8   4128   4127   4122   4123   4103   4102   4097   4098
8   4129   3443   3437   4124   4104   3413   3407   4099
8   4130   4129   4124   4125   4105   4104   4099   4100
8   4131   4130   4125   4126   4106   4105   4100   4101
8   4132   4131   4126   4127   4107   4106   4101   4102
8   4133   4132   4127   4128   4108   4107   4102   4103
8   4134   3449    221   1044   4109   3419    185   1014
8   4135   4134   1044   1045   4110   4109   1014   1015
8   4136   4135   1045   1046   4111   4110   1015   1016
8   4137   4136   1046   1047   4112   4111   1016   1017
8   4138   4137   1047   1048   4113   4112   1017   1018
8   4139   3455   3449   4134   4114   3425   3419   4109
8   4140   4139   4134   4135   4115   4114   4109   4110
8   4141   4140   4135   4136   4116   4115   4110   4111
8   4142   4141   4136   4137   4117   4116   4111   4112
8   4143   4142   4137   4138   4118   4117   4112   4113
8   4144   3461   3455   4139   4119   3431   3425   4114
8   4145   4144   4139   4140   4120   4119   4114   4115
8   4146   4145   4140   4141   4121   4120   4115   4116
8   4147   4146   4141   4142   4122   4121   4116   4117
8   4148   4147   4142   4143   4123   4122   4117   4118
8   4149   3467   3461   4144   4124   3437   3431   4119
8   4150   4149   4144   4145   4125   4124   4119   4120
8   4151   4150   4145   4146   4126   4125   4120   4121
8   4152   4151   4146   4147   4127   4126   4121   4122
8   4153   4152   4147   4148   4128   4127   4122   4123
8   4154   3473   3467   4149   4129   3443   3437   4124
8   4155   4154   4149   4150   4130   4129   4124   4125
8   4156   4155   4150   4151   4131   4130   4125   4126
8   4157   4156   4151   4152   4132   4131   4126   4127
8   4158   4157   4152   4153   4133   4132   4127   4128
8   4159   3479    257   1074   4134   3449    221   1044
8   4160   4159   1074   1075   4135   4134   1044   1045
8   4161   4160   1075   1076   4136   4135   1045   1046
8   4162   4161   1076   1077   4137   4136   1046   1047
8   4163   4162   1077   1078   4138   4137   1047   1048
8   4164   3485   3479   4159   4139   3455   3449   4134
8   4165   4164   4159   4160   4140   4139   4134   4135
8   4166   4165   4160   4161   4141   4140   4135   4136
8   4167   4166   4161   4162   4142   4141   4136   4137
8   4168   4167   4162   4163   4143   4142   4137   4138
8   4169   3491   3485   4164   4144   3461   3455   4139
8   4170   4169   4164   4165   4145   4144   4139   4140
8   4171   4170   4165   4166   4146   4145   4140   4141
8   4172   4171   4166   4167   4147   4146   4141   4142
8   4173   4172   4167   4168   4148   4147   4142   4143
8   4174   3497   3491   4169   4149   3467   3461   4144
8   4175   4174   4169   4170   4150   4149   4144   4145
8   4176   4175   4170   4171   4151   4150   4145   4146
8   4177   4176   4171   4172   4152   4151   4146   4147
8   4178   4177   4172   4173   4153   4152   4147   4148
8   4179   3503   3497   4174   4154   3473   3467   4149
8   4180   4179   4174   4175   4155   4154   4149   4150
8   4181   4180   4175   4176   4156   4155   4150   4151
8   4182   4181   4176   4177   4157   4156   4151   4152
8   4183   4182   4177   4178   4158   4157   4152   4153
8   4184   3509    293   1104   4159   3479    257   1074
8   4185   4184   1104   1105   4160   4159   1074   1075
8   4186   4185   1105   1106   4161   4160   1075   1076
8   4187   4186   1106   1107   4162   4161   1076   1077
8   4188   4187   1107   1108   4163   4162   1077   1078
8   4189   3515   3509   4184   4164   3485   3479   4159
8   4190   4189   4184   4185   4165   4164   4159   4160
8   4191   4190   4185   4186   4166   4165   4160   4161
8   4192   4191   4186   4187   4167   4166   4161   4162
8   4193   4192   4187   4188   4168   4167   4162   4163
8   4194   3521   3515   4189   4169   3491   3485   4164
8   4195   4194   4189   4190   4170   4169   4164   4165
8   4196   4195   4190   4191   4171   4170   4165   4166
8   4197   4196   4191   4192   4172   4171   4166   4167
8   4198   4197   4192   4193   4173   4172   4167   4168
8   4199   3527   3521   4194   4174   3497   3491   4169
8   4200   4199   4194   4195   4175   4174   4169   4170
8   4201   4200   4195   4196   4176   4175   4170   4171
8   4202   4201   4196   4197   4177   4176   4171   4172
8   4203   4202   4197   4198   4178   4177   4172   4173
8   4204   3533   3527   4199   4179   3503   3497   4174
8   4205   4204   4199   4200   4180   4179   4174   4175
8   4206   4205   4200   4201   4181   4180   4175   4176
8   4207   4206   4201   4202   4182   4181   4176   4177
8   4208   4207   4202   4203   4183   4182   4177   4178
8   4209   3539    329   1134   4184   3509    293   1104
8   4210   4209   1134   1135   4185   4184   1104   1105
8   4211   4210   1135   1136   4186   4185   1105   1106
8   4212   4211   1136   1137   4187   4186   1106   1107
8   4213   4212   1137   1138   4188   4187   1107   1108
8   4214   3545   3539   4209   4189   3515   3509   4184
8   4215   4214   4209   4210   4190   4189   4184   4185
8   4216   4215   4210   4211   4191   4190   4185   4186
8   4217   4216   4211   4212   4192   4191   4186   4187
8   4218   4217   4212   4213   4193   4192   4187   4188
8   4219   3551   3545   4214   4194   3521   3515   4189
8   4220   4219   4214   4215   4195   4194   4189   4190
8   4221   4220   4215   4216   4196   4195   4190   4191
8   4222   4221   4216   4217   4197   4196   4191   4192
8   4223   4222   4217   4218   4198   4197   4192   4193
8   4224   3557   3551   4219   4199   3527   3521   4194
8   4225   4224   4219   4220   4200   4199   4194   4195
8   4226   4225   4220   4221   4201   4200   4195   4196
8   4227   4226   4221   4222   4202   4201   4196   4197
8   4228   4227   4222   4223   4203   4202   4197   4198
8   4229   3563   3557   4224   4204   3533   3527   4199
8   4230   4229   4224   4225   4205   4204   4199   4200
8   4231   4230   4225   4226   4206   4205   4200   4201
8   4232   4231   4226   4227   4207   4206   4201   4202
8   4233   4232   4227   4228   4208   4207   4202   4203
8   4234   3569    365   1164   4209   3539    329   1134
8   4235   4234   1164   1165   4210   4209   1134   1135
8   4236   4235   1165   1166   4211   4210   1135   1136
8   4237   4236   1166   1167   4212   4211   1136   1137
8   4238   4237   1167   1168   4213   4212   1137   1138
8   4239   3575   3569   4234   4214   3545   3539   4209
8   4240   4239   4234   4235   4215   4214   4209   4210
8   4241   4240   4235   4236   4216   4215   4210   4211
8   4242   4241   4236   4237   4217   4216   4211   4212
8   4243   4242   4237   4238   4218   4217   4212   4213
8   4244   3581   3575   4239   4219   3551   3545   4214
8   4245   4244   4239   4240   4220   4219   4214   4215
8   4246   4245   4240   4241   4221   4220   4215   4216
8   4247   4246   4241   4242   4222   4221   4216   4217
8   4248   4247   4242   4243   4223   4222   4217   4218
8   4249   3587   3581   4244   4224   3557   3551   4219
8   4250   4249   4244   4245   4225   4224   4219   4220
8   4251   4250   4245   4246   4226   4225   4220   4221
8   4252   4251   4246   4247   4227   4226   4221   4222
8   4253   4252   4247   4248   4228   4227   4222   4223
8   4254   3593   3587   4249   4229   3563   3557   4224
8   4255   4254   4249   4250   4230   4229   4224   4225
8   4256   4255   4250   4251   4231   4230   4225   4226
8   4257   4256   4251   4252   4232   4231   4226   4227
8   4258   4257   4252   4253   4233   4232   4227   4228
8   4259   3599    401   1194   4234   3569    365   1164
8   4260   4259   1194   1195   4235   4234   1164   1165
8   4261   4260   1195   1196   4236   4235   1165   1166
8   4262   4261   1196   1197   4237   4236   1166   1167
8   4263   4262   1197   1198   4238   4237   1167   1168
8   4264   3605   3599   4259   4239   3575   3569   4234
8   4265   4264   4259   4260   4240   4239   4234   4235
8   4266   4265   4260   4261   4241   4240   4235   4236
8   4267   4266   4261   4262   4242   4241   4236   4237
8   4268   4267   4262   4263   4243   4242   4237   4238
8   4269   3611   3605   4264   4244   3581   3575   4239
8   4270   4269   4264   4265   4245   4244   4239   4240
8   4271   4270   4265   4266   4246   4245   4240   4241
8   4272   4271   4266   4267   4247   4246   4241   4242
8   4273   4272   4267   4268   4248   4247   4242   4243
8   4274   3617   3611   4269   4249   3587   3581   4244
8   4275   4274   4269   4270   4250   4249   4244   4245
8   4276   4275   4270   4271   4251   4250   4245   4246
8   4277   4276   4271   4272   4252   4251   4246   4247
8   4278   4277   4272   4273   4253   4252   4247   4248
8   4279   3623   3617   4274   4254   3593   3587   4249
8   4280   4279   4274   4275   4255   4254   4249   4250
8   4281   4280   4275   4276   4256   4255   4250   4251
8   4282   4281   4276   4277   4257   4256   4251   4252
8   4283   4282   4277   4278   4258   4257   4252   4253
8   4284   3629    437   1224   4259   3599    401   1194
8   4285   4284   1224   1225   4260   4259   1194   1195
8   4286   4285   1225   1226   4261   4260   1195   1196
8   4287   4286   1226   1227   4262   4261   1196   1197
8   4288   4287   1227   1228   4263   4262   1197   1198
8   4289   3635   3629   4284   4264   3605   3599   4259
8   4290   4289   4284   4285   4265   4264   4259   4260
8   4291   4290   4285   4286   4266   4265   4260   4261
8   4292   4291   4286   4287   4267   4266   4261   4262
8   4293   4292   4287   4288   4268   4267   4262   4263
8   4294   3641   3635   4289   4269   3611   3605   4264
8   4295   4294   4289   4290   4270   4269   4264   4265
8   4296   4295   4290   4291   4271   4270   4265   4266
8   4297   4296   4291   4292   4272   4271   4266   4267
8   4298   4297   4292   4293   4273   4272   4267   4268
8   4299   3647   3641   4294   4274   3617   3611   4269
8   4300   4299   4294   4295   4275   4274   4269   4270
8   4301   4300   4295   4296   4276   4275   4270   4271
8   4302   4301   4296   4297   4277   4276   4271   4272
8   4303   4302   4297   4298   4278   4277   4272   4273
8   4304   3653   3647   4299   4279   3623   3617   4274
8   4305   4304   4299   4300   4280   4279   4274   4275
8   4306   4305   4300   4301   4281   4280   4275   4276
8   4307   4306   4301   4302   4282   4281   4276   4277
8   4308   4307   4302   4303   4283   4282   4277   4278
8   4309   3659    473   1254   4284   3629    437   1224
8   4310   4309   1254   1255   4285   4284   1224   1225
8   4311   4310   1255   1256   4286   4285   1225   1226
8   4312   4311   1256   1257   4287   4286   1226   1227
8   4313   4312   1257   1258   4288   4287   1227   1228
8   4314   3665   3659   4309   4289   3635   3629   4284
8   4315   4314   4309   4310   4290   4289   4284   4285
8   4316   4315   4310   4311   4291   4290   4285   4286
8   4317   4316   4311   4312   4292   4291   4286   4287
8   4318   4317   4312   4313   4293   4292   4287   4288
8   4319   3671   3665   4314   4294   3641   3635   4289
8   4320   4319   4314   4315   4295   4294   4289   4290
8   4321   4320   4315   4316   4296   4295   4290   4291
8   4322   4321   4316   4317   4297   4296   4291   4292
8   4323   4322   4317   4318   4298   4297   4292   4293
8   4324   3677   3671   4319   4299   3647   3641   4294
8   4325   4324   4319   4320   4300   4299   4294   4295
8   4326   4325   4320   4321   4301   4300   4295   4296
8   4327   4326   4321   4322   4302   4301   4296   4297
8   4328   4327   4322   4323   4303   4302   4297   4298
8   4329   3683   3677   4324   4304   3653   3647   4299
8   4330   4329   4324   4325   4305   4304   4299   4300
8   4331   4330   4325   4326   4306   4305   4300   4301
8   4332   4331   4326   4327   4307   4306   4301   4302
8   4333   4332   4327   4328   4308   4307   4302   4303
8   4334   3689    509   1284   4309   3659    473   1254
8   4335   4334   1284   1285   4310   4309   1254   1255
8   4336   4335   1285   1286   4311   4310   1255   1256
8   4337   4336   1286   1287   4312   4311   1256   1257
8   4338   4337   1287   1288   4313   4312   1257   1258
8   4339   3695   3689   4334   4314   3665   3659   4309
8   4340   4339   4334   4335   4315   4314   4309   4310
8   4341   4340   4335   4336   4316   4315   4310   4311
8   4342   4341   4336   4337   4317   4316   4311   4312
8   4343   4342   4337   4338   4318   4317   4312   4313
8   4344   3701   3695   4339   4319   3671   3665   4314
8   4345   4344   4339   4340   4320   4319   4314   4315
8   4346   4345   4340   4341   4321   4320   4315   4316
8   4347   4346   4341   4342   4322   4321   4316   4317
8   4348   4347   4342   4343   4323   4322   4317   4318
8   4349   3707   3701   4344   4324   3677   3671   4319
8   4350   4349   4344   4345   4325   4324   4319   4320
8   4351   4350   4345   4346   4326   4325   4320   4321
8   4352   4351   4346   4347   4327   4326   4321   4322
8   4353   4352   4347   4348   4328   4327   4322   4323
8   4354   3713   3707   4349   4329   3683   3677   4324
8   4355   4354   4349   4350   4330   4329   4324   4325
8   4356   4355   4350   4351   4331   4330   4325   4326
8   4357   4356   4351   4352   4332   4331   4326   4327
8   4358   4357   4352   4353   4333   4332   4327   4328
8   4359   3719    545   1314   4334   3689    509   1284
8   4360   4359   1314   1315   4335   4334   1284   1285
8   4361   4360   1315   1316   4336   4335   1285   1286
8   4362   4361   1316   1317   4337   4336   1286   1287
8   4363   4362   1317   1318   4338   4337   1287   1288
8   4364   3725   3719   4359   4339   3695   3689   4334
8   4365   4364   4359   4360   4340   4339   4334   4335
8   4366   4365   4360   4361   4341   4340   4335   4336
8   4367   4366   4361   4362   4342   4341   4336   4337
8   4368   4367   4362   4363   4343   4342   4337   4338
8   4369   3731   3725   4364   4344   3701   3695   4339
8   4370   4369   4364   4365   4345   4344   4339   4340
8   4371   4370   4365   4366   4346   4345   4340   4341
8   4372   4371   4366   4367   4347   4346   4341   4342
8   4373   4372   4367   4368   4348   4347   4342   4343
8   4374   3737   3731   4369   4349   3707   3701   4344
8   4375   4374   4369   4370   4350   4349   4344   4345
8   4376   4375   4370   4371   4351   4350   4345   4346
8   4377   4376   4371   4372   4352   4351   4346   4347
8   4378   4377   4372   4373   4353   4352   4347   4348
8   4379   3743   3737   4374   4354   3713   3707   4349
8   4380   4379   4374   4375   4355   4354   4349   4350
8   4381   4380   4375   4376   4356   4355   4350   4351
8   4382   4381   4376   4377   4357   4356   4351   4352
8   4383   4382   4377   4378   4358   4357   4352   4353
8   4384   3749    581   1344   4359   3719    545   1314
8   4385   4384   1344   1345   4360   4359   1314   1315
8   4386   4385   1345   1346   4361   4360   1315   1316
8   4387   4386   1346   1347   4362   4361   1316   1317
8   4388   4387   1347   1348   4363   4362   1317   1318
8   4389   3755   3749   4384   4364   3725   3719   4359
8   4390   4389   4384   4385   4365   4364   4359   4360
8   4391   4390   4385   4386   4366   4365   4360   4361
8   4392   4391   4386   4387   4367   4366   4361   4362
8   4393   4392   4387   4388   4368   4367   4362   4363
8   4394   3761   3755   4389   4369   3731   3725   4364
8   4395   4394   4389   4390   4370   4369   4364   4365
8   4396   4395   4390   4391   4371   4370   4365   4366
8   4397   4396   4391   4392   4372   4371   4366   4367
8   4398   4397   4392   4393   4373   4372   4367   4368
8   4399   3767   3761   4394   4374   3737   3731   4369
8   4400   4399   4394   4395   4375   4374   4369   4370
8   4401   4400   4395   4396   4376   4375   4370   4371
8   4402   4401   4396   4397   4377   4376   4371   4372
8   4403   4402   4397   4398   4378   4377   4372   4373
8   4404   3773   3767   4399   4379   3743   3737   4374
8   4405   4404   4399   4400   4380   4379   4374   4375
8   4406   4405   4400   4401   4381   4380   4375   4376
8   4407   4406   4401   4402   4382   4381   4376   4377
8   4408   4407   4402   4403   4383   4382   4377   4378
8   4409   3779    617   1374   4384   3749    581   1344
8   4410   4409   1374   1375   4385   4384   1344   1345
8   4411   4410   1375   1376   4386   4385   1345   1346
8   4412   4411   1376   1377   4387   4386   1346   1347
8   4413   4412   1377   1378   4388   4387   1347   1348
8   4414   3785   3779   4409   4389   3755   3749   4384
8   4415   4414   4409   4410   4390   4389   4384   4385
8   4416   4415   4410   4411   4391   4390   4385   4386
8   4417   4416   4411   4412   4392   4391   4386   4387
8   4418   4417   4412   4413   4393   4392   4387   4388
8   4419   3791   3785   4414   4394   3761   3755   4389
8   4420   4419   4414   4415   4395   4394   4389   4390
8   4421   4420   4415   4416   4396   4395   4390   4391
8   4422   4421   4416   4417   4397   4396   4391   4392
8   4423   4422   4417   4418   4398   4397   4392   4393
8   4424   3797   3791   4419   4399   3767   3761   4394
8   4425   4424   4419   4420   4400   4399   4394   4395
8   4426   4425   4420   4421   4401   4400   4395   4396
8   4427   4426   4421   4422   4402   4401   4396   4397
8   4428   4427   4422   4423   4403   4402   4397   4398
8   4429   3803   3797   4424   4404   3773   3767   4399
8   4430   4429   4424   4425   4405   4404   4399   4400
8   4431   4430   4425   4426   4406   4405   4400   4401
8   4432   4431   4426   4427   4407   4406   4401   4402
8   4433   4432   4427   4428   4408   4407   4402   4403
8   4434   3809    653   1404   4409   3779    617   1374
8   4435   4434   1404   1405   4410   4409   1374   1375
8   4436   4435   1405   1406   4411   4410   1375   1376
8   4437   4436   1406   1407   4412   4411   1376   1377
8   4438   4437   1407   1408   4413   4412   1377   1378
8   4439   3815   3809   4434   4414   3785   3779   4409
8   4440   4439   4434   4435   4415   4414   4409   4410
8   4441   4440   4435   4436   4416   4415   4410   4411
8   4442   4441   4436   4437   4417   4416   4411   4412
8   4443   4442   4437   4438   4418   4417   4412   4413
8   4444   3821   3815   4439   4419   3791   3785   4414
8   4445   4444   4439   4440   4420   4419   4414   4415
8   4446   4445   4440   4441   4421   4420   4415   4416
8   4447   4446   4441   4442   4422   4421   4416   4417
8   4448   4447   4442   4443   4423   4422   4417   4418
8   4449   3827   3821   4444   4424   3797   3791   4419
8   4450   4449   4444   4445   4425   4424   4419   4420
8   4451   4450   4445   4446   4426   4425   4420   4421
8   4452   4451   4446   4447   4427   4426   4421   4422
8   4453   4452   4447   4448   4428   4427   4422   4423
8   4454   3833   3827   4449   4429   3803   3797   4424
8   4455   4454   4449   4450   4430   4429   4424   4425
8   4456   4455   4450   4451   4431   4430   4425   4426
8   4457   4456   4451   4452   4432   4431   4426   4427
8   4458   4457   4452   4453   4433   4432   4427   4428
8   4459   3839    689   1434   4434   3809    653   1404
8   4460   4459   1434   1435   4435   4434   1404   1405
8   4461   4460   1435   1436   4436   4435   1405   1406
8   4462   4461   1436   1437   4437   4436   1406   1407
8   4463   4462   1437   1438   4438   4437   1407   1408
8   4464   3845   3839   4459   4439   3815   3809   4434
8   4465   4464   4459   4460   4440   4439   4434   4435
8   4466   4465   4460   4461   4441   4440   4435   4436
8   4467   4466   4461   4462   4442   4441   4436   4437
8   4468   4467   4462   4463   4443   4442   4437   4438
8   4469   3851   3845   4464   4444   3821   3815   4439
8   4470   4469   4464   4465   4445   4444   4439   4440
8   4471   4470   4465   4466   4446   4445   4440   4441
8   4472   4471   4466   4467   4447   4446   4441   4442
8   4473   4472   4467   4468   4448   4447   4442   4443
8   4474   3857   3851   4469   4449   3827   3821   4444
8   4475   4474   4469   4470   4450   4449   4444   4445
8   4476   4475   4470   4471   4451   4450   4445   4446
8   4477   4476   4471   4472   4452   4451   4446   4447
8   4478   4477   4472   4473   4453   4452   4447   4448
8   4479   3863   3857   4474   4454   3833   3827   4449
8   4480   4479   4474   4475   4455   4454   4449   4450
8   4481   4480   4475   4476   4456   4455   4450   4451
8   4482   4481   4476   4477   4457   4456   4451   4452
8   4483   4482   4477   4478   4458   4457   4452   4453
8   4484   3869    725   1464   4459   3839    689   1434
8   4485   4484   1464   1465   4460   4459   1434   1435
8   4486   4485   1465   1466   4461   4460   1435   1436
8   4487   4486   1466   1467   4462   4461   1436   1437
8   4488   4487   1467   1468   4463   4462   1437   1438
8   4489   3875   3869   4484   4464   3845   3839   4459
8   4490   4489   4484   4485   4465   4464   4459   4460
8   4491   4490   4485   4486   4466   4465   4460   4461
8   4492   4491   4486   4487   4467   4466   4461   4462
8   4493   4492   4487   4488   4468   4467   4462   4463
8   4494   3881   3875   4489   4469   3851   3845   4464
8   4495   4494   4489   4490   4470   4469   4464   4465
8   4496   4495   4490   4491   4471   4470   4465   4466
8   4497   4496   4491   4492   4472   4471   4466   4467
8   4498   4497   4492   4493   4473   4472   4467   4468
8   4499   3887   3881   4494   4474   3857   3851   4469
8   4500   4499   4494   4495   4475   4474   4469   4470
8   4501   4500   4495   4496   4476   4475   4470   4471
8   4502   4501   4496   4497   4477   4476   4471   4472
8   4503   4502   4497   4498   4478   4477   4472   4473
8   4504   3893   3887   4499   4479   3863   3857   4474
8   4505   4504   4499   4500   4480   4479   4474   4475
8   4506   4505   4500   4501   4481   4480   4475   4476
8   4507   4506   4501   4502   4482   4481   4476   4477
8   4508   4507   4502   4503   4483   4482   4477   4478
8   4509   3899    761   1494   4484   3869    725   1464
8   4510   4509   1494   1495   4485   4484   1464   1465
8   4511   4510   1495   1496   4486   4485   1465   1466
8   4512   4511   1496   1497   4487   4486   1466   1467
8   4513   4512   1497   1498   4488   4487   1467   1468
8   4514   3905   3899   4509   4489   3875   3869   4484
8   4515   4514   4509   4510   4490   4489   4484   4485
8   4516   4515   4510   4511   4491   4490   4485   4486
8   4517   4516   4511   4512   4492   4491   4486   4487
8   4518   4517   4512   4513   4493   4492   4487   4488
8   4519   3911   3905   4514   4494   3881   3875   4489
8   4520   4519   4514   4515   4495   4494   4489   4490
8   4521   4520   4515   4516   4496   4495   4490   4491
8   4522   4521   4516   4517   4497   4496   4491   4492
8   4523   4522   4517   4518   4498   4497   4492   4493
8   4524   3917   3911   4519   4499   3887   3881   4494
8   4525   4524   4519   4520   4500   4499   4494   4495
8   4526   4525   4520   4521   4501   4500   4495   4496
8   4527   4526   4521   4522   4502   4501   4496   4497
8   4528   4527   4522   4523   4503   4502   4497   4498
8   4529   3923   3917   4524   4504   3893   3887   4499
8   4530   4529   4524   4525   4505   4504   4499   4500
8   4531   4530   4525   4526   4506   4505   4500   4501
8   4532   4531   4526   4527   4507   4506   4501   4502
8   4533   4532   4527   4528   4508   4507   4502   4503
8   4534   3929    797   1524   4509   3899    761   1494
8   4535   4534   1524   1525   4510   4509   1494   1495
8   4536   4535   1525   1526   4511   4510   1495   1496
8   4537   4536   1526   1527   4512   4511   1496   1497
8   4538   4537   1527   1528   4513   4512   1497   1498
8   4539   3935   3929   4534   4514   3905   3899   4509
8   4540   4539   4534   4535   4515   4514   4509   4510
8   4541   4540   4535   4536   4516   4515   4510   4511
8   4542   4541   4536   4537   4517   4516   4511   4512
8   4543   4542   4537   4538   4518   4517   4512   4513
8   4544   3941   3935   4539   4519   3911   3905   4514
8   4545   4544   4539   4540   4520   4519   4514   4515
8   4546   4545   4540   4541   4521   4520   4515   4516
8   4547   4546   4541   4542   4522   4521   4516   4517
8   4548   4547   4542   4543   4523   4522   4517   4518
8   4549   3947   3941   4544   4524   3917   3911   4519
8   4550   4549   4544   4545   4525   4524   4519   4520
8   4551   4550   4545   4546   4526   4525   4520   4521
8   4552   4551   4546   4547   4527   4526   4521   4522
8   4553   4552   4547   4548   4528   4527   4522   4523
8   4554   3953   3947   4549   4529   3923   3917   4524
8   4555   4554   4549   4550   4530   4529   4524   4525
8   4556   4555   4550   4551   4531   4530   4525   4526
8   4557   4556   4551   4552   4532   4531   4526   4527
8   4558   4557   4552   4553   4533   4532   4527   4528
8   4559   3959    833   1554   4534   3929    797   1524
8   4560   4559   1554   1555   4535   4534   1524   1525
8   4561   4560   1555   1556   4536   4535   1525   1526
8   4562   4561   1556   1557   4537   4536   1526   1527
8   4563   4562   1557   1558   4538   4537   1527   1528
8   4564   3965   3959   4559   4539   3935   3929   4534
8   4565   4564   4559   4560   4540   4539   4534   4535
8   4566   4565   4560   4561   4541   4540   4535   4536
8   4567   4566   4561   4562   4542   4541   4536   4537
8   4568   4567   4562   4563   4543   4542   4537   4538
8   4569   3971   3965   4564   4544   3941   3935   4539
8   4570   4569   4564   4565   4545   4544   4539   4540
8   4571   4570   4565   4566   4546   4545   4540   4541
8   4572   4571   4566   4567   4547   4546   4541   4542
8   4573   4572   4567   4568   4548   4547   4542   4543
8   4574   3977   3971   4569   4549   3947   3941   4544
8   4575   4574   4569   4570   4550   4549   4544   4545
8   4576   4575   4570   4571   4551   4550   4545   4546
8   4577   4576   4571   4572   4552   4551   4546   4547
8   4578   4577   4572   4573   4553   4552   4547   4548
8   4579   3983   3977   4574   4554   3953   3947   4549
8   4580   4579   4574   4575   4555   4554   4549   4550
8   4581   4580   4575   4576   4556   4555   4550   4551
8   4582   4581   4576   4577   4557   4556   4551   4552
8   4583   4582   4577   4578   4558   4557   4552   4553
8   4609   4013    898   1614   4584   3988    868   1584
8   4610   4609   1614   1615   4585   4584   1584   1585
8   4611   4610   1615   1616   4586   4585   1585   1586
8   4612   4611   1616   1617   4587   4586   1586   1587
8   4613   4612   1617   1618   4588   4587   1587   1588
8   4614   4018   4013   4609   4589   3993   3988   4584
8   4615   4614   4609   4610   4590   4589   4584   4585
8   4616   4615   4610   4611   4591   4590   4585   4586
8   4617   4616   4611   4612   4592   4591   4586   4587
8   4618   4617   4612   4613   4593   4592   4587   4588
8   4619   4023   4018   4614   4594   3998   3993   4589
8   4620   4619   4614   4615   4595   4594   4589   4590
8   4621   4620   4615   4616   4596   4595   4590   4591
8   4622   4621   4616   4617   4597   4596   4591   4592
8   4623   4622   4617   4618   4598   4597   4592   4593
8   4624   4028   4023   4619   4599   4003   3998   4594
8   4625   4624   4619   4620   4600   4599   4594   4595
8   4626   4625   4620   4621   4601   4600   4595   4596
8   4627   4626   4621   4622   4602   4601   4596   4597
8   4628   4627   4622   4623   4603   4602   4597   4598
8   4629   4033   4028   4624   4604   4008   4003   4599
8   4630   4629   4624   4625   4605   4604   4599   4600
8   4631   4630   4625   4626   4606   4605   4600   4601
8   4632   4631   4626   4627   4607   4606   4601   4602
8   4633   4632   4627   4628   4608   4607   4602   4603
8   4634   4038    928   1644   4609   4013    898   1614
8   4635   4634   1644   1645   4610   4609   1614   1615
8   4636   4635   1645   1646   4611   4610   1615   1616
8   4637   4636   1646   1647   4612   4611   1616   1617
8   4638   4637   1647   1648   4613   4612   1617   1618
8   4639   4043   4038   4634   4614   4018   4013   4609
8   4640   4639   4634   4635   4615   4614   4609   4610
8   4641   4640   4635   4636   4616   4615   4610   4611
8   4642   4641   4636   4637   4617   4616   4611   4612
8   4643   4642   4637   4638   4618   4617   4612   4613
8   4644   4048   4043   4639   4619   4023   4018   4614
8   4645   4644   4639   4640   4620   4619   4614   4615
8   4646   4645   4640   4641   4621   4620   4615   4616
8   4647   4646   4641   4642   4622   4621   4616   4617
8   4648   4647   4642   4643   4623   4622   4617   4618
8   4649   4053   4048   4644   4624   4028   4023   4619
8   4650   4649   4644   4645   4625   4624   4619   4620
8   4651   4650   4645   4646   4626   4625   4620   4621
8   4652   4651   4646   4647   4627   4626   4621   4622
8   4653   4652   4647   4648   4628   4627   4622   4623
8   4654   4058   4053   4649   4629   4033   4028   4624
8   4655   4654   4649   4650   4630   4629   4624   4625
8   4656   4655   4650   4651   4631   4630   4625   4626
8   4657   4656   4651   4652   4632   4631   4626   4627
8   4658   4657   4652   4653   4633   4632   4627   4628
8   4659   4063    958   1674   4634   4038    928   1644
8   4660   4659   1674   1675   4635   4634   1644   1645
8   4661   4660   1675   1676   4636   4635   1645   1646
8   4662   4661   1676   1677   4637   4636   1646   1647
8   4663   4662   1677   1678   4638   4637   1647   1648
8   4664   4068   4063   4659   4639   4043   4038   4634
8   4665   4664   4659   4660   4640   4639   4634   4635
8   4666   4665   4660   4661   4641   4640   4635   4636
8   4667   4666   4661   4662   4642   4641   4636   4637
8   4668   4667   4662   4663   4643   4642   4637   4638
8   4669   4073   4068   4664   4644   4048   4043   4639
8   4670   4669   4664   4665   4645   4644   4639   4640
8   4671   4670   4665   4666   4646   4645   4640   4641
8   4672   4671   4666   4667   4647   4646   4641   4642
8   4673   4672   4667   4668   4648   4647   4642   4643
8   4674   4078   4073   4669   4649   4053   4048   4644
8   4675   4674   4669   4670   4650   4649   4644   4645
8   4676   4675   4670   4671   4651   4650   4645   4646
8   4677   4676   4671   4672   4652   4651   4646   4647
8   4678   4677   4672   4673   4653   4652   4647   4648
8   4679   4083   4078   4674   4654   4058   4053   4649
8   4680   4679   4674   4675   4655   4654   4649   4650
8   4681   4680   4675   4676   4656   4655   4650   4651
8   4682   4681   4676   4677   4657   4656   4651   4652
8   4683   4682   4677   4678   4658   4657   4652   4653
8   4684   4088    988   1704   4659   4063    958   1674
8   4685   4684   1704   1705   4660   4659   1674   1675
8   4686   4685   1705   1706   4661   4660   1675   1676
8   4687   4686   1706   1707   4662   4661   1676   1677
8   4688   4687   1707   1708   4663   4662   1677   1678
8   4689   4093   4088   4684   4664   4068   4063   4659
8   4690   4689   4684   4685   4665   4664   4659   4660
8   4691   4690   4685   4686   4666   4665   4660   4661
8   4692   4691   4686   4687   4667   4666   4661   4662
8   4693   4692   4687   4688   4668   4667   4662   4663
8   4694   4098   4093   4689   4669   4073   4068   4664
8   4695   4694   4689   4690   4670   4669   4664   4665
8   4696   4695   4690   4691   4671   4670   4665   4666
8   4697   4696   4691   4692   4672   4671   4666   4667
8   4698   4697   4692   4693   4673   4672   4667   4668
8   4699   4103   4098   4694   4674   4078   4073   4669
8   4700   4699   4694   4695   4675   4674   4669   4670
8   4701   4700   4695   4696   4676   4675   4670   4671
8   4702   4701   4696   4697   4677   4676   4671   4672
8   4703   4702   4697   4698   4678   4677   4672   4673
8   4704   4108   4103   4699   4679   4083   4078   4674
8   4705   4704   4699   4700   4680   4679   4674   4675
8   4706   4705   4700   4701   4681   4680   4675   4676
8   4707   4706   4701   4702   4682   4681   4676   4677
8   4708   4707   4702   4703   4683   4682   4677   4678
8   4709   4113   1018   1734   4684   4088    988   1704
8   4710   4709   1734   1735   4685   4684   1704   1705
8   4711   4710   1735   1736   4686   4685   1705   1706
8   4712   4711   1736   1737   4687   4686   1706   1707
8   4713   4712   1737   1738   4688   4687   1707   1708
8   4714   4118   4113   4709   4689   4093   4088   4684
8   4715   4714   4709   4710   4690   4689   4684   4685
8   4716   4715   4710   4711   4691   4690   4685   4686
8   4717   4716   4711   4712   4692   4691   4686   4687
8   4718   4717   4712   4713   4693   4692   4687   4688
8   4719   4123   4118   4714   4694   4098   4093   4689
8   4720   4719   4714   4715   4695   4694   4689   4690
8   4721   4720   4715   4716   4696   4695   4690   4691
8   4722   4721   4716   4717   4697   4696   4691   4692
8   4723   4722   4717   4718   4698   4697   4692   4693
8   4724   4128   4123   4719   4699   4103   4098   4694
8   4725   4724   4719   4720   4700   4699   4694   4695
8   4726   4725   4720   4721   4701   4700   4695   4696
8   4727   4726   4721   4722   4702   4701   4696   4697
8   4728   4727   4722   4723   4703   4702   4697   4698
8   4729   4133   4128   4724   4704   4108   4103   4699
8   4730   4729   4724   4725   4705   4704   4699   4700
8   4731   4730   4725   4726   4706   4705   4700   4701
8   4732   4731   4726   4727   4707   4706   4701   4702
8   4733   4732   4727   4728   4708   4707   4702   4703
8   4734   4138   1048   1764   4709   4113   1018   1734
8   4735   4734   1764   1765   4710   4709   1734   1735
8   4736   4735   1765   1766   4711   4710   1735   1736
8   4737   4736   1766   1767   4712   4711   1736   1737
8   4738   4737   1767   1768   4713   4712   1737   1738
8   4739   4143   4138   4734   4714   4118   4113   4709
8   4740   4739   4734   4735   4715   4714   4709   4710
8   4741   4740   4735   4736   4716   4715   4710   4711
8   4742   4741   4736   4737   4717   4716   4711   4712
8   4743   4742   4737   4738   4718   4717   4712   4713
8   4744   4148   4143   4739   4719   4123   4118   4714
8   4745   4744   4739   4740   4720   4719   4714   4715
8   4746   4745   4740   4741   4721   4720   4715   4716
8   4747   4746   4741   4742   4722   4721   4716   4717
8   4748   4747   4742   4743   4723   4722   4717   4718
8   4749   4153   4148   4744   4724   4128   4123   4719
8   4750   4749   4744   4745   4725   4724   4719   4720
8   4751   4750   4745   4746   4726   4725   4720   4721
8   4752   4751   4746   4747   4727   4726   4721   4722
8   4753   4752   4747   4748   4728   4727   4722   4723
8   4754   4158   4153   4749   4729   4133   4128   4724
8   4755   4754   4749   4750   4730   4729   4724   4725
8   4756   4755   4750   4751   4731   4730   4725   4726
8   4757   4756   4751   4752   4732   4731   4726   4727
8   4758   4757   4752   4753   4733   4732   4727   4728
8   4759   4163   1078   1794   4734   4138   1048   1764
8   4760   4759   1794   1795   4735   4734   1764   1765
8   4761   4760   1795   1796   4736   4735   1765   1766
8   4762   4761   1796   1797   4737   4736   1766   1767
8   4763   4762   1797   1798   4738   4737   1767   1768
8   4764   4168   4163   4759   4739   4143   4138   4734
8   4765   4764   4759   4760   4740   4739   4734   4735
8   4766   4765   4760   4761   4741   4740   4735   4736
8   4767   4766   4761   4762   4742   4741   4736   4737
8   4768   4767   4762   4763   4743   4742   4737   4738
8   4769   4173   4168   4764   4744   4148   4143   4739
8   4770   4769   4764   4765   4745   4744   4739   4740
8   4771   4770   4765   4766   4746   4745   4740   4741
8   4772   4771   4766   4767   4747   4746   4741   4742
8   4773   4772   4767   4768   4748   4747   4742   4743
8   4774   4178   4173   4769   4749   4153   4148   4744
8   4775   4774   4769   4770   4750   4749   4744   4745
8   4776   4775   4770   4771   4751   4750   4745   4746
8   4777   4776   4771   4772   4752   4751   4746   4747
8   4778   4777   4772   4773   4753   4752   4747   4748
8   4779   4183   4178   4774   4754   4158   4153   4749
8   4780   4779   4774   4775   4755   4754   4749   4750
8   4781   4780   4775   4776   4756   4755   4750   4751
8   4782   4781   4776   4777   4757   4756   4751   4752
8   4783   4782   4777   4778   4758   4757   4752   4753
8   4784   4188   1108   1824   4759   4163   1078   1794
8   4785   4784   1824   1825   4760   4759   1794   1795
8   4786   4785   1825   1826   4761   4760   1795   1796
8   4787   4786   1826   1827   4762   4761   1796   1797
8   4788   4787   1827   1828   4763   4762   1797   1798
8   4789   4193   4188   4784   4764   4168   4163   4759
8   4790   4789   4784   4785   4765   4764   4759   4760
8   4791   4790   4785   4786   4766   4765   4760   4761
8   4792   4791   4786   4787   4767   4766   4761   4762
8   4793   4792   4787   4788   4768   4767   4762   4763
8   4794   4198   4193   4789   4769   4173   4168   4764
8   4795   4794   4789   4790   4770   4769   4764   4765
8   4796   4795   4790   4791   4771   4770   4765   4766
8   4797   4796   4791   4792   4772   4771   4766   4767
8   4798   4797   4792   4793   4773   4772   4767   4768
8   4799   4203   4198   4794   4774   4178   4173   4769
8   4800   4799   4794   4795   4775   4774   4769   4770
8   4801   4800   4795   4796   4776   4775   4770   4771
8   4802   4801   4796   4797   4777   4776   4771   4772
8   4803   4802   4797   4798   4778   4777   4772   4773
8   4804   4208   4203   4799   4779   4183   4178   4774
8   4805   4804   4799   4800   4780   4779   4774   4775
8   4806   4805   4800   4801   4781   4780   4775   4776
8   4807   4806   4801   4802   4782   4781   4776   4777
8   4808   4807   4802   4803   4783   4782   4777   4778
8   4809   4213   1138   1854   4784   4188   1108   1824
8   4810   4809   1854   1855   4785   4784   1824   1825
8   4811   4810   1855   1856   4786   4785   1825   1826
8   4812   4811   1856   1857   4787   4786   1826   1827
8   4813   4812   1857   1858   4788   4787   1827   1828
8   4814   4218   4213   4809   4789   4193   4188   4784
8   4815   4814   4809   4810   4790   4789   4784   4785
8   4816   4815   4810   4811   4791   4790   4785   4786
8   4817   4816   4811   4812   4792   4791   4786   4787
8   4818   4817   4812   4813   4793   4792   4787   4788
8   4819   4223   4218   4814   4794   4198   4193   4789
8   4820   4819   4814   4815   4795   4794   4789   4790
8   4821   4820   4815   4816   4796   4795   4790   4791
8   4822   4821   4816   4817   4797   4796   4791   4792
8   4823   4822   4817   4818   4798   4797   4792   4793
8   4824   4228   4223   4819   4799   4203   4198   4794
8   4825   4824   4819   4820   4800   4799   4794   4795
8   4826   4825   4820   4821   4801   4800   4795   4796
8   4827   4826   4821   4822   4802   4801   4796   4797
8   4828   4827   4822   4823   4803   4802   4797   4798
8   4829   4233   4228   4824   4804   4208   4203   4799
8   4830   4829   4824   4825   4805   4804   4799   4800
8   4831   4830   4825   4826   4806   4805   4800   4801
8   4832   4831   4826   4827   4807   4806   4801   4802
8   4833   4832   4827   4828   4808   4807   4802   4803
8   4834   4238   1168   1884   4809   4213   1138   1854
8   4835   4834   1884   1885   4810   4809   1854   1855
8   4836   4835   1885   1886   4811   4810   1855   1856
8   4837   4836   1886   1887   4812   4811   1856   1857
8   4838   4837   1887   1888   4813   4812   1857   1858
8   4839   4243   4238   4834   4814   4218   4213   4809
8   4840   4839   4834   4835   4815   4814   4809   4810
8   4841   4840   4835   4836   4816   4815   4810   4811
8   4842   4841   4836   4837   4817   4816   4811   4812
8   4843   4842   4837   4838   4818   4817   4812   4813
8   4844   4248   4243   4839   4819   4223   4218   4814
8   4845   4844   4839   4840   4820   4819   4814   4815
8   4846   4845   4840   4841   4821   4820   4815   4816
8   4847   4846   4841   4842   4822   4821   4816   4817
8   4848   4847   4842   4843   4823   4822   4817   4818
8   4849   4253   4248   4844   4824   4228   4223   4819
8   4850   4849   4844   4845   4825   4824   4819   4820
8   4851   4850   4845   4846   4826   4825   4820   4821
8   4852   4851   4846   4847   4827   4826   4821   4822
8   4853   4852   4847   4848   4828   4827   4822   4823
8   4854   4258   4253   4849   4829   4233   4228   4824
8   4855   4854   4849   4850   4830   4829   4824   4825
8   4856   4855   4850   4851   4831   4830   4825   4826
8   4857   4856   4851   4852   4832   4831   4826   4827
8   4858   4857   4852   4853   4833   4832   4827   4828
8   4859   4263   1198   1914   4834   4238   1168   1884
8   4860   4859   1914   1915   4835   4834   1884   1885
8   4861   4860   1915   1916   4836   4835   1885   1886
8   4862   4861   1916   1917   4837   4836   1886   1887
8   4863   4862   1917   1918   4838   4837   1887   1888
8   4864   4268   4263   4859   4839   4243   4238   4834
8   4865   4864   4859   4860   4840   4839   4834   4835
8   4866   4865   4860   4861   4841   4840   4835   4836
8   4867   4866   4861   4862   4842   4841   4836   4837
8   4868   4867   4862   4863   4843   4842   4837   4838
8   4869   4273   4268   4864   4844   4248   4243   4839
8   4870   4869   4864   4865   4845   4844   4839   4840
8   4871   4870   4865   4866   4846   4845   4840   4841
8   4872   4871   4866   4867   4847   4846   4841   4842
8   4873   4872   4867   4868   4848   4847   4842   4843
8   4874   4278   4273   4869   4849   4253   4248   4844
8   4875   4874   4869   4870   4850   4849   4844   4845
8   4876   4875   4870   4871   4851   4850   4845   4846
8   4877   4876   4871   4872   4852   4851   4846   4847
8   4878   4877   4872   4873   4853   4852   4847   4848
8   4879   4283   4278   4874   4854   4258   4253   4849
8   4880   4879   4874   4875   4855   4854   4849   4850
8   4881   4880   4875   4876   4856   4855   4850   4851
8   4882   4881   4876   4877   4857   4856   4851   4852
8   4883   4882   4877   4878   4858   4857   4852   4853
8   4884   4288   1228   1944   4859   4263   1198   1914
8   4885   4884   1944   1945   4860   4859   1914   1915
8   4886   4885   1945   1946   4861   4860   1915   1916
8   4887   4886   1946   1947   4862   4861   1916   1917
8   4888   4887   1947   1948   4863   4862   1917   1918
8   4889   4293   4288   4884   4864   4268   4263   4859
8   4890   4889   4884   4885   4865   4864   4859   4860
8   4891   4890   4885   4886   4866   4865   4860   4861
8   4892   4891   4886   4887   4867   4866   4861   4862
8   4893   4892   4887   4888   4868   4867   4862   4863
8   4894   4298   4293   4889   4869   4273   4268   4864
8   4895   4894   4889   4890   4870   4869   4864   4865
8   4896   4895   4890   4891   4871   4870   4865   4866
8   4897   4896   4891   4892   4872   4871   4866   4867
8   4898   4897   4892   4893   4873   4872   4867   4868
8   4899   4303   4298   4894   4874   4278   4273   4869
8   4900   4899   4894   4895   4875   4874   4869   4870
8   4901   4900   4895   4896   4876   4875   4870   4871
8   4902   4901   4896   4897   4877   4876   4871   4872
8   4903   4902   4897   4898   4878   4877   4872   4873
8   4904   4308   4303   4899   4879   4283   4278   4874
8   4905   4904   4899   4900   4880   4879   4874   4875
8   4906   4905   4900   4901   4881   4880   4875   4876
8   4907   4906   4901   4902   4882   4881   4876   4877
8   4908   4907   4902   4903   4883   4882   4877   4878
8   4909   4313   1258   1974   4884   4288   1228   1944
8   4910   4909   1974   1975   4885   4884   1944   1945
8   4911   4910   1975   1976   4886   4885   1945   1946
8   4912   4911   1976   1977   4887   4886   1946   1947
8   4913   4912   1977   1978   4888   4887   1947   1948
8   4914   4318   4313   4909   4889   4293   4288   4884
8   4915   4914   4909   4910   4890   4889   4884   4885
8   4916   4915   4910   4911   4891   4890   4885   4886
8   4917   4916   4911   4912   4892   4891   4886   4887
8   4918   4917   4912   4913   4893   4892   4887   4888
8   4919   4323   4318   4914   4894   4298   4293   4889
8   4920   4919   4914   4915   4895   4894   4889   4890
8   4921   4920   4915   4916   4896   4895   4890   4891
8   4922   4921   4916   4917   4897   4896   4891   4892
8   4923   4922   4917   4918   4898   4897   4892   4893
8   4924   4328   4323   4919   4899   4303   4298   4894
8   4925   4924   4919   4920   4900   4899   4894   4895
8   4926   4925   4920   4921   4901   4900   4895   4896
8   4927   4926   4921   4922   4902   4901   4896   4897
8   4928   4927   4922   4923   4903   4902   4897   4898
8   4929   4333   4328   4924   4904   4308   4303   4899
8   4930   4929   4924   4925   4905   4904   4899   4900
8   4931   4930   4925   4926   4906   4905   4900   4901
8   4932   4931   4926   4927   4907   4906   4901   4902
8   4933   4932   4927   4928   4908   4907   4902   4903
8   4934   4338   1288   2004   4909   4313   1258   1974
8   4935   4934   2004   2005   4910   4909   1974   1975
8   4936   4935   2005   2006   4911   4910   1975   1976
8   4937   4936   2006   2007   4912   4911   1976   1977
8   4938   4937   2007   2008   4913   4912   1977   1978
8   4939   4343   4338   4934   4914   4318   4313   4909
8   4940   4939   4934   4935   4915   4914   4909   4910
8   4941   4940   4935   4936   4916   4915   4910   4911
8   4942   4941   4936   4937   4917   4916   4911   4912
8   4943   4942   4937   4938   4918   4917   4912   4913
8   4944   4348   4343   4939   4919   4323   4318   4914
8   4945   4944   4939   4940   4920   4919   4914   4915
8   4946   4945   4940   4941   4921   4920   4915   4916
8   4947   4946   4941   4942   4922   4921   4916   4917
8   4948   4947   4942   4943   4923   4922   4917   4918
8   4949   4353   4348   4944   4924   4328   4323   4919
8   4950   4949   4944   4945   4925   4924   4919   4920
8   4951   4950   4945   4946   4926   4925   4920   4921
8   4952   4951   4946   4947   4927   4926   4921   4922
8   4953   4952   4947   4948   4928   4927   4922   4923
8   4954   4358   4353   4949   4929   4333   4328   4924
8   4955   4954   4949   4950   4930   4929   4924   4925
8   4956   4955   4950   4951   4931   4930   4925   4926
8   4957   4956   4951   4952   4932   4931   4926   4927
8   4958   4957   4952   4953   4933   4932   4927   4928
8   4959   4363   1318   2034   4934   4338   1288   2004
8   4960   4959   2034   2035   4935   4934   2004   2005
8   4961   4960   2035   2036   4936   4935   2005   2006
8   4962   4961   2036   2037   4937   4936   2006   2007
8   4963   4962   2037   2038   4938   4937   2007   2008
8   4964   4368   4363   4959   4939   4343   4338   4934
8   4965   4964   4959   4960   4940   4939   4934   4935
8   4966   4965   4960   4961   4941   4940   4935   4936
8   4967   4966   4961   4962   4942   4941   4936   4937
8   4968   4967   4962   4963   4943   4942   4937   4938
8   4969   4373   4368   4964   4944   4348   4343   4939
8   4970   4969   4964   4965   4945   4944   4939   4940
8   4971   4970   4965   4966   4946   4945   4940   4941
8   4972   4971   4966   4967   4947   4946   4941   4942
8   4973   4972   4967   4968   4948   4947   4942   4943
8   4974   4378   4373   4969   4949   4353   4348   4944
8   4975   4974   4969   4970   4950   4949   4944   4945
8   4976   4975   4970   4971   4951   4950   4945   4946
8   4977   4976   4971   4972   4952   4951   4946   4947
8   4978   4977   4972   4973   4953   4952   4947   4948
8   4979   4383   4378   4974   4954   4358   4353   4949
8   4980   4979   4974   4975   4955   4954   4949   4950
8   4981   4980   4975   4976   4956   4955   4950   4951
8   4982   4981   4976   4977   4957   4956   4951   4952
8   4983   4982   4977   4978   4958   4957   4952   4953
8   4984   4388   1348   2064   4959   4363   1318   2034
8   4985   4984   2064   2065   4960   4959   2034   2035
8   4986   4985   2065   2066   4961   4960   2035   2036
8   4987   4986   2066   2067   4962   4961   2036   2037
8   4988   4987   2067   2068   4963   4962   2037   2038
8   4989   4393   4388   4984   4964   4368   4363   4959
8   4990   4989   4984   4985   4965   4964   4959   4960
8   4991   4990   4985   4986   4966   4965   4960   4961
8   4992   4991   4986   4987   4967   4966   4961   4962
8   4993   4992   4987   4988   4968   4967   4962   4963
8   4994   4398   4393   4989   4969   4373   4368   4964
8   4995   4994   4989   4990   4970   4969   4964   4965
8   4996   4995   4990   4991   4971   4970   4965   4966
8   4997   4996   4991   4992   4972   4971   4966   4967
8   4998   4997   4992   4993   4973   4972   4967   4968
8   4999   4403   4398   4994   4974   4378   4373   4969
8   5000   4999   4994   4995   4975   4974   4969   4970
8   5001   5000   4995   4996   4976   4975   4970   4971
8   5002   5001   4996   4997   4977   4976   4971   4972
8   5003   5002   4997   4998   4978   4977   4972   4973
8   5004   4408   4403   4999   4979   4383   4378   4974
8   5005   5004   4999   5000   4980   4979   4974   4975
8   5006   5005   5000   5001   4981   4980   4975   4976
8   5007   5006   5001   5002   4982   4981   4976   4977
8   5008   5007   5002   5003   4983   4982   4977   4978
8   5009   4413   1378   2094   4984   4388   1348   2064
8   5010   5009   2094   2095   4985   4984   2064   2065
8   5011   5010   2095   2096   4986   4985   2065   2066
8   5012   5011   2096   2097   4987   4986   2066   2067
8   5013   5012   2097   2098   4988   4987   2067   2068
8   5014   4418   4413   5009   4989   4393   4388   4984
8   5015   5014   5009   5010   4990   4989   4984   4985
8   5016   5015   5010   5011   4991   4990   4985   4986
8   5017   5016   5011   5012   4992   4991   4986   4987
8   5018   5017   5012   5013   4993   4992   4987   4988
8   5019   4423   4418   5014   4994   4398   4393   4989
8   5020   5019   5014   5015   4995   4994   4989   4990
8   5021   5020   5015   5016   4996   4995   4990   4991
8   5022   5021   5016   5017   4997   4996   4991   4992
8   5023   5022   5017   5018   4998   4997   4992   4993
8   5024   4428   4423   5019   4999   4403   4398   4994
8   5025   5024   5019   5020   5000   4999   4994   4995
8   5026   5025   5020   5021   5001   5000   4995   4996
8   5027   5026   5021   5022   5002   5001   4996   4997
8   5028   5027   5022   5023   5003   5002   4997   4998
8   5029   4433   4428   5024   5004   4408   4403   4999
8   5030   5029   5024   5025   5005   5004   4999   5000
8   5031   5030   5025   5026   5006   5005   5000   5001
8   5032   5031   5026   5027   5007   5006   5001   5002
8   5033   5032   5027   5028   5008   5007   5002   5003
8   5034   4438   1408   2124   5009   4413   1378   2094
8   5035   5034   2124   2125   5010   5009   2094   2095
8   5036   5035   2125   2126   5011   5010   2095   2096
8   5037   5036   2126   2127   5012   5011   2096   2097
8   5038   5037   2127   2128   5013   5012   2097   2098
8   5039   4443   4438   5034   5014   4418   4413   5009
8   5040   5039   5034   5035   5015   5014   5009   5010
8   5041   5040   5035   5036   5016   5015   5010   5011
8   5042   5041   5036   5037   5017   5016   5011   5012
8   5043   5042   5037   5038   5018   5017   5012   5013
8   5044   4448   4443   5039   5019   4423   4418   5014
8   5045   5044   5039   5040   5020   5019   5014   5015
8   5046   5045   5040   5041   5021   5020   5015   5016
8   5047   5046   5041   5042   5022   5021   5016   5017
8   5048   5047   5042   5043   5023   5022   5017   5018
8   5049   4453   4448   5044   5024   4428   4423   5019
8   5050   5049   5044   5045   5025   5024   5019   5020
8   5051   5050   5045   5046   5026   5025   5020   5021
8   5052   5051   5046   5047   5027   5026   5021   5022
8   5053   5052   5047   5048   5028   5027   5022   5023
8   5054   4458   4453   5049   5029   4433   4428   5024
8   5055   5054   5049   5050   5030   5029   5024   5025
8   5056   5055   5050   5051   5031   5030   5025   5026
8   5057   5056   5051   5052   5032   5031   5026   5027
8   5058   5057   5052   5053   5033   5032   5027   5028
8   5059   4463   1438   2154   5034   4438   1408   2124
8   5060   5059   2154   2155   5035   5034   2124   2125
8   5061   5060   2155   2156   5036   5035   2125   2126
8   5062   5061   2156   2157   5037   5036   2126   2127
8   5063   5062   2157   2158   5038   5037   2127   2128
8   5064   4468   4463   5059   5039   4443   4438   5034
8   5065   5064   5059   5060   5040   5039   5034   5035
8   5066   5065   5060   5061   5041   5040   5035   5036
8   5067   5066   5061   5062   5042   5041   5036   5037
8   5068   5067   5062   5063   5043   5042   5037   5038
8   5069   4473   4468   5064   5044   4448   4443   5039
8   5070   5069   5064   5065   5045   5044   5039   5040
8   5071   5070   5065   5066   5046   5045   5040   5041
8   5072   5071   5066   5067   5047   5046   5041   5042
8   5073   5072   5067   5068   5048   5047   5042   5043
8   5074   4478   4473   5069   5049   4453   4448   5044
8   5075   5074   5069   5070   5050   5049   5044   5045
8   5076   5075   5070   5071   5051   5050   5045   5046
8   5077   5076   5071   5072   5052   5051   5046   5047
8   5078   5077   5072   5073   5053   5052   5047   5048
8   5079   4483   4478   5074   5054   4458   4453   5049
8   5080   5079   5074   5075   5055   5054   5049   5050
8   5081   5080   5075   5076   5056   5055   5050   5051
8   5082   5081   5076   5077   5057   5056   5051   5052
8   5083   5082   5077   5078   5058   5057   5052   5053
8   5084   4488   1468   2184   5059   4463   1438   2154
8   5085   5084   2184   2185   5060   5059   2154   2155
8   5086   5085   2185   2186   5061   5060   2155   2156
8   5087   5086   2186   2187   5062   5061   2156   2157
8   5088   5087   2187   2188   5063   5062   2157   2158
8   5089   4493   4488   5084   5064   4468   4463   5059
8   5090   5089   5084   5085   5065   5064   5059   5060
8   5091   5090   5085   5086   5066   5065   5060   5061
8   5092   5091   5086   5087   5067   5066   5061   5062
8   5093   5092   5087   5088   5068   5067   5062   5063
8   5094   4498   4493   5089   5069   4473   4468   5064
8   5095   5094   5089   5090   5070   5069   5064   5065
8   5096   5095   5090   5091   5071   5070   5065   5066
8   5097   5096   5091   5092   5072   5071   5066   5067
8   5098   5097   5092   5093   5073   5072   5067   5068
8   5099   4503   4498   5094   5074   4478   4473   5069
8   5100   5099   5094   5095   5075   5074   5069   5070
8   5101   5100   5095   5096   5076   5075   5070   5071
8   5102   5101   5096   5097   5077   5076   5071   5072
8   5103   5102   5097   5098   5078   5077   5072   5073
8   5104   4508   4503   5099   5079   4483   4478   5074
8   5105   5104   5099   5100   5080   5079   5074   5075
8   5106   5105   5100   5101   5081   5080   5075   5076
8   5107   5106   5101   5102   5082   5081   5076   5077
8   5108   5107   5102   5103   5083   5082   5077   5078
8   5109   4513   1498   2214   5084   4488   1468   2184
8   5110   5109   2214   2215   5085   5084   2184   2185
8   5111   5110   2215   2216   5086   5085   2185   2186
8   5112   5111   2216   2217   5087   5086   2186   2187
8   5113   5112   2217   2218   5088   5087   2187   2188
8   5114   4518   4513   5109   5089   4493   4488   5084
8   5115   5114   5109   5110   5090   5089   5084   5085
8   5116   5115   5110   5111   5091   5090   5085   5086
8   5117   5116   5111   5112   5092   5091   5086   5087
8   5118   5117   5112   5113   5093   5092   5087   5088
8   5119   4523   4518   5114   5094   4498   4493   5089
8   5120   5119   5114   5115   5095   5094   5089   5090
8   5121   5120   5115   5116   5096   5095   5090   5091
8   5122   5121   5116   5117   5097   5096   5091   5092
8   5123   5122   5117   5118   5098   5097   5092   5093
8   5124   4528   4523   5119   5099   4503   4498   5094
8   5125   5124   5119   5120   5100   5099   5094   5095
8   5126   5125   5120   5121   5101   5100   5095   5096
8   5127   5126   5121   5122   5102   5101   5096   5097
8   5128   5127   5122   5123   5103   5102   5097   5098
8   5129   4533   4528   5124   5104   4508   4503   5099
8   5130   5129   5124   5125   5105   5104   5099   5100
8   5131   5130   5125   5126   5106   5105   5100   5101
8   5132   5131   5126   5127   5107   5106   5101   5102
8   5133   5132   5127   5128   5108   5107   5102   5103
8   5134   4538   1528   2244   5109   4513   1498   2214
8   5135   5134   2244   2245   5110   5109   2214   2215
8   5136   5135   2245   2246   5111   5110   2215   2216
8   5137   5136   2246   2247   5112   5111   2216   2217
8   5138   5137   2247   2248   5113   5112   2217   2218
8   5139   4543   4538   5134   5114   4518   4513   5109
8   5140   5139   5134   5135   5115   5114   5109   5110
8   5141   5140   5135   5136   5116   5115   5110   5111
8   5142   5141   5136   5137   5117   5116   5111   5112
8   5143   5142   5137   5138   5118   5117   5112   5113
8   5144   4548   4543   5139   5119   4523   4518   5114
8   5145   5144   5139   5140   5120   5119   5114   5115
8   5146   5145   5140   5141   5121   5120   5115   5116
8   5147   5146   5141   5142   5122   5121   5116   5117
8   5148   5147   5142   5143   5123   5122   5117   5118
8   5149   4553   4548   5144   5124   4528   4523   5119
8   5150   5149   5144   5145   5125   5124   5119   5120
8   5151   5150   5145   5146   5126   5125   5120   5121
8   5152   5151   5146   5147   5127   5126   5121   5122
8   5153   5152   5147   5148   5128   5127   5122   5123
8   5154   4558   4553   5149   5129   4533   4528   5124
8   5155   5154   5149   5150   5130   5129   5124   5125
8   5156   5155   5150   5151   5131   5130   5125   5126
8   5157   5156   5151   5152   5132   5131   5126   5127
8   5158   5157   5152   5153   5133   5132   5127   5128
8   5159   4563   1558   2274   5134   4538   1528   2244
8   5160   5159   2274   2275   5135   5134   2244   2245
8   5161   5160   2275   2276   5136   5135   2245   2246
8   5162   5161   2276   2277   5137   5136   2246   2247
8   5163   5162   2277   2278   5138   5137   2247   2248
8   5164   4568   4563   5159   5139   4543   4538   5134
8   5165   5164   5159   5160   5140   5139   5134   5135
8   5166   5165   5160   5161   5141   5140   5135   5136
8   5167   5166   5161   5162   5142   5141   5136   5137
8   5168   5167   5162   5163   5143   5142   5137   5138
8   5169   4573   4568   5164   5144   4548   4543   5139
8   5170   5169   5164   5165   5145   5144   5139   5140
8   5171   5170   5165   5166   5146   5145   5140   5141
8   5172   5171   5166   5167   5147   5146   5141   5142
8   5173   5172   5167   5168   5148   5147   5142   5143
8   5174   4578   4573   5169   5149   4553   4548   5144
8   5175   5174   5169   5170   5150   5149   5144   5145
8   5176   5175   5170   5171   5151   5150   5145   5146
8   5177   5176   5171   5172   5152   5151   5146   5147
8   5178   5177   5172   5173   5153   5152   5147   5148
8   5179   4583   4578   5174   5154   4558   4553   5149
8   5180   5179   5174   5175   5155   5154   5149   5150
8   5181   5180   5175   5176   5156   5155   5150   5151
8   5182   5181   5176   5177   5157   5156   5151   5152
8   5183   5182   5177   5178   5158   5157   5152   5153
8   5204   4613   1618   2328   5184   4588   1588   2304
8   5205   5204   2328   2329   5185   5184   2304   2305
8   5206   5205   2329   2330   5186   5185   2305   2306
8   5207   5206   2330   2331   5187   5186   2306   2307
8   3294   5207   2331     36   3264   5187   2307      0
8   5208   4618   4613   5204   5188   4593   4588   5184
8   5209   5208   5204   5205   5189   5188   5184   5185
8   5210   5209   5205   5206   5190   5189   5185   5186
8   5211   5210   5206   5207   5191   5190   5186   5187
8   3300   5211   5207   3294   3270   5191   5187   3264
8   5212   4623   4618   5208   5192   4598   4593   5188
8   5213   5212   5208   5209   5193   5192   5188   5189
8   5214   5213   5209   5210   5194   5193   5189   5190
8   5215   5214   5210   5211   5195   5194   5190   5191
8   3306   5215   5211   3300   3276   5195   5191   3270
8   5216   4628   4623   5212   5196   4603   4598   5192
8   5217   5216   5212   5213   5197   5196   5192   5193
8   5218   5217   5213   5214   5198   5197   5193   5194
8   5219   5218   5214   5215   5199   5198   5194   5195
8   3312   5219   5215   3306   3282   5199   5195   3276
8   5220   4633   4628   5216   5200   4608   4603   5196
8   5221   5220   5216   5217   5201   5200   5196   5197
8   5222   5221   5217   5218   5202   5201   5197   5198
8   5223   5222   5218   5219   5203   5202   5198   5199
8   3318   5223   5219   3312   3288   5203   5199   3282
8   5224   4638   1648   2352   5204   4613   1618   2328
8   5225   5224   2352   2353   5205   5204   2328   2329
8   5226   5225   2353   2354   5206   5205   2329   2330
8   5227   5226   2354   2355   5207   5206   2330   2331
8   3324   5227   2355     72   3294   5207   2331     36
8   5228   4643   4638   5224   5208   4618   4613   5204
8   5229   5228   5224   5225   5209   5208   5204   5205
8   5230   5229   5225   5226   5210   5209   5205   5206
8   5231   5230   5226   5227   5211   5210   5206   5207
8   3330   5231   5227   3324   3300   5211   5207   3294
8   5232   4648   4643   5228   5212   4623   4618   5208
8   5233   5232   5228   5229   5213   5212   5208   5209
8   5234   5233   5229   5230   5214   5213   5209   5210
8   5235   5234   5230   5231   5215   5214   5210   5211
8   3336   5235   5231   3330   3306   5215   5211   3300
8   5236   4653   4648   5232   5216   4628   4623   5212
8   5237   5236   5232   5233   5217   5216   5212   5213
8   5238   5237   5233   5234   5218   5217   5213   5214
8   5239   5238   5234   5235   5219   5218   5214   5215
8   3342   5239   5235   3336   3312   5219   5215   3306
8   5240   4658   4653   5236   5220   4633   4628   5216
8   5241   5240   5236   5237   5221   5220   5216   5217
8   5242   5241   5237   5238   5222   5221   5217   5218
8   5243   5242   5238   5239   5223   5222   5218   5219
8   3348   5243   5239   3342   3318   5223   5219   3312
8   5244   4663   1678   2376   5224   4638   1648   2352
8   5245   5244   2376   2377   5225   5224   2352   2353
8   5246   5245   2377   2378   5226   5225   2353   2354
8   5247   5246   2378   2379   5227   5226   2354   2355
8   3354   5247   2379    108   3324   5227   2355     72
8   5248   4668   4663   5244   5228   4643   4638   5224
8   5249   5248   5244   5245   5229   5228   5224   5225
8   5250   5249   5245   5246   5230   5229   5225   5226
8   5251   5250   5246   5247   5231   5230   5226   5227
8   3360   5251   5247   3354   3330   5231   5227   3324
8   5252   4673   4668   5248   5232   4648   4643   5228
8   5253   5252   5248   5249   5233   5232   5228   5229
8   5254   5253   5249   5250   5234   5233   5229   5230
8   5255   5254   5250   5251   5235   5234   5230   5231
8   3366   5255   5251   3360   3336   5235   5231   3330
8   5256   4678   4673   5252   5236   4653   4648   5232
8   5257   5256   5252   5253   5237   5236   5232   5233
8   5258   5257   5253   5254   5238   5237   5233   5234
8   5259   5258   5254   5255   5239   5238   5234   5235
8   3372   5259   5255   3366   3342   5239   5235   3336
8   5260   4683   4678   5256   5240   4658   4653   5236
8   5261   5260   5256   5257   5241   5240   5236   5237
8   5262   5261   5257   5258   5242   5241   5237   5238
8   5263   5262   5258   5259   5243   5242   5238   5239
8   3378   5263   5259   3372   3348   5243   5239   3342
8   5264   4688   1708   2400   5244   4663   1678   2376
8   5265   5264   2400   2401   5245   5244   2376   2377
8   5266   5265   2401   2402   5246   5245   2377   2378
8   5267   5266   2402   2403   5247   5246   2378   2379
8   3384   5267   2403    144   3354   5247   2379    108
8   5268   4693   4688   5264   5248   4668   4663   5244
8   5269   5268   5264   5265   5249   5248   5244   5245
8   5270   5269   5265   5266   5250   5249   5245   5246
8   5271   5270   5266   5267   5251   5250   5246   5247
8   3390   5271   5267   3384   3360   5251   5247   3354
8   5272   4698   4693   5268   5252   4673   4668   5248
8   5273   5272   5268   5269   5253   5252   5248   5249
8   5274   5273   5269   5270   5254   5253   5249   5250
8   5275   5274   5270   5271   5255   5254   5250   5251
8   3396   5275   5271   3390   3366   5255   5251   3360
8   5276   4703   4698   5272   5256   4678   4673   5252
8   5277   5276   5272   5273   5257   5256   5252   5253
8   5278   5277   5273   5274   5258   5257   5253   5254
8   5279   5278   5274   5275   5259   5258   5254   5255
8   3402   5279   5275   3396   3372   5259   5255   3366
8   5280   4708   4703   5276   5260   4683   4678   5256
8   5281   5280   5276   5277   5261   5260   5256   5257
8   5282   5281   5277   5278   5262   5261   5257   5258
8   5283   5282   5278   5279   5263   5262   5258   5259
8   3408   5283   5279   3402   3378   5263   5259   3372
8   5284   4713   1738   2424   5264   4688   1708   2400
8   5285   5284   2424   2425   5265   5264   2400   2401
8   5286   5285   2425   2426   5266   5265   2401   2402
8   5287   5286   2426   2427   5267   5266   2402   2403
8   3414   5287   2427    180   3384   5267   2403    144
8   5288   4718   4713   5284   5268   4693   4688   5264
8   5289   5288   5284   5285   5269   5268   5264   5265
8   5290   5289   5285   5286   5270   5269   5265   5266
8   5291   5290   5286   5287   5271   5270   5266   5267
8   3420   5291   5287   3414   3390   5271   5267   3384
8   5292   4723   4718   5288   5272   4698   4693   5268
8   5293   5292   5288   5289   5273   5272   5268   5269
8   5294   5293   5289   5290   5274   5273   5269   5270
8   5295   5294   5290   5291   5275   5274   5270   5271
8   3426   5295   5291   3420   3396   5275   5271   3390
8   5296   4728   4723   5292   5276   4703   4698   5272
8   5297   5296   5292   5293   5277   5276   5272   5273
8   5298   5297   5293   5294   5278   5277   5273   5274
8   5299   5298   5294   5295   5279   5278   5274   5275
8   3432   5299   5295   3426   3402   5279   5275   3396
8   5300   4733   4728   5296   5280   4708   4703   5276
8   5301   5300   5296   5297   5281   5280   5276   5277
8   5302   5301   5297   5298   5282   5281   5277   5278
8   5303   5302   5298   5299   5283   5282   5278   5279
8   3438   5303   5299   3432   3408   5283   5279   3402
8   5304   4738   1768   2448   5284   4713   1738   2424
8   5305   5304   2448   2449   5285   5284   2424   2425
8   5306   5305   2449   2450   5286   5285   2425   2426
8   5307   5306   2450   2451   5287   5286   2426   2427
8   3444   5307   2451    216   3414   5287   2427    180
8   5308   4743   4738   5304   5288   4718   4713   5284
8   5309   5308   5304   5305   5289   5288   5284   5285
8   5310   5309   5305   5306   5290   5289   5285   5286
8   5311   5310   5306   5307   5291   5290   5286   5287
8   3450   5311   5307   3444   3420   5291   5287   3414
8   5312   4748   4743   5308   5292   4723   4718   5288
8   5313   5312   5308   5309   5293   5292   5288   5289
8   5314   5313   5309   5310   5294   5293   5289   5290
8   5315   5314   5310   5311   5295   5294   5290   5291
8   3456   5315   5311   3450   3426   5295   5291   3420
8   5316   4753   4748   5312   5296   4728   4723   5292
8   5317   5316   5312   5313   5297   5296   5292   5293
8   5318   5317   5313   5314   5298   5297   5293   5294
8   5319   5318   5314   5315   5299   5298   5294   5295
8   3462   5319   5315   3456   3432   5299   5295   3426
8   5320   4758   4753   5316   5300   4733   4728   5296
8   5321   5320   5316   5317   5301   5300   5296   5297
8   5322   5321   5317   5318   5302   5301   5297   5298
8   5323   5322   5318   5319   5303   5302   5298   5299
8   3468   5323   5319   3462   3438   5303   5299   3432
8   5324   4763   1798   2472   5304   4738   1768   2448
8   5325   5324   2472   2473   5305   5304   2448   2449
8   5326   5325   2473   2474   5306   5305   2449   2450
8   5327   5326   2474   2475   5307   5306   2450   2451
8   3474   5327   2475    252   3444   5307   2451    216
8   5328   4768   4763   5324   5308   4743   4738   5304
8   5329   5328   5324   5325   5309   5308   5304   5305
8   5330   5329   5325   5326   5310   5309   5305   5306
8   5331   5330   5326   5327   5311   5310   5306   5307
8   3480   5331   5327   3474   3450   5311   5307   3444
8   5332   4773   4768   5328   5312   4748   4743   5308
8   5333   5332   5328   5329   5313   5312   5308   5309
8   5334   5333   5329   5330   5314   5313   5309   5310
8   5335   5334   5330   5331   5315   5314   5310   5311
8   3486   5335   5331   3480   3456   5315   5311   3450
8   5336   4778   4773   5332   5316   4753   4748   5312
8   5337   5336   5332   5333   5317   5316   5312   5313
8   5338   5337   5333   5334   5318   5317   5313   5314
8   5339   5338   5334   5335   5319   5318   5314   5315
8   3492   5339   5335   3486   3462   5319   5315   3456
8   5340   4783   4778   5336   5320   4758   4753   5316
8   5341   5340   5336   5337   5321   5320   5316   5317
8   5342   5341   5337   5338   5322   5321   5317   5318
8   5343   5342   5338   5339   5323   5322   5318   5319
8   3498   5343   5339   3492   3468   5323   5319   3462
8   5344   4788   1828   2496   5324   4763   1798   2472
8   5345   5344   2496   2497   5325   5324   2472   2473
8   5346   5345   2497   2498   5326   5325   2473   2474
8   5347   5346   2498   2499   5327   5326   2474   2475
8   3504   5347   2499    288   3474   5327   2475    252
8   5348   4793   4788   5344   5328   4768   4763   5324
8   5349   5348   5344   5345   5329   5328   5324   5325
8   5350   5349   5345   5346   5330   5329   5325   5326
8   5351   5350   5346   5347   5331   5330   5326   5327
8   3510   5351   5347   3504   3480   5331   5327   3474
8   5352   4798   4793   5348   5332   4773   4768   5328
8   5353   5352   5348   5349   5333   5332   5328   5329
8   5354   5353   5349   5350   5334   5333   5329   5330
8   5355   5354   5350   5351   5335   5334   5330   5331
8   3516   5355   5351   3510   3486   5335   5331   3480
8   5356   4803   4798   5352   5336   4778   4773   5332
8   5357   5356   5352   5353   5337   5336   5332   5333
8   5358   5357   5353   5354   5338   5337   5333   5334
8   5359   5358   5354   5355   5339   5338   5334   5335
8   3522   5359   5355   3516   3492   5339   5335   3486
8   5360   4808   4803   5356   5340   4783   4778   5336
8   5361   5360   5356   5357   5341   5340   5336   5337
8   5362   5361   5357   5358   5342   5341   5337   5338
8   5363   5362   5358   5359   5343   5342   5338   5339
8   3528   5363   5359   3522   3498   5343   5339   3492
8   5364   4813   1858   2520   5344   4788   1828   2496
8   5365   5364   2520   2521   5345   5344   2496   2497
8   5366   5365   2521   2522   5346   5345   2497   2498
8   5367   5366   2522   2523   5347   5346   2498   2499
8   3534   5367   2523    324   3504   5347   2499    288
8   5368   4818   4813   5364   5348   4793   4788   5344
8   5369   5368   5364   5365   5349   5348   5344   5345
8   5370   5369   5365   5366   5350   5349   5345   5346
8   5371   5370   5366   5367   5351   5350   5346   5347
8   3540   5371   5367   3534   3510   5351   5347   3504
8   5372   4823   4818   5368   5352   4798   4793   5348
8   5373   5372   5368   5369   5353   5352   5348   5349
8   5374   5373   5369   5370   5354   5353   5349   5350
8   5375   5374   5370   5371   5355   5354   5350   5351
8   3546   5375   5371   3540   3516   5355   5351   3510
8   5376   4828   4823   5372   5356   4803   4798   5352
8   5377   5376   5372   5373   5357   5356   5352   5353
8   5378   5377   5373   5374   5358   5357   5353   5354
8   5379   5378   5374   5375   5359   5358   5354   5355
8   3552   5379   5375   3546   3522   5359   5355   3516
8   5380   4833   4828   5376   5360   4808   4803   5356
8   5381   5380   5376   5377   5361   5360   5356   5357
8   5382   5381   5377   5378   5362   5361   5357   5358
8   5383   5382   5378   5379   5363   5362   5358   5359
8   3558   5383   5379   3552   3528   5363   5359   3522
8   5384   4838   1888   2544   5364   4813   1858   2520
8   5385   5384   2544   2545   5365   5364   2520   2521
8   5386   5385   2545   2546   5366   5365   2521   2522
8   5387   5386   2546   2547   5367   5366   2522   2523
8   3564   5387   2547    360   3534   5367   2523    324
8   5388   4843   4838   5384   5368   4818   4813   5364
8   5389   5388   5384   5385   5369   5368   5364   5365
8   5390   5389   5385   5386   5370   5369   5365   5366
8   5391   5390   5386   5387   5371   5370   5366   5367
8   3570   5391   5387   3564   3540   5371   5367   3534
8   5392   4848   4843   5388   5372   4823   4818   5368
8   5393   5392   5388   5389   5373   5372   5368   5369
8   5394   5393   5389   5390   5374   5373   5369   5370
8   5395   5394   5390   5391   5375   5374   5370   5371
8   3576   5395   5391   3570   3546   5375   5371   3540
8   5396   4853   4848   5392   5376   4828   4823   5372
8   5397   5396   5392   5393   5377   5376   5372   5373
8   5398   5397   5393   5394   5378   5377   5373   5374
8   5399   5398   5394   5395   5379   5378   5374   5375
8   3582   5399   5395   3576   3552   5379   5375   3546
8   5400   4858   4853   5396   5380   4833   4828   5376
8   5401   5400   5396   5397   5381   5380   5376   5377
8   5402   5401   5397   5398   5382   5381   5377   5378
8   5403   5402   5398   5399   5383   5382   5378   5379
8   3588   5403   5399   3582   3558   5383   5379   3552
8   5404   4863   1918   2568   5384   4838   1888   2544
8   5405   5404   2568   2569   5385   5384   2544   2545
8   5406   5405   2569   2570   5386   5385   2545   2546
8   5407   5406   2570   2571   5387   5386   2546   2547
8   3594   5407   2571    396   3564   5387   2547    360
8   5408   4868   4863   5404   5388   4843   4838   5384
8   5409   5408   5404   5405   5389   5388   5384   5385
8   5410   5409   5405   5406   5390   5389   5385   5386
8   5411   5410   5406   5407   5391   5390   5386   5387
8   3600   5411   5407   3594   3570   5391   5387   3564
8   5412   4873   4868   5408   5392   4848   4843   5388
8   5413   5412   5408   5409   5393   5392   5388   5389
8   5414   5413   5409   5410   5394   5393   5389   5390
8   5415   5414   5410   5411   5395   5394   5390   5391
8   3606   5415   5411   3600   3576   5395   5391   3570
8   5416   4878   4873   5412   5396   4853   4848   5392
8   5417   5416   5412   5413   5397   5396   5392   5393
8   5418   5417   5413   5414   5398   5397   5393   5394
8   5419   5418   5414   5415   5399   5398   5394   5395
8   3612   5419   5415   3606   3582   5399   5395   3576
8   5420   4883   4878   5416   5400   4858   4853   5396
8   5421   5420   5416   5417   5401   5400   5396   5397
8   5422   5421   5417   5418   5402   5401   5397   5398
8   5423   5422   5418   5419   5403   5402   5398   5399
8   3618   5423   5419   3612   3588   5403   5399   3582
8   5424   4888   1948   2592   5404   4863   1918   2568
8   5425   5424   2592   2593   5405   5404   2568   2569
8   5426   5425   2593   2594   5406   5405   2569   2570
8   5427   5426   2594   2595   5407   5406   2570   2571
8   3624   5427   2595    432   3594   5407   2571    396
8   5428   4893   4888   5424   5408   4868   4863   5404
8   5429   5428   5424   5425   5409   5408   5404   5405
8   5430   5429   5425   5426   5410   5409   5405   5406
8   5431   5430   5426   5427   5411   5410   5406   5407
8   3630   5431   5427   3624   3600   5411   5407   3594
8   5432   4898   4893   5428   5412   4873   4868   5408
8   5433   5432   5428   5429   5413   5412   5408   5409
8   5434   5433   5429   5430   5414   5413   5409   5410
8   5435   5434   5430   5431   5415   5414   5410   5411
8   3636   5435   5431   3630   3606   5415   5411   3600
8   5436   4903   4898   5432   5416   4878   4873   5412
8   5437   5436   5432   5433   5417   5416   5412   5413
8   5438   5437   5433   5434   5418   5417   5413   5414
8   5439   5438   5434   5435   5419   5418   5414   5415
8   3642   5439   5435   3636   3612   5419   5415   3606
8   5440   4908   4903   5436   5420   4883   4878   5416
8   5441   5440   5436   5437   5421   5420   5416   5417
8   5442   5441   5437   5438   5422   5421   5417   5418
8   5443   5442   5438   5439   5423   5422   5418   5419
8   3648   5443   5439   3642   3618   5423   5419   3612
8   5444   4913   1978   2616   5424   4888   1948   2592
8   5445   5444   2616   2617   5425   5424   2592   2593
8   5446   5445   2617   2618   5426   5425   2593   2594
8   5447   5446   2618   2619   5427   5426   2594   2595
8   3654   5447   2619    468   3624   5427   2595    432
8   5448   4918   4913   5444   5428   4893   4888   5424
8   5449   5448   5444   5445   5429   5428   5424   5425
8   5450   5449   5445   5446   5430   5429   5425   5426
8   5451   5450   5446   5447   5431   5430   5426   5427
8   3660   5451   5447   3654   3630   5431   5427   3624
8   5452   4923   4918   5448   5432   4898   4893   5428
8   5453   5452   5448   5449   5433   5432   5428   5429
8   5454   5453   5449   5450   5434   5433   5429   5430
8   5455   5454   5450   5451   5435   5434   5430   5431
8   3666   5455   5451   3660   3636   5435   5431   3630
8   5456   4928   4923   5452   5436   4903   4898   5432
8   5457   5456   5452   5453   5437   5436   5432   5433
8   5458   5457   5453   5454   5438   5437   5433   5434
8   5459   5458   5454   5455   5439   5438   5434   5435
8   3672   5459   5455   3666   3642   5439   5435   3636
8   5460   4933   4928   5456   5440   4908   4903   5436
8   5461   5460   5456   5457   5441   5440   5436   5437
8   5462   5461   5457   5458   5442   5441   5437   5438
8   5463   5462   5458   5459   5443   5442   5438   5439
8   3678   5463   5459   3672   3648   5443   5439   3642
8   5464   4938   2008   2640   5444   4913   1978   2616
8   5465   5464   2640   2641   5445   5444   2616   2617
8   5466   5465   2641   2642   5446   5445   2617   2618
8   5467   5466   2642   2643   5447   5446   2618   2619
8   3684   5467   2643    504   3654   5447   2619    468
8   5468   4943   4938   5464   5448   4918   4913   5444
8   5469   5468   5464   5465   5449   5448   5444   5445
8   5470   5469   5465   5466   5450   5449   5445   5446
8   5471   5470   5466   5467   5451   5450   5446   5447
8   3690   5471   5467   3684   3660   5451   5447   3654
8   5472   4948   4943   5468   5452   4923   4918   5448
8   5473   5472   5468   5469   5453   5452   5448   5449
8   5474   5473   5469   5470   5454   5453   5449   5450
8   5475   5474   5470   5471   5455   5454   5450   5451
8   3696   5475   5471   3690   3666   5455   5451   3660
8   5476   4953   4948   5472   5456   4928   4923   5452
8   5477   5476   5472   5473   5457   5456   5452   5453
8   5478   5477   5473   5474   5458   5457   5453   5454
8   5479   5478   5474   5475   5459   5458   5454   5455
8   3702   5479   5475   3696   3672   5459   5455   3666
8   5480   4958   4953   5476   5460   4933   4928   5456
8   5481   5480   5476   5477   5461   5460   5456   5457
8   5482   5481   5477   5478   5462   5461   5457   5458
8   5483   5482   5478   5479   5463   5462   5458   5459
8   3708   5483   5479   3702   3678   5463   5459   3672
8   5484   4963   2038   2664   5464   4938   2008   2640
8   5485   5484   2664   2665   5465   5464   2640   2641
8   5486   5485   2665   2666   5466   5465   2641   2642
8   5487   5486   2666   2667   5467   5466   2642   2643
8   3714   5487   2667    540   3684   5467   2643    504
8   5488   4968   4963   5484   5468   4943   4938   5464
8   5489   5488   5484   5485   5469   5468   5464   5465
8   5490   5489   5485   5486   5470   5469   5465   5466
8   5491   5490   5486   5487   5471   5470   5466   5467
8   3720   5491   5487   3714   3690   5471   5467   3684
8   5492   4973   4968   5488   5472   4948   4943   5468
8   5493   5492   5488   5489   5473   5472   5468   5469
8   5494   5493   5489   5490   5474   5473   5469   5470
8   5495   5494   5490   5491   5475   5474   5470   5471
8   3726   5495   5491   3720   3696   5475   5471   3690
8   5496   4978   4973   5492   5476   4953   4948   5472
8   5497   5496   5492   5493   5477   5476   5472   5473
8   5498   5497   5493   5494   5478   5477   5473   5474
8   5499   5498   5494   5495   5479   5478   5474   5475
8   3732   5499   5495   3726   3702   5479   5475   3696
8   5500   4983   4978   5496   5480   4958   4953   5476
8   5501   5500   5496   5497   5481   5480   5476   5477
8   5502   5501   5497   5498   5482   5481   5477   5478
8   5503   5502   5498   5499   5483   5482   5478   5479
8   3738   5503   5499   3732   3708   5483   5479   3702
8   5504   4988   2068   2688   5484   4963   2038   2664
8   5505   5504   2688   2689   5485   5484   2664   2665
8   5506   5505   2689   2690   5486   5485   2665   2666
8   5507   5506   2690   2691   5487   5486   2666   2667
8   3744   5507   2691    576   3714   5487   2667    540
8   5508   4993   4988   5504   5488   4968   4963   5484
8   5509   5508   5504   5505   5489   5488   5484   5485
8   5510   5509   5505   5506   5490   5489   5485   5486
8   5511   5510   5506   5507   5491   5490   5486   5487
8   3750   5511   5507   3744   3720   5491   5487   3714
8   5512   4998   4993   5508   5492   4973   4968   5488
8   5513   5512   5508   5509   5493   5492   5488   5489
8   5514   5513   5509   5510   5494   5493   5489   5490
8   5515   5514   5510   5511   5495   5494   5490   5491
8   3756   5515   5511   3750   3726   5495   5491   3720
8   5516   5003   4998   5512   5496   4978   4973   5492
8   5517   5516   5512   5513   5497   5496   5492   5493
8   5518   5517   5513   5514   5498   5497   5493   5494
8   5519   5518   5514   5515   5499   5498   5494   5495
8   3762   5519   5515   3756   3732   5499   5495   3726
8   5520   5008   5003   5516   5500   4983   4978   5496
8   5521   5520   5516   5517   5501   5500   5496   5497
8   5522   5521   5517   5518   5502   5501   5497   5498
8   5523   5522   5518   5519   5503   5502   5498   5499
8   3768   5523   5519   3762   3738   5503   5499   3732
8   5524   5013   2098   2712   5504   4988   2068   2688
8   5525   5524   2712   2713   5505   5504   2688   2689
8   5526   5525   2713   2714   5506   5505   2689   2690
8   5527   5526   2714   2715   5507   5506   2690   2691
8   3774   5527   2715    612   3744   5507   2691    576
8   5528   5018   5013   5524   5508   4993   4988   5504
8   5529   5528   5524   5525   5509   5508   5504   5505
8   5530   5529   5525   5526   5510   5509   5505   5506
8   5531   5530   5526   5527   5511   5510   5506   5507
8   3780   5531   5527   3774   3750   5511   5507   3744
8   5532   5023   5018   5528   5512   4998   4993   5508
8   5533   5532   5528   5529   5513   5512   5508   5509
8   5534   5533   5529   5530   5514   5513   5509   5510
8   5535   5534   5530   5531   5515   5514   5510   5511
8   3786   5535   5531   3780   3756   5515   5511   3750
8   5536   5028   5023   5532   5516   5003   4998   5512
8   5537   5536   5532   5533   5517   5516   5512   5513
8   5538   5537   5533   5534   5518   5517   5513   5514
8   5539   5538   5534   5535   5519   5518   5514   5515
8   3792   5539   5535   3786   3762   5519   5515   3756
8   5540   5033   5028   5536   5520   5008   5003   5516
8   5541   5540   5536   5537   5521   5520   5516   5517
8   5542   5541   5537   5538   5522   5521   5517   5518
8   5543   5542   5538   5539   5523   5522   5518   5519
8   3798   5543   5539   3792   3768   5523   5519   3762
8   5544   5038   2128   2736   5524   5013   2098   2712
8   5545   5544   2736   2737   5525   5524   2712   2713
8   5546   5545   2737   2738   5526   5525   2713   2714
8   5547   5546   2738   2739   5527   5526   2714   2715
8   3804   5547   2739    648   3774   5527   2715    612
8   5548   5043   5038   5544   5528   5018   5013   5524
8   5549   5548   5544   5545   5529   5528   5524   5525
8   5550   5549   5545   5546   5530   5529   5525   5526
8   5551   5550   5546   5547   5531   5530   5526   5527
8   3810   5551   5547   3804   3780   5531   5527   3774
8   5552   5048   5043   5548   5532   5023   5018   5528
8   5553   5552   5548   5549   5533   5532   5528   5529
8   5554   5553   5549   5550   5534   5533   5529   5530
8   5555   5554   5550   5551   5535   5534   5530   5531
8   3816   5555   5551   3810   3786   5535   5531   3780
8   5556   5053   5048   5552   5536   5028   5023   5532
8   5557   5556   5552   5553   5537   5536   5532   5533
8   5558   5557   5553   5554   5538   5537   5533   5534
8   5559   5558   5554   5555   5539   5538   5534   5535
8   3822   5559   5555   3816   3792   5539   5535   3786
8   5560   5058   5053   5556   5540   5033   5028   5536
8   5561   5560   5556   5557   5541   5540   5536   5537
8   5562   5561   5557   5558   5542   5541   5537   5538
8   5563   5562   5558   5559   5543   5542   5538   5539
8   3828   5563   5559   3822   3798   5543   5539   3792
8   5564   5063   2158   2760   5544   5038   2128   2736
8   5565   5564   2760   2761   5545   5544   2736   2737
8   5566   5565   2761   2762   5546   5545   2737   2738
8   5567   5566   2762   2763   5547   5546   2738   2739
8   3834   5567   2763    684   3804   5547   2739    648
8   5568   5068   5063   5564   5548   5043   5038   5544
8   5569   5568   5564   5565   5549   5548   5544   5545
8   5570   5569   5565   5566   5550   5549   5545   5546
8   5571   5570   5566   5567   5551   5550   5546   5547
8   3840   5571   5567   3834   3810   5551   5547   3804
8   5572   5073   5068   5568   5552   5048   5043   5548
8   5573   5572   5568   5569   5553   5552   5548   5549
8   5574   5573   5569   5570   5554   5553   5549   5550
8   5575   5574   5570   5571   5555   5554   5550   5551
8   3846   5575   5571   3840   3816   5555   5551   3810
8   5576   5078   5073   5572   5556   5053   5048   5552
8   5577   5576   5572   5573   5557   5556   5552   5553
8   5578   5577   5573   5574   5558   5557   5553   5554
8   5579   5578   5574   5575   5559   5558   5554   5555
8   3852   5579   5575   3846   3822   5559   5555   3816
8   5580   5083   5078   5576   5560   5058   5053   5556
8   5581   5580   5576   5577   5561   5560   5556   5557
8   5582   5581   5577   5578   5562   5561   5557   5558
8   5583   5582   5578   5579   5563   5562   5558   5559
8   3858   5583   5579   3852   3828   5563   5559   3822
8   5584   5088   2188   2784   5564   5063   2158   2760
8   5585   5584   2784   2785   5565   5564   2760   2761
8   5586   5585   2785   2786   5566   5565   2761   2762
8   5587   5586   2786   2787   5567   5566   2762   2763
8   3864   5587   2787    720   3834   5567   2763    684
8   5588   5093   5088   5584   5568   5068   5063   5564
8   5589   5588   5584   5585   5569   5568   5564   5565
8   5590   5589   5585   5586   5570   5569   5565   5566
8   5591   5590   5586   5587   5571   5570   5566   5567
8   3870   5591   5587   3864   3840   5571   5567   3834
8   5592   5098   5093   5588   5572   5073   5068   5568
8   5593   5592   5588   5589   5573   5572   5568   5569
8   5594   5593   5589   5590   5574   5573   5569   5570
8   5595   5594   5590   5591   5575   5574   5570   5571
8   3876   5595   5591   3870   3846   5575   5571   3840
8   5596   5103   5098   5592   5576   5078   5073   5572
8   5597   5596   5592   5593   5577   5576   5572   5573
8   5598   5597   5593   5594   5578   5577   5573   5574
8   5599   5598   5594   5595   5579   5578   5574   5575
8   3882   5599   5595   3876   3852   5579   5575   3846
8   5600   5108   5103   5596   5580   5083   5078   5576
8   5601   5600   5596   5597   5581   5580   5576   5577
8   5602   5601   5597   5598   5582   5581   5577   5578
8   5603   5602   5598   5599   5583   5582   5578   5579
8   3888   5603   5599   3882   3858   5583   5579   3852
8   5604   5113   2218   2808   5584   5088   2188   2784
8   5605   5604   2808   2809   5585   5584   2784   2785
8   5606   5605   2809   2810   5586   5585   2785   2786
8   5607   5606   2810   2811   5587   5586   2786   2787
8   3894   5607   2811    756   3864   5587   2787    720
8   5608   5118   5113   5604   5588   5093   5088   5584
8   5609   5608   5604   5605   5589   5588   5584   5585
8   5610   5609   5605   5606   5590   5589   5585   5586
8   5611   5610   5606   5607   5591   5590   5586   5587
8   3900   5611   5607   3894   3870   5591   5587   3864
8   5612   5123   5118   5608   5592   5098   5093   5588
8   5613   5612   5608   5609   5593   5592   5588   5589
8   5614   5613   5609   5610   5594   5593   5589   5590
8   5615   5614   5610   5611   5595   5594   5590   5591
8   3906   5615   5611   3900   3876   5595   5591   3870
8   5616   5128   5123   5612   5596   5103   5098   5592
8   5617   5616   5612   5613   5597   5596   5592   5593
8   5618   5617   5613   5614   5598   5597   5593   5594
8   5619   5618   5614   5615   5599   5598   5594   5595
8   3912   5619   5615   3906   3882   5599   5595   3876
8   5620   5133   5128   5616   5600   5108   5103   5596
8   5621   5620   5616   5617   5601   5600   5596   5597
8   5622   5621   5617   5618   5602   5601   5597   5598
8   5623   5622   5618   5619   5603   5602   5598   5599
8   3918   5623   5619   3912   3888   5603   5599   3882
8   5624   5138   2248   2832   5604   5113   2218   2808
8   5625   5624   2832   2833   5605   5604   2808   2809
8   5626   5625   2833   2834   5606   5605   2809   2810
8   5627   5626   2834   2835   5607   5606   2810   2811
8   3924   5627   2835    792   3894   5607   2811    756
8   5628   5143   5138   5624   5608   5118   5113   5604
8   5629   5628   5624   5625   5609   5608   5604   5605
8   5630   5629   5625   5626   5610   5609   5605   5606
8   5631   5630   5626   5627   5611   5610   5606   5607
8   3930   5631   5627   3924   3900   5611   5607   3894
8   5632   5148   5143   5628   5612   5123   5118   5608
8   5633   5632   5628   5629   5613   5612   5608   5609
8   5634   5633   5629   5630   5614   5613   5609   5610
8   5635   5634   5630   5631   5615   5614   5610   5611
8   3936   5635   5631   3930   3906   5615   5611   3900
8   5636   5153   5148   5632   5616   5128   5123   5612
8   5637   5636   5632   5633   5617   5616   5612   5613
8   5638   5637   5633   5634   5618   5617   5613   5614
8   5639   5638   5634   5635   5619   5618   5614   5615
8   3942   5639   5635   3936   3912   5619   5615   3906
8   5640   5158   5153   5636   5620   5133   5128   5616
8   5641   5640   5636   5637   5621   5620   5616   5617
8   5642   5641   5637   5638   5622   5621   5617   5618
8   5643   5642   5638   5639   5623   5622   5618   5619
8   3948   5643   5639   3942   3918   5623   5619   3912
8   5644   5163   2278   2856   5624   5138   2248   2832
8   5645   5644   2856   2857   5625   5624   2832   2833
8   5646   5645   2857   2858   5626   5625   2833   2834
8   5647   5646   2858   2859   5627   5626   2834   2835
8   3954   5647   2859    828   3924   5627   2835    792
8   5648   5168   5163   5644   5628   5143   5138   5624
8   5649   5648   5644   5645   5629   5628   5624   5625
8   5650   5649   5645   5646   5630   5629   5625   5626
8   5651   5650   5646   5647   5631   5630   5626   5627
8   3960   5651   5647   3954   3930   5631   5627   3924
8   5652   5173   5168   5648   5632   5148   5143   5628
8   5653   5652   5648   5649   5633   5632   5628   5629
8   5654   5653   5649   5650   5634   5633   5629   5630
8   5655   5654   5650   5651   5635   5634   5630   5631
8   3966   5655   5651   3960   3936   5635   5631   3930
8   5656   5178   5173   5652   5636   5153   5148   5632
8   5657   5656   5652   5653   5637   5636   5632   5633
8   5658   5657   5653   5654   5638   5637   5633   5634
8   5659   5658   5654   5655   5639   5638   5634   5635
8   3972   5659   5655   3966   3942   5639   5635   3936
8   5660   5183   5178   5656   5640   5158   5153   5636
8   5661   5660   5656   5657   5641   5640   5636   5637
8   5662   5661   5657   5658   5642   5641   5637   5638
8   5663   5662   5658   5659   5643   5642   5638   5639
8   3978   5663   5659   3972   3948   5643   5639   3942
CELL_TYPES  5175
12
12
12
12
12
12
12
12
12
12
12
12
12
12
12
12
12
12
12
12
12
12
12
12
12
12
12
12
12
12
12
12
12
12
12
12
12
12
12
12
12
12
12
12
12
12
12
12
12
12
12
12
12
12
12
12
12
12
12
12
12
12
12
12
12
12
12
12
12
12
12
12
12
12
12
12
12
12
12
12
12
12
12
12
12
12
12
12
12
12
12
12
12
12
12
12
12
12
12
12
12
12
12
12
12
12
12
12
12
12
12
12
12
12
12
12
12
12
12
12
12
12
12
12
12
12
12
12
12
12
12
12
12
12
12
12
12
12
12
12
12
12
12
12
12
12
12
12
12
12
12
12
12
12
12
12
12
12
12
12
12
12
12
12
12
12
12
12
12
12
12
12
12
12
12
12
12
12
12
12
12
12
12
12
12
12
12
12
12
12
12
12
12
12
12
12
12
12
12
12
12
12
12
12
12
12
12
12
12
12
12
12
12
12
12
12
12
12
12
12
12
12
12
12
12
12
12
12
12
12
12
12
12
12
12
12
12
12
12
12
12
12
12
12
12
12
12
12
12
12
12
12
12
12
12
12
12
12
12
12
12
12
12
12
12
12
12
12
12
12
12
12
12
12
12
12
12
12
12
12
12
12
12
12
12
12
12
12
12
12
12
12
12
12
12
12
12
12
12
12
12
12
12
12
12
12
12
12
12
12
12
12
12
12
12
12
12
12
12
12
12
12
12
12
12
12
12
12
12
12
12
12
12
12
12
12
12
12
12
12
12
12
12
12
12
12
12
12
12
12
12
12
12
12
12
12
12
12
12
12
12
12
12
12
12
12
12
12
12
12
12
12
12
12
12
12
12
12
12
12
12
12
12
12
12
12
12
12
12
12
12
12
12
12
12
12
12
12
12
12
12
12
12
12
12
12
12
12
12
12
12
12
12
12
12
12
12
12
12
12
12
12
12
12
12
12
12
12
12
12
12
12
12
12
12
12
12
12
12
12
12
12
12
12
12
12
12
12
12
12
12
12
12
12
12
12
12
12
12
12
12
12
12
12
12
12
12
12
12
12
12
12
12
12
12
12
12
12
12
12
12
12
12
12
12
12
12
12
12
12
12
12
12
12
12
12
12
12
12
12
12
12
12
12
12
12
12
12
12
12
12
12
12
12
12
12
12
12
12
12
12
12
12
12
12
12
12
12
12
12
12
12
12
12
12
12
12
12
12
12
12
12
12
12
12
12
12
12
12
12
12
12
12
12
12
12
12
12
12
12
12
12
12
12
12
12
12
12
12
12
12
12
12
12
12
12
12
12
12
12
12
12
12
12
12
12
12
12
12
12
12
12
12
12
12
12
12
12
12
12
12
12
12
12
12
12
12
12
12
12
12
12
12
12
12
12
12
12
12
12
12
12
12
12
12
12
12
12
12
12
12
12
12
12
12
12
12
12
12
12
12
12
12
12
12
12
12
12
12
12
12
12
12
12
12
12
12
12
12
12
12
12
12
12
12
12
12
12
12
12
12
12
12
12
12
12
12
12
12
12
12
12
12
12
12
12
12
12
12
12
12
12
12
12
12
12
12
12
12
12
12
12
12
12
12
12
12
12
12
12
12
12
12
12
12
12
12
12
12
12
12
12
12
12
12
12
12
12
12
12
12
12
12
12
12
12
12
12
12
12
12
12
12
12
12
12
12
12
12
12
12
12
12
12
12
12
12
12
12
12
12
12
12
12
12
12
12
12
12
12
12
12
12
12
12
12
12
12
12
12
12
12
12
12
12
12
12
12
12
12
12
12
12
12
12
12
12
12
12
12
12
12
12
12
12
12
12
12
12
12
12
12
12
12
12
12
12
12
12
12
12
12
12
12
12
12
12
12
12
12
12
12
12
12
12
12
12
12
12
12
12
12
12
12
12
12
12
12
12
12
12
12
12
12
12
12
12
12
12
12
12
12
12
12
12
12
12
12
12
12
12
12
12
12
12
12
12
12
12
12
12
12
12
12
12
12
12
12
12
12
12
12
12
12
12
12
12
12
12
12
12
12
12
12
12
12
12
12
12
12
12
12
12
12
12
12
12
12
12
12
12
12
12
12
12
12
12
12
12
12
12
12
12
12
12
12
12
12
12
12
12
12
12
12
12
12
12
12
12
12
12
12
12
12
12
12
12
12
12
12
12
12
12
12
12
12
12
12
12
12
12
12
12
12
12
12
12
12
12
12
12
12
12
12
12
12
12
12
12
12
12
12
12
12
12
12
12
12
12
12
12
12
12
12
12
12
12
12
12
12
12
12
12
12
12
12
12
12
12
12
12
12
12
12
12
12
12
12
12
12
12
12
12
12
12
12
12
12
12
12
12
12
12
12
12
12
12
12
12
12
12
12
12
12
12
12
12
12
12
12
12
12
12
12
12
12
12
12
12
12
12
12
12
12
12
12
12
12
12
12
12
12
12
12
12
12
12
12
12
12
12
12
12
12
12
12
12
12
12
12
12
12
12
12
12
12
12
12
12
12
12
12
12
12
12
12
12
12
12
12
12
12
12
12
12
12
12
12
12
12
12
12
12
12
12
12
12
12
12
12
12
12
12
12
12
12
12
12
12
12
12
12
12
12
12
12
12
12
12
12
12
12
12
12
12
12
12
12
12
12
12
12
12
12
12
12
12
12
12
12
12
12
12
12
12
12
12
12
12
12
12
12
12
12
12
12
12
12
12
12
12
12
12
12
12
12
12
12
12
12
12
12
12
12
12
12
12
12
12
12
12
12
12
12
12
12
12
12
12
12
12
12
12
12
12
12
12
12
12
12
12
12
12
12
12
12
12
12
12
12
12
12
12
12
12
12
12
12
12
12
12
12
12
12
12
12
12
12
12
12
12
12
12
12
12
12
12
12
12
12
12
12
12
12
12
12
12
12
12
12
12
12
12
12
12
12
12
12
12
12
12
12
12
12
12
12
12
12
12
12
12
12
12
12
12
12
12
12
12
12
12
12
12
12
12
12
12
12
12
12
12
12
12
12
12
12
12
12
12
12
12
12
12
12
12
12
12
12
12
12
12
12
12
12
12
12
12
12
12
12
12
12
12
12
12
12
12
12
12
12
12
12
12
12
12
12
12
12
12
12
12
12
12
12
12
12
12
12
12
12
12
12
12
12
12
12
12
12
12
12
12
12
12
12
12
12
12
12
12
12
12
12
12
12
12
12
12
12
12
12
12
12
12
12
12
12
12
12
12
12
12
12
12
12
12
12
12
12
12
12
12
12
12
12
12
12
12
12
12
12
12
12
12
12
12
12
12
12
12
12
12
12
12
12
12
12
12
12
12
12
12
12
12
12
12
12
12
12
12
12
12
12
12
12
12
12
12
12
12
12
12
12
12
12
12
12
12
12
12
12
12
12
12
12
12
12
12
12
12
12
12
12
12
12
12
12
12
12
12
12
12
12
12
12
12
12
12
12
12
12
12
12
12
12
12
12
12
12
12
12
12
12
12
12
12
12
12
12
12
12
12
12
12
12
12
12
12
12
12
12
12
12
12
12
12
12
12
12
12
12
12
12
12
12
12
12
12
12
12
12
12
12
12
12
12
12
12
12
12
12
12
12
12
12
12
12
12
12
12
12
12
12
12
12
12
12
12
12
12
12
12
12
12
12
12
12
12
12
12
12
12
12
12
12
12
12
12
12
12
12
12
12
12
12
12
12
12
12
12
12
12
12
12
12
12
12
12
12
12
12
12
12
12
12
12
12
12
12
12
12
12
12
12
12
12
12
12
12
12
12
12
12
12
12
12
12
12
12
12
12
12
12
12
12
12
12
12
12
12
12
12
12
12
12
12
12
12
12
12
12
12
12
12
12
12
12
12
12
12
12
12
12
12
12
12
12
12
12
12
12
12
12
12
12
12
12
12
12
12
12
12
12
12
12
12
12
12
12
12
12
12
12
12
12
12
12
12
12
12
12
12
12
12
12
12
12
12
12
12
12
12
12
12
12
12
12
12
12
12
12
12
12
12
12
12
12
12
12
12
12
12
12
12
12
12
12
12
12
12
12
12
12
12
12
12
12
12
12
12
12
12
12
12
12
12
12
12
12
12
12
12
12
12
12
12
12
12
12
12
12
12
12
12
12
12
12
12
12
12
12
12
12
12
12
12
12
12
12
12
12
12
12
12
12
12
12
12
12
12
12
12
12
12
12
12
12
12
12
12
12
12
12
12
12
12
12
12
12
12
12
12
12
12
12
12
12
12
12
12
12
12
12
12
12
12
12
12
12
12
12
12
12
12
12
12
12
12
12
12
12
12
12
12
12
12
12
12
12
12
12
12
12
12
12
12
12
12
12
12
12
12
12
12
12
12
12
12
12
12
12
12
12
12
12
12
12
12
12
12
12
12
12
12
12
12
12
12
12
12
12
12
12
12
12
12
12
12
12
12
12
12
12
12
12
12
12
12
12
12
12
12
12
12
12
12
12
12
12
12
12
12
12
12
12
12
12
12
12
12
12
12
12
12
12
12
12
12
12
12
12
12
12
12
12
12
12
12
12
12
12
12
12
12
12
12
12
12
12
12
12
12
12
12
12
12
12
12
12
12
12
12
12
12
12
12
12
12
12
12
12
12
12
12
12
12
12
12
12
12
12
12
12
12
12
12
12
12
12
12
12
12
12
12
12
12
12
12
12
12
12
12
12
12
12
12
12
12
12
12
12
12
12
12
12
12
12
12
12
12
12
12
12
12
12
12
12
12
12
12
12
12
12
12
12
12
12
12
12
12
12
12
12
12
12
12
12
12
12
12
12
12
12
12
12
12
12
12
12
12
12
12
12
12
12
12
12
12
12
12
12
12
12
12
12
12
12
12
12
12
12
12
12
12
12
12
12
12
12
12
12
12
12
12
12
12
12
12
12
12
12
12
12
12
12
12
12
12
12
12
12
12
12
12
12
12
12
12
12
12
12
12
12
12
12
12
12
12
12
12
12
12
12
12
12
12
12
12
12
12
12
12
12
12
12
12
12
12
12
12
12
12
12
12
12
12
12
12
12
12
12
12
12
12
12
12
12
12
12
12
12
12
12
12
12
12
12
12
12
12
12
12
12
12
12
12
12
12
12
12
12
12
12
12
12
12
12
12
12
12
12
12
12
12
12
12
12
12
12
12
12
12
12
12
12
12
12
12
12
12
12
12
12
12
12
12
12
12
12
12
12
12
12
12
12
12
12
12
12
12
12
12
12
12
12
12
12
12
12
12
12
12
12
12
12
12
12
12
12
12
12
12
12
12
12
12
12
12
12
12
12
12
12
12
12
12
12
12
12
12
12
12
12
12
12
12
12
12
12
12
12
12
12
12
12
12
12
12
12
12
12
12
12
12
12
12
12
12
12
12
12
12
12
12
12
12
12
12
12
12
12
12
12
12
12
12
12
12
12
12
12
12
12
12
12
12
12
12
12
12
12
12
12
12
12
12
12
12
12
12
12
12
12
12
12
12
12
12
12
12
12
12
12
12
12
12
12
12
12
12
12
12
12
12
12
12
12
12
12
12
12
12
12
12
12
12
12
12
12
12
12
12
12
12
12
12
12
12
12
12
12
12
12
12
12
12
12
12
12
12
12
12
12
12
12
12
12
12
12
12
12
12
12
12
12
12
12
12
12
12
12
12
12
12
12
12
12
12
12
12
12
12
12
12
12
12
12
12
12
12
12
12
12
12
12
12
12
12
12
12
12
12
12
12
12
12
12
12
12
12
12
12
12
12
12
12
12
12
12
12
12
12
12
12
12
12
12
12
12
12
12
12
12
12
12
12
12
12
12
12
12
12
12
12
12
12
12
12
12
12
12
12
12
12
12
12
12
12
12
12
12
12
12
12
12
12
12
12
12
12
12
12
12
12
12
12
12
12
12
12
12
12
12
12
12
12
12
12
12
12
12
12
12
12
12
12
12
12
12
12
12
12
12
12
12
12
12
12
12
12
12
12
12
12
12
12
12
12
12
12
12
12
12
12
12
12
12
12
12
12
12
12
12
12
12
12
12
12
12
12
12
12
12
12
12
12
12
12
12
12
12
12
12
12
12
12
12
12
12
12
12
12
12
12
12
12
12
12
12
12
12
12
12
12
12
12
12
12
12
12
12
12
12
12
12
12
12
12
12
12
12
12
12
12
12
12
12
12
12
12
12
12
12
12
12
12
12
12
12
12
12
12
12
12
12
12
12
12
12
12
12
12
12
12
12
12
12
12
12
12
12
12
12
12
12
12
12
12
12
12
12
12
12
12
12
12
12
12
12
12
12
12
12
12
12
12
12
12
12
12
12
12
12
12
12
12
12
12
12
12
12
12
12
12
12
12
12
12
12
12
12
12
12
12
12
12
12
12
12
12
12
12
12
12
12
12
12
12
12
12
12
12
12
12
12
12
12
12
12
12
12
12
12
12
12
12
12
12
12
12
12
12
12
12
12
12
12
12
12
12
12
12
12
12
12
12
12
12
12
12
12
12
12
12
12
12
12
12
12
12
12
12
12
12
12
12
12
12
12
12
12
12
12
12
12
12
12
12
12
12
12
12
12
12
12
12
12
12
12
12
12
12
12
12
12
12
12
12
12
12
12
12
12
12
12
12
12
12
12
12
12
12
12
12
12
12
12
12
12
12
12
12
12
12
12
12
12
12
12
12
12
12
12
12
12
12
12
12
12
12
12
12
12
12
12
12
12
12
12
12
12
12
12
12
12
12
12
12
12
12
12
12
12
12
12
12
12
12
12
12
12
12
12
12
12
12
12
12
12
12
12
12
12
12
12
12
12
12
12
12
12
12
12
12
12
12
12
12
12
12
12
12
12
12
12
12
12
12
12
12
12
12
12
12
12
12
12
12
12
12
12
12
12
12
12
12
12
12
12
12
12
12
12
12
12
12
12
12
12
12
12
12
12
12
12
12
12
12
12
12
12
12
12
12
12
12
12
12
12
12
12
12
12
12
12
12
12
12
12
12
12
12
12
12
12
12
12
12
12
12
12
12
12
12
12
12
12
12
12
12
12
12
12
12
12
12
12
12
12
12
12
12
12
12
12
12
12
12
12
12
12
12
12
12
12
12
12
12
12
12
12
12
12
12
12
12
12
12
12
12
12
12
12
12
12
12
12
12
12
12
12
12
12
12
12
12
12
12
12
12
12
12
12
12
12
12
12
12
12
12
12
12
12
12
12
12
12
12
12
12
12
12
12
12
12
12
12
12
12
12
12
12
12
12
12
12
12
12
12
12
12
12
12
12
12
12
12
12
12
12
12
12
12
12
12
12
12
12
12
12
12
12
12
12
12
12
12
12
12
12
12
12
12
12
12
12
12
12
12
12
12
12
12
12
12
12
12
12
12
12
12
12
12
12
12
12
12
12
12
12
12
12
12
12
12
12
12
12
12
12
12
12
12
12
12
12
12
12
12
12
12
12
12
12
12
12
12
12
12
12
12
12
12
12
12
12
12
12
12
12
12
12
12
12
12
12
12
12
12
12
12
12
12
12
12
12
12
12
12
12
12
12
12
12
12
12
12
12
12
12
12
12
12
12
12
12
12
12
12
12
12
12
12
12
12
12
12
12
12
12
12
12
12
12
12
12
12
12
12
12
12
12
12
12
12
12
12
12
12
12
12
12
12
12
12
12
12
12
12
12
12
12
12
12
12
12
12
12
12
12
12
12
12
12
12
12
12
12
12
12
12
12
12
12
12
12
12
12
12
12
12
12
12
12
12
12
12
12
12
12
12
12
12
12
12
12
12
12
12
12
12
12
12
12
12
12
12
12
12
12
12
12
12
12
12
12
12
12
12
12
12
12
12
12
12
12
12
12
12
12
12
12
12
12
12
12
12
12
12
12
12
12
12
12
12
12
12
12
12
12
12
12
12
12
12
12
12
12
12
12
12
12
12
12
12
12
12
12
12
12
12
12
12
12
12
12
12
12
12
12
12
12
12
12
12
12
12
12
12
12
12
12
12
12
12
12
12
12
12
12
12
12
12
12
12
12
12
12
12
12
12
12
12
12
12
12
12
12
12
12
12
12
12
12
12
12
12
12
12
12
12
12
12
12
12
12
12
12
12
12
12
12
12
12
12
12
12
12
12
12
12
12
12
12
12
12
12
12
12
12
12
12
12
12
12
12
12
12
12
12
12
12
12
12
12
12
12
12
12
12
12
12
12
12
12
12
12
12
12
12
12
12
12
12
12
12
12
12
12
12
12
12
12
12
12
12
12
12
12
12
12
12
12
12
12
12
12
12
12
12
12
12
12
12
12
12
12
12
12
12
12
12
12
12
12
12
12
12
12
12
12
12
12
12
12
12
12
12
12
12
12
12
12
12
12
12
12
12
12
12
12
12
12
12
12
12
12
12
12
12
12
12
12
12
12
12
12
12
12
12
12
12
12
12
12
12
12
12
12
12
12
12
12
12
12
12
12
12
12
12
12
12
12
12
12
12
12
12
12
12
12
12
12
12
12
12
12
12
12
12
12
12
12
12
12
12
12
12
12
12
12
12
12
12
12
12
12
12
12
12
12
12
12
12
12
12
12
12
12
12
12
12
12
12
12
12
12
12
12
12
12
12
12
12
12
12
12
12
12
12
12
12
12
12
12
12
12
12
12
12
12
12
12
12
12
12
12
12
12
12
12
12
12
12
12
12
12
12
12
12
12
12
12
12
12
12
12
12
12
12
12
12
12
12
12
12
12
12
12
12
12
12
12
12
12
12
12
12
12
12
12
12
12
12
12
12
12
12
12
12
12
12
12
12
12
12
12
12
12
12
12
12
12
12
12
12
12
12
12
12
12
12
12
12
12
12
12
12
12
12
12
12
12
12
12
12
12
12
12
12
12
12
12
12
12
12
12
12
12
12
12
12
12
12
12
12
12
12
12
12
12
12
12
12
12
12
12
12
12
12
12
12
12
12
12
12
12
12
12
12
12
12
12
12
12
12
12
12
12
12
12
12
12
12
12
12
12
12
12
12
12
12
12
12
12
12
12
12
12
12
12
12
12
12
12
12
12
12
12
12
12
12
12
12
12
12
12
12
12
12
12
12
12
12
12
12
12
12
12
12
12
12
12
12
12
12
12
12
12
12
12
12
12
12
12
12
12
12
12
12
12
12
12
12
12
12
12
12
12
12
12
12
12
12
12
12
12
12
12
12
12
12
12
12
12
12
12
12
12
12
12
12
12
12
12
12
12
12
12
12
12
12
12
12
12
12
12
12
12
12
12
12
12
12
12
12
12
12
12
12
12
12
12
12
12
12
12
12
12
12
12
12
12
12
12
12
12
12
12
12
12
12
12
12
12
12
12
12
12
12
12
12
12
12
12
12
12
12
12
12
12
12
12
12
12
12
12
12
12
12
12
12
12
12
12
12
12
12
12
12
12
12
12
12
12
12
12
12
12
12
12
12
12
12
12
12
12
12
12
12
12
12
12
12
12
12
12
12
12
12
12
12
12
12
12
12
12
12
12
12
12
12
12
12
12
12
12
12
12
12
12
12
12
12
12
12
12
12
12
12
12
12
12
12
12
12
12
12
12
12
12
12
12
12
12
12
12
12
12
12
12
12
12
12
12
12
12
12
12
12
12
12
12
12
12
12
12
12
12
12
12
12
12
12
12
12
12
12
12
12
12
12
12
12
12
12
12
12
12
12
12
12
12
12
12
12
12
12
12
12
12
12
12
12
12
12
12
12
12
12
12
12
12
12
12
12
12
12
12
12
12
12
12
12
12
12
12
12
12
12
12
12
12
12
12
12
12
12
12
12
12
12
12
12
12
12
12
12
12
12
12
12
12
12
12
12
12
12
12
12
12
12
12
12
12
12
12
12
12
12
12
12
12
12
12
12
12
12
12
12
12
12
12
12
12
12
12
12
12
12
12
12
12
12
12
12
12
12
12
12
12
12
12
12
12
12
12
12
12
12
12
12
12
12
12
12
12
12
12
12
12
12
12
12
12
12
12
12
12
12
12
12
12
12
12
12
12
12
12
12
12
12
12
12
12
12
12
12
12
12
12
12
12
12
12
12
12
12
12
12
12
12
12
12
12
12
12
12
12
12
12
12
12
12
12
12
12
12
12
12
12
12
12
12
12
12
12
12
12
12
12
12
12
12
12
12
12
12
12
12
12
12
12
12
12
12
12
12
12
12
12
12
12
12
12
12
12
12
12
12
12
12
12
12
12
12
12
12
12
12
12
12
12
12
12
12
12
12
12
12
12
12
12
12
12
12
12
12
12
12
12
12
12
12
12
12
12
12
12
12
12
12
12
12
12
12
12
12
12
12
12
12
12
12
12
12
12
12
12
12
12
12
12
12
12
12
12
12
12
12
12
12
12
12
12
12
12
12
12
12
12
12
12
12
12
12
12
12
12
12
12
12
12
12
12
12
12
12
12
12
12
12
12
12
12
12
12
12
12
12
12
12
12
12
12
12
12
12
12
12
12
12
12
12
12
12
12
12
12
12
12
12
12
12
12
12
12
12
12
12
12
12
12
12
12
12
12
12
12
12
12
12
12
12
12
12
12
12
12
12
12
12
12
12
12
12
12
12
12
12
12
12
12
12
12
12
12
12
12
12
12
12
12
12
12
12
12
12
12
12
12
12
12
12
12
12
12
12
12
12
12
12
12
12
12
12
12
12
12
12
12
12
12
12
12
12
12
12
12
12
12
12
12
12
12
12
12
12
12
12
12
12
12
12
12
12
12
12
12
12
12
12
12
12
12
12
12
12
12
12
12
12
12
12
12
12
12
12
12
12
12
12
12
12
12
12
12
12
12
12
12
12
12
12
12
12
12
12
12
12
12
12
12
12
12
12
12
12
12
12
12
12
12
12
12
12
12
12
12
12
12
12
12
12
12
12
12
12
12
12
12
12
12
12
12
12
12
12
12
12
12
12
12
12
12
12
12
12
12
12
12
12
12
12
12
12
12
12
12
12
12
12
12
12
12
12
12
12
12
12
12
12
12
12
12
12
12
12
12
12
12
12
12
12
12
12
12
12
12
12
12
12
12
12
12
12
12
12
12
12
12
12
12
12
12
12
12
12
12
12
12
12
12
12
12
12
12
12
12
12
12
12
12
12
12
12
12
12
12
12
12
12
12
12
12
12
12
12
12
12
12
12
12
12
12
12
12
12
12
12
12
12
12
12
12
12
12
12
12
12
12
12
12
12
12
12
12
12
12
12
12
12
12
12
12
12
12
12
12
12
12
12
12
12
12
12
12
12
12
12
12
12
12
12
12
12
12
12
12
12
12
12
12
12
12
12
12
12
12
12
12
12
12
12
12
12
12
12
12
12
12
12
12
12
12
12
12
12
12
12
12
12
12
12
12
12
12
12
12
12
12
12
12
12
12
12
12
12
12
12
12
12
12
12
12
12
12
12
12
12
12
12
12
12
12
12
12
12
12
12
12
12
12
12
12
12
12
12
12
12
12
12
12
12
12
12
12
12
12
12
12
12
12
12
12
12
12
12
12
12
12
12
12
12
12
12
12
12
12
12
12
12
12
12
12
12
12
12
12
12
12
12
12
12
12
12
12
12
12
12
12
12
12
12
12
12
12
12
12
12
12
12
12
12
12
12
12
12
12
12
12
12
12
12
12
12
12
12
12
12
12
12
12
12
12
12
12
12
12
12
12
12
12
12
12
12
12
12
12
12
12
12
12
12
12
12
POINT_DATA      5664
VECTORS Velocities float 
     0.00000000     0.00000000     0.00000000
     0.00000000     0.00000000     0.00000000
     0.00000000     0.00000000     0.00000000
     0.00000000     0.00000000     0.00000000
     0.00000000     0.00000000     0.00000000
     0.00000000     0.00000000     0.00000000
     1.16510064    -0.29241066    -0.06282498
     1.42397494    -0.28215830    -0.11434588
     1.45456681    -0.34732414    -0.12954483
     1.38788835    -0.40651587    -0.14194550
     1.23446864    -0.40830807    -0.18845475
     0.86338297    -0.28208658    -0.17917599
     1.99576369    -0.58200172    -0.27119190
     2.35768646    -0.61596994    -0.40619513
     2.44685077    -0.67356236    -0.49500347
     2.37818743    -0.70132817    -0.52363604
     2.15582240    -0.67710145    -0.51107958
     1.67256232    -0.48987493    -0.41710608
     2.67155693    -0.82284770    -0.46992053
     3.08244514    -0.90646613    -0.64845414
     3.24061525    -0.96243495    -0.75312488
     3.18321979    -0.96616946    -0.79550405
     2.91105839    -0.91019476    -0.76801435
     2.39345497    -0.71570970    -0.64229790
     3.21343230    -1.03744027    -0.65203414
     3.63850480    -1.14383735    -0.84040021
     3.82908504    -1.19795139    -0.96604931
     3.78745974    -1.19367294    -1.00167614
     3.51503255    -1.11509413    -0.96014199
     3.01111832    -0.93588219    -0.83569540
     3.64407966    -1.20645948    -0.81623304
     4.04941796    -1.32897386    -0.99404324
     4.23795066    -1.38047793    -1.10326876
     4.21283699    -1.36947867    -1.14186737
     3.97730994    -1.29137908    -1.10330632
     3.52037033    -1.12417292    -0.98299752
     0.00000000     0.00000000     0.00000000
     0.00000000     0.00000000     0.00000000
     0.00000000     0.00000000     0.00000000
     0.00000000     0.00000000     0.00000000
     0.00000000     0.00000000     0.00000000
     0.00000000     0.00000000     0.00000000
     0.56669884    -0.23032411    -0.34597691
     0.61727159    -0.31626940    -0.42706294
     0.75298973    -0.34067584    -0.49798509
     0.82489835    -0.30963472    -0.49106317
     0.81889780    -0.21994126    -0.40105850
     0.86153159    -0.24171977    -0.37157458
     1.27280990    -0.47746377    -0.56450604
     1.45937624    -0.59668372    -0.66086409
     1.66557140    -0.66575627    -0.71479157
     1.74266214    -0.64832404    -0.71095254
     1.65489873    -0.55237063    -0.65122683
     1.59322859    -0.56126145    -0.62384739
     1.91384752    -0.73168102    -0.77516522
     2.19978870    -0.86106475    -0.88228340
     2.42206075    -0.93897057    -0.95560988
     2.48971053    -0.93665768    -0.95279048
     2.38532794    -0.85662861    -0.88738117
     2.21990242    -0.82084632    -0.83426709
     2.49456902    -0.96210880    -0.97019784
     2.83007471    -1.10012801    -1.09206514
     3.05902578    -1.18292972    -1.16042076
     3.12090084    -1.18156209    -1.16914263
     2.99917201    -1.11397426    -1.10822440
     2.75957147    -1.03356420    -1.01604124
     2.99350761    -1.16876753    -1.14400746
     3.35905510    -1.31113616    -1.27748209
     3.56961176    -1.38499240    -1.35137451
     3.62555315    -1.38919762    -1.35758250
     3.51028669    -1.32508294    -1.29912311
     3.20528375    -1.20914077    -1.18215771
     0.00000000     0.00000000     0.00000000
     0.00000000     0.00000000     0.00000000
     0.00000000     0.00000000     0.00000000
     0.00000000     0.00000000     0.00000000
     0.00000000     0.00000000     0.00000000
     0.00000000     0.00000000     0.00000000
     0.72360541    -0.44911370    -0.28069105
     1.04498203    -0.55925269    -0.34451698
     1.12860088    -0.57971710    -0.30300568
     1.09033715    -0.56053331    -0.28020563
     0.93429266    -0.58388227    -0.26323182
     0.64967578    -0.39056096    -0.14597293
     1.24449544    -0.80831234    -0.61164213
     1.62997686    -0.97264427    -0.72791005
     1.75863857    -0.98693717    -0.74839819
     1.74637258    -0.96172864    -0.70485426
     1.63825093    -0.90062424    -0.60793399
     1.29376697    -0.64667759    -0.42920994
     1.74717493    -1.11959596    -0.90733018
     2.14609518    -1.31124968    -1.06956261
     2.33885775    -1.36262892    -1.11363589
     2.37145957    -1.31776244    -1.07807609
     2.23807491    -1.19466697    -0.96013216
     1.89274526    -0.91618037    -0.74394731
     2.19841306    -1.39581681    -1.17978247
     2.60267038    -1.60034619    -1.36072519
     2.82574841    -1.67064145    -1.44538301
     2.87735148    -1.63153927    -1.41806828
     2.75328725    -1.47658448    -1.29219666
     2.40958879    -1.19804282    -1.06857197
     2.60592698    -1.63729277    -1.42111817
     2.99355026    -1.84310548    -1.61592628
     3.22269825    -1.93000562    -1.71541023
     3.28568099    -1.89735414    -1.71441134
     3.16820617    -1.74811150    -1.60068054
     2.85064876    -1.47257687    -1.36442596
     0.00000000     0.00000000     0.00000000
     0.00000000     0.00000000     0.00000000
     0.00000000     0.00000000     0.00000000
     0.00000000     0.00000000     0.00000000
     0.00000000     0.00000000     0.00000000
     0.00000000     0.00000000     0.00000000
     0.28715732    -0.37737351    -0.48136583
     0.20977248    -0.34662728    -0.57860791
     0.18540619    -0.36764913    -0.63171790
     0.28902690    -0.43215747    -0.63340850
     0.50290879    -0.37818336    -0.62324088
     0.48663362    -0.39793600    -0.56225847
     0.73057199    -0.85425010    -0.89723663
     0.76942092    -0.93549875    -1.06889000
     0.84397462    -1.03394538    -1.15490910
     0.95914726    -1.07779360    -1.19509995
     1.01513806    -1.02580962    -1.15100344
     1.01646438    -0.96899052    -1.03149936
     1.11085802    -1.29339861    -1.28037272
     1.26268661    -1.48131362    -1.49300951
     1.38501187    -1.61743246    -1.63238984
     1.48121636    -1.68340835    -1.67292550
     1.52441398    -1.63190571    -1.60564297
     1.46654878    -1.52073354    -1.45276402
     1.46575990    -1.69865413    -1.61379761
     1.68555630    -1.95809233    -1.85927296
     1.85254088    -2.14974759    -2.01129111
     1.95350159    -2.22446058    -2.06464670
     1.95312349    -2.17288069    -1.98668373
     1.86629958    -2.00138636    -1.79874391
     1.78269420    -2.05957274    -1.90339101
     2.04667892    -2.36916912    -2.15360452
     2.22867823    -2.57694921    -2.30989583
     2.32763671    -2.67138929    -2.35929558
     2.32699983    -2.62118036    -2.28987975
     2.17264824    -2.39528189    -2.08422624
     0.00000000     0.00000000     0.00000000
     0.00000000     0.00000000     0.00000000
     0.00000000     0.00000000     0.00000000
     0.00000000     0.00000000     0.00000000
     0.00000000     0.00000000     0.00000000
     0.00000000     0.00000000     0.00000000
     0.35476997    -0.61105112    -0.27447910
     0.60536215    -1.03829949    -0.50352209
     0.69637355    -1.25861905    -0.59619600
     0.63352258    -1.21524849    -0.59883635
     0.39759525    -1.04493338    -0.47740815
     0.50661511    -1.23317437    -0.61637260
     0.57518698    -1.21005604    -0.63485191
     0.86655126    -1.74879164    -0.93924773
     0.98844828    -2.04917208    -1.13229471
     0.91673325    -2.06082891    -1.11220223
     0.76475823    -1.93276962    -0.98433232
     0.75018338    -2.09876595    -1.05054534
     0.82838099    -1.82948452    -0.97889499
     1.09496771    -2.37484383    -1.29298449
     1.23494568    -2.72452910    -1.48029791
     1.20929402    -2.80753946    -1.50442062
     1.04966460    -2.73060828    -1.39683533
     0.97823420    -2.77862949    -1.35139867
     1.05766856    -2.41206033    -1.29149348
     1.29102591    -2.92519681    -1.56540413
     1.42318024    -3.27620525    -1.75170583
     1.41755726    -3.41728223    -1.78769369
     1.30897255    -3.39099066    -1.70766126
     1.17170181    -3.30625676    -1.59611090
     1.26759029    -2.93918389    -1.55407131
     1.45462544    -3.40463580    -1.78597891
     1.56526867    -3.73004218    -1.93530214
     1.58478108    -3.90116453    -1.99257905
     1.50679791    -3.90248422    -1.94143640
     1.35513744    -3.70876973    -1.78803003
     0.00000000     0.00000000     0.00000000
     0.00000000     0.00000000     0.00000000
     0.00000000     0.00000000     0.00000000
     0.00000000     0.00000000     0.00000000
     0.00000000     0.00000000     0.00000000
     0.00000000     0.00000000     0.00000000
     0.04868937    -0.73467871    -0.29932196
     0.10870414    -0.83552190    -0.36454302
     0.14116930    -0.81158261    -0.44962194
     0.11588380    -0.85011386    -0.43551004
     0.08032674    -0.70250605    -0.29528491
    -0.07626472    -0.70275458    -0.11438468
     0.33275715    -1.57545495    -0.67501834
     0.44321949    -1.83492572    -0.81407549
     0.49119802    -1.92679502    -0.86661559
     0.44744454    -1.86581741    -0.83397520
     0.32845286    -1.63492557    -0.65188626
     0.18626350    -1.42356669    -0.42542285
     0.57202097    -2.32088486    -1.03528991
     0.70623056    -2.67255444    -1.19798091
     0.74386691    -2.79739567    -1.26121140
     0.69688562    -2.72619452    -1.20192900
     0.60109289    -2.44364374    -1.02188938
     0.41727224    -2.09393955    -0.79901510
     0.78947430    -2.97118069    -1.34565912
     0.91608069    -3.34830456    -1.51866577
     0.95856750    -3.51620758    -1.57654998
     0.92370627    -3.44060488    -1.52768791
     0.81558255    -3.14196526    -1.36854149
     0.62767413    -2.70580654    -1.12653590
     0.96501212    -3.50609450    -1.60114664
     1.08671276    -3.88985991    -1.76614667
     1.12665621    -4.05333006    -1.82690901
     1.09564201    -4.00225518    -1.78460690
     0.99258388    -3.72787999    -1.64668635
     0.80482370    -3.24692285    -1.40695877
     0.00000000     0.00000000     0.00000000
     0.00000000     0.00000000     0.00000000
     0.00000000     0.00000000     0.00000000
     0.00000000     0.00000000     0.00000000
     0.00000000     0.00000000     0.00000000
     0.00000000     0.00000000     0.00000000
     0.47357734    -0.81901062    -0.50382037
     0.48928191    -1.12467451    -0.63879512
     0.51787861    -1.28329528    -0.62628820
     0.55947520    -1.22462538    -0.61494590
     0.52424370    -1.04451175    -0.56368278
     0.61277607    -0.78634403    -0.68412666
     0.69081215    -1.54146902    -0.83744119
     0.73946162    -1.93708271    -1.00760815
     0.76912316    -2.16481262    -1.08532007
     0.81112875    -2.12986621    -1.05513288
     0.84266712    -1.88809821    -1.02043223
     0.87842973    -1.57306565    -1.05823445
     0.89940636    -2.23918550    -1.11394266
     0.97320004    -2.67409670    -1.30698519
     1.03951014    -2.93182211    -1.40725627
     1.08200670    -2.92017192    -1.41860354
     1.07407981    -2.67641392    -1.36366138
     1.10685179    -2.31409612    -1.31480755
     1.06978119    -2.86763448    -1.35064505
     1.17357702    -3.30629587    -1.53664309
     1.25002743    -3.56077744    -1.66055585
     1.28625989    -3.57267493    -1.68054926
     1.28610435    -3.35744030    -1.62190567
     1.27776567    -2.96077313    -1.52729028
     1.21991244    -3.41555975    -1.54417411
     1.33332239    -3.83555477    -1.72500556
     1.41127930    -4.06472320    -1.83495173
     1.44808883    -4.09462368    -1.87176457
     1.44597868    -3.91466800    -1.82429877
     1.41013667    -3.50146735    -1.70169263
     0.00000000     0.00000000     0.00000000
     0.00000000     0.00000000     0.00000000
     0.00000000     0.00000000     0.00000000
     0.00000000     0.00000000     0.00000000
     0.00000000     0.00000000     0.00000000
     0.00000000     0.00000000     0.00000000
    -0.05546098    -0.59671990    -0.04287482
     0.07572233    -0.88775333    -0.12921176
     0.19330231    -0.98318486    -0.26903467
     0.20897570    -0.99246000    -0.28466236
     0.17335938    -1.05336562    -0.27782931
    -0.05102769    -1.24366622    -0.09590084
     0.12383882    -1.45144753    -0.29334296
     0.32286112    -1.92667855    -0.48664501
     0.46240114    -2.14008560    -0.58539441
     0.49745158    -2.17282954    -0.63285718
     0.37700792    -2.12369704    -0.54315810
     0.21336951    -2.19375541    -0.35198513
     0.28387537    -2.23979548    -0.56649945
     0.49725313    -2.78206383    -0.77086837
     0.62837605    -3.04967385    -0.89083812
     0.65272645    -3.11111505    -0.90231124
     0.59123618    -3.04320391    -0.81390288
     0.40832312    -2.93654008    -0.62525108
     0.44262386    -2.97004277    -0.81946331
     0.63024595    -3.50077592    -1.02468667
     0.74678196    -3.80718511    -1.12449399
     0.78822282    -3.90358313    -1.14697444
     0.73629988    -3.79672811    -1.06264420
     0.59401411    -3.56801042    -0.87366352
     0.57754489    -3.59716265    -1.04811332
     0.73778055    -4.11684755    -1.22688965
     0.83559871    -4.42254867    -1.32438457
     0.87628598    -4.52584503    -1.33666662
     0.84874769    -4.41707913    -1.26757953
     0.73332553    -4.08735803    -1.09389966
     0.00000000     0.00000000     0.00000000
     0.00000000     0.00000000     0.00000000
     0.00000000     0.00000000     0.00000000
     0.00000000     0.00000000     0.00000000
     0.00000000     0.00000000     0.00000000
     0.00000000     0.00000000     0.00000000
     0.19047920    -1.05346547    -0.31722212
     0.17209542    -1.42018188    -0.35087997
     0.18250218    -1.49145857    -0.32187963
     0.20604053    -1.50711686    -0.36050629
     0.25192806    -1.33302036    -0.36914645
     0.49294485    -0.78566171    -0.36465932
     0.22149540    -1.86848880    -0.47398331
     0.23533988    -2.34261801    -0.53813025
     0.27873284    -2.53191154    -0.58234614
     0.34663058    -2.54363701    -0.60143378
     0.47390899    -2.35942193    -0.64703086
     0.56275576    -1.65517020    -0.59484967
     0.26155956    -2.64828971    -0.62750374
     0.28882460    -3.19472561    -0.70081722
     0.35959358    -3.48162287    -0.75486009
     0.45273721    -3.52027128    -0.80154603
     0.53781458    -3.25644342    -0.82217737
     0.62437406    -2.55799411    -0.76269190
     0.28953797    -3.34743262    -0.74796739
     0.33338269    -3.92844652    -0.82516981
     0.41140803    -4.26268120    -0.89416498
     0.48596693    -4.29380732    -0.92590090
     0.56082367    -4.02571893    -0.93269240
     0.61596737    -3.37477091    -0.88329874
     0.32001037    -3.95790598    -0.84360003
     0.36576427    -4.53163903    -0.92251639
     0.42575355    -4.85320046    -0.97809620
     0.48597283    -4.89900066    -1.01081486
     0.53730771    -4.64881221    -1.00883127
     0.59199858    -4.06936825    -0.96410569
     0.00000000     0.00000000     0.00000000
     0.00000000     0.00000000     0.00000000
     0.00000000     0.00000000     0.00000000
     0.00000000     0.00000000     0.00000000
     0.00000000     0.00000000     0.00000000
     0.00000000     0.00000000     0.00000000
    -0.23215537    -0.74170893    -0.01689908
    -0.11454973    -1.11728827    -0.08182648
    -0.07199945    -1.38948815    -0.11853874
    -0.01784952    -1.53845686    -0.03863605
     0.05844809    -1.66530653    -0.08294201
    -0.26339519    -1.33507510     0.00766951
    -0.31497244    -1.77554541    -0.06012649
    -0.24418747    -2.39698563    -0.09053037
    -0.18101807    -2.81283857    -0.08427517
    -0.12593554    -3.04373182    -0.08051412
    -0.16313956    -2.97697921    -0.04001046
    -0.27853491    -2.53931122     0.01055120
    -0.37600322    -2.70702460    -0.05800268
    -0.30812797    -3.43498193    -0.09056969
    -0.25340578    -3.91580754    -0.08849760
    -0.21920161    -4.12592443    -0.05609711
    -0.21815518    -4.02011966    -0.01584134
    -0.33164948    -3.51573892     0.02577138
    -0.40290458    -3.55191073    -0.05518414
    -0.34605532    -4.29591237    -0.07620643
    -0.30849976    -4.76747448    -0.05997894
    -0.26898115    -4.97625371    -0.03610505
    -0.26659670    -4.82242430     0.00312653
    -0.31447928    -4.32836455     0.04379700
    -0.40654861    -4.27137280    -0.04039518
    -0.36665502    -4.98814106    -0.04086685
    -0.32986706    -5.41724196    -0.02531150
    -0.30323964    -5.57474624     0.00179521
    -0.28465698    -5.44344948     0.02768352
    -0.30268045    -4.96947528     0.04766097
     0.00000000     0.00000000     0.00000000
     0.00000000     0.00000000     0.00000000
     0.00000000     0.00000000     0.00000000
     0.00000000     0.00000000     0.00000000
     0.00000000     0.00000000     0.00000000
     0.00000000     0.00000000     0.00000000
    -0.03405912    -1.64171236     0.21738490
    -0.13717445    -1.73066439     0.30602350
    -0.09904469    -1.93327695     0.29794406
    -0.06250234    -1.74124660     0.22973818
    -0.08095643    -1.30520900     0.28351391
     0.35303775    -0.41255113     0.25624381
    -0.08418970    -2.83568377     0.32076630
    -0.09668807    -3.05575726     0.35108416
    -0.02741353    -3.24233536     0.35440628
     0.07502279    -3.00232411     0.35493778
     0.18003399    -2.32500096     0.35824800
     0.39080119    -1.33246818     0.35477022
    -0.09768239    -3.87798084     0.36674031
    -0.09735145    -4.24161286     0.42345244
    -0.00300428    -4.44032158     0.42579633
     0.12320567    -4.15262728     0.41215036
     0.24779895    -3.40095053     0.39564585
     0.43972110    -2.37674287     0.39079960
    -0.09198384    -4.75049263     0.42818159
    -0.07429772    -5.22228655     0.47820944
     0.02309811    -5.39745715     0.48941928
     0.13820129    -5.11797365     0.47051212
     0.25983844    -4.41627011     0.43574513
     0.39765759    -3.41283954     0.41768871
    -0.06682131    -5.46794078     0.47354515
    -0.03070025    -5.96488659     0.53997664
     0.04432233    -6.10585611     0.55304930
     0.13697427    -5.88815968     0.53262585
     0.23081391    -5.30719883     0.49151431
     0.35259455    -4.33917391     0.44709183
     0.00000000     0.00000000     0.00000000
     0.00000000     0.00000000     0.00000000
     0.00000000     0.00000000     0.00000000
     0.00000000     0.00000000     0.00000000
     0.00000000     0.00000000     0.00000000
     0.00000000     0.00000000     0.00000000
    -0.25518451    -1.32092700     0.05371084
    -0.27429424    -1.50377313     0.03803564
    -0.35308012    -1.85623074     0.05991744
    -0.36210897    -2.04201576     0.04343242
    -0.23180984    -1.87784668    -0.09904326
    -0.21149399    -2.34306686    -0.08744754
    -0.42364277    -2.70224656     0.23839111
    -0.55144936    -3.17509876     0.22719338
    -0.65295121    -3.70405517     0.27638782
    -0.65737529    -3.90347104     0.24147484
    -0.49230890    -3.73936053     0.13193699
    -0.35685567    -3.90514576     0.10452324
    -0.58246032    -3.83915916     0.49072079
    -0.73206466    -4.53623157     0.50639697
    -0.85796169    -5.12963628     0.59084981
    -0.85081816    -5.37999311     0.58839494
    -0.70519148    -5.21859016     0.48720114
    -0.55978166    -5.09230327     0.41947549
    -0.72795586    -4.79313558     0.73557335
    -0.88230164    -5.61544429     0.82820965
    -0.98636611    -6.22274598     0.92951430
    -0.98346277    -6.48241707     0.95077436
    -0.86390517    -6.34230960     0.86862661
    -0.70639303    -5.99112860     0.73560325
    -0.86038475    -5.57778962     0.97322297
    -0.99348246    -6.43013316     1.12788266
    -1.06257916    -6.97490159     1.24333193
    -1.04938095    -7.22206209     1.27672133
    -0.96239315    -7.13318203     1.20584975
    -0.81268683    -6.67352933     1.02569620
     0.00000000     0.00000000     0.00000000
     0.00000000     0.00000000     0.00000000
     0.00000000     0.00000000     0.00000000
     0.00000000     0.00000000     0.00000000
     0.00000000     0.00000000     0.00000000
     0.00000000     0.00000000     0.00000000
    -0.27168361    -1.81443053     0.73437465
    -0.23418835    -2.18240184     0.74490863
    -0.31146272    -2.62732857     0.87267628
    -0.30153708    -2.78348261     0.95829183
    -0.44086444    -2.56483535     1.16422414
    -0.80562199    -2.00561670     1.24975819
    -0.55703521    -3.16518780     1.38305530
    -0.54947914    -3.86074855     1.63070687
    -0.62342094    -4.57590500     1.78404415
    -0.72442630    -4.77643134     1.91824029
    -0.95192895    -4.45071594     2.09103282
    -1.13250597    -3.68071518     2.16073212
    -0.79241803    -4.40121690     1.95546113
    -0.82197819    -5.29364057     2.32251221
    -0.90317857    -6.07831848     2.54606767
    -1.03438393    -6.30521285     2.69680545
    -1.20865721    -5.93751246     2.80718824
    -1.33141852    -5.08956766     2.74089178
    -0.95682920    -5.47929175     2.46909877
    -1.02697179    -6.44501417     2.90835815
    -1.12066741    -7.19037232     3.18124676
    -1.22571622    -7.38969363     3.32163759
    -1.34855683    -7.04688735     3.34579845
    -1.42485160    -6.22637990     3.20259733
    -1.06989561    -6.36438439     2.94430589
    -1.16482834    -7.34170782     3.40907086
    -1.24924541    -7.92824342     3.67554462
    -1.33945537    -8.08329522     3.78607338
    -1.41665452    -7.80503538     3.75134628
    -1.47948786    -7.09234031     3.54710478
     0.00000000     0.00000000     0.00000000
     0.00000000     0.00000000     0.00000000
     0.00000000     0.00000000     0.00000000
     0.00000000     0.00000000     0.00000000
     0.00000000     0.00000000     0.00000000
     0.00000000     0.00000000     0.00000000
    -0.15933158    -1.81354716     0.84393117
    -0.11161597    -1.91791372     0.97707228
    -0.02113212    -1.79118251     1.08221479
    -0.05259440    -1.67663268     1.05858003
     0.05057766    -1.34558298     0.75173648
     0.15954736    -1.40109430     0.46893389
    -0.24460382    -3.56469099     1.62869292
    -0.20188519    -3.80890156     1.77401354
    -0.14424020    -3.74477524     1.92845894
    -0.11148372    -3.47615711     1.86594242
     0.04610664    -3.00923632     1.49374642
     0.19126416    -2.73575286     1.02760509
    -0.26264669    -5.01061494     2.28277980
    -0.24456444    -5.37030047     2.44853421
    -0.22385072    -5.31660404     2.58326785
    -0.17036884    -5.02756877     2.49926291
    -0.04176308    -4.48376173     2.13537656
     0.08969961    -3.94874509     1.64739888
    -0.29043675    -6.18520995     2.80184716
    -0.28436033    -6.60353344     2.98727392
    -0.29025178    -6.63051513     3.08475553
    -0.25752084    -6.32901562     2.98737283
    -0.15426336    -5.73781140     2.66130952
    -0.03445392    -5.01760795     2.18670101
    -0.32025375    -7.11152424     3.18865811
    -0.34243990    -7.57345931     3.39521674
    -0.36000961    -7.62445377     3.45705671
    -0.34012634    -7.35497721     3.36069123
    -0.27190785    -6.77688595     3.08595753
    -0.14422324    -5.93487057     2.64103775
     0.00000000     0.00000000     0.00000000
     0.00000000     0.00000000     0.00000000
     0.00000000     0.00000000     0.00000000
     0.00000000     0.00000000     0.00000000
     0.00000000     0.00000000     0.00000000
     0.00000000     0.00000000     0.00000000
     0.22862000    -2.04004666     0.45532719
     0.10466729    -1.77326735     0.30242987
    -0.15207462    -1.91857308     0.19310970
    -0.20754068    -1.82564453     0.22707550
    -0.34358644    -1.88355053     0.40610704
    -0.20112436    -1.63798907     0.61697613
     0.34089368    -3.21623198     0.60076086
     0.14146501    -3.11124944     0.50329402
    -0.12576661    -3.25045070     0.42843239
    -0.27979922    -3.25326656     0.47712406
    -0.40921968    -3.18758844     0.67029231
    -0.36162761    -2.89355730     0.92780175
     0.23341262    -4.24716844     0.72830806
     0.03456387    -4.36996016     0.70996829
    -0.19975984    -4.64012496     0.68799098
    -0.34709982    -4.62071490     0.73215606
    -0.43231464    -4.42111187     0.86383210
    -0.36442096    -4.01486668     1.05940517
     0.08339724    -5.19915727     0.84334893
    -0.12876611    -5.56785400     0.90271938
    -0.29326047    -5.86850737     0.93520531
    -0.39548961    -5.86828432     0.96836652
    -0.43976945    -5.58268574     1.04051337
    -0.37762367    -5.04506796     1.13998541
    -0.08965020    -6.06495146     0.97416413
    -0.27255029    -6.63286156     1.08275096
    -0.39124181    -6.95735017     1.14390249
    -0.44482006    -6.94757371     1.17121254
    -0.44933517    -6.63199332     1.19234871
    -0.41055176    -5.99592284     1.20958606
     0.00000000     0.00000000     0.00000000
     0.00000000     0.00000000     0.00000000
     0.00000000     0.00000000     0.00000000
     0.00000000     0.00000000     0.00000000
     0.00000000     0.00000000     0.00000000
     0.00000000     0.00000000     0.00000000
    -0.65030774    -0.39467086     0.07427115
    -0.82802361    -1.71313656     0.11672858
    -0.63261033    -2.28394675     0.06718528
    -0.38602749    -2.35557296    -0.07499494
     0.00254436    -1.79771177    -0.32984305
    -0.09030091    -1.27447994    -0.46458398
    -1.29399336    -1.73443253     0.20310705
    -1.40080175    -3.58894974     0.19564245
    -1.15991036    -4.42557011     0.10396959
    -0.75590769    -4.50693920    -0.12074919
    -0.33450019    -3.86977549    -0.40187614
    -0.21626752    -2.84864906    -0.65325856
    -1.69972994    -3.39863269     0.32977733
    -1.72668654    -5.32579127     0.32384969
    -1.45296681    -6.24425767     0.19034793
    -1.06378430    -6.39547536    -0.02985439
    -0.62659203    -5.74698793    -0.31681428
    -0.45570681    -4.60450827    -0.58249633
    -1.95047155    -5.10452113     0.48637165
    -1.87175835    -6.87004350     0.46212933
    -1.62031562    -7.78914530     0.33479343
    -1.26390957    -7.97355974     0.13082140
    -0.89192664    -7.40783176    -0.13310821
    -0.65725224    -6.24396669    -0.38912085
    -2.04171670    -6.73028913     0.61779023
    -1.91289160    -8.19990417     0.60670858
    -1.67061290    -9.02204092     0.50983896
    -1.38636318    -9.23558409     0.34842524
    -1.08908741    -8.80717246     0.12623809
    -0.82795299    -7.69724793    -0.13568453
     0.00000000     0.00000000     0.00000000
     0.00000000     0.00000000     0.00000000
     0.00000000     0.00000000     0.00000000
     0.00000000     0.00000000     0.00000000
     0.00000000     0.00000000     0.00000000
     0.00000000     0.00000000     0.00000000
    -0.00754614    -3.00801915     0.12832113
     0.15118409    -3.45021193     0.42849064
     0.31771013    -3.80611811     0.67729879
     0.30185694    -3.70076086     0.60551777
     0.17627561    -3.28341219     0.68543336
     0.33104738    -3.22296110     0.61764739
     0.13528421    -5.61030034     0.45238485
     0.32224493    -6.27356645     0.93353127
     0.52209174    -6.80017861     1.23141531
     0.51602801    -6.67069316     1.24516690
     0.39194977    -6.04005621     1.21371184
     0.48319986    -5.73175537     1.14478366
     0.31668102    -7.79871846     0.79473806
     0.49098965    -8.57982019     1.25657075
     0.62464152    -9.12650937     1.59544543
     0.66079797    -9.01321295     1.65916651
     0.58026330    -8.37429747     1.61446365
     0.65873173    -7.73224467     1.47387097
     0.48674217    -9.57692577     1.09209626
     0.61879634   -10.42712762     1.50454161
     0.71319614   -10.91442641     1.79415487
     0.74561386   -10.84001038     1.90497866
     0.72748526   -10.23980942     1.87611242
     0.77779255    -9.39136542     1.71344853
     0.61501562   -10.95570518     1.36631559
     0.70415743   -11.90868442     1.68730502
     0.76303544   -12.30564684     1.90355978
     0.80338485   -12.22729983     2.00513791
     0.82369102   -11.68818909     2.00243840
     0.83707156   -10.70024264     1.87405430
     0.00000000     0.00000000     0.00000000
     0.00000000     0.00000000     0.00000000
     0.00000000     0.00000000     0.00000000
     0.00000000     0.00000000     0.00000000
     0.00000000     0.00000000     0.00000000
     0.00000000     0.00000000     0.00000000
     0.99279803    -1.40925458     0.53490515
     0.99474892    -1.05323865     0.38624214
     0.91093246    -1.36080097     0.59562969
     0.67180605    -1.78691563     0.73306890
     0.30839723    -1.90452690     0.94255667
    -0.07012407    -1.07946843     0.86495809
     1.49930702    -3.04084931     1.06490534
     1.59560856    -2.82076811     0.96024428
     1.36906691    -3.22015554     1.12928490
     0.97663991    -3.71386672     1.40592063
     0.60206057    -3.69170687     1.61370357
     0.24805880    -2.72515345     1.49110695
     1.76269458    -4.54725414     1.42918881
     1.84648454    -4.66058169     1.47446207
     1.62604802    -5.05295359     1.63230565
     1.22287146    -5.40428041     1.89383416
     0.85011374    -5.26639114     2.08735267
     0.44929159    -4.28885173     1.95838031
     1.85260487    -5.90244230     1.69884289
     1.90575024    -6.35090638     1.86657328
     1.69999672    -6.74846710     2.04500942
     1.38301343    -6.91069109     2.24518088
     1.05190745    -6.58814588     2.36362687
     0.66669928    -5.71296549     2.28278892
     1.87363509    -7.04774828     1.86953583
     1.84021813    -7.77968612     2.12890070
     1.68366593    -8.18477681     2.31196734
     1.44983403    -8.18106420     2.45339735
     1.18939600    -7.74964247     2.52128646
     0.87498874    -6.89585328     2.46929298
     0.00000000     0.00000000     0.00000000
     0.00000000     0.00000000     0.00000000
     0.00000000     0.00000000     0.00000000
     0.00000000     0.00000000     0.00000000
     0.00000000     0.00000000     0.00000000
     0.00000000     0.00000000     0.00000000
    -0.49573093    -1.52602964    -0.18884894
    -0.56896112    -1.66046489    -0.13453228
    -0.40313415    -1.63281279    -0.25916732
    -0.21440822    -1.61345896    -0.02861258
    -0.04815673    -2.41362567    -0.13402808
     0.11605628    -1.48084109    -0.42766258
    -0.61038624    -2.48021110    -0.28069895
    -0.71084086    -2.82962008    -0.30556586
    -0.49814136    -2.91035499    -0.22836132
    -0.19218506    -3.11897745    -0.13955587
    -0.11518165    -3.79938859    -0.20075409
     0.05565649    -2.83727634    -0.39059245
    -0.65279594    -3.43632457    -0.23769093
    -0.68573630    -3.93070219    -0.26361291
    -0.49760638    -4.24393158    -0.20984994
    -0.27152161    -4.50483411    -0.16240476
    -0.18764745    -4.86988082    -0.20891303
    -0.00374213    -3.96342499    -0.33959675
    -0.63985138    -4.34342399    -0.13357375
    -0.63493738    -4.98644814    -0.16578334
    -0.50904389    -5.42079858    -0.13551647
    -0.36784390    -5.68198004    -0.12652747
    -0.27986124    -5.76472372    -0.15837452
    -0.12058258    -4.96313625    -0.26266535
    -0.63783766    -5.19979086    -0.01965282
    -0.61698713    -5.92333083    -0.03815888
    -0.55642124    -6.40617687    -0.03798573
    -0.47148866    -6.62695283    -0.04951437
    -0.38230310    -6.50902678    -0.08772488
    -0.25676062    -5.82828211    -0.16633696
     0.00000000     0.00000000     0.00000000
     0.00000000     0.00000000     0.00000000
     0.00000000     0.00000000     0.00000000
     0.00000000     0.00000000     0.00000000
     0.00000000     0.00000000     0.00000000
     0.00000000     0.00000000     0.00000000
    -0.37121052    -1.62151162     0.51440608
    -0.38118227    -2.03764268     0.53057829
    -0.45084020    -2.21270538     0.66068490
    -0.34275896    -2.03298741     0.49547440
    -0.37552935    -1.42125844     0.48421388
    -0.50292082    -1.37266175     0.59308824
    -0.77489853    -3.09811653     0.81751591
    -0.82796339    -3.73262290     0.95366901
    -0.90796441    -3.97075024     0.98386259
    -0.86183084    -3.73397879     0.88874139
    -0.74339743    -3.04775206     0.79798447
    -0.91051504    -2.90643404     0.75755231
    -1.12530029    -4.25451980     1.01442492
    -1.21864702    -4.96404943     1.18576892
    -1.29472205    -5.23942250     1.23497919
    -1.25103891    -5.06419835     1.16056965
    -1.16429879    -4.51376342     1.04748520
    -1.22014196    -4.13322412     0.95208790
    -1.40927840    -5.17749226     1.13464109
    -1.53819047    -5.86654707     1.32980779
    -1.60460664    -6.17622137     1.38533213
    -1.58575684    -6.11626387     1.33888565
    -1.50812241    -5.68130816     1.23199564
    -1.47060686    -5.16325435     1.11142758
    -1.62616084    -5.91499017     1.23308677
    -1.78200658    -6.56785139     1.40504672
    -1.85171136    -6.88902824     1.46042323
    -1.84924206    -6.88304415     1.44144692
    -1.78634470    -6.56477248     1.36284416
    -1.66624966    -5.95926652     1.23841180
     0.00000000     0.00000000     0.00000000
     0.00000000     0.00000000     0.00000000
     0.00000000     0.00000000     0.00000000
     0.00000000     0.00000000     0.00000000
     0.00000000     0.00000000     0.00000000
     0.00000000     0.00000000     0.00000000
    -0.09061251    -1.29257002     0.28363431
    -0.04930135    -1.31222230     0.27362945
    -0.17037713    -1.42030602     0.18801781
    -0.38256644    -1.56385885     0.28223210
    -0.46051456    -1.86663543     0.11777323
    -0.22181403    -1.06602623    -0.04509375
    -0.18304611    -2.15627060     0.45587618
    -0.19213872    -2.37569781     0.41555921
    -0.36579500    -2.61133056     0.44213903
    -0.61606389    -2.82316755     0.47596380
    -0.80121265    -2.94944844     0.40960200
    -0.62403778    -2.28576587     0.32408532
    -0.35799475    -3.02825537     0.55862232
    -0.46313179    -3.45185343     0.56177286
    -0.66169121    -3.78202378     0.59022433
    -0.90291558    -3.90644232     0.63532527
    -1.02097518    -3.86211880     0.60845160
    -0.87602609    -3.23181607     0.53287109
    -0.58861166    -3.85749627     0.64532553
    -0.76651114    -4.42908214     0.65244680
    -0.97820157    -4.76606902     0.69807161
    -1.14721498    -4.83556300     0.73246833
    -1.21942488    -4.66019784     0.72374388
    -1.10856438    -4.09832910     0.67020766
    -0.83258206    -4.60132931     0.68242265
    -1.06412796    -5.23945225     0.72012537
    -1.26220625    -5.58975274     0.75570969
    -1.37642658    -5.62741552     0.78124298
    -1.39222757    -5.39034386     0.78326293
    -1.30530993    -4.85093820     0.74344792
     0.00000000     0.00000000     0.00000000
     0.00000000     0.00000000     0.00000000
     0.00000000     0.00000000     0.00000000
     0.00000000     0.00000000     0.00000000
     0.00000000     0.00000000     0.00000000
     0.00000000     0.00000000     0.00000000
    -0.38684817    -0.59210021    -0.13753856
    -0.68171328    -0.93035809    -0.01108105
    -0.67446508    -1.03879923     0.07169402
    -0.53430240    -1.12639371     0.08264854
    -0.33347241    -0.95392110     0.24991573
    -0.36032749    -1.20759247     0.39591686
    -0.79214203    -1.69188297    -0.12351835
    -1.15619524    -2.11434316    -0.03372375
    -1.12886441    -2.29920909     0.02113993
    -0.92123168    -2.41789571     0.06296646
    -0.61800791    -2.22693508     0.14416124
    -0.46081491    -1.89555480     0.20278843
    -1.15225740    -2.72828625    -0.03329417
    -1.43101702    -3.21544220    -0.00299678
    -1.41860112    -3.44584297     0.03182644
    -1.20122950    -3.60243447     0.04906422
    -0.90061431    -3.37005476     0.06298679
    -0.68885584    -2.85885364     0.10615038
    -1.41802974    -3.67097300     0.04567200
    -1.61792892    -4.21111272     0.05694087
    -1.59190832    -4.52513661     0.05673705
    -1.42506035    -4.62212568     0.04750367
    -1.16707693    -4.34904346     0.03782288
    -0.92566658    -3.74828300     0.05160161
    -1.61699424    -4.48739027     0.12505179
    -1.74218595    -5.08574922     0.11693558
    -1.71947207    -5.41465678     0.09757383
    -1.59585373    -5.47875353     0.07293579
    -1.39781313    -5.18517081     0.04621212
    -1.14183326    -4.53435462     0.03393691
     0.00000000     0.00000000     0.00000000
     0.00000000     0.00000000     0.00000000
     0.00000000     0.00000000     0.00000000
     0.00000000     0.00000000     0.00000000
     0.00000000     0.00000000     0.00000000
     0.00000000     0.00000000     0.00000000
    -0.28318318    -1.53594264    -0.15823133
    -0.23653512    -1.80880092    -0.26979026
    -0.26976699    -1.90498190    -0.29858283
    -0.27293334    -1.72618531    -0.32284621
    -0.22455817    -1.45293482    -0.44754345
     0.00390802    -0.42878653    -0.56159062
    -0.51813720    -2.79493836    -0.36570643
    -0.49804027    -3.29434876    -0.43807847
    -0.55183539    -3.46846880    -0.46570974
    -0.57993753    -3.22978397    -0.49166204
    -0.56261030    -2.79370160    -0.53467305
    -0.32879684    -1.81398539    -0.56565063
    -0.71431453    -3.90760334    -0.56631156
    -0.75029637    -4.48444375    -0.60619056
    -0.81448637    -4.71029678    -0.62193294
    -0.85799111    -4.45859349    -0.62101628
    -0.83068474    -3.93440343    -0.59641632
    -0.61006317    -2.93646212    -0.59924167
    -0.88660423    -4.84798188    -0.73541454
    -0.96562972    -5.44031031    -0.75476788
    -1.05148791    -5.64492656    -0.74736750
    -1.08840426    -5.44427831    -0.71660786
    -1.04233929    -4.91003280    -0.66545083
    -0.84891707    -3.94177479    -0.62969140
    -1.02394907    -5.64259426    -0.86825471
    -1.14141307    -6.18290802    -0.87395149
    -1.22713676    -6.35304528    -0.84777525
    -1.26011159    -6.19076591    -0.79758386
    -1.20931122    -5.70969852    -0.73069950
    -1.04932470    -4.83067913    -0.66104271
     0.00000000     0.00000000     0.00000000
     0.00000000     0.00000000     0.00000000
     0.00000000     0.00000000     0.00000000
     0.00000000     0.00000000     0.00000000
     0.00000000     0.00000000     0.00000000
     0.00000000     0.00000000     0.00000000
    -0.42888000    -1.49793000    -0.02994000
    -0.55717000    -1.94602000    -0.03889000
    -0.57335000    -2.00253000    -0.04002000
    -0.59451000    -2.07641000    -0.04150000
    -0.72635000    -2.53690000    -0.05070000
    -0.93216000    -3.25572000    -0.06507000
    -0.71249000    -2.48849000    -0.04973000
    -0.86310000    -3.01451000    -0.06024000
    -0.92116000    -3.21731000    -0.06430000
    -0.95760000    -3.34457000    -0.06684000
    -1.03745000    -3.62345000    -0.07241000
    -1.14455000    -3.99754000    -0.07989000
    -0.96613000    -3.37438000    -0.06744000
    -1.12924000    -3.94406000    -0.07882000
    -1.21581000    -4.24643000    -0.08486000
    -1.26186000    -4.40727000    -0.08808000
    -1.30125000    -4.54483000    -0.09083000
    -1.33080000    -4.64805000    -0.09289000
    -1.18980000    -4.15558000    -0.08305000
    -1.35560000    -4.73465000    -0.09462000
    -1.45731000    -5.08989000    -0.10172000
    -1.50730000    -5.26450000    -0.10521000
    -1.51776000    -5.30105000    -0.10594000
    -1.49091000    -5.20724000    -0.10407000
    -1.38350000    -4.83211000    -0.09657000
    -1.54217000    -5.38629000    -0.10764000
    -1.64564000    -5.74769000    -0.11487000
    -1.69392000    -5.91628000    -0.11824000
    -1.68699000    -5.89209000    -0.11775000
    -1.62486000    -5.67510000    -0.11342000
     0.00000000     0.00000000     0.00000000
     0.00000000     0.00000000     0.00000000
     0.00000000     0.00000000     0.00000000
     0.00000000     0.00000000     0.00000000
     0.00000000     0.00000000     0.00000000
     1.07445865    -0.11075331    -0.29297663
     1.15788032     0.06288182    -0.37630763
     1.06800650    -0.24959472    -0.41600908
     0.86256525    -0.50694498    -0.09089944
     0.47930181    -0.12131868     0.38975575
     1.94138417    -0.49685121    -0.56593073
     2.04693970    -0.53953242    -0.61343739
     1.95333462    -0.67247870    -0.52703981
     1.65493341    -0.65165337    -0.20135572
     1.09620896    -0.30307972     0.29212009
     2.69604539    -0.81803565    -0.78171474
     2.81229671    -0.89158823    -0.78960481
     2.70191171    -0.91161011    -0.66746785
     2.35145719    -0.81109566    -0.36540467
     1.73841250    -0.51985423     0.06776650
     3.33076338    -1.06864643    -0.94693321
     3.43715404    -1.13694619    -0.94362466
     3.30852402    -1.11785196    -0.81256692
     2.94716580    -0.98569529    -0.55478593
     2.35559568    -0.74035956    -0.17830011
     3.84336232    -1.26311257    -1.07989856
     3.92803210    -1.31526400    -1.06501021
     3.79362690    -1.27695621    -0.95159975
     3.45181918    -1.15453860    -0.73677080
     2.90618417    -0.94821920    -0.42064929
     0.00000000     0.00000000     0.00000000
     0.00000000     0.00000000     0.00000000
     0.00000000     0.00000000     0.00000000
     0.00000000     0.00000000     0.00000000
     0.00000000     0.00000000     0.00000000
     0.92949652    -0.55540163    -0.37633863
     0.98872333    -0.84569415    -0.30940945
     1.06977780    -0.57339569    -0.18892796
     1.13476775    -0.18038118    -0.31867790
     1.05861182    -0.30866452    -0.61429276
     1.80975574    -0.77858966    -0.66427627
     1.94272942    -0.91209441    -0.66522726
     2.04441259    -0.79356026    -0.63694929
     2.04536078    -0.61631809    -0.73251833
     1.89101719    -0.64259556    -0.91368677
     2.54462468    -0.99715906    -0.91960038
     2.74135728    -1.09760712    -0.98476915
     2.83325793    -1.08028278    -1.01759796
     2.78648988    -0.98308879    -1.07500748
     2.57409080    -0.92516585    -1.15044593
     3.13980415    -1.19777164    -1.14656084
     3.37780544    -1.29694707    -1.24839368
     3.46632532    -1.31416188    -1.31319829
     3.38049830    -1.26112627    -1.34397472
     3.12562221    -1.16699445    -1.34749168
     3.60938928    -1.37443381    -1.33583557
     3.84735540    -1.47305029    -1.45499882
     3.92728847    -1.50663074    -1.52449753
     3.83918922    -1.46889540    -1.53998953
     3.55908211    -1.35464179    -1.50260822
     0.00000000     0.00000000     0.00000000
     0.00000000     0.00000000     0.00000000
     0.00000000     0.00000000     0.00000000
     0.00000000     0.00000000     0.00000000
     0.00000000     0.00000000     0.00000000
     1.10638160    -0.23427655    -0.38102691
     1.08274659     0.04984698    -0.52877068
     0.96647115    -0.22859708    -0.67667534
     1.00216308    -0.66017037    -0.66342961
     0.80538612    -0.46031149    -0.50576168
     1.80061092    -0.67363912    -0.73364032
     1.87406407    -0.60562104    -0.92796708
     1.81849148    -0.78220799    -1.09120181
     1.80094156    -1.01164222    -1.13752817
     1.53866112    -0.87446736    -0.97432936
     2.36995434    -1.05866347    -1.07983703
     2.53892160    -1.11394321    -1.29350934
     2.54278249    -1.21882646    -1.45374848
     2.45640925    -1.33033819    -1.49780507
     2.14854161    -1.22218502    -1.35597288
     2.84132516    -1.39792506    -1.38816212
     3.05145193    -1.52354891    -1.61082919
     3.08756059    -1.60880478    -1.74739060
     2.97246579    -1.62827953    -1.77370532
     2.65354840    -1.51172019    -1.64455592
     3.21805495    -1.69448364    -1.65686375
     3.43068033    -1.84811798    -1.86020711
     3.47905108    -1.91592103    -1.97402879
     3.35887684    -1.88845878    -1.98064789
     3.05216878    -1.75089265    -1.85518520
     0.00000000     0.00000000     0.00000000
     0.00000000     0.00000000     0.00000000
     0.00000000     0.00000000     0.00000000
     0.00000000     0.00000000     0.00000000
     0.00000000     0.00000000     0.00000000
     0.63655635    -0.93147993    -0.66377162
     0.72288795    -1.21074609    -0.61269464
     0.83901665    -0.98310162    -0.53405985
     0.90266524    -0.67548395    -0.70418810
     0.95595498    -0.78226875    -0.74254993
     1.33099332    -1.52882802    -1.26987819
     1.55854524    -1.78392987    -1.28150380
     1.67331923    -1.68538696    -1.25884009
     1.62178710    -1.45281522    -1.27838916
     1.54069429    -1.36647925    -1.26563859
     1.86428957    -2.03857852    -1.71410848
     2.09804537    -2.29936782    -1.80326139
     2.20011350    -2.30260307    -1.78871944
     2.14342543    -2.09818327    -1.75335721
     1.99825731    -1.88452328    -1.65332997
     2.23730385    -2.45585874    -2.05783565
     2.47175457    -2.70973449    -2.17539505
     2.56776848    -2.75334280    -2.19470997
     2.51094505    -2.59328533    -2.11835081
     2.34553718    -2.32285958    -1.97401787
     2.50782037    -2.78231902    -2.31582911
     2.70503828    -3.00408359    -2.44354344
     2.79069223    -3.06243264    -2.46675565
     2.75723709    -2.94433355    -2.39377656
     2.59397172    -2.67307344    -2.21816392
     0.00000000     0.00000000     0.00000000
     0.00000000     0.00000000     0.00000000
     0.00000000     0.00000000     0.00000000
     0.00000000     0.00000000     0.00000000
     0.00000000     0.00000000     0.00000000
     0.49829134    -1.25853717    -0.73385310
     0.42781870    -1.11560749    -0.62290880
     0.50457393    -1.19484405    -0.61284107
     0.50261236    -1.51378007    -0.78023040
     0.09882612    -1.00518188    -0.48231386
     0.76590373    -2.35764457    -1.12546467
     0.70042270    -2.36589728    -1.05787348
     0.71841841    -2.38724762    -1.07546470
     0.79134082    -2.49574412    -1.18241513
     0.47547303    -1.87721244    -0.88765499
     1.02810891    -3.13205538    -1.45503959
     1.01865115    -3.23406882    -1.44728217
     1.02452221    -3.22015525    -1.47211892
     1.03567536    -3.17348809    -1.48614663
     0.79236449    -2.61702044    -1.22985379
     1.27184500    -3.68302991    -1.72225472
     1.29997316    -3.84243382    -1.76740760
     1.28919352    -3.81979793    -1.76784584
     1.25369319    -3.66668795    -1.71897464
     1.06268764    -3.20982040    -1.51350462
     1.47255728    -4.07333356    -1.93427440
     1.53113726    -4.24522157    -1.99707996
     1.51728505    -4.22254672    -1.98882800
     1.44044811    -4.02709285    -1.90579828
     1.29192178    -3.66612931    -1.73940417
     0.00000000     0.00000000     0.00000000
     0.00000000     0.00000000     0.00000000
     0.00000000     0.00000000     0.00000000
     0.00000000     0.00000000     0.00000000
     0.00000000     0.00000000     0.00000000
     0.12868069    -1.25581044    -0.22044218
     0.12260382    -1.34851151    -0.40736388
    -0.25398649    -0.95095841    -0.23563673
    -0.13118307    -0.67977156     0.07824081
     0.26882066    -0.58847835    -0.04626969
     0.31191527    -1.81646192    -0.61956133
     0.24083755    -1.82792231    -0.71494285
     0.08255435    -1.63301265    -0.57002056
     0.11199753    -1.49813870    -0.37540123
     0.31721937    -1.31101231    -0.29470072
     0.51018751    -2.45838835    -0.99636956
     0.47655289    -2.54377340    -1.05583473
     0.40301742    -2.47356618    -0.94751808
     0.41065922    -2.30896799    -0.77906310
     0.46261711    -1.97518071    -0.62787778
     0.71645724    -3.08496810    -1.32378105
     0.72859225    -3.23458681    -1.37733066
     0.71187106    -3.21043334    -1.30583314
     0.68276083    -3.01519700    -1.15640102
     0.63653748    -2.61333317    -0.94615227
     0.91251438    -3.63877846    -1.58635665
     0.95411311    -3.82846561    -1.65196419
     0.95793617    -3.82796138    -1.61255208
     0.91233511    -3.61621236    -1.47155147
     0.80725420    -3.16837429    -1.23715878
     0.00000000     0.00000000     0.00000000
     0.00000000     0.00000000     0.00000000
     0.00000000     0.00000000     0.00000000
     0.00000000     0.00000000     0.00000000
     0.00000000     0.00000000     0.00000000
     0.60095723    -0.74002807    -0.88780863
     0.66427503    -0.73716983    -0.74797699
     0.94807698    -0.82748384    -0.71879907
     0.77313731    -0.94721065    -0.75589782
     0.38582755    -1.08604590    -0.53205659
     1.04259623    -1.83811069    -1.25535750
     1.19824540    -1.98501889    -1.26554962
     1.25432863    -1.99116808    -1.22017231
     1.12551179    -1.89893542    -1.10611728
     0.84843414    -1.86769028    -0.94735454
     1.30897352    -2.71006831    -1.51925230
     1.45208668    -2.91902989    -1.59163089
     1.46964683    -2.89941340    -1.56328942
     1.34459323    -2.73919410    -1.43733884
     1.13418517    -2.58032830    -1.23522435
     1.46933920    -3.39785793    -1.71663370
     1.58154366    -3.63842913    -1.80585990
     1.58501943    -3.64536951    -1.79570958
     1.49492141    -3.46422486    -1.68033642
     1.33355406    -3.17871370    -1.48432271
     1.56739592    -3.94395767    -1.87440740
     1.65129448    -4.17363267    -1.95722059
     1.65609901    -4.20248290    -1.95356794
     1.59583414    -4.03931376    -1.86737149
     1.46843291    -3.67896614    -1.67672954
     0.00000000     0.00000000     0.00000000
     0.00000000     0.00000000     0.00000000
     0.00000000     0.00000000     0.00000000
     0.00000000     0.00000000     0.00000000
     0.00000000     0.00000000     0.00000000
     0.07492904    -1.61397577     0.00693217
     0.15601898    -1.80062675    -0.19707645
    -0.06748936    -1.69351705    -0.30481554
    -0.05068203    -1.36824248    -0.31186429
     0.14630300    -0.84847265    -0.34114504
     0.23249951    -2.56209904    -0.36021457
     0.27198254    -2.81338163    -0.50974249
     0.25648220    -2.77689572    -0.66889015
     0.19163318    -2.42412551    -0.73365945
     0.18927024    -1.80546790    -0.68910382
     0.45795352    -3.35624700    -0.71630505
     0.48353823    -3.62301920    -0.86967989
     0.47327124    -3.61446494    -0.99193245
     0.41556489    -3.27110116    -1.03978618
     0.33176684    -2.65383476    -1.00361040
     0.65849664    -4.01695365    -1.03145937
     0.68766804    -4.27381732    -1.17605647
     0.67190783    -4.26172137    -1.27084261
     0.60127779    -3.95524889    -1.29146788
     0.48506230    -3.39809647    -1.23855522
     0.81945194    -4.56191494    -1.27586934
     0.83337955    -4.77591201    -1.39923339
     0.81019204    -4.75667117    -1.46778459
     0.74416644    -4.50408314    -1.47476561
     0.62791256    -4.01916316    -1.41663013
     0.00000000     0.00000000     0.00000000
     0.00000000     0.00000000     0.00000000
     0.00000000     0.00000000     0.00000000
     0.00000000     0.00000000     0.00000000
     0.00000000     0.00000000     0.00000000
     0.34250948    -0.41151427    -0.48564661
     0.13805829    -0.52666495    -0.45938410
     0.34057900    -0.88310904    -0.48286299
     0.36673886    -1.12368433    -0.43472266
     0.13206589    -1.08855254    -0.35459960
     0.55202111    -1.65344907    -0.74519603
     0.42254081    -1.92031721    -0.84340787
     0.39221181    -2.19227399    -0.80086242
     0.42734035    -2.25311485    -0.67165374
     0.31084775    -1.99514502    -0.54085030
     0.59862977    -2.82725806    -0.91706023
     0.53003571    -3.16087933    -0.99793221
     0.48479141    -3.31900033    -0.98521109
     0.45678791    -3.23467832    -0.87077311
     0.37786421    -2.85594031    -0.70360912
     0.59494745    -3.81597377    -1.00573654
     0.54656993    -4.14729362    -1.06997179
     0.50086214    -4.22728818    -1.06607144
     0.46947835    -4.04284806    -0.99094365
     0.40916893    -3.59883381    -0.84208492
     0.56336121    -4.58053349    -1.05718336
     0.53292338    -4.86097567    -1.10089935
     0.49983936    -4.89085404    -1.10519208
     0.46818520    -4.67870354    -1.06154370
     0.42960960    -4.21056789    -0.94461810
     0.00000000     0.00000000     0.00000000
     0.00000000     0.00000000     0.00000000
     0.00000000     0.00000000     0.00000000
     0.00000000     0.00000000     0.00000000
     0.00000000     0.00000000     0.00000000
    -0.16423107    -2.04759006     0.06100787
    -0.07201508    -2.01661659    -0.13407377
    -0.29816752    -1.90599817    -0.08225670
    -0.27974032    -1.60289831     0.03284887
    -0.02415292    -1.35292115     0.17376656
    -0.33240272    -3.34280556     0.03342457
    -0.22094961    -3.41400659     0.06561621
    -0.23994391    -3.23783106     0.02973708
    -0.27242368    -2.88311912     0.05112271
    -0.14147985    -2.49906183     0.08906167
    -0.33464104    -4.25088157     0.06354471
    -0.29703513    -4.38644359     0.07995232
    -0.28683285    -4.22716364     0.09188328
    -0.26931974    -3.84884137     0.07110988
    -0.19755354    -3.37249004     0.06801220
    -0.32073676    -4.91880502     0.06060600
    -0.29105402    -5.09456608     0.08831953
    -0.27789166    -4.98211938     0.09066319
    -0.26114073    -4.61436498     0.08896550
    -0.21958542    -4.08269874     0.06354082
    -0.28553055    -5.43097866     0.06935291
    -0.28318334    -5.60486955     0.08348222
    -0.27241783    -5.53330041     0.09638466
    -0.25452446    -5.21160372     0.09133738
    -0.23167467    -4.66222840     0.07881492
     0.00000000     0.00000000     0.00000000
     0.00000000     0.00000000     0.00000000
     0.00000000     0.00000000     0.00000000
     0.00000000     0.00000000     0.00000000
     0.00000000     0.00000000     0.00000000
     0.27845803     0.52052276     0.15547547
     0.18253847     0.51889225     0.42771856
     0.30569035     0.06887411     0.39942963
     0.15107611    -0.61502033     0.16818205
    -0.08184049    -1.03749074    -0.02173308
     0.45767303    -0.76518475     0.30233662
     0.30137210    -0.85240027     0.29584517
     0.21514785    -1.29781154     0.33243471
     0.16533126    -1.62922817     0.25899644
     0.01547689    -1.73615294     0.22134661
     0.45447614    -2.27463506     0.32620049
     0.39542839    -2.41936058     0.34314290
     0.32688508    -2.61364964     0.34686033
     0.23905669    -2.70890996     0.35584691
     0.12699150    -2.56008521     0.35449094
     0.42197996    -3.67184741     0.39165698
     0.38172545    -3.87662344     0.39791803
     0.34064588    -3.91387789     0.42341776
     0.29803896    -3.75368891     0.43434621
     0.20685427    -3.38025080     0.45526237
     0.34798796    -4.84035761     0.46161736
     0.33989218    -5.06599106     0.49343615
     0.33195689    -5.00660048     0.50768092
     0.31356477    -4.70656781     0.51829274
     0.27417013    -4.16085298     0.51612155
     0.00000000     0.00000000     0.00000000
     0.00000000     0.00000000     0.00000000
     0.00000000     0.00000000     0.00000000
     0.00000000     0.00000000     0.00000000
     0.00000000     0.00000000     0.00000000
     0.04865670    -2.46442266     0.00115375
     0.12421987    -2.29796787     0.08120868
    -0.06821030    -2.03762503     0.25771158
     0.11989881    -1.69607993     0.46202431
     0.39230070    -0.85723622     0.17293413
    -0.18239583    -4.27881279     0.26707671
    -0.03556029    -4.08028289     0.43789525
     0.07980262    -3.80092623     0.61869499
     0.23285549    -3.32697250     0.66171956
     0.37806669    -2.11217283     0.36654417
    -0.42010669    -5.52153888     0.65310631
    -0.26321976    -5.47134796     0.82862130
    -0.10980610    -5.12705578     0.92990453
     0.09107070    -4.53295891     0.90247302
     0.27341470    -3.32751587     0.58755092
    -0.61745883    -6.44860696     0.99809577
    -0.47535150    -6.46886059     1.15281151
    -0.30063955    -6.16310026     1.19608313
    -0.10532157    -5.49784490     1.09720209
     0.08780119    -4.39593064     0.82642362
    -0.76826784    -7.10045619     1.27568498
    -0.66731988    -7.15537079     1.40432526
    -0.51737929    -6.86691874     1.40804906
    -0.32698796    -6.24993064     1.28677523
    -0.12596625    -5.30548357     1.05227480
     0.00000000     0.00000000     0.00000000
     0.00000000     0.00000000     0.00000000
     0.00000000     0.00000000     0.00000000
     0.00000000     0.00000000     0.00000000
     0.00000000     0.00000000     0.00000000
    -1.16517923    -1.66860530     1.46249114
    -1.05894459    -1.59708851     1.31513961
    -0.60576964    -1.64919701     1.03274554
    -0.48379551    -1.78000268     0.85863067
    -0.58280520    -1.88984383     1.09900562
    -1.51820153    -3.61464390     2.43126156
    -1.45992623    -3.54502450     2.43946353
    -1.23326600    -3.51092913     2.23330513
    -0.99549254    -3.38347913     2.01836948
    -0.78841005    -3.27467739     1.82021051
    -1.60346928    -5.29536092     3.04995647
    -1.61375447    -5.29577781     3.10589067
    -1.42387096    -5.12650665     3.00143352
    -1.20654626    -4.83569798     2.75207441
    -0.99351248    -4.44020734     2.49969717
    -1.60498353    -6.61594272     3.50610628
    -1.61223979    -6.69606812     3.64288970
    -1.51083934    -6.49491945     3.58926840
    -1.33850000    -6.04902213     3.38483428
    -1.12223868    -5.43287739     3.03872921
    -1.55975406    -7.60518902     3.86861380
    -1.56294760    -7.74079896     4.01716609
    -1.50492307    -7.53786658     4.01498798
    -1.39577835    -7.04626739     3.83890376
    -1.23347469    -6.26418238     3.48169489
     0.00000000     0.00000000     0.00000000
     0.00000000     0.00000000     0.00000000
     0.00000000     0.00000000     0.00000000
     0.00000000     0.00000000     0.00000000
     0.00000000     0.00000000     0.00000000
     0.46760728    -1.79407819     0.28183568
     0.41697263    -2.09165801     0.38471898
    -0.03995207    -2.16474947     0.74948959
    -0.09841138    -1.73402436     0.83109479
     0.00271756    -0.99712935     0.44902729
     0.46197575    -3.03786824     0.88885623
     0.38234351    -3.43882147     1.01081844
     0.18473908    -3.37624859     1.17504472
    -0.02078698    -3.00851956     1.22299506
    -0.20661374    -2.43912949     1.15640053
     0.21238707    -4.36201229     1.67876933
     0.16185953    -4.73993094     1.81240031
    -0.01956505    -4.77850915     1.89735869
    -0.20055544    -4.37634882     1.88823281
    -0.34393471    -3.70213577     1.75273079
    -0.02079020    -5.56073408     2.36442050
    -0.09743284    -5.91681551     2.49618283
    -0.21258241    -5.91603887     2.54072352
    -0.34415073    -5.54168948     2.46540192
    -0.46017270    -4.85429590     2.29384016
    -0.22414658    -6.60862278     2.92477846
    -0.30803988    -6.91862743     3.06855175
    -0.39303258    -6.90314043     3.08592402
    -0.46815408    -6.54002837     2.98678465
    -0.52333259    -5.83766412     2.74562608
     0.00000000     0.00000000     0.00000000
     0.00000000     0.00000000     0.00000000
     0.00000000     0.00000000     0.00000000
     0.00000000     0.00000000     0.00000000
     0.00000000     0.00000000     0.00000000
    -0.36106678    -1.77992035     0.87033262
    -0.25374949    -2.16587219     0.93688716
     0.14789265    -2.08052132     0.72314922
     0.03166550    -2.09551116     0.45378312
    -0.09811443    -2.22934425     0.50006446
    -0.46868020    -3.58202011     1.22686183
    -0.40808133    -4.10946840     1.26490343
    -0.34124001    -4.31660983     1.13535459
    -0.23759839    -4.11413943     0.98527418
    -0.07015495    -3.69947386     0.78444539
    -0.42588006    -4.90809991     1.27399755
    -0.42021952    -5.58285437     1.38441420
    -0.33196945    -5.77533288     1.36802511
    -0.22760166    -5.55193922     1.22317219
    -0.09472546    -5.02470904     1.01311540
    -0.41732349    -6.04890473     1.31768047
    -0.41286178    -6.75683135     1.44294341
    -0.36116059    -7.00906636     1.46728617
    -0.25779391    -6.76544297     1.37902045
    -0.13053014    -6.14171382     1.16865462
    -0.42534957    -7.00008104     1.35691034
    -0.42167279    -7.67550882     1.46794248
    -0.37742612    -7.92705722     1.50622392
    -0.30160304    -7.73149977     1.44375419
    -0.19857678    -7.07066846     1.28907651
     0.00000000     0.00000000     0.00000000
     0.00000000     0.00000000     0.00000000
     0.00000000     0.00000000     0.00000000
     0.00000000     0.00000000     0.00000000
     0.00000000     0.00000000     0.00000000
     0.00184572    -1.93932649    -0.54640107
    -0.16261204    -2.13396399    -0.46512752
    -0.57480759    -2.65013923     0.01646384
    -0.32514910    -2.34371204     0.45659027
     0.00219423    -1.69755889     0.38426928
    -0.22296757    -3.86467468    -0.65357228
    -0.26598857    -4.18103359    -0.36464688
    -0.30317233    -4.30422117     0.11327376
    -0.22720821    -4.27938709     0.57456741
    -0.12052182    -3.76786282     0.75733183
    -0.47485523    -5.80910149    -0.41844472
    -0.45169046    -6.33260684    -0.10741898
    -0.43268843    -6.51190041     0.32816118
    -0.35549522    -6.29266274     0.76142929
    -0.25233480    -5.54587190     0.99310206
    -0.69039477    -7.52451322    -0.13388262
    -0.64558120    -8.18491793     0.19616127
    -0.57891180    -8.33533539     0.57039899
    -0.49553000    -8.00485965     0.92607259
    -0.39723742    -7.10048416     1.14904160
    -0.87832611    -8.94940765     0.17756326
    -0.85536523    -9.65048196     0.50121592
    -0.78121199    -9.81268388     0.80802158
    -0.67383199    -9.40301963     1.07533131
    -0.53395576    -8.39195921     1.24538110
     0.00000000     0.00000000     0.00000000
     0.00000000     0.00000000     0.00000000
     0.00000000     0.00000000     0.00000000
     0.00000000     0.00000000     0.00000000
     0.00000000     0.00000000     0.00000000
     0.25261478    -3.84520426     0.72556765
     0.44449326    -3.62461887     0.67472949
     0.95830287    -3.07077546     0.31313994
     0.63956894    -2.79225603     0.08977669
     0.13483321    -3.32832761     0.43921813
     0.55668272    -6.56001291     1.28009892
     0.72840695    -6.63433502     1.07560736
     0.88736296    -6.28503062     0.75759471
     0.69118801    -5.62568337     0.47412997
     0.35788576    -5.60377240     0.48921895
     0.77260609    -8.68830813     1.55529492
     0.88316479    -8.94673480     1.37033821
     0.94672617    -8.64834839     1.08046835
     0.78896195    -7.99150991     0.78350445
     0.50191870    -7.49083876     0.66078931
     0.87574360   -10.33327034     1.75207854
     0.93120688   -10.73388306     1.61065860
     0.92461706   -10.61008211     1.36997202
     0.80366530    -9.96188140     1.08741357
     0.61096966    -9.05836422     0.86813723
     0.89889975   -11.64088884     1.87976281
     0.91843999   -12.07588728     1.77157070
     0.88134449   -12.02225923     1.59448175
     0.80171731   -11.46767808     1.34854541
     0.66640958   -10.36661196     1.07925418
     0.00000000     0.00000000     0.00000000
     0.00000000     0.00000000     0.00000000
     0.00000000     0.00000000     0.00000000
     0.00000000     0.00000000     0.00000000
     0.00000000     0.00000000     0.00000000
     0.14654459    -1.48418579     1.21743003
     0.07025482    -1.60275536     1.00923463
    -0.28961265    -2.14233691     0.92057747
    -0.20279068    -2.73306086     0.55619171
    -0.12364213    -1.55217009     0.15890130
     0.34652054    -3.12793590     1.83435824
     0.32578869    -3.56422849     1.84849581
     0.14539346    -4.20323439     1.50138078
     0.04022122    -4.59616550     1.00208579
    -0.12243311    -3.51807537     0.58393479
     0.46891284    -4.99548532     2.27247068
     0.43842498    -5.48851904     2.24559393
     0.30981723    -5.99792262     1.88218797
     0.15310004    -6.18628204     1.37984910
    -0.04892410    -5.24739032     0.92905757
     0.66493850    -6.59615043     2.49448360
     0.61912521    -7.15966439     2.43054049
     0.49359973    -7.44973324     2.10617214
     0.30452032    -7.40991620     1.67077252
     0.06998664    -6.72488662     1.23118412
     0.87745813    -7.91384529     2.58366540
     0.80623806    -8.48277938     2.48672981
     0.66396138    -8.65059398     2.22460061
     0.46088888    -8.45591962     1.87810466
     0.23313118    -7.87477518     1.49514653
     0.00000000     0.00000000     0.00000000
     0.00000000     0.00000000     0.00000000
     0.00000000     0.00000000     0.00000000
     0.00000000     0.00000000     0.00000000
     0.00000000     0.00000000     0.00000000
     0.05673059    -1.95139726    -0.40015845
     0.03169198    -1.96953749    -0.24528451
     0.04376597    -1.90002388    -0.17080753
     0.05205960    -2.44670862     0.22110528
     0.22048224    -1.70212881    -0.09558347
    -0.02547396    -3.46352442    -0.40011004
    -0.22326405    -3.57160868    -0.28789739
    -0.29563579    -3.66968907     0.05753176
    -0.22699208    -3.99244773     0.31920791
     0.02700396    -3.21320371     0.06950580
    -0.10460541    -4.61287070    -0.32089000
    -0.29449289    -4.92170349    -0.16900330
    -0.38680447    -5.10575061     0.11510759
    -0.35532655    -5.28591184     0.31926644
    -0.15160674    -4.50940750     0.15613061
    -0.23871872    -5.64144582    -0.18596785
    -0.40044016    -6.05950830    -0.03922589
    -0.48352409    -6.28814476     0.16741879
    -0.45937342    -6.30256180     0.30085096
    -0.30270786    -5.61660252     0.23416756
    -0.38708427    -6.51749598    -0.06635073
    -0.50432879    -6.97076881     0.06592294
    -0.56013670    -7.17564253     0.19390246
    -0.53073444    -7.07251308     0.27432613
    -0.42349807    -6.48265352     0.26712560
     0.00000000     0.00000000     0.00000000
     0.00000000     0.00000000     0.00000000
     0.00000000     0.00000000     0.00000000
     0.00000000     0.00000000     0.00000000
     0.00000000     0.00000000     0.00000000
    -0.66830642    -1.80385078     0.58236700
    -0.71836826    -1.81799003     0.58595733
    -0.75338412    -1.90540060     0.59406484
    -0.90836804    -1.77033585     0.27696250
    -0.79170484    -1.23869187     0.28425257
    -1.09369226    -3.39593811     0.82354835
    -1.07200410    -3.60136840     0.86362777
    -1.09210899    -3.54962964     0.67737303
    -1.17469660    -3.20034615     0.46489971
    -1.14715060    -2.66971881     0.44279274
    -1.43226256    -4.76467447     1.04130447
    -1.47668358    -5.00178734     1.05554908
    -1.49921774    -4.94012266     0.91867381
    -1.51097852    -4.52491398     0.71946116
    -1.43974198    -3.89547950     0.63298735
    -1.68201971    -5.79791767     1.19278047
    -1.76535975    -6.06789572     1.20527007
    -1.78911854    -5.98811706     1.09363466
    -1.76433705    -5.57426883     0.93334587
    -1.68581459    -4.94683438     0.79986341
    -1.86580543    -6.57683422     1.31784996
    -1.96134294    -6.81821588     1.31557636
    -1.99347118    -6.76473995     1.24056559
    -1.96319466    -6.41710659     1.10877373
    -1.86551002    -5.79939763     0.96494152
     0.00000000     0.00000000     0.00000000
     0.00000000     0.00000000     0.00000000
     0.00000000     0.00000000     0.00000000
     0.00000000     0.00000000     0.00000000
     0.00000000     0.00000000     0.00000000
    -0.31308854    -1.49798576     0.14915501
    -0.24827548    -1.55968457     0.17958787
    -0.08365345    -0.95414147     0.01693563
    -0.15278266    -1.24022899     0.21050404
    -0.23702222    -1.70246483     0.19768870
    -0.77292275    -2.82884988     0.44294976
    -0.89395468    -2.95955823     0.38302591
    -0.90696417    -2.84387989     0.36335608
    -0.81236849    -2.76208297     0.37571803
    -0.69409751    -2.73646505     0.30854269
    -1.06116268    -3.79027278     0.59993125
    -1.20699673    -4.02374845     0.55273820
    -1.24566989    -3.94326049     0.49608135
    -1.18836373    -3.85175369     0.48128411
    -1.04779406    -3.67730598     0.38728841
    -1.29865467    -4.66724646     0.70424256
    -1.45783114    -4.95858316     0.64742502
    -1.51773252    -4.96907765     0.59834834
    -1.46332790    -4.80726123     0.54584952
    -1.32030376    -4.48719329     0.45553696
    -1.50222403    -5.42967602     0.74971047
    -1.63870848    -5.72602245     0.70707779
    -1.69497985    -5.77616234     0.65177287
    -1.66166865    -5.61419137     0.59408682
    -1.52299218    -5.17399375     0.50246171
     0.00000000     0.00000000     0.00000000
     0.00000000     0.00000000     0.00000000
     0.00000000     0.00000000     0.00000000
     0.00000000     0.00000000     0.00000000
     0.00000000     0.00000000     0.00000000
    -0.36045707    -1.07265237     0.14934728
    -0.55230721    -1.44924749     0.18237038
    -0.77037004    -2.18879465     0.41977451
    -0.66930951    -1.68424814     0.17887388
    -0.54039187    -1.30748406     0.05411322
    -0.47086631    -1.92884899     0.03991553
    -0.63386308    -2.58630306     0.03812925
    -0.74833675    -2.89109293     0.18246645
    -0.73575648    -2.69718345     0.21033990
    -0.70432365    -2.58753004     0.16668130
    -0.75196261    -3.17378124     0.01227923
    -0.87484784    -3.80719549     0.06752162
    -0.95936238    -4.13394175     0.18964898
    -0.94698856    -3.90541619     0.23870915
    -0.89958079    -3.61533000     0.24619304
    -1.02722988    -4.27355124     0.02738744
    -1.13031157    -4.83773670     0.09705578
    -1.18092114    -5.07362649     0.19314822
    -1.16010188    -4.89958892     0.26411200
    -1.10046475    -4.49467680     0.28999395
    -1.28030325    -5.19774996     0.06049299
    -1.36492651    -5.65150484     0.13094533
    -1.39317441    -5.83249725     0.21124256
    -1.36330653    -5.68688654     0.27722194
    -1.27190630    -5.21894335     0.32134502
     0.00000000     0.00000000     0.00000000
     0.00000000     0.00000000     0.00000000
     0.00000000     0.00000000     0.00000000
     0.00000000     0.00000000     0.00000000
     0.00000000     0.00000000     0.00000000
    -0.12030206    -1.15157965    -0.46302205
    -0.00838687    -1.20168482    -0.40304152
     0.22186976    -0.39674547    -0.49358343
     0.21177780    -0.51835195    -0.29894667
    -0.03933667    -1.26445024    -0.08620659
    -0.52811375    -2.78967770    -0.49057284
    -0.55218751    -3.01189795    -0.40828557
    -0.43891357    -2.84692214    -0.38669194
    -0.36702297    -2.54058331    -0.32679916
    -0.44561116    -2.50060223    -0.18584074
    -0.83466770    -3.87930715    -0.54762649
    -0.91514763    -4.23802731    -0.49539025
    -0.86381105    -4.13346996    -0.46907927
    -0.77440617    -3.84584727    -0.39299781
    -0.74796967    -3.61886124    -0.29732281
    -1.06231271    -4.79759890    -0.60957457
    -1.16628407    -5.20060068    -0.58247597
    -1.15496410    -5.22567065    -0.54541719
    -1.07913763    -4.95951020    -0.48584393
    -0.98197975    -4.54666482    -0.39073424
    -1.23394998    -5.56215724    -0.67569848
    -1.32956715    -5.96429804    -0.67080862
    -1.34373062    -6.04579357    -0.64361509
    -1.28381708    -5.82503962    -0.58358080
    -1.16233287    -5.32084344    -0.49282006
     0.00000000     0.00000000     0.00000000
     0.00000000     0.00000000     0.00000000
     0.00000000     0.00000000     0.00000000
     0.00000000     0.00000000     0.00000000
     0.00000000     0.00000000     0.00000000
    -0.98892000    -3.45396000    -0.06903000
    -1.11198000    -3.88378000    -0.07762000
    -1.13315000    -3.95770000    -0.07909000
    -1.01855000    -3.55745000    -0.07110000
    -0.85363000    -2.98144000    -0.05958000
    -1.23772000    -4.32294000    -0.08639000
    -1.34798000    -4.70803000    -0.09409000
    -1.36282000    -4.75989000    -0.09513000
    -1.26117000    -4.40486000    -0.08803000
    -1.10068000    -3.84430000    -0.07683000
    -1.44695000    -5.05371000    -0.10100000
    -1.54293000    -5.38896000    -0.10770000
    -1.55285000    -5.42360000    -0.10839000
    -1.46553000    -5.11860000    -0.10229000
    -1.31510000    -4.59320000    -0.09179000
    -1.61661000    -5.64628000    -0.11284000
    -1.69685000    -5.92655000    -0.11844000
    -1.70324000    -5.94884000    -0.11889000
    -1.63161000    -5.69866000    -0.11389000
    -1.49689000    -5.22813000    -0.10448000
    -1.74670000    -6.10064000    -0.12192000
    -1.80974000    -6.32081000    -0.12632000
    -1.81397000    -6.33561000    -0.12662000
    -1.75941000    -6.14504000    -0.12281000
    -1.64605000    -5.74911000    -0.11490000
     0.00000000     0.00000000     0.00000000
     0.00000000     0.00000000     0.00000000
     0.00000000     0.00000000     0.00000000
     0.00000000     0.00000000     0.00000000
     0.00000000     0.00000000     0.00000000
     0.41457288     0.19906012     0.70080618
     0.41179588     0.07905407     0.78924093
     0.38569070    -0.11647934     0.74945058
     0.36102343    -0.20350954     0.52175375
     0.37874559    -0.34158110     0.25177260
     1.09049102    -0.13011922     0.54351329
     1.13930009    -0.19695530     0.57801376
     1.11581996    -0.33963640     0.53955738
     1.00752122    -0.46367687     0.42420217
     0.93876548    -0.56790826     0.24981161
     1.87026117    -0.48875930     0.19607606
     1.97925036    -0.55292470     0.22093317
     1.94141187    -0.63970324     0.20332789
     1.75826791    -0.72022398     0.17090707
     1.56368261    -0.76964732     0.11477237
     2.61532684    -0.80847830    -0.19140569
     2.75806442    -0.88418165    -0.21116621
     2.71561294    -0.93559474    -0.19398443
     2.49975517    -0.95537153    -0.13755685
     2.18659335    -0.94784462    -0.08749868
     3.27307022    -1.07629370    -0.52579796
     3.43154095    -1.15520712    -0.56385987
     3.39391035    -1.18404316    -0.53518911
     3.16788093    -1.16495267    -0.44822131
     2.75842007    -1.10405326    -0.31329680
     0.00000000     0.00000000     0.00000000
     0.00000000     0.00000000     0.00000000
     0.00000000     0.00000000     0.00000000
     0.00000000     0.00000000     0.00000000
     0.00000000     0.00000000     0.00000000
     1.26362337    -0.69929455    -0.89562853
     1.34661826    -0.63982830    -0.98621711
     1.36034468    -0.54333195    -0.96335048
     1.22721395    -0.47811589    -0.75602300
     1.08145102    -0.38565896    -0.52619998
     2.26390482    -0.95987064    -1.24125523
     2.40963689    -1.03993053    -1.31482802
     2.39026449    -0.97972345    -1.27379984
     2.19633134    -0.87869297    -1.11335363
     1.91963781    -0.74127951    -0.87296979
     2.98213599    -1.18101993    -1.44346033
     3.15139757    -1.28933129    -1.56066913
     3.13254311    -1.28501209    -1.51943758
     2.93511281    -1.18374688    -1.36152643
     2.58832038    -1.02327139    -1.13889180
     3.51970334    -1.37358277    -1.57017451
     3.70949308    -1.48459888    -1.66956824
     3.70052773    -1.49743735    -1.65495748
     3.49012661    -1.41656208    -1.53852818
     3.12435540    -1.24985356    -1.33445652
     3.91837527    -1.53481250    -1.66976833
     4.09108001    -1.62913558    -1.75251658
     4.08709455    -1.64803339    -1.74768028
     3.90939717    -1.58348887    -1.65488406
     3.54386062    -1.42557215    -1.48252899
     0.00000000     0.00000000     0.00000000
     0.00000000     0.00000000     0.00000000
     0.00000000     0.00000000     0.00000000
     0.00000000     0.00000000     0.00000000
     0.00000000     0.00000000     0.00000000
     0.51134054    -0.19097743    -0.34174813
     0.54139650    -0.32733964    -0.31084183
     0.51563020    -0.35438161    -0.25361098
     0.51051980    -0.30378104    -0.24233038
     0.56317125    -0.32658773    -0.29434210
     1.34040576    -0.74776938    -0.90626062
     1.38158908    -0.83261007    -0.96332795
     1.34836733    -0.83788042    -0.88167033
     1.23595393    -0.73243909    -0.73305148
     1.16363423    -0.66159707    -0.65936974
     2.15145198    -1.25426024    -1.37721957
     2.22412053    -1.32945736    -1.40704313
     2.15093773    -1.30030687    -1.33036804
     1.94790386    -1.16227011    -1.16199321
     1.73434618    -1.01123491    -0.99323257
     2.81281714    -1.65022309    -1.75029091
     2.89477819    -1.73602415    -1.78975010
     2.80778355    -1.69920781    -1.70638266
     2.57217391    -1.54544209    -1.51961053
     2.25320416    -1.33817706    -1.30088383
     3.30880106    -1.94792761    -2.00077704
     3.38708383    -2.03265973    -2.03038241
     3.30409253    -2.00098821    -1.96214330
     3.07184836    -1.86142780    -1.80586030
     2.69470746    -1.62259368    -1.56201095
     0.00000000     0.00000000     0.00000000
     0.00000000     0.00000000     0.00000000
     0.00000000     0.00000000     0.00000000
     0.00000000     0.00000000     0.00000000
     0.00000000     0.00000000     0.00000000
     0.99676430    -0.75075611    -0.65400184
     1.13202042    -0.91580943    -0.74491899
     1.09398455    -0.93335894    -0.70579464
     0.84652167    -0.76450845    -0.56310079
     0.63768676    -0.61061024    -0.46046667
     1.67495282    -1.44241786    -1.21001233
     1.85075608    -1.59894382    -1.22759842
     1.75884236    -1.59468035    -1.16831635
     1.45890269    -1.38699619    -1.00029371
     1.14841122    -1.13555989    -0.83697392
     2.16774340    -2.02057191    -1.72157052
     2.27903275    -2.15865139    -1.75316586
     2.19412133    -2.11621108    -1.65136939
     1.91718640    -1.89415055    -1.43888602
     1.57583568    -1.58447615    -1.21588048
     2.52639021    -2.51852213    -2.09741882
     2.60353231    -2.61289037    -2.12703518
     2.51086661    -2.54379115    -2.03168146
     2.25699787    -2.30822006    -1.82234262
     1.92366399    -1.97877151    -1.56093799
     2.77238210    -2.90927953    -2.38518472
     2.80573172    -2.96496561    -2.41827368
     2.71198483    -2.87190190    -2.33177948
     2.50974064    -2.65246656    -2.14031348
     2.20838844    -2.31755036    -1.86494814
     0.00000000     0.00000000     0.00000000
     0.00000000     0.00000000     0.00000000
     0.00000000     0.00000000     0.00000000
     0.00000000     0.00000000     0.00000000
     0.00000000     0.00000000     0.00000000
     0.16276377    -1.09668468    -0.54743988
     0.37083681    -1.11402379    -0.62872659
     0.40514765    -0.99986539    -0.63313329
     0.38376315    -0.87258256    -0.52203134
     0.39071337    -0.80788391    -0.45458771
     0.55145210    -2.01979587    -1.05548414
     0.72348292    -2.11705938    -1.19325636
     0.82114098    -1.98819460    -1.17140995
     0.79994333    -1.73700726    -1.02683146
     0.72312436    -1.52953372    -0.88295853
     0.94635679    -2.81108797    -1.40380257
     1.11712657    -2.90779115    -1.50502896
     1.18196890    -2.78202876    -1.49425265
     1.12975507    -2.48791789    -1.37480753
     1.00003664    -2.16602620    -1.19623821
     1.25955401    -3.45384985    -1.69271713
     1.40280718    -3.54842229    -1.78688625
     1.44354139    -3.42333772    -1.76391241
     1.38491619    -3.11929177    -1.63948825
     1.23242118    -2.72443944    -1.45198774
     1.49553795    -3.95044989    -1.91483061
     1.60913856    -4.02125598    -1.97973901
     1.63441184    -3.90681214    -1.95518388
     1.56906033    -3.62654351    -1.84917403
     1.41627392    -3.19474487    -1.65561682
     0.00000000     0.00000000     0.00000000
     0.00000000     0.00000000     0.00000000
     0.00000000     0.00000000     0.00000000
     0.00000000     0.00000000     0.00000000
     0.00000000     0.00000000     0.00000000
     0.36167994    -0.82291027    -0.21571342
     0.33855930    -0.94904940    -0.31575068
     0.35714320    -1.02044305    -0.35347034
     0.33378023    -0.95128955    -0.39228014
     0.22541994    -0.79688835    -0.36716535
     0.54478475    -1.60220282    -0.47472063
     0.63696812    -1.78386660    -0.59250452
     0.64185823    -1.85585655    -0.67574046
     0.56367310    -1.77334406    -0.69940952
     0.45903807    -1.54304969    -0.63948716
     0.68566148    -2.37389736    -0.83428260
     0.81963322    -2.61223038    -1.00671044
     0.84735640    -2.66989790    -1.06909891
     0.79044115    -2.54066736    -1.03709865
     0.67548975    -2.24271455    -0.94175136
     0.84752141    -3.04586201    -1.17164735
     0.98797600    -3.30414764    -1.32557913
     1.03499497    -3.36254154    -1.38969517
     0.97759312    -3.20861128    -1.34750579
     0.86623400    -2.86622708    -1.21475476
     1.00172954    -3.62928422    -1.47269314
     1.12555948    -3.88406666    -1.62123696
     1.16770732    -3.93337793    -1.66731025
     1.13298842    -3.77217551    -1.61003217
     1.02304252    -3.39998535    -1.45987118
     0.00000000     0.00000000     0.00000000
     0.00000000     0.00000000     0.00000000
     0.00000000     0.00000000     0.00000000
     0.00000000     0.00000000     0.00000000
     0.00000000     0.00000000     0.00000000
     0.45998442    -1.23338587    -0.55909288
     0.57182046    -1.31399167    -0.53492641
     0.47527475    -1.24797346    -0.49703592
     0.36669894    -1.11964629    -0.35225397
     0.40594709    -1.07371423    -0.29459928
     0.86078070    -2.22008529    -1.00257708
     0.85991865    -2.38684777    -1.00702919
     0.80383902    -2.33609245    -0.92338681
     0.73485655    -2.14471558    -0.77469186
     0.67594941    -1.96220702    -0.66903226
     1.18723451    -2.99266075    -1.32464650
     1.17899784    -3.19805373    -1.31393818
     1.11446408    -3.17425586    -1.24319133
     1.01502977    -2.96960214    -1.11741487
     0.90903462    -2.67639830    -0.96662532
     1.38851200    -3.61886112    -1.58393230
     1.38028156    -3.85269411    -1.60280307
     1.32092920    -3.84502301    -1.53480810
     1.23554237    -3.63186875    -1.40726607
     1.10018111    -3.26995494    -1.22850527
     1.52809151    -4.11168990    -1.78758334
     1.52833135    -4.32845522    -1.80919274
     1.48385642    -4.33550121    -1.76167269
     1.39342612    -4.14338870    -1.64553491
     1.25664240    -3.74798434    -1.44815825
     0.00000000     0.00000000     0.00000000
     0.00000000     0.00000000     0.00000000
     0.00000000     0.00000000     0.00000000
     0.00000000     0.00000000     0.00000000
     0.00000000     0.00000000     0.00000000
     0.19603686    -1.24920775    -0.57136590
     0.07239545    -1.29621206    -0.58373728
     0.14759456    -1.27180476    -0.49639111
     0.21650764    -1.19015456    -0.50991587
     0.12267826    -1.07391121    -0.50147250
     0.32859219    -2.29326038    -0.94410385
     0.34046067    -2.36911102    -0.94167371
     0.36170821    -2.31784531    -0.88320832
     0.36008409    -2.15879863    -0.83923752
     0.28090065    -1.93272165    -0.75391719
     0.45324251    -3.18083585    -1.24067509
     0.49980670    -3.34541630    -1.29501924
     0.52092751    -3.28003488    -1.22988249
     0.49809635    -3.04861010    -1.11576835
     0.41502472    -2.71065190    -0.98141180
     0.60968448    -3.89482166    -1.44014237
     0.66990641    -4.09197166    -1.49439052
     0.67815743    -4.05192417    -1.44828655
     0.62248868    -3.79694306    -1.32734031
     0.53204609    -3.38117294    -1.16376639
     0.74318236    -4.49065813    -1.57446774
     0.79358710    -4.69296990    -1.62848251
     0.78690194    -4.65975030    -1.59040508
     0.73188963    -4.40286285    -1.48093535
     0.63868590    -3.94446427    -1.31863736
     0.00000000     0.00000000     0.00000000
     0.00000000     0.00000000     0.00000000
     0.00000000     0.00000000     0.00000000
     0.00000000     0.00000000     0.00000000
     0.00000000     0.00000000     0.00000000
     0.10530168    -1.09618468    -0.26263815
     0.16744541    -1.14452480    -0.17533904
     0.13769862    -1.17046577    -0.20028224
     0.11902040    -1.07221680    -0.15194362
     0.13164146    -0.82314147    -0.07367386
     0.25575829    -2.17922061    -0.53219083
     0.25273484    -2.36912810    -0.53969017
     0.24183583    -2.34712959    -0.47748394
     0.23789467    -2.17013397    -0.40188853
     0.20756113    -1.76970120    -0.31324512
     0.35904247    -3.12616076    -0.69939901
     0.34602831    -3.28513069    -0.67740005
     0.32378242    -3.25641939    -0.64778105
     0.29943317    -3.04544627    -0.60364098
     0.25545963    -2.56476842    -0.49952734
     0.40149321    -3.97251819    -0.85519280
     0.38813717    -4.14621690    -0.85177513
     0.35869360    -4.06550108    -0.81694490
     0.33435448    -3.77352178    -0.76002202
     0.28781129    -3.26542448    -0.65784048
     0.42300156    -4.65456930    -0.97183660
     0.40533084    -4.79726682    -0.95862003
     0.37970451    -4.68922100    -0.92592232
     0.34722536    -4.37548118    -0.87501350
     0.31370121    -3.86074285    -0.78052396
     0.00000000     0.00000000     0.00000000
     0.00000000     0.00000000     0.00000000
     0.00000000     0.00000000     0.00000000
     0.00000000     0.00000000     0.00000000
     0.00000000     0.00000000     0.00000000
     0.04775870    -1.22852646     0.01952357
    -0.02578409    -1.30755494    -0.11268672
    -0.01804769    -1.27814959    -0.05957599
    -0.03921237    -1.29314398    -0.08628458
    -0.07217230    -0.87970551    -0.08474426
    -0.06077299    -2.36045911     0.10144640
    -0.03026564    -2.28522003     0.06849915
    -0.06438340    -2.29051914     0.02566556
    -0.13206622    -2.15474107    -0.00666657
    -0.16801920    -1.56709569     0.00885236
    -0.13044455    -3.43240620     0.06909924
    -0.08977071    -3.43758330     0.05940601
    -0.10879811    -3.32856907     0.06722258
    -0.17685687    -3.00028312     0.07885628
    -0.20852287    -2.34564754     0.09290758
    -0.17863858    -4.28618724     0.08625594
    -0.14207727    -4.31459462     0.11473539
    -0.15306275    -4.17189852     0.13671081
    -0.20284764    -3.77576488     0.14728244
    -0.23038230    -3.10806494     0.16255323
    -0.20769163    -4.99355468     0.10500303
    -0.19055314    -5.07337505     0.13586943
    -0.19571379    -4.89681498     0.16347482
    -0.22390073    -4.46846301     0.18889814
    -0.24384278    -3.82868341     0.19717389
     0.00000000     0.00000000     0.00000000
     0.00000000     0.00000000     0.00000000
     0.00000000     0.00000000     0.00000000
     0.00000000     0.00000000     0.00000000
     0.00000000     0.00000000     0.00000000
    -0.03998422    -1.16043185     0.21337751
     0.13296339    -1.29998507     0.43983371
     0.12358901    -1.47268889     0.43114665
     0.05685566    -1.38460777     0.47354372
     0.05600492    -1.00192055     0.37306098
     0.10327562    -2.22549826     0.29568338
     0.19606405    -2.70486333     0.46707696
     0.24101005    -2.90054002     0.60553499
     0.23677289    -2.80177623     0.65480492
     0.18744334    -2.28587017     0.52588714
     0.20511413    -3.20336923     0.46411074
     0.27050205    -3.74251354     0.61896453
     0.30251477    -4.02120701     0.71311987
     0.30458272    -3.94915130     0.72435585
     0.24686915    -3.39905738     0.61235159
     0.28377761    -4.15626600     0.55359770
     0.31177256    -4.73696032     0.65882445
     0.32023191    -4.98860838     0.72643209
     0.31572657    -4.87624910     0.73465623
     0.26512874    -4.35910697     0.65299761
     0.30270460    -4.99331596     0.62037537
     0.30324299    -5.52118832     0.69360585
     0.29264858    -5.72972611     0.73515961
     0.28346090    -5.62127771     0.72495800
     0.26349653    -5.13403712     0.67614601
     0.00000000     0.00000000     0.00000000
     0.00000000     0.00000000     0.00000000
     0.00000000     0.00000000     0.00000000
     0.00000000     0.00000000     0.00000000
     0.00000000     0.00000000     0.00000000
     0.22792722    -1.45651803     0.15601620
    -0.10689512    -1.75615240     0.03633350
    -0.23358330    -1.81525846     0.00158647
    -0.25812869    -1.79729002    -0.00755997
    -0.23495158    -1.49877873     0.01370923
     0.24909358    -2.67225752     0.41464931
    -0.01141431    -2.94312080     0.33639704
    -0.28058343    -3.04434150     0.23208987
    -0.46776094    -2.82921737     0.14304360
    -0.47440512    -2.44421341     0.15310048
     0.07139882    -3.93351063     0.68021009
    -0.20059373    -4.20952857     0.63942603
    -0.45380491    -4.12754102     0.53946878
    -0.61530798    -3.75370163     0.42651725
    -0.62518272    -3.28268941     0.36710969
    -0.13196875    -4.96502507     0.94904934
    -0.36787728    -5.17681974     0.96840572
    -0.58225791    -5.05174635     0.89242428
    -0.72733919    -4.60610641     0.76552035
    -0.73069532    -4.02805290     0.62824572
    -0.35594077    -5.87658538     1.20499723
    -0.56366305    -6.06201712     1.26082760
    -0.72107555    -5.89694109     1.21828823
    -0.80803643    -5.42148268     1.09022075
    -0.81264782    -4.73021204     0.89425176
     0.00000000     0.00000000     0.00000000
     0.00000000     0.00000000     0.00000000
     0.00000000     0.00000000     0.00000000
     0.00000000     0.00000000     0.00000000
     0.00000000     0.00000000     0.00000000
    -0.37965967    -1.92823457     1.16488746
    -0.10774877    -1.51714055     1.14109165
    -0.10284730    -0.87933325     0.97213402
    -0.10012464    -0.17076522     0.70564650
    -0.04600112     0.32742435     0.50015425
    -0.77056746    -3.48968869     2.04197427
    -0.64636363    -3.15428970     2.10157599
    -0.49492611    -2.26955261     1.91772346
    -0.32768865    -1.23538072     1.59003727
    -0.17671142    -0.39391169     1.16526868
    -0.93242045    -4.74584119     2.75640273
    -0.81207985    -4.44008238     2.85592002
    -0.68168538    -3.63073297     2.72883027
    -0.52443820    -2.57596969     2.37278554
    -0.36807855    -1.46007394     1.85629292
    -1.10668225    -5.82188852     3.33751187
    -1.02470473    -5.67729142     3.46732954
    -0.89005656    -5.01107785     3.36767641
    -0.73183065    -3.99321925     3.01544277
    -0.55480745    -2.73693279     2.48516369
    -1.22163673    -6.72712117     3.79052662
    -1.14924480    -6.67416223     3.89957183
    -1.04808325    -6.19750605     3.81230154
    -0.92041787    -5.32550882     3.52543628
    -0.74062069    -4.04145959     3.01477387
     0.00000000     0.00000000     0.00000000
     0.00000000     0.00000000     0.00000000
     0.00000000     0.00000000     0.00000000
     0.00000000     0.00000000     0.00000000
     0.00000000     0.00000000     0.00000000
    -0.36515815    -1.43827217     0.71071418
    -0.52399175    -1.96628259     0.89994922
    -0.36627389    -2.24045872     1.12742067
    -0.21310824    -2.37548088     1.19802363
    -0.22252661    -2.47494229     1.15212420
    -0.47990508    -3.05786963     1.57954925
    -0.59528320    -3.62839243     1.91720430
    -0.51988012    -4.08710335     2.11618412
    -0.38937571    -4.35047895     2.15403017
    -0.31681739    -4.32782113     2.05787827
    -0.60213304    -4.52770532     2.24981601
    -0.69611098    -5.20305715     2.56634396
    -0.63704767    -5.67841685     2.76132900
    -0.50667795    -5.89008359     2.80891854
    -0.37832376    -5.75916615     2.64818849
    -0.63560890    -5.75412098     2.79705718
    -0.69678823    -6.45859246     3.12142909
    -0.66311159    -6.91588488     3.28250777
    -0.56309330    -7.06460606     3.28761371
    -0.44560479    -6.85580745     3.10741875
    -0.63860176    -6.76965048     3.21299073
    -0.67668094    -7.45896816     3.50736272
    -0.65230968    -7.86004591     3.64609333
    -0.58737546    -7.93490100     3.63218668
    -0.49652548    -7.65491115     3.43748395
     0.00000000     0.00000000     0.00000000
     0.00000000     0.00000000     0.00000000
     0.00000000     0.00000000     0.00000000
     0.00000000     0.00000000     0.00000000
     0.00000000     0.00000000     0.00000000
     0.23116456    -2.20238663     0.46490255
     0.22260211    -2.06972103     0.35554593
     0.07771402    -2.07135224     0.04105897
    -0.08768819    -2.01026886    -0.07967162
    -0.09304810    -1.81398646    -0.12710105
     0.12103637    -4.01215442     0.66786342
     0.11048985    -4.12099352     0.42774475
    -0.04024836    -4.02645911     0.18471763
    -0.15221341    -3.87250317     0.05787178
    -0.15506913    -3.49404327    -0.04751678
     0.02798159    -5.51699680     0.91646120
    -0.01508927    -5.73814636     0.77041783
    -0.11755336    -5.68545312     0.54235535
    -0.22004009    -5.45850680     0.36241256
    -0.24336507    -4.87834505     0.21727425
    -0.10673105    -6.79563354     1.11713640
    -0.17057982    -7.11798136     1.00811923
    -0.24705711    -7.07490130     0.85065131
    -0.29438732    -6.72874060     0.67594403
    -0.29307677    -6.03473563     0.48204669
    -0.24213675    -7.79373005     1.28591061
    -0.31008942    -8.12214494     1.22734465
    -0.36052353    -8.08063186     1.11215759
    -0.36785382    -7.69049226     0.94237590
    -0.33784915    -6.94171268     0.73873958
     0.00000000     0.00000000     0.00000000
     0.00000000     0.00000000     0.00000000
     0.00000000     0.00000000     0.00000000
     0.00000000     0.00000000     0.00000000
     0.00000000     0.00000000     0.00000000
    -0.21815557    -2.31790163     0.47711087
    -0.25029686    -2.59224361     0.61962068
    -0.19637932    -2.52793827     0.84019200
    -0.21053980    -2.43047962     0.87117753
    -0.42905101    -2.23835479     0.79484581
    -0.22498510    -4.44227544     1.00944155
    -0.25692640    -4.77429153     1.27141018
    -0.28977715    -4.81572729     1.43361536
    -0.45306910    -4.52802769     1.40363700
    -0.69954789    -3.96449199     1.28174990
    -0.35236737    -6.42013553     1.30267875
    -0.42468195    -6.86267505     1.52616577
    -0.54191474    -6.85948911     1.67419608
    -0.70981095    -6.37354061     1.65552846
    -0.88239544    -5.53111516     1.49697758
    -0.49631676    -8.04943994     1.45232825
    -0.59756773    -8.52718488     1.66659405
    -0.74882008    -8.50544806     1.77567120
    -0.92527590    -7.93315499     1.76205815
    -1.07537578    -6.91859455     1.62924150
    -0.66843143    -9.38020726     1.48266344
    -0.80607755    -9.83796820     1.64909026
    -0.95394255    -9.79143621     1.75137218
    -1.10758987    -9.22981445     1.77190945
    -1.21644765    -8.14098737     1.68452192
     0.00000000     0.00000000     0.00000000
     0.00000000     0.00000000     0.00000000
     0.00000000     0.00000000     0.00000000
     0.00000000     0.00000000     0.00000000
     0.00000000     0.00000000     0.00000000
     0.27375249    -2.90351270     0.37068906
     0.35314457    -3.30977943     0.39314993
     0.17053010    -3.51343374     0.31323181
    -0.09287249    -3.25586013     0.09133169
    -0.17570310    -2.26956567    -0.00250450
     0.26086640    -5.59428058     0.53508258
     0.20504595    -6.15028445     0.60000142
     0.09281359    -6.32499921     0.50435633
    -0.08673155    -5.90777842     0.35677309
    -0.12321681    -4.59394021     0.17799975
     0.40543817    -7.85601051     0.74993369
     0.32719810    -8.40634722     0.84409763
     0.20134501    -8.53895571     0.80291665
     0.03834073    -8.06072433     0.67534917
    -0.04823959    -6.71647124     0.49746542
     0.51194269    -9.76365387     0.98115377
     0.39179978   -10.32455817     1.07736184
     0.28804038   -10.38400104     1.06396367
     0.17372162    -9.85291703     0.95388539
     0.10820837    -8.58649536     0.76644783
     0.59144551   -11.30968216     1.23622417
     0.49642648   -11.79597517     1.30602518
     0.39743141   -11.81869986     1.28639423
     0.31073157   -11.32386510     1.18552410
     0.23310181   -10.15342879     1.00199946
     0.00000000     0.00000000     0.00000000
     0.00000000     0.00000000     0.00000000
     0.00000000     0.00000000     0.00000000
     0.00000000     0.00000000     0.00000000
     0.00000000     0.00000000     0.00000000
    -0.21277533    -2.48736934     0.07049044
    -0.08968831    -3.06437813    -0.11037240
    -0.04742367    -2.85301128    -0.03743509
     0.10163191    -2.23420167     0.31526706
     0.42679321    -2.67755150     0.54259767
    -0.05828041    -4.72567274     0.47473481
    -0.01790554    -5.34883946     0.43910219
     0.07185116    -5.17417435     0.45881877
     0.31852245    -4.54868234     0.56801389
     0.67358680    -4.55393912     0.77456223
     0.04714592    -6.54822612     0.82995147
     0.16508659    -7.23786364     0.74143621
     0.30668691    -7.18279342     0.72982330
     0.58743052    -6.55066499     0.76467381
     0.94332452    -6.16484004     0.85253885
     0.19724646    -7.95364492     1.21238200
     0.36653265    -8.61130188     1.16162290
     0.56044227    -8.63282993     1.08283415
     0.82050848    -8.10260261     1.00335663
     1.07320711    -7.46561739     0.98290592
     0.41123462    -8.99120283     1.55535647
     0.60501735    -9.56150530     1.52413725
     0.80772616    -9.64582539     1.44168803
     1.00346424    -9.24359540     1.30854944
     1.16456300    -8.45526290     1.14266981
     0.00000000     0.00000000     0.00000000
     0.00000000     0.00000000     0.00000000
     0.00000000     0.00000000     0.00000000
     0.00000000     0.00000000     0.00000000
     0.00000000     0.00000000     0.00000000
     0.03024850    -2.00542111     0.14455869
    -0.07071824    -2.11454841     0.39221207
     0.06281702    -2.10588376     0.29362552
     0.16755662    -1.67244115    -0.18941877
    -0.01875589    -1.47442338    -0.36183945
    -0.09748440    -3.83357765     0.09957458
    -0.11631563    -4.05425927     0.13364579
     0.04270964    -3.76621628     0.02645711
    -0.01486069    -3.21685080    -0.19583655
    -0.09073582    -2.89168675    -0.29062268
    -0.21056574    -5.17190045     0.19925276
    -0.20176179    -5.37257904     0.19621118
    -0.14689212    -5.08936619     0.10844543
    -0.17663484    -4.51322118    -0.01730422
    -0.25847363    -3.91635407    -0.10830407
    -0.33054211    -6.27052895     0.23861947
    -0.33019695    -6.47856220     0.22322611
    -0.29907085    -6.19119925     0.18111442
    -0.34134193    -5.60538382     0.14132286
    -0.37253300    -4.87849552     0.07915375
    -0.46397500    -7.09446552     0.27624128
    -0.46862989    -7.25993174     0.26980748
    -0.46037646    -7.03746236     0.25888347
    -0.45511795    -6.49745362     0.25296745
    -0.45516372    -5.67512482     0.21713229
     0.00000000     0.00000000     0.00000000
     0.00000000     0.00000000     0.00000000
     0.00000000     0.00000000     0.00000000
     0.00000000     0.00000000     0.00000000
     0.00000000     0.00000000     0.00000000
    -0.72366675    -1.60990455     0.24617815
    -0.73368499    -1.99520878     0.04613969
    -0.71259834    -1.91470985     0.10309737
    -0.64018908    -1.47959065     0.44021081
    -0.59209469    -0.99759824     0.71973105
    -1.15750397    -3.12615781     0.54596590
    -1.12943322    -3.43908513     0.56712872
    -1.15153151    -3.37173105     0.65860869
    -1.03109557    -2.88924217     0.84444967
    -0.92123487    -2.23309693     0.97245549
    -1.53509594    -4.47527468     0.73475563
    -1.55502537    -4.82909813     0.81410201
    -1.49946138    -4.78063779     0.90740919
    -1.34216434    -4.28032899     1.00132510
    -1.17400720    -3.58440426     1.05866093
    -1.80252387    -5.56042066     0.93012684
    -1.82244229    -5.86826927     1.01708521
    -1.75848492    -5.82453798     1.07546870
    -1.58327034    -5.41180996     1.09619285
    -1.38868193    -4.71552021     1.09117035
    -2.00267580    -6.44863795     1.09983965
    -2.02699601    -6.71703187     1.16797018
    -1.95502052    -6.66443291     1.18776619
    -1.80016628    -6.30561157     1.16519945
    -1.57802745    -5.63030852     1.11655826
     0.00000000     0.00000000     0.00000000
     0.00000000     0.00000000     0.00000000
     0.00000000     0.00000000     0.00000000
     0.00000000     0.00000000     0.00000000
     0.00000000     0.00000000     0.00000000
    -0.15570700    -1.21344592     0.09498720
    -0.31573566    -1.38364604     0.22557746
    -0.45390053    -1.77327718     0.21952828
    -0.34513674    -1.86657458    -0.05952906
     0.00958889    -1.72031528    -0.44484513
    -0.68990369    -2.72410660     0.15947219
    -0.81054608    -3.21696548     0.04320881
    -0.80273015    -3.44181953    -0.03067149
    -0.60505577    -3.23583868    -0.24536643
    -0.26870622    -2.85484937    -0.50740035
    -1.07618858    -3.88149646     0.28022411
    -1.15385104    -4.33226211     0.15194046
    -1.12816789    -4.49818382     0.01487619
    -0.93493791    -4.21084802    -0.16536550
    -0.56990213    -3.67542830    -0.38403377
    -1.40284943    -4.94081312     0.37944339
    -1.45086050    -5.35108147     0.27194008
    -1.39515806    -5.39779329     0.14770734
    -1.21315445    -5.03752266     0.00377242
    -0.90067179    -4.45148810    -0.17937368
    -1.63120334    -5.74378951     0.47034079
    -1.66286411    -6.08303038     0.41138407
    -1.59850131    -6.07714214     0.32402568
    -1.43545713    -5.72715097     0.20593047
    -1.17274456    -5.11013964     0.04261936
     0.00000000     0.00000000     0.00000000
     0.00000000     0.00000000     0.00000000
     0.00000000     0.00000000     0.00000000
     0.00000000     0.00000000     0.00000000
     0.00000000     0.00000000     0.00000000
    -0.60868373    -1.64537942     0.18499497
    -0.76092592    -1.85245731     0.08655476
    -0.75374126    -1.77634524    -0.02315362
    -0.56992917    -1.20592230     0.25878387
    -0.37552494    -0.31948754     0.63616755
    -0.77253957    -2.90407587     0.26352381
    -0.88654215    -2.99610718     0.35228528
    -0.99238516    -2.99270229     0.45137205
    -0.92158470    -2.40176465     0.67166580
    -0.65924708    -1.34344483     0.94930960
    -1.06671718    -4.14236524     0.34880497
    -1.24243774    -4.35075200     0.49845790
    -1.30994604    -4.31025710     0.63962111
    -1.20855752    -3.69498362     0.81439286
    -0.99503060    -2.62608748     1.01175850
    -1.28993922    -5.10110717     0.39503364
    -1.44481129    -5.37001053     0.51933920
    -1.50931329    -5.32906035     0.65690487
    -1.42731741    -4.77763350     0.79802824
    -1.23976112    -3.77891096     0.94755015
    -1.48557207    -5.86817951     0.40007383
    -1.61937795    -6.14947184     0.48722467
    -1.65632886    -6.08660518     0.58249014
    -1.59221898    -5.63016864     0.69959390
    -1.43832639    -4.76424555     0.83463581
     0.00000000     0.00000000     0.00000000
     0.00000000     0.00000000     0.00000000
     0.00000000     0.00000000     0.00000000
     0.00000000     0.00000000     0.00000000
     0.00000000     0.00000000     0.00000000
    -0.20025840    -1.37756511     0.04196944
    -0.16061015    -1.07935436     0.18313503
    -0.08412919    -0.94066121     0.15665757
    -0.16243057    -1.69394255    -0.05030090
    -0.22458092    -2.02313798    -0.47807415
    -0.62927277    -3.07199784    -0.15044253
    -0.62984248    -3.26245071    -0.14505113
    -0.55749456    -3.20836827    -0.19747582
    -0.56370772    -3.60425098    -0.42837558
    -0.54658963    -3.67384089    -0.79827894
    -0.91880333    -4.27826921    -0.30607614
    -0.92133822    -4.60034823    -0.36233922
    -0.85430168    -4.70904243    -0.46036187
    -0.78643883    -4.97017155    -0.68857880
    -0.71075651    -4.89563102    -0.97286273
    -1.12836724    -5.26477464    -0.45712237
    -1.15289778    -5.72943029    -0.54524475
    -1.08206135    -5.91899178    -0.67440479
    -0.98940991    -5.97697024    -0.85724559
    -0.86608974    -5.75497238    -1.05482013
    -1.27974501    -6.04351085    -0.58976668
    -1.29143109    -6.46774549    -0.70410979
    -1.23784659    -6.64583403    -0.82171825
    -1.13822708    -6.61939171    -0.95590451
    -1.00984696    -6.35740581    -1.08751583
     0.00000000     0.00000000     0.00000000
     0.00000000     0.00000000     0.00000000
     0.00000000     0.00000000     0.00000000
     0.00000000     0.00000000     0.00000000
     0.00000000     0.00000000     0.00000000
    -0.83062000    -2.90110000    -0.05798000
    -0.95752000    -3.34429000    -0.06684000
    -1.11051000    -3.87865000    -0.07751000
    -1.09468000    -3.82336000    -0.07641000
    -0.70314000    -2.45585000    -0.04908000
    -1.13190000    -3.95335000    -0.07901000
    -1.23241000    -4.30441000    -0.08602000
    -1.31835000    -4.60456000    -0.09202000
    -1.26798000    -4.42863000    -0.08851000
    -0.94482000    -3.29993000    -0.06595000
    -1.38441000    -4.83529000    -0.09663000
    -1.46076000    -5.10195000    -0.10196000
    -1.49422000    -5.21881000    -0.10430000
    -1.41994000    -4.95938000    -0.09911000
    -1.15939000    -4.04935000    -0.08093000
    -1.58816000    -5.54692000    -0.11085000
    -1.64256000    -5.73691000    -0.11465000
    -1.63812000    -5.72139000    -0.11434000
    -1.55056000    -5.41559000    -0.10823000
    -1.34685000    -4.70410000    -0.09401000
    -1.74315000    -6.08823000    -0.12167000
    -1.77781000    -6.20930000    -0.12409000
    -1.75004000    -6.11231000    -0.12215000
    -1.65984000    -5.79728000    -0.11586000
    -1.50721000    -5.26419000    -0.10520000
     0.00000000     0.00000000     0.00000000
     0.00000000     0.00000000     0.00000000
     0.00000000     0.00000000     0.00000000
     0.00000000     0.00000000     0.00000000
     0.43660405    -0.42075338     0.19387363
     0.69000702    -0.43888357     0.10207711
     0.91338726    -0.43842432    -0.03179793
     1.04513293    -0.38288234    -0.07222361
     1.16895834    -0.71614343     0.11681987
     1.50808357    -0.81609733    -0.03980739
     1.81208104    -0.79367193    -0.16623306
     1.96027066    -0.68898472    -0.25480414
     1.95565346    -0.94111073    -0.08301853
     2.35248378    -1.04802867    -0.27423458
     2.63027305    -1.05222545    -0.40171610
     2.72977271    -0.95350898    -0.46286382
     2.68312846    -1.12582642    -0.32515556
     3.08492826    -1.24020731    -0.52134390
     3.32280484    -1.24946673    -0.63987356
     3.35767718    -1.17208030    -0.68065457
     3.30587137    -1.27920181    -0.56294695
     3.67828402    -1.37858998    -0.75181533
     3.86404455    -1.40236611    -0.85521565
     3.85939674    -1.34704069    -0.87337309
     0.00000000     0.00000000     0.00000000
     0.00000000     0.00000000     0.00000000
     0.00000000     0.00000000     0.00000000
     0.00000000     0.00000000     0.00000000
     1.27436357    -0.46823002    -0.52765976
     1.14571006    -0.43036438    -0.42720046
     1.03515212    -0.34719113    -0.34654216
     0.86002295    -0.27728736    -0.34197450
     2.17369086    -0.82883967    -0.89129793
     2.09293886    -0.76326497    -0.78472986
     1.88988795    -0.67194795    -0.68688814
     1.63702131    -0.58723685    -0.62120935
     2.84513539    -1.12416752    -1.15668106
     2.81086099    -1.08976377    -1.06908634
     2.62151051    -0.99299860    -0.97108350
     2.32969307    -0.87945923    -0.88219521
     3.36780691    -1.35058624    -1.36391186
     3.38896538    -1.34273590    -1.31159972
     3.23291204    -1.26772256    -1.22337204
     2.93586503    -1.13853979    -1.11084647
     3.77823830    -1.52184923    -1.52754698
     3.83457254    -1.53775530    -1.50321073
     3.72651323    -1.48001616    -1.43110785
     3.44704975    -1.35394669    -1.31335221
     0.00000000     0.00000000     0.00000000
     0.00000000     0.00000000     0.00000000
     0.00000000     0.00000000     0.00000000
     0.00000000     0.00000000     0.00000000
     0.66759067    -0.34267496    -0.37165230
     0.79172539    -0.41160024    -0.45811387
     0.67054119    -0.41183888    -0.41109901
     0.50852821    -0.34906203    -0.29400487
     1.35766251    -0.76753141    -0.76230021
     1.48025632    -0.88299584    -0.84531197
     1.36125074    -0.85885468    -0.78820548
     1.14775704    -0.76056868    -0.64297236
     2.00245646    -1.16450095    -1.13180774
     2.13813176    -1.28541112    -1.21668734
     2.02874711    -1.26886162    -1.15227881
     1.80021692    -1.15863091    -0.99884940
     2.54752504    -1.51966341    -1.45058769
     2.68218796    -1.63781579    -1.52431625
     2.61272155    -1.62825086    -1.47608239
     2.39876133    -1.52010247    -1.33163148
     2.99860975    -1.81920551    -1.71627212
     3.12556580    -1.92181505    -1.78234903
     3.09192058    -1.92547572    -1.75094039
     2.91568614    -1.83006304    -1.62855246
     0.00000000     0.00000000     0.00000000
     0.00000000     0.00000000     0.00000000
     0.00000000     0.00000000     0.00000000
     0.00000000     0.00000000     0.00000000
     0.67141263    -0.70605528    -0.51951801
     0.56397897    -0.66384874    -0.53244393
     0.58301160    -0.67325534    -0.60022890
     0.57707120    -0.65251086    -0.58296160
     1.21243335    -1.24655007    -0.99155199
     1.15089419    -1.22585491    -1.06573787
     1.11218767    -1.22045525    -1.10845867
     1.03899953    -1.14864578    -1.07553556
     1.63784100    -1.72461413    -1.39967131
     1.59566639    -1.73323832    -1.48644377
     1.54358005    -1.70423541    -1.53302413
     1.42250098    -1.58856472    -1.48011386
     2.01073946    -2.14761218    -1.76588567
     1.99743096    -2.19164866    -1.87221438
     1.91869960    -2.14355192    -1.89827438
     1.75956646    -1.98729512    -1.82178571
     2.32252154    -2.51925594    -2.08579530
     2.33269731    -2.59005742    -2.19546172
     2.24799265    -2.53419476    -2.20738468
     2.06509259    -2.35377325    -2.11178105
     0.00000000     0.00000000     0.00000000
     0.00000000     0.00000000     0.00000000
     0.00000000     0.00000000     0.00000000
     0.00000000     0.00000000     0.00000000
     0.38094117    -0.78412907    -0.49987952
     0.40158695    -0.79948522    -0.47859528
     0.35162750    -0.78460155    -0.40143445
     0.33532908    -0.72812259    -0.37411993
     0.71650724    -1.59193186    -0.89695190
     0.68794824    -1.61741364    -0.84716318
     0.66511886    -1.58651033    -0.79531833
     0.63148526    -1.47060117    -0.75518716
     1.04913295    -2.32934849    -1.25216867
     1.04142201    -2.39980598    -1.24315587
     0.99468957    -2.35493810    -1.19482064
     0.92614005    -2.17507422    -1.12269587
     1.31629610    -2.96508508    -1.54339272
     1.32912910    -3.07440495    -1.57016811
     1.28818200    -3.02833127    -1.54069903
     1.19573820    -2.80826881    -1.45263282
     1.52901979    -3.50268353    -1.78077906
     1.55842981    -3.63797767    -1.83839104
     1.52133188    -3.59065274    -1.82263704
     1.42614074    -3.36002589    -1.73346014
     0.00000000     0.00000000     0.00000000
     0.00000000     0.00000000     0.00000000
     0.00000000     0.00000000     0.00000000
     0.00000000     0.00000000     0.00000000
     0.27420314    -1.03453846    -0.40092211
     0.26048497    -1.18006957    -0.48364159
     0.27639028    -1.26016813    -0.59968832
     0.24171489    -1.22764424    -0.57927754
     0.56666729    -1.90562803    -0.82040315
     0.61312349    -2.14756738    -0.98980933
     0.59227377    -2.24830699    -1.08203902
     0.52378774    -2.14279808    -1.00298225
     0.79002952    -2.66072787    -1.16300685
     0.84729768    -2.92967218    -1.34169183
     0.84512397    -3.02447149    -1.42452940
     0.76510731    -2.86538211    -1.33817033
     0.98603720    -3.31660484    -1.46046249
     1.04920074    -3.58724951    -1.62985345
     1.04198517    -3.64624535    -1.69027670
     0.95892561    -3.45417018    -1.60084115
     1.14470607    -3.86253364    -1.70236567
     1.19971084    -4.10288922    -1.84535708
     1.18872455    -4.12844853    -1.88487323
     1.11127319    -3.93463060    -1.80638918
     0.00000000     0.00000000     0.00000000
     0.00000000     0.00000000     0.00000000
     0.00000000     0.00000000     0.00000000
     0.00000000     0.00000000     0.00000000
     0.40184830    -1.02779982    -0.40764624
     0.48776025    -1.05135889    -0.49216761
     0.52029012    -1.00327322    -0.43829129
     0.53145303    -0.94141167    -0.44348873
     0.70308448    -1.98737441    -0.72442709
     0.76152586    -2.00079703    -0.75929270
     0.82540776    -1.94776942    -0.77849438
     0.81965182    -1.80758071    -0.81833722
     0.97341994    -2.83737663    -1.06677582
     1.03156484    -2.90687701    -1.12684801
     1.06075535    -2.82262269    -1.14450262
     1.02837251    -2.60255219    -1.14605003
     1.19364397    -3.52857371    -1.36321338
     1.24679406    -3.63687115    -1.43991285
     1.25421811    -3.55685408    -1.46095187
     1.20319978    -3.29402299    -1.43080963
     1.37031636    -4.07709742    -1.61301308
     1.41440431    -4.20261458    -1.70105229
     1.40934244    -4.12844592    -1.71621727
     1.34899764    -3.86563517    -1.66820134
     0.00000000     0.00000000     0.00000000
     0.00000000     0.00000000     0.00000000
     0.00000000     0.00000000     0.00000000
     0.00000000     0.00000000     0.00000000
     0.07381448    -1.11144819    -0.36557992
     0.01191100    -1.17106996    -0.25508668
    -0.00975251    -1.14808609    -0.28260100
    -0.00736978    -1.00217625    -0.21945324
     0.27699007    -2.12604072    -0.74078130
     0.24407862    -2.28089248    -0.70763460
     0.18738693    -2.21951573    -0.63945332
     0.15329831    -1.95570858    -0.52023229
     0.43061345    -2.97881169    -1.00806486
     0.42427886    -3.13426262    -0.99268591
     0.38478824    -3.08568188    -0.93212339
     0.34128665    -2.79364748    -0.79564788
     0.57243860    -3.71460204    -1.22478453
     0.58336281    -3.87735302    -1.22920635
     0.55907054    -3.81409652    -1.16870273
     0.50918925    -3.50868588    -1.03790813
     0.69733250    -4.33281253    -1.39990410
     0.72017498    -4.48417617    -1.40954916
     0.70337290    -4.41717917    -1.36016434
     0.65453319    -4.12328869    -1.23971606
     0.00000000     0.00000000     0.00000000
     0.00000000     0.00000000     0.00000000
     0.00000000     0.00000000     0.00000000
     0.00000000     0.00000000     0.00000000
     0.20548796    -1.05114406    -0.30389304
     0.26526334    -1.22598965    -0.42452185
     0.23212647    -1.27298434    -0.34763535
     0.23409559    -1.30600800    -0.30299338
     0.20521497    -1.96531703    -0.47940474
     0.21288622    -2.10490200    -0.55400329
     0.26690686    -2.23869225    -0.54520520
     0.27617533    -2.25767678    -0.53473315
     0.25010045    -2.85970774    -0.64092800
     0.25064340    -3.05866458    -0.70600303
     0.27620720    -3.14428145    -0.71117237
     0.29246107    -3.06792124    -0.68729313
     0.29333113    -3.63798005    -0.77233151
     0.28857277    -3.86774965    -0.82701115
     0.30030225    -3.92327592    -0.83490473
     0.30994775    -3.77301588    -0.81122766
     0.33000864    -4.30232720    -0.87311791
     0.32956174    -4.54228328    -0.92016366
     0.33203035    -4.56718443    -0.92967139
     0.33426744    -4.38064953    -0.90796168
     0.00000000     0.00000000     0.00000000
     0.00000000     0.00000000     0.00000000
     0.00000000     0.00000000     0.00000000
     0.00000000     0.00000000     0.00000000
    -0.28244367    -0.93513033     0.08668498
    -0.36944608    -0.85481872     0.16521364
    -0.27836243    -0.93947140     0.04330283
    -0.27792535    -0.90763432    -0.06406100
    -0.25435912    -1.94862514     0.13144908
    -0.30993573    -2.12497372     0.14752072
    -0.36498389    -2.12537231     0.04761208
    -0.36137990    -1.99709238    -0.02298265
    -0.27295821    -2.83595915     0.16154115
    -0.33200260    -3.10511663     0.14551659
    -0.38217536    -3.18149833     0.06388100
    -0.39965267    -3.03504160    -0.02131777
    -0.28744497    -3.66912493     0.18233208
    -0.33753557    -4.00642659     0.14988644
    -0.38829156    -4.09979179     0.07064147
    -0.40832117    -3.93968832    -0.00576893
    -0.28923207    -4.42739557     0.18930268
    -0.33723269    -4.76807407     0.14767305
    -0.37876954    -4.86784655     0.08170777
    -0.40500041    -4.70771690     0.00867848
     0.00000000     0.00000000     0.00000000
     0.00000000     0.00000000     0.00000000
     0.00000000     0.00000000     0.00000000
     0.00000000     0.00000000     0.00000000
     0.27909145    -1.61868040     0.20789091
     0.21671835    -2.19535381     0.10644363
    -0.02617365    -2.12646387     0.15677368
    -0.02816354    -1.84536874     0.25741221
     0.21488657    -2.93762982     0.37209892
     0.07324776    -3.53578011     0.26776984
    -0.05313627    -3.60468892     0.28238703
    -0.09221038    -3.26422159     0.30127363
     0.20079726    -4.12794406     0.49894744
     0.06859785    -4.71427218     0.41884675
    -0.05786073    -4.77619495     0.38028797
    -0.10270213    -4.41116008     0.38650428
     0.20179544    -5.09733211     0.58980891
     0.08241911    -5.59431524     0.52648818
    -0.01959797    -5.65376420     0.48709007
    -0.08018758    -5.32761990     0.45431662
     0.19603256    -5.84489729     0.65752272
     0.10918084    -6.23150851     0.61851003
     0.02611598    -6.28531347     0.57284174
    -0.03131163    -6.03028091     0.53375801
     0.00000000     0.00000000     0.00000000
     0.00000000     0.00000000     0.00000000
     0.00000000     0.00000000     0.00000000
     0.00000000     0.00000000     0.00000000
    -0.45708838    -1.11806268     0.17295995
    -0.29037196    -0.62693485     0.43681441
    -0.03608724    -0.95234493     0.38134861
    -0.14133678    -1.40838675     0.12390893
    -0.58454228    -2.51733966     0.38887614
    -0.43448872    -2.28293282     0.58062246
    -0.28772614    -2.37463503     0.57877313
    -0.33642317    -2.80424561     0.44021926
    -0.70209791    -3.58279504     0.63546878
    -0.62152630    -3.57895209     0.80935516
    -0.53873604    -3.75008867     0.83188134
    -0.55559085    -4.01633158     0.70315868
    -0.80829371    -4.51530275     0.90054283
    -0.80242651    -4.77034518     1.06528684
    -0.77257208    -4.96574465     1.08530408
    -0.75474861    -5.05608568     0.96436303
    -0.90008370    -5.33493994     1.15354479
    -0.93894890    -5.75758555     1.30082606
    -0.94483836    -5.97095520     1.31496598
    -0.92152836    -5.93230046     1.19598131
     0.00000000     0.00000000     0.00000000
     0.00000000     0.00000000     0.00000000
     0.00000000     0.00000000     0.00000000
     0.00000000     0.00000000     0.00000000
     0.09326924    -0.68751250     0.77884815
    -0.26670699    -1.85939157     0.66629898
    -0.52590978    -1.94029521     0.66631883
    -0.39761956    -1.42872938     0.69663385
    -0.22525706    -1.59446415     1.66191830
    -0.50309591    -2.88294427     1.79262305
    -0.74194230    -3.33776475     1.56186288
    -0.68948117    -2.96212241     1.42108510
    -0.48072309    -2.75244372     2.35710280
    -0.74848660    -4.03927224     2.51787204
    -0.91147966    -4.57844161     2.36093927
    -0.87937114    -4.40071206     2.11006600
    -0.71986687    -3.98116592     2.91185569
    -0.90704537    -5.10216288     3.08580857
    -1.02979674    -5.67675226     2.98295788
    -1.02510813    -5.66572917     2.74944575
    -0.88855793    -5.18487074     3.36596794
    -1.02970295    -6.08753889     3.51583511
    -1.11448263    -6.62597311     3.48451267
    -1.12878603    -6.72381226     3.28405664
     0.00000000     0.00000000     0.00000000
     0.00000000     0.00000000     0.00000000
     0.00000000     0.00000000     0.00000000
     0.00000000     0.00000000     0.00000000
    -0.45035047    -2.59711584     1.33580516
    -0.30794312    -2.74434361     1.57220819
    -0.14655031    -2.69826212     1.30966604
    -0.18435978    -2.46229283     1.05681149
    -0.40614513    -4.76300440     2.11848148
    -0.35322400    -5.07810712     2.25032372
    -0.23123203    -4.92053008     2.22933973
    -0.24973099    -4.46232578     1.91932318
    -0.43917285    -6.41612722     2.77022313
    -0.37290612    -6.75117394     2.91043052
    -0.29127158    -6.58090231     2.88159769
    -0.29249204    -6.00406555     2.61838597
    -0.45324994    -7.61748009     3.29690915
    -0.41794141    -7.93983060     3.40903082
    -0.35431822    -7.76055832     3.37447929
    -0.32273479    -7.16058733     3.13902520
    -0.50397305    -8.40907753     3.68182667
    -0.46894621    -8.67769848     3.76984856
    -0.42155064    -8.52392691     3.71763582
    -0.37299663    -7.99705956     3.52762553
     0.00000000     0.00000000     0.00000000
     0.00000000     0.00000000     0.00000000
     0.00000000     0.00000000     0.00000000
     0.00000000     0.00000000     0.00000000
     0.49914069    -1.88484258    -0.18145917
     0.41006531    -2.58338371     0.00185289
     0.24803984    -2.11710000     0.38019560
     0.38477117    -1.82728877     0.40946524
     0.11185593    -3.42910483     0.00625866
     0.19792887    -4.00673577     0.31374057
     0.20345919    -3.84164647     0.52472274
     0.35862752    -3.34662657     0.69494891
    -0.07330885    -5.02353391     0.34622636
     0.00836994    -5.45732031     0.60878314
     0.07279185    -5.29856093     0.76237506
     0.20236302    -4.74062246     0.82961912
    -0.23112057    -6.39658858     0.67555545
    -0.16437086    -6.68390719     0.87633260
    -0.10483144    -6.51677274     0.96165620
    -0.00470727    -5.93507421     0.96743854
    -0.33485699    -7.50106845     0.95714042
    -0.31615746    -7.66556226     1.08886780
    -0.27103485    -7.46341415     1.13241851
    -0.19034696    -6.92677352     1.09502731
     0.00000000     0.00000000     0.00000000
     0.00000000     0.00000000     0.00000000
     0.00000000     0.00000000     0.00000000
     0.00000000     0.00000000     0.00000000
    -0.90137198    -1.36516227     0.83425821
    -1.09900665    -1.82953312     0.82398799
    -1.20062355    -2.22712904     0.33692449
    -1.06298331    -1.28530985     0.12533989
    -1.18034338    -3.66018447     1.16835281
    -1.63984180    -4.24256707     1.02728529
    -1.79662388    -4.25431496     0.74292709
    -1.67875712    -3.05867616     0.30040382
    -1.41721854    -5.72671330     1.38448482
    -1.86614263    -6.25033241     1.23319330
    -2.08596093    -6.08304186     0.93451085
    -2.02179769    -4.86645407     0.55014303
    -1.52747451    -7.54507750     1.52669817
    -1.93618867    -7.96248495     1.34438082
    -2.14515994    -7.68722044     1.08490387
    -2.15234179    -6.58888949     0.73625291
    -1.58181996    -9.03666794     1.59019056
    -1.87283983    -9.34002396     1.40858420
    -2.06224292    -9.04101778     1.16239234
    -2.13334836    -8.14363292     0.89162165
     0.00000000     0.00000000     0.00000000
     0.00000000     0.00000000     0.00000000
     0.00000000     0.00000000     0.00000000
     0.00000000     0.00000000     0.00000000
     0.08525520    -3.40637333    -0.22000845
     0.27171630    -3.76555369    -0.29934415
     0.43115978    -3.86751260     0.09910336
     0.10900078    -3.89183085     0.24886826
     0.19598808    -6.00433951     0.32492827
     0.58147498    -6.58030542     0.40235022
     0.58052625    -6.89230184     0.43097902
     0.29881702    -6.83720806     0.56824900
     0.31403934    -8.17028754     0.68995638
     0.59389984    -8.93281939     0.76951890
     0.64764455    -9.26682760     0.85148512
     0.48322693    -9.06792259     0.89813328
     0.36518661    -9.98847076     0.97996591
     0.60327762   -10.77249737     1.10906098
     0.67325760   -11.06934391     1.17196748
     0.62126406   -10.76030919     1.21269471
     0.43323546   -11.49677548     1.21421940
     0.59100871   -12.23320284     1.35954331
     0.68543089   -12.40524900     1.44657411
     0.69686869   -12.00172069     1.44246979
     0.00000000     0.00000000     0.00000000
     0.00000000     0.00000000     0.00000000
     0.00000000     0.00000000     0.00000000
     0.00000000     0.00000000     0.00000000
     0.46425664    -1.62971884     0.59748388
     0.49299494    -0.96454015     0.53921296
     0.64494912    -1.44459163     0.38723208
     0.97695670    -1.63453313     0.52630966
     0.95628378    -4.21938144     0.69032186
     1.01854217    -3.91871348     0.59791566
     1.20065182    -3.66703841     0.73228284
     1.52475370    -3.46659306     0.93959888
     1.19819046    -6.23544291     0.85147218
     1.36642634    -6.10254567     0.89714289
     1.55763657    -5.74051513     1.04801474
     1.77922561    -5.21028545     1.29937904
     1.34312045    -7.81572222     1.06402826
     1.53434966    -7.84101511     1.20450855
     1.71246036    -7.43774336     1.40306442
     1.86659632    -6.74825892     1.58143916
     1.40015823    -8.94485439     1.33813359
     1.57494225    -9.04203054     1.54303762
     1.72052694    -8.73312236     1.71721060
     1.83131611    -8.03878804     1.83301648
     0.00000000     0.00000000     0.00000000
     0.00000000     0.00000000     0.00000000
     0.00000000     0.00000000     0.00000000
     0.00000000     0.00000000     0.00000000
    -0.09614802    -2.81053161    -0.09563984
    -0.04099960    -2.27460807     0.20690166
    -0.19663620    -1.62125142     0.28910097
    -0.39462698    -1.79471081     0.07510691
    -0.32313414    -3.57010464     0.00743976
    -0.34162824    -3.15666717     0.38007978
    -0.35894235    -2.81006214     0.40673057
    -0.58403027    -2.93670745     0.15439694
    -0.43637773    -4.56087201     0.18399670
    -0.45502719    -4.26398730     0.42876706
    -0.48833218    -4.00380629     0.44710467
    -0.62343884    -4.00799373     0.18670211
    -0.49647973    -5.40181836     0.30449395
    -0.53340308    -5.35101999     0.43391149
    -0.55879607    -5.17910902     0.40482301
    -0.63317073    -5.00044547     0.21017178
    -0.54786605    -6.16807672     0.35368814
    -0.58646732    -6.32142029     0.38908286
    -0.61743487    -6.24956928     0.34071755
    -0.63033127    -5.92326012     0.20339468
     0.00000000     0.00000000     0.00000000
     0.00000000     0.00000000     0.00000000
     0.00000000     0.00000000     0.00000000
     0.00000000     0.00000000     0.00000000
    -0.66748544    -1.34127533     0.71502776
    -0.47634848    -0.79620997     0.18314475
    -0.37799551    -1.28412218     0.10698125
    -0.33947896    -1.49724598     0.22278011
    -1.01710977    -3.25410617     0.99187005
    -0.82713332    -3.09742148     0.57241504
    -0.79253153    -3.01801626     0.32447861
    -0.75986307    -3.05907350     0.44967346
    -1.31554918    -4.57407965     1.03011592
    -1.21628408    -4.58787228     0.79239489
    -1.17965138    -4.52667222     0.63378020
    -1.15682716    -4.39237512     0.70101088
    -1.54312730    -5.55870000     1.06544241
    -1.53785222    -5.75059724     0.96425895
    -1.53444369    -5.72003888     0.90249881
    -1.49157461    -5.51022618     0.96024599
    -1.73422605    -6.32181519     1.11931168
    -1.79828002    -6.60196303     1.12246373
    -1.80832246    -6.60703935     1.13357876
    -1.75696832    -6.36827665     1.16498074
     0.00000000     0.00000000     0.00000000
     0.00000000     0.00000000     0.00000000
     0.00000000     0.00000000     0.00000000
     0.00000000     0.00000000     0.00000000
    -0.08457372    -2.33412851    -0.40504830
    -0.21670155    -2.17031690     0.04934288
    -0.32438270    -1.53717701     0.30628387
    -0.22051895    -1.18716661     0.41347882
    -0.30337366    -3.09502249    -0.43676053
    -0.54393166    -3.05905950    -0.00829544
    -0.57433112    -2.71550819     0.45774951
    -0.38784984    -2.25018797     0.60378888
    -0.64052709    -3.97152747    -0.19223725
    -0.78506203    -4.04138795     0.17070698
    -0.78262572    -3.76796236     0.51811639
    -0.58918582    -3.31566660     0.68746101
    -0.96924689    -4.76668463     0.06754302
    -1.04483618    -4.88339928     0.35067059
    -0.98188752    -4.68842839     0.59389073
    -0.81264488    -4.27382796     0.69619452
    -1.26833826    -5.47683196     0.28910614
    -1.28148257    -5.60007329     0.49124462
    -1.20491563    -5.47076508     0.63445974
    -1.04796171    -5.12211677     0.70924952
     0.00000000     0.00000000     0.00000000
     0.00000000     0.00000000     0.00000000
     0.00000000     0.00000000     0.00000000
     0.00000000     0.00000000     0.00000000
    -0.10776566    -0.26565637     1.09602509
    -0.19926079    -0.86808258     1.04144782
    -0.40234086    -1.45232827     0.49806338
    -0.48772462    -1.48785480    -0.16089018
    -0.78826810    -1.89327628     1.23629837
    -0.86707507    -2.49731435     1.05441036
    -0.92012381    -2.80244102     0.52484420
    -0.98824304    -2.73969218    -0.01534683
    -1.20099374    -3.28991664     1.11993493
    -1.30210531    -3.78921050     0.92727951
    -1.33788242    -3.96728842     0.51839870
    -1.34809918    -3.74518545     0.09058504
    -1.47495710    -4.49065914     0.92395187
    -1.59057116    -4.88891306     0.73945209
    -1.63051449    -4.93564644     0.46562949
    -1.60242661    -4.59118659     0.18807358
    -1.65064352    -5.45451769     0.72440615
    -1.76164778    -5.75238321     0.57343419
    -1.80059517    -5.70188446     0.40438898
    -1.76227768    -5.29664362     0.24626521
     0.00000000     0.00000000     0.00000000
     0.00000000     0.00000000     0.00000000
     0.00000000     0.00000000     0.00000000
     0.00000000     0.00000000     0.00000000
    -0.52155856    -2.54830751    -0.98367612
    -0.49049543    -2.47100965    -1.02280001
    -0.44907550    -2.25473686    -0.66812449
    -0.34180296    -1.73205876    -0.24996642
    -0.67045407    -4.38830973    -1.28272773
    -0.65335099    -4.26386682    -1.32763934
    -0.68380387    -3.90511337    -0.99283899
    -0.59204955    -3.31292587    -0.57808512
    -0.80149713    -5.58334128    -1.33072832
    -0.83231720    -5.57349961    -1.39232805
    -0.87076691    -5.25247353    -1.16330836
    -0.81039949    -4.61803109    -0.81240463
    -0.96323837    -6.37761537    -1.28926231
    -1.00818955    -6.47196843    -1.32548398
    -1.03354285    -6.21850786    -1.20079053
    -0.98961639    -5.65037124    -0.96839667
    -1.11813785    -6.89500548    -1.20194188
    -1.17969599    -7.03221051    -1.22200852
    -1.18955420    -6.86740739    -1.16388718
    -1.14591232    -6.42066641    -1.04470436
     0.00000000     0.00000000     0.00000000
     0.00000000     0.00000000     0.00000000
     0.00000000     0.00000000     0.00000000
     0.00000000     0.00000000     0.00000000
    -0.42549000    -1.48608000    -0.02970000
    -0.44454000    -1.55262000    -0.03103000
    -0.50230000    -1.75436000    -0.03506000
    -0.47670000    -1.66494000    -0.03327000
    -0.79755000    -2.78559000    -0.05567000
    -0.82466000    -2.88025000    -0.05756000
    -0.85080000    -2.97158000    -0.05939000
    -0.79844000    -2.78867000    -0.05573000
    -1.11621000    -3.89855000    -0.07791000
    -1.14793000    -4.00933000    -0.08013000
    -1.14979000    -4.01583000    -0.08026000
    -1.07941000    -3.77001000    -0.07534000
    -1.38145000    -4.82493000    -0.09643000
    -1.41435000    -4.93986000    -0.09872000
    -1.39925000    -4.88711000    -0.09767000
    -1.31961000    -4.60895000    -0.09211000
    -1.59327000    -5.56476000    -0.11121000
    -1.62393000    -5.67183000    -0.11335000
    -1.59918000    -5.58542000    -0.11162000
    -1.51904000    -5.30551000    -0.10603000
     4.26844458    -1.45464136    -1.06440072
     4.47454434    -1.50842266    -1.18220346
     4.47561156    -1.49844291    -1.22261587
     4.26660810    -1.42057734    -1.18703536
     4.28371243    -1.50571158    -1.04388586
     4.50462261    -1.55257842    -1.16469198
     4.52319090    -1.54031826    -1.20859518
     4.33371334    -1.46506820    -1.17451390
     4.09906979    -1.47359048    -0.93552787
     4.32981209    -1.51294283    -1.05298979
     4.36061707    -1.49645246    -1.09532953
     4.18519177    -1.42142950    -1.06114055
     3.72231201    -1.36044876    -0.73423289
     3.95587091    -1.38920457    -0.84429008
     3.99358387    -1.36566339    -0.88129743
     3.82763059    -1.28974356    -0.84263664
     3.79870975    -1.49818853    -1.44864600
     4.00265430    -1.56712109    -1.52337756
     4.04366648    -1.56420788    -1.53099945
     3.91264807    -1.49601645    -1.46753170
     4.07501946    -1.62236626    -1.57803663
     4.26994139    -1.68858477    -1.65576936
     4.30022713    -1.68238495    -1.66150168
     4.16069434    -1.60589160    -1.59483252
     4.18721214    -1.68041353    -1.65775411
     4.37519605    -1.74630207    -1.73938674
     4.39730812    -1.73461667    -1.74554903
     4.24814643    -1.65254647    -1.67296549
     4.13311355    -1.66777216    -1.68661347
     4.31797700    -1.73368879    -1.77014948
     4.33008869    -1.72104889    -1.77634921
     4.17048353    -1.62822615    -1.70132274
     3.30338695    -2.04612946    -1.83987339
     3.53727883    -2.14537232    -1.95729131
     3.61091016    -2.12469197    -1.97018251
     3.51304713    -1.97430917    -1.87206482
     3.47911080    -2.15282629    -1.97389406
     3.71542620    -2.26559378    -2.10497873
     3.79642285    -2.25431653    -2.13635730
     3.70679349    -2.11706694    -2.05791640
     3.50557076    -2.15799774    -2.01349584
     3.74286724    -2.28185803    -2.15741082
     3.82548639    -2.28621748    -2.20460427
     3.74415561    -2.16466212    -2.14653138
     3.37288205    -2.05957097    -1.95429792
     3.60679110    -2.19477705    -2.11107200
     3.69134968    -2.21089746    -2.17193299
     3.61212777    -2.10913399    -2.12811521
     2.33521186    -2.67988492    -2.35894558
     2.52964761    -2.90968266    -2.51623763
     2.63444591    -3.01687023    -2.57055524
     2.63093424    -2.98168364    -2.50736001
     2.52519419    -2.87276511    -2.45947302
     2.72574748    -3.11017816    -2.62372307
     2.83149421    -3.22683266    -2.68315859
     2.83318743    -3.19928206    -2.62897941
     2.61925105    -2.93467009    -2.45897434
     2.82085903    -3.17433924    -2.62939480
     2.92748929    -3.28974393    -2.69866315
     2.92254480    -3.25999351    -2.64985451
     2.61484724    -2.86109757    -2.35374154
     2.81821321    -3.09611863    -2.53258884
     2.91747078    -3.20327281    -2.61006396
     2.90395466    -3.16072425    -2.57172613
     1.60164058    -3.82023219    -1.95370915
     1.70030854    -4.13475659    -2.09217868
     1.71121125    -4.29252404    -2.13648884
     1.63841109    -4.27856383    -2.08520283
     1.69094947    -4.04318890    -2.03463431
     1.78013760    -4.34877068    -2.16414418
     1.78629333    -4.49366962    -2.20469460
     1.69983997    -4.46452358    -2.15011589
     1.71832671    -4.08121588    -2.04058475
     1.80032264    -4.37673543    -2.16188040
     1.79411100    -4.51021608    -2.19790011
     1.70173611    -4.46640858    -2.14149967
     1.68083936    -3.93798527    -1.97435815
     1.75068102    -4.22688330    -2.09140063
     1.73707981    -4.34994599    -2.12327906
     1.63202648    -4.29044746    -2.06240750
     1.22232806    -4.29818563    -1.95327370
     1.25885927    -4.46158849    -2.00662701
     1.22014107    -4.40578409    -1.96553824
     1.10326935    -4.13228721    -1.82462983
     1.29456559    -4.49357966    -2.02645430
     1.32567669    -4.65160692    -2.07841601
     1.28081319    -4.59938144    -2.03416595
     1.15960943    -4.32518358    -1.89397555
     1.30214586    -4.46916447    -1.98933936
     1.33118390    -4.63022824    -2.04095165
     1.28497393    -4.57818655    -1.99703055
     1.16010616    -4.31137976    -1.85363176
     1.24727631    -4.22920971    -1.84860778
     1.27960967    -4.39019562    -1.90045268
     1.23233162    -4.34236613    -1.85414057
     1.10882244    -4.08002560    -1.71177836
     1.45935344    -4.27995266    -1.85348202
     1.53810785    -4.50545757    -1.97307611
     1.58227343    -4.52934142    -2.01274531
     1.59230508    -4.34291083    -1.98051108
     1.52612597    -4.53804782    -1.91070724
     1.61019345    -4.75628319    -2.03190361
     1.65898278    -4.77212596    -2.08223243
     1.67075221    -4.57891318    -2.05381067
     1.53768336    -4.60100086    -1.89403044
     1.62450253    -4.81059260    -2.01846135
     1.67356798    -4.81888698    -2.07037192
     1.68551438    -4.61797328    -2.05064843
     1.49432055    -4.46680172    -1.80419553
     1.57985660    -4.67111182    -1.92816589
     1.62853574    -4.67150622    -1.98407588
     1.63550712    -4.46246493    -1.96237464
     0.80570883    -4.63477051    -1.40367702
     0.90239702    -4.94103805    -1.49213842
     0.94248482    -5.03675723    -1.50931506
     0.91663768    -4.91068623    -1.43682646
     0.84208462    -4.92323766    -1.51478249
     0.92949853    -5.21875570    -1.60656291
     0.96376775    -5.30004432    -1.62073410
     0.93894386    -5.15825734    -1.55928792
     0.84169689    -4.98145806    -1.56788615
     0.91943160    -5.26510353    -1.66008391
     0.94647523    -5.32996412    -1.68264949
     0.91469490    -5.16516191    -1.62103277
     0.80680242    -4.81176255    -1.55849133
     0.87425955    -5.07899120    -1.65594811
     0.88949070    -5.12531836    -1.68133232
     0.84964530    -4.93902027    -1.62871548
     0.36863475    -4.94147308    -0.97902353
     0.41488493    -5.27775268    -1.03295514
     0.46566004    -5.34933878    -1.06466157
     0.51971309    -5.13007426    -1.07595279
     0.36654473    -5.13034671    -1.00199883
     0.40539359    -5.47135451    -1.05626856
     0.45068405    -5.56054587    -1.09327207
     0.49052945    -5.36430993    -1.10888398
     0.36248520    -5.09334793    -0.99365399
     0.39745224    -5.43251651    -1.04798930
     0.43243644    -5.52936405    -1.08683750
     0.46793149    -5.35844619    -1.10600948
     0.35791540    -4.83509468    -0.95116453
     0.38677035    -5.16896731    -1.00815080
     0.41683710    -5.27278617    -1.04542755
     0.44274370    -5.11278216    -1.06309729
    -0.36884757    -5.39514017     0.01647616
    -0.33230531    -5.82081239     0.03017856
    -0.29947036    -5.97617629     0.04549185
    -0.28626678    -5.84249699     0.06005965
    -0.34455119    -5.54881268     0.08238525
    -0.30968787    -5.96926992     0.08152676
    -0.28625367    -6.12198080     0.08286458
    -0.27279372    -6.00578978     0.08411331
    -0.30903211    -5.44102050     0.14175685
    -0.27960451    -5.86217611     0.12925651
    -0.26091018    -6.02280193     0.11613956
    -0.25773876    -5.91330252     0.10238382
    -0.26502984    -5.07989813     0.18153976
    -0.24037755    -5.50021324     0.16572858
    -0.23135966    -5.66672163     0.14167361
    -0.23676464    -5.57651456     0.11447167
     0.00786489    -6.47690421     0.58935853
     0.06931652    -6.59936983     0.61170364
     0.15047523    -6.37520111     0.58791034
     0.25144313    -5.78779585     0.53676390
     0.06543598    -6.70559592     0.64329344
     0.11443215    -6.81462065     0.66152414
     0.18580922    -6.58342516     0.64126051
     0.26240110    -5.99960633     0.57342104
     0.13740920    -6.63818744     0.68259931
     0.17485290    -6.73589548     0.70592242
     0.22506979    -6.50729891     0.67449062
     0.28036511    -5.93267726     0.60995781
     0.21308054    -6.26869701     0.71547412
     0.23671761    -6.37559793     0.72344225
     0.26736841    -6.15226445     0.69422308
     0.29640465    -5.59571455     0.61876723
    -1.03811964    -6.78550265     1.37510077
    -1.08080453    -7.36379509     1.48827517
    -1.04785038    -7.62513725     1.52537142
    -0.94074963    -7.54745185     1.45583613
    -1.04512963    -6.83483875     1.50143260
    -1.05757349    -7.42051538     1.62152864
    -0.99353362    -7.68510890     1.65309643
    -0.86001869    -7.60438953     1.58560606
    -1.01139581    -6.60083867     1.49746505
    -0.98842220    -7.17848696     1.61816576
    -0.89154501    -7.43163655     1.65413695
    -0.72585635    -7.33203304     1.58319329
    -0.92883454    -6.12207069     1.35152213
    -0.87045902    -6.65900628     1.48688812
    -0.74243679    -6.87586565     1.52362618
    -0.55647708    -6.74712691     1.45607397
    -1.23057447    -7.70757484     3.74933355
    -1.31494672    -8.30370856     4.02818783
    -1.39664000    -8.48875378     4.13002815
    -1.48267745    -8.24976999     4.07164464
    -1.21823684    -7.66494247     3.94632152
    -1.31085076    -8.30293204     4.22554924
    -1.39844071    -8.53672642     4.31835258
    -1.48112290    -8.34886219     4.24892705
    -1.15214334    -7.21844018     3.98938896
    -1.25825569    -7.92562821     4.25991878
    -1.35211112    -8.22802102     4.34698979
    -1.43660531    -8.10773900     4.25842631
    -1.05050196    -6.41090850     3.84970344
    -1.17476520    -7.21183163     4.12726474
    -1.27679211    -7.60156507     4.20577487
    -1.34933282    -7.55443053     4.10459640
    -0.40268425    -8.37057687     3.71119659
    -0.42619001    -8.38195060     3.74799530
    -0.41993536    -8.06714310     3.63597794
    -0.35268113    -7.46961668     3.36548148
    -0.46402226    -8.81803447     3.88902940
    -0.49532776    -8.77447906     3.90795477
    -0.49519692    -8.42767865     3.78828916
    -0.43995100    -7.80127413     3.50616576
    -0.52014633    -8.90226430     3.93128805
    -0.55996200    -8.82253365     3.94931054
    -0.56814705    -8.44326062     3.81730904
    -0.51817392    -7.78647750     3.53480351
    -0.55875520    -8.60597175     3.84858756
    -0.61236618    -8.51387397     3.86675424
    -0.62449417    -8.11594134     3.73393658
    -0.58600965    -7.43587836     3.44117108
    -0.37359707    -7.59845781     1.22672508
    -0.47582408    -7.97178790     1.31390261
    -0.50365662    -8.00577916     1.35495954
    -0.48342589    -7.68117534     1.36881070
    -0.43188397    -8.21359406     1.29201667
    -0.51430275    -8.62254877     1.40199562
    -0.51991976    -8.67495282     1.46027978
    -0.47946784    -8.35896527     1.48141128
    -0.44957265    -8.43952243     1.27121879
    -0.50435900    -8.86391041     1.39691261
    -0.49041183    -8.92627061     1.47676507
    -0.43824983    -8.61547229     1.50841745
    -0.43380060    -8.26447722     1.14854289
    -0.45280762    -8.68525910     1.29457654
    -0.42307747    -8.74372363     1.39272807
    -0.35736899    -8.43068535     1.44233288
    -1.93621241    -9.54217374     0.90040277
    -1.67034475   -10.31628267     0.81313033
    -1.38789377   -10.46192601     0.65425820
    -1.11367949    -9.99349415     0.43471670
    -1.85010975   -10.34964252     1.18993156
    -1.58191278   -11.05289047     1.11587412
    -1.31781661   -11.15707733     0.96849887
    -1.07141096   -10.67775664     0.75290668
    -1.66559389   -10.57281053     1.44540640
    -1.42187880   -11.22588210     1.39755866
    -1.18665324   -11.29780160     1.26224267
    -0.97600547   -10.81182989     1.06133427
    -1.40230167   -10.19974755     1.65659077
    -1.20453635   -10.80385829     1.62588225
    -1.00507236   -10.85145496     1.50895483
    -0.83605891   -10.36853208     1.32103320
     0.73347976   -12.85560492     1.71548724
     0.77554431   -13.22679440     1.90868642
     0.81757196   -13.12406243     2.00265246
     0.85671061   -12.58172931     1.98940118
     0.70332561   -13.29419484     1.66770209
     0.73502822   -13.66122911     1.83714107
     0.79219993   -13.55874288     1.90761023
     0.85293600   -13.01757854     1.89232672
     0.60680092   -13.19152443     1.56537202
     0.64958903   -13.59221067     1.69481137
     0.72040015   -13.50487322     1.74968998
     0.80788433   -12.97127900     1.71114525
     0.45762908   -12.54188223     1.39632663
     0.52281311   -13.00204728     1.50953146
     0.60769060   -12.94177808     1.53705602
     0.71136341   -12.41931848     1.48208435
     1.76021533    -8.79866563     2.12609423
     1.60890608    -9.21500158     2.34717274
     1.39789162    -9.22411034     2.50168723
     1.15989476    -8.79778714     2.58487099
     1.63751313    -9.46426520     2.01559486
     1.48172389    -9.87940469     2.24179118
     1.27320039    -9.87975580     2.40027374
     1.04688958    -9.42908804     2.47775300
     1.47429843    -9.77195650     1.81805708
     1.30151756   -10.17024908     2.03947338
     1.08952872   -10.16054950     2.18541764
     0.86893020    -9.67906205     2.25350547
     1.27186498    -9.69428225     1.57803110
     1.07642841   -10.08432776     1.76765788
     0.86406379   -10.05437410     1.89608051
     0.64685834    -9.54088630     1.94060755
    -0.63754628    -6.68594796     0.13743659
    -0.61730907    -7.19243465     0.09739895
    -0.56750334    -7.38625527     0.06228285
    -0.49771307    -7.18624534     0.01064089
    -0.65169037    -7.13167754     0.26346445
    -0.65277626    -7.66044141     0.20838452
    -0.63128485    -7.85391341     0.16330232
    -0.59091966    -7.64630153     0.12408835
    -0.64021955    -7.25453083     0.32904697
    -0.64738983    -7.80479423     0.27597729
    -0.64025617    -8.00290184     0.24242637
    -0.61781442    -7.80789018     0.21957850
    -0.57791935    -7.04968593     0.32441607
    -0.58821176    -7.60808664     0.29507673
    -0.58893596    -7.81562397     0.27499484
    -0.57046776    -7.63858979     0.26792951
    -1.94083375    -7.00677666     1.36944549
    -2.02609219    -7.34786002     1.46233731
    -2.04406494    -7.37144720     1.47408494
    -1.98695752    -7.10449755     1.42176917
    -2.00791806    -7.22555949     1.31894495
    -2.12200635    -7.56720743     1.42752327
    -2.15052474    -7.60150501     1.45778901
    -2.09631485    -7.35037412     1.41271301
    -2.00378729    -7.20992427     1.26930783
    -2.13721917    -7.53810539     1.36794766
    -2.18394174    -7.57686363     1.39103053
    -2.13332367    -7.31961725     1.34575725
    -1.93486964    -6.91546172     1.22284521
    -2.08392803    -7.24016397     1.28756069
    -2.14123335    -7.27785710     1.29407073
    -2.10505383    -7.01270223     1.23683050
    -1.29678285    -5.84975043     0.73264087
    -1.48631810    -6.20912520     0.76044178
    -1.59041848    -6.27102482     0.78082127
    -1.60078982    -6.02010334     0.77982858
    -1.45598943    -6.18361315     0.68280288
    -1.63797708    -6.55863888     0.71096010
    -1.73353651    -6.61713137     0.73057828
    -1.74206418    -6.35272679     0.73197239
    -1.53901340    -6.26737621     0.56999015
    -1.70966783    -6.63095046     0.61432509
    -1.79734422    -6.68207164     0.64703937
    -1.79836230    -6.40379918     0.66306223
    -1.53472607    -6.10242736     0.40092790
    -1.69616028    -6.46358170     0.47577243
    -1.77147446    -6.50066343     0.53230902
    -1.76090617    -6.20917647     0.57661401
    -1.84287205    -5.84648872     0.20292294
    -1.82171748    -6.17276381     0.16014889
    -1.71185456    -6.17891123     0.12241113
    -1.52465788    -5.85343133     0.09063283
    -1.87610986    -6.30349417     0.31477233
    -1.86487499    -6.62120164     0.24828200
    -1.76627053    -6.62147519     0.20198541
    -1.59495804    -6.28753261     0.15986916
    -1.84369292    -6.42081164     0.44400387
    -1.84528951    -6.76574610     0.36248776
    -1.76785055    -6.77393683     0.29743276
    -1.61020440    -6.45559882     0.24679720
    -1.74011160    -6.19947097     0.58310975
    -1.76924156    -6.57635508     0.48411650
    -1.71115210    -6.61519028     0.40194129
    -1.57190254    -6.31548649     0.33222792
    -1.26892901    -6.82012949    -0.99356038
    -1.35540629    -6.92428434    -0.92846139
    -1.38947541    -6.75206379    -0.85137745
    -1.35356662    -6.29494762    -0.76769476
    -1.32509153    -7.19748521    -1.07413600
    -1.41773738    -7.26708107    -0.97554389
    -1.46129760    -7.08145274    -0.87760562
    -1.43720139    -6.65492382    -0.77320450
    -1.31802980    -7.30509632    -1.10114947
    -1.41708625    -7.34733008    -0.98366683
    -1.46511728    -7.15790293    -0.86463576
    -1.44888064    -6.73069600    -0.75031351
    -1.25913514    -7.12296547    -1.06844935
    -1.35930924    -7.15822465    -0.93601884
    -1.41206149    -6.96330998    -0.80909691
    -1.39379637    -6.52232310    -0.69206769
    -1.67778000    -5.85994000    -0.11711000
    -1.77992000    -6.21666000    -0.12424000
    -1.82545000    -6.37569000    -0.12742000
    -1.81438000    -6.33701000    -0.12664000
    -1.75735000    -6.13786000    -0.12266000
    -1.85750000    -6.48762000    -0.12965000
    -1.89961000    -6.63469000    -0.13259000
    -1.88369000    -6.57909000    -0.13148000
    -1.78089000    -6.22005000    -0.12431000
    -1.87838000    -6.56054000    -0.13111000
    -1.91638000    -6.69330000    -0.13376000
    -1.89492000    -6.61832000    -0.13227000
    -1.74838000    -6.10653000    -0.12204000
    -1.84256000    -6.43544000    -0.12861000
    -1.87579000    -6.55150000    -0.13093000
    -1.84807000    -6.45470000    -0.12900000
     0.00000000     0.00000000     0.00000000
     0.00000000     0.00000000     0.00000000
     0.00000000     0.00000000     0.00000000
     0.00000000     0.00000000     0.00000000
     0.00000000     0.00000000     0.00000000
     0.00000000     0.00000000     0.00000000
     0.00000000     0.00000000     0.00000000
     0.00000000     0.00000000     0.00000000
     0.00000000     0.00000000     0.00000000
     0.00000000     0.00000000     0.00000000
     0.00000000     0.00000000     0.00000000
     0.00000000     0.00000000     0.00000000
     0.00000000     0.00000000     0.00000000
     0.00000000     0.00000000     0.00000000
     0.00000000     0.00000000     0.00000000
     0.00000000     0.00000000     0.00000000
     0.00000000     0.00000000     0.00000000
     0.00000000     0.00000000     0.00000000
     0.00000000     0.00000000     0.00000000
     0.00000000     0.00000000     0.00000000
     0.00000000     0.00000000     0.00000000
     0.00000000     0.00000000     0.00000000
     0.00000000     0.00000000     0.00000000
     0.00000000     0.00000000     0.00000000
     0.00000000     0.00000000     0.00000000
     0.00000000     0.00000000     0.00000000
     0.00000000     0.00000000     0.00000000
     0.00000000     0.00000000     0.00000000
     0.00000000     0.00000000     0.00000000
     0.00000000     0.00000000     0.00000000
     0.00000000     0.00000000     0.00000000
     0.00000000     0.00000000     0.00000000
     0.00000000     0.00000000     0.00000000
     0.00000000     0.00000000     0.00000000
     0.00000000     0.00000000     0.00000000
     0.00000000     0.00000000     0.00000000
     0.00000000     0.00000000     0.00000000
     0.00000000     0.00000000     0.00000000
     0.00000000     0.00000000     0.00000000
     0.00000000     0.00000000     0.00000000
     0.00000000     0.00000000     0.00000000
     0.00000000     0.00000000     0.00000000
     0.00000000     0.00000000     0.00000000
     0.00000000     0.00000000     0.00000000
     0.00000000     0.00000000     0.00000000
     0.00000000     0.00000000     0.00000000
     0.00000000     0.00000000     0.00000000
     0.00000000     0.00000000     0.00000000
     0.00000000     0.00000000     0.00000000
     0.00000000     0.00000000     0.00000000
     0.00000000     0.00000000     0.00000000
     0.00000000     0.00000000     0.00000000
     0.00000000     0.00000000     0.00000000
     0.00000000     0.00000000     0.00000000
     0.00000000     0.00000000     0.00000000
     0.00000000     0.00000000     0.00000000
     0.00000000     0.00000000     0.00000000
     0.00000000     0.00000000     0.00000000
     0.00000000     0.00000000     0.00000000
     0.00000000     0.00000000     0.00000000
     0.00000000     0.00000000     0.00000000
     0.00000000     0.00000000     0.00000000
     0.00000000     0.00000000     0.00000000
     0.00000000     0.00000000     0.00000000
     0.00000000     0.00000000     0.00000000
     0.00000000     0.00000000     0.00000000
     0.00000000     0.00000000     0.00000000
     0.00000000     0.00000000     0.00000000
     0.00000000     0.00000000     0.00000000
     0.00000000     0.00000000     0.00000000
     0.00000000     0.00000000     0.00000000
     0.00000000     0.00000000     0.00000000
     0.00000000     0.00000000     0.00000000
     0.00000000     0.00000000     0.00000000
     0.00000000     0.00000000     0.00000000
     0.00000000     0.00000000     0.00000000
     0.00000000     0.00000000     0.00000000
     0.00000000     0.00000000     0.00000000
     0.00000000     0.00000000     0.00000000
     0.00000000     0.00000000     0.00000000
     0.00000000     0.00000000     0.00000000
     0.00000000     0.00000000     0.00000000
     0.00000000     0.00000000     0.00000000
     0.00000000     0.00000000     0.00000000
     0.00000000     0.00000000     0.00000000
     0.00000000     0.00000000     0.00000000
     0.00000000     0.00000000     0.00000000
     0.00000000     0.00000000     0.00000000
     0.00000000     0.00000000     0.00000000
     0.00000000     0.00000000     0.00000000
     0.00000000     0.00000000     0.00000000
     0.00000000     0.00000000     0.00000000
     0.00000000     0.00000000     0.00000000
     0.00000000     0.00000000     0.00000000
     0.00000000     0.00000000     0.00000000
     0.00000000     0.00000000     0.00000000
     0.00000000     0.00000000     0.00000000
     0.00000000     0.00000000     0.00000000
     0.00000000     0.00000000     0.00000000
     0.00000000     0.00000000     0.00000000
     0.00000000     0.00000000     0.00000000
     0.00000000     0.00000000     0.00000000
     0.00000000     0.00000000     0.00000000
     0.00000000     0.00000000     0.00000000
     0.00000000     0.00000000     0.00000000
     0.00000000     0.00000000     0.00000000
     0.00000000     0.00000000     0.00000000
     0.00000000     0.00000000     0.00000000
     0.00000000     0.00000000     0.00000000
     0.00000000     0.00000000     0.00000000
     0.00000000     0.00000000     0.00000000
     0.00000000     0.00000000     0.00000000
     0.00000000     0.00000000     0.00000000
     0.00000000     0.00000000     0.00000000
     0.00000000     0.00000000     0.00000000
     0.00000000     0.00000000     0.00000000
     0.00000000     0.00000000     0.00000000
     0.00000000     0.00000000     0.00000000
     0.00000000     0.00000000     0.00000000
     0.00000000     0.00000000     0.00000000
     0.00000000     0.00000000     0.00000000
     0.00000000     0.00000000     0.00000000
     0.00000000     0.00000000     0.00000000
     0.00000000     0.00000000     0.00000000
     0.00000000     0.00000000     0.00000000
     0.00000000     0.00000000     0.00000000
     0.00000000     0.00000000     0.00000000
     0.00000000     0.00000000     0.00000000
     0.00000000     0.00000000     0.00000000
     0.00000000     0.00000000     0.00000000
     0.00000000     0.00000000     0.00000000
     0.00000000     0.00000000     0.00000000
     0.00000000     0.00000000     0.00000000
     0.00000000     0.00000000     0.00000000
     0.00000000     0.00000000     0.00000000
     0.00000000     0.00000000     0.00000000
     0.00000000     0.00000000     0.00000000
     0.00000000     0.00000000     0.00000000
     0.00000000     0.00000000     0.00000000
     0.00000000     0.00000000     0.00000000
     0.00000000     0.00000000     0.00000000
     0.00000000     0.00000000     0.00000000
     0.00000000     0.00000000     0.00000000
     0.00000000     0.00000000     0.00000000
     0.00000000     0.00000000     0.00000000
     0.00000000     0.00000000     0.00000000
     0.00000000     0.00000000     0.00000000
     0.00000000     0.00000000     0.00000000
     0.00000000     0.00000000     0.00000000
     0.00000000     0.00000000     0.00000000
     0.00000000     0.00000000     0.00000000
     0.00000000     0.00000000     0.00000000
     0.00000000     0.00000000     0.00000000
     0.00000000     0.00000000     0.00000000
     0.00000000     0.00000000     0.00000000
     0.00000000     0.00000000     0.00000000
     0.00000000     0.00000000     0.00000000
     0.00000000     0.00000000     0.00000000
     0.00000000     0.00000000     0.00000000
     0.00000000     0.00000000     0.00000000
     0.00000000     0.00000000     0.00000000
     0.00000000     0.00000000     0.00000000
     0.00000000     0.00000000     0.00000000
     0.00000000     0.00000000     0.00000000
     0.00000000     0.00000000     0.00000000
     0.00000000     0.00000000     0.00000000
     0.00000000     0.00000000     0.00000000
     0.00000000     0.00000000     0.00000000
     0.00000000     0.00000000     0.00000000
     0.00000000     0.00000000     0.00000000
     0.00000000     0.00000000     0.00000000
     0.00000000     0.00000000     0.00000000
     0.00000000     0.00000000     0.00000000
     0.00000000     0.00000000     0.00000000
     0.00000000     0.00000000     0.00000000
     0.00000000     0.00000000     0.00000000
     0.00000000     0.00000000     0.00000000
     0.00000000     0.00000000     0.00000000
     0.00000000     0.00000000     0.00000000
     0.00000000     0.00000000     0.00000000
     0.00000000     0.00000000     0.00000000
     0.00000000     0.00000000     0.00000000
     0.00000000     0.00000000     0.00000000
     0.00000000     0.00000000     0.00000000
     0.00000000     0.00000000     0.00000000
     0.00000000     0.00000000     0.00000000
     0.00000000     0.00000000     0.00000000
     0.00000000     0.00000000     0.00000000
     0.00000000     0.00000000     0.00000000
     0.00000000     0.00000000     0.00000000
     0.00000000     0.00000000     0.00000000
     0.00000000     0.00000000     0.00000000
     0.00000000     0.00000000     0.00000000
     0.00000000     0.00000000     0.00000000
     0.00000000     0.00000000     0.00000000
     0.00000000     0.00000000     0.00000000
     0.00000000     0.00000000     0.00000000
     0.00000000     0.00000000     0.00000000
     0.00000000     0.00000000     0.00000000
     0.00000000     0.00000000     0.00000000
     0.00000000     0.00000000     0.00000000
     0.00000000     0.00000000     0.00000000
     0.00000000     0.00000000     0.00000000
     0.00000000     0.00000000     0.00000000
     0.00000000     0.00000000     0.00000000
     0.00000000     0.00000000     0.00000000
     0.00000000     0.00000000     0.00000000
     0.00000000     0.00000000     0.00000000
     0.00000000     0.00000000     0.00000000
     0.00000000     0.00000000     0.00000000
     0.00000000     0.00000000     0.00000000
     0.00000000     0.00000000     0.00000000
     0.00000000     0.00000000     0.00000000
     0.00000000     0.00000000     0.00000000
     0.00000000     0.00000000     0.00000000
     0.00000000     0.00000000     0.00000000
     0.00000000     0.00000000     0.00000000
     0.00000000     0.00000000     0.00000000
     0.00000000     0.00000000     0.00000000
     0.00000000     0.00000000     0.00000000
     0.00000000     0.00000000     0.00000000
     0.00000000     0.00000000     0.00000000
     0.00000000     0.00000000     0.00000000
     0.00000000     0.00000000     0.00000000
     0.00000000     0.00000000     0.00000000
     0.00000000     0.00000000     0.00000000
     0.00000000     0.00000000     0.00000000
     0.00000000     0.00000000     0.00000000
     0.00000000     0.00000000     0.00000000
     0.00000000     0.00000000     0.00000000
     0.00000000     0.00000000     0.00000000
     0.00000000     0.00000000     0.00000000
     0.00000000     0.00000000     0.00000000
     0.00000000     0.00000000     0.00000000
     0.00000000     0.00000000     0.00000000
     0.00000000     0.00000000     0.00000000
     0.00000000     0.00000000     0.00000000
     0.00000000     0.00000000     0.00000000
     0.00000000     0.00000000     0.00000000
     0.00000000     0.00000000     0.00000000
     0.00000000     0.00000000     0.00000000
     0.00000000     0.00000000     0.00000000
     0.00000000     0.00000000     0.00000000
     0.00000000     0.00000000     0.00000000
     0.00000000     0.00000000     0.00000000
     0.00000000     0.00000000     0.00000000
     0.00000000     0.00000000     0.00000000
     0.00000000     0.00000000     0.00000000
     0.00000000     0.00000000     0.00000000
     0.00000000     0.00000000     0.00000000
     0.00000000     0.00000000     0.00000000
     0.00000000     0.00000000     0.00000000
     0.00000000     0.00000000     0.00000000
     0.00000000     0.00000000     0.00000000
     0.00000000     0.00000000     0.00000000
     0.00000000     0.00000000     0.00000000
     0.00000000     0.00000000     0.00000000
     0.00000000     0.00000000     0.00000000
     0.00000000     0.00000000     0.00000000
     0.00000000     0.00000000     0.00000000
     0.00000000     0.00000000     0.00000000
     0.00000000     0.00000000     0.00000000
     0.00000000     0.00000000     0.00000000
     0.00000000     0.00000000     0.00000000
     0.00000000     0.00000000     0.00000000
     0.00000000     0.00000000     0.00000000
     0.00000000     0.00000000     0.00000000
     0.00000000     0.00000000     0.00000000
     0.00000000     0.00000000     0.00000000
     0.00000000     0.00000000     0.00000000
     0.00000000     0.00000000     0.00000000
     0.00000000     0.00000000     0.00000000
     0.00000000     0.00000000     0.00000000
     0.00000000     0.00000000     0.00000000
     0.00000000     0.00000000     0.00000000
     0.00000000     0.00000000     0.00000000
     0.00000000     0.00000000     0.00000000
     0.00000000     0.00000000     0.00000000
     0.00000000     0.00000000     0.00000000
     0.00000000     0.00000000     0.00000000
     0.00000000     0.00000000     0.00000000
     0.00000000     0.00000000     0.00000000
     0.00000000     0.00000000     0.00000000
     0.00000000     0.00000000     0.00000000
     0.00000000     0.00000000     0.00000000
     0.00000000     0.00000000     0.00000000
     0.00000000     0.00000000     0.00000000
     0.00000000     0.00000000     0.00000000
     0.00000000     0.00000000     0.00000000
     0.00000000     0.00000000     0.00000000
     0.00000000     0.00000000     0.00000000
     0.00000000     0.00000000     0.00000000
     0.00000000     0.00000000     0.00000000
     0.00000000     0.00000000     0.00000000
     0.00000000     0.00000000     0.00000000
     0.00000000     0.00000000     0.00000000
     0.00000000     0.00000000     0.00000000
     0.00000000     0.00000000     0.00000000
     0.00000000     0.00000000     0.00000000
     0.00000000     0.00000000     0.00000000
     0.00000000     0.00000000     0.00000000
     0.00000000     0.00000000     0.00000000
     0.00000000     0.00000000     0.00000000
     0.00000000     0.00000000     0.00000000
     0.00000000     0.00000000     0.00000000
     0.00000000     0.00000000     0.00000000
     0.00000000     0.00000000     0.00000000
     0.00000000     0.00000000     0.00000000
     0.00000000     0.00000000     0.00000000
     0.00000000     0.00000000     0.00000000
     0.00000000     0.00000000     0.00000000
     0.00000000     0.00000000     0.00000000
     0.00000000     0.00000000     0.00000000
     0.00000000     0.00000000     0.00000000
     0.00000000     0.00000000     0.00000000
     0.00000000     0.00000000     0.00000000
     0.00000000     0.00000000     0.00000000
     0.00000000     0.00000000     0.00000000
     0.00000000     0.00000000     0.00000000
     0.00000000     0.00000000     0.00000000
     0.00000000     0.00000000     0.00000000
     0.00000000     0.00000000     0.00000000
     0.00000000     0.00000000     0.00000000
     0.00000000     0.00000000     0.00000000
     0.00000000     0.00000000     0.00000000
     0.00000000     0.00000000     0.00000000
     0.00000000     0.00000000     0.00000000
     0.00000000     0.00000000     0.00000000
     0.00000000     0.00000000     0.00000000
     0.00000000     0.00000000     0.00000000
     0.00000000     0.00000000     0.00000000
     0.00000000     0.00000000     0.00000000
     0.00000000     0.00000000     0.00000000
     0.00000000     0.00000000     0.00000000
     0.00000000     0.00000000     0.00000000
     0.00000000     0.00000000     0.00000000
     0.00000000     0.00000000     0.00000000
     0.00000000     0.00000000     0.00000000
     0.00000000     0.00000000     0.00000000
     0.00000000     0.00000000     0.00000000
     0.00000000     0.00000000     0.00000000
     0.00000000     0.00000000     0.00000000
     0.00000000     0.00000000     0.00000000
     0.00000000     0.00000000     0.00000000
     0.00000000     0.00000000     0.00000000
     0.00000000     0.00000000     0.00000000
     0.00000000     0.00000000     0.00000000
     0.00000000     0.00000000     0.00000000
     0.00000000     0.00000000     0.00000000
     0.00000000     0.00000000     0.00000000
     0.00000000     0.00000000     0.00000000
     0.00000000     0.00000000     0.00000000
     0.00000000     0.00000000     0.00000000
     0.00000000     0.00000000     0.00000000
     0.00000000     0.00000000     0.00000000
     0.00000000     0.00000000     0.00000000
     0.00000000     0.00000000     0.00000000
     0.00000000     0.00000000     0.00000000
     0.00000000     0.00000000     0.00000000
     0.00000000     0.00000000     0.00000000
     0.00000000     0.00000000     0.00000000
     0.00000000     0.00000000     0.00000000
     0.00000000     0.00000000     0.00000000
     0.00000000     0.00000000     0.00000000
     0.00000000     0.00000000     0.00000000
     0.00000000     0.00000000     0.00000000
     0.00000000     0.00000000     0.00000000
     0.00000000     0.00000000     0.00000000
     0.00000000     0.00000000     0.00000000
     0.00000000     0.00000000     0.00000000
     0.00000000     0.00000000     0.00000000
     0.00000000     0.00000000     0.00000000
     0.00000000     0.00000000     0.00000000
     0.00000000     0.00000000     0.00000000
     0.00000000     0.00000000     0.00000000
     0.00000000     0.00000000     0.00000000
     0.00000000     0.00000000     0.00000000
     0.00000000     0.00000000     0.00000000
     0.00000000     0.00000000     0.00000000
     0.00000000     0.00000000     0.00000000
     0.00000000     0.00000000     0.00000000
     0.00000000     0.00000000     0.00000000
     0.00000000     0.00000000     0.00000000
     0.00000000     0.00000000     0.00000000
     0.00000000     0.00000000     0.00000000
     0.00000000     0.00000000     0.00000000
     0.00000000     0.00000000     0.00000000
     0.00000000     0.00000000     0.00000000
     0.00000000     0.00000000     0.00000000
     0.00000000     0.00000000     0.00000000
     0.00000000     0.00000000     0.00000000
     0.00000000     0.00000000     0.00000000
     0.00000000     0.00000000     0.00000000
     0.00000000     0.00000000     0.00000000
     0.00000000     0.00000000     0.00000000
     0.00000000     0.00000000     0.00000000
     0.00000000     0.00000000     0.00000000
     0.00000000     0.00000000     0.00000000
     0.00000000     0.00000000     0.00000000
     0.00000000     0.00000000     0.00000000
     0.00000000     0.00000000     0.00000000
     0.00000000     0.00000000     0.00000000
     0.00000000     0.00000000     0.00000000
     0.00000000     0.00000000     0.00000000
     0.00000000     0.00000000     0.00000000
     0.00000000     0.00000000     0.00000000
     0.00000000     0.00000000     0.00000000
     0.00000000     0.00000000     0.00000000
     0.00000000     0.00000000     0.00000000
     0.00000000     0.00000000     0.00000000
     0.00000000     0.00000000     0.00000000
     0.00000000     0.00000000     0.00000000
     0.00000000     0.00000000     0.00000000
     0.00000000     0.00000000     0.00000000
     0.00000000     0.00000000     0.00000000
     0.00000000     0.00000000     0.00000000
     0.00000000     0.00000000     0.00000000
     0.00000000     0.00000000     0.00000000
     0.00000000     0.00000000     0.00000000
     0.00000000     0.00000000     0.00000000
     0.00000000     0.00000000     0.00000000
     0.00000000     0.00000000     0.00000000
     0.00000000     0.00000000     0.00000000
     0.00000000     0.00000000     0.00000000
     0.00000000     0.00000000     0.00000000
     0.00000000     0.00000000     0.00000000
     0.00000000     0.00000000     0.00000000
     0.00000000     0.00000000     0.00000000
     0.00000000     0.00000000     0.00000000
     0.00000000     0.00000000     0.00000000
     0.00000000     0.00000000     0.00000000
     0.00000000     0.00000000     0.00000000
     0.00000000     0.00000000     0.00000000
     0.00000000     0.00000000     0.00000000
     0.00000000     0.00000000     0.00000000
     0.00000000     0.00000000     0.00000000
     0.00000000     0.00000000     0.00000000
     0.00000000     0.00000000     0.00000000
     0.00000000     0.00000000     0.00000000
     0.00000000     0.00000000     0.00000000
     0.00000000     0.00000000     0.00000000
     0.00000000     0.00000000     0.00000000
     0.00000000     0.00000000     0.00000000
     0.00000000     0.00000000     0.00000000
     0.00000000     0.00000000     0.00000000
     0.00000000     0.00000000     0.00000000
     0.00000000     0.00000000     0.00000000
     0.00000000     0.00000000     0.00000000
     0.00000000     0.00000000     0.00000000
     0.00000000     0.00000000     0.00000000
     0.00000000     0.00000000     0.00000000
     0.00000000     0.00000000     0.00000000
     0.00000000     0.00000000     0.00000000
     0.00000000     0.00000000     0.00000000
     0.00000000     0.00000000     0.00000000
     0.00000000     0.00000000     0.00000000
     0.00000000     0.00000000     0.00000000
     0.00000000     0.00000000     0.00000000
     0.00000000     0.00000000     0.00000000
     0.00000000     0.00000000     0.00000000
     0.00000000     0.00000000     0.00000000
     0.00000000     0.00000000     0.00000000
     0.00000000     0.00000000     0.00000000
     0.00000000     0.00000000     0.00000000
     0.00000000     0.00000000     0.00000000
     0.00000000     0.00000000     0.00000000
     0.00000000     0.00000000     0.00000000
     0.00000000     0.00000000     0.00000000
     0.00000000     0.00000000     0.00000000
     0.00000000     0.00000000     0.00000000
     0.00000000     0.00000000     0.00000000
     0.00000000     0.00000000     0.00000000
     0.00000000     0.00000000     0.00000000
     0.00000000     0.00000000     0.00000000
     0.00000000     0.00000000     0.00000000
     0.00000000     0.00000000     0.00000000
     0.00000000     0.00000000     0.00000000
     0.00000000     0.00000000     0.00000000
     0.00000000     0.00000000     0.00000000
     0.00000000     0.00000000     0.00000000
     0.00000000     0.00000000     0.00000000
     0.00000000     0.00000000     0.00000000
     0.00000000     0.00000000     0.00000000
     0.00000000     0.00000000     0.00000000
     0.00000000     0.00000000     0.00000000
     0.00000000     0.00000000     0.00000000
     0.00000000     0.00000000     0.00000000
     0.00000000     0.00000000     0.00000000
     0.00000000     0.00000000     0.00000000
     0.00000000     0.00000000     0.00000000
     0.00000000     0.00000000     0.00000000
     0.00000000     0.00000000     0.00000000
     0.00000000     0.00000000     0.00000000
     0.00000000     0.00000000     0.00000000
     0.00000000     0.00000000     0.00000000
     0.00000000     0.00000000     0.00000000
     0.00000000     0.00000000     0.00000000
     0.00000000     0.00000000     0.00000000
     0.00000000     0.00000000     0.00000000
     0.00000000     0.00000000     0.00000000
     0.00000000     0.00000000     0.00000000
     0.00000000     0.00000000     0.00000000
     0.00000000     0.00000000     0.00000000
     0.00000000     0.00000000     0.00000000
     0.00000000     0.00000000     0.00000000
     0.00000000     0.00000000     0.00000000
     0.00000000     0.00000000     0.00000000
     0.00000000     0.00000000     0.00000000
     0.00000000     0.00000000     0.00000000
     0.00000000     0.00000000     0.00000000
     0.00000000     0.00000000     0.00000000
     0.00000000     0.00000000     0.00000000
     0.00000000     0.00000000     0.00000000
     0.00000000     0.00000000     0.00000000
     0.00000000     0.00000000     0.00000000
     0.00000000     0.00000000     0.00000000
     0.00000000     0.00000000     0.00000000
     0.00000000     0.00000000     0.00000000
     0.00000000     0.00000000     0.00000000
     0.00000000     0.00000000     0.00000000
     0.00000000     0.00000000     0.00000000
     0.00000000     0.00000000     0.00000000
     0.00000000     0.00000000     0.00000000
     0.00000000     0.00000000     0.00000000
     0.00000000     0.00000000     0.00000000
     0.00000000     0.00000000     0.00000000
     0.00000000     0.00000000     0.00000000
     0.00000000     0.00000000     0.00000000
     0.00000000     0.00000000     0.00000000
     0.00000000     0.00000000     0.00000000
     0.00000000     0.00000000     0.00000000
     0.00000000     0.00000000     0.00000000
     0.00000000     0.00000000     0.00000000
     0.00000000     0.00000000     0.00000000
     0.00000000     0.00000000     0.00000000
     0.00000000     0.00000000     0.00000000
     0.00000000     0.00000000     0.00000000
     0.00000000     0.00000000     0.00000000
     0.00000000     0.00000000     0.00000000
     0.00000000     0.00000000     0.00000000
     0.00000000     0.00000000     0.00000000
     0.00000000     0.00000000     0.00000000
     0.00000000     0.00000000     0.00000000
     0.00000000     0.00000000     0.00000000
     0.00000000     0.00000000     0.00000000
     0.00000000     0.00000000     0.00000000
     0.00000000     0.00000000     0.00000000
     0.00000000     0.00000000     0.00000000
     0.00000000     0.00000000     0.00000000
     0.00000000     0.00000000     0.00000000
     0.00000000     0.00000000     0.00000000
     0.00000000     0.00000000     0.00000000
     0.00000000     0.00000000     0.00000000
     0.00000000     0.00000000     0.00000000
     0.00000000     0.00000000     0.00000000
     0.00000000     0.00000000     0.00000000
     0.00000000     0.00000000     0.00000000
     0.00000000     0.00000000     0.00000000
     0.00000000     0.00000000     0.00000000
     0.00000000     0.00000000     0.00000000
     0.00000000     0.00000000     0.00000000
     0.00000000     0.00000000     0.00000000
     0.00000000     0.00000000     0.00000000
     0.00000000     0.00000000     0.00000000
     0.00000000     0.00000000     0.00000000
     0.00000000     0.00000000     0.00000000
     0.00000000     0.00000000     0.00000000
     0.00000000     0.00000000     0.00000000
     0.00000000     0.00000000     0.00000000
     0.00000000     0.00000000     0.00000000
     0.00000000     0.00000000     0.00000000
     0.00000000     0.00000000     0.00000000
     0.00000000     0.00000000     0.00000000
     0.00000000     0.00000000     0.00000000
     0.00000000     0.00000000     0.00000000
     0.00000000     0.00000000     0.00000000
     0.00000000     0.00000000     0.00000000
     0.00000000     0.00000000     0.00000000
     0.00000000     0.00000000     0.00000000
     0.00000000     0.00000000     0.00000000
     0.00000000     0.00000000     0.00000000
     0.00000000     0.00000000     0.00000000
     0.00000000     0.00000000     0.00000000
     0.00000000     0.00000000     0.00000000
     0.00000000     0.00000000     0.00000000
     0.00000000     0.00000000     0.00000000
     0.00000000     0.00000000     0.00000000
     0.00000000     0.00000000     0.00000000
     0.00000000     0.00000000     0.00000000
     0.00000000     0.00000000     0.00000000
     0.00000000     0.00000000     0.00000000
     0.00000000     0.00000000     0.00000000
     0.00000000     0.00000000     0.00000000
     0.00000000     0.00000000     0.00000000
     0.00000000     0.00000000     0.00000000
     0.00000000     0.00000000     0.00000000
     0.00000000     0.00000000     0.00000000
     0.00000000     0.00000000     0.00000000
     0.00000000     0.00000000     0.00000000
     0.00000000     0.00000000     0.00000000
     0.00000000     0.00000000     0.00000000
     0.00000000     0.00000000     0.00000000
     0.00000000     0.00000000     0.00000000
     0.00000000     0.00000000     0.00000000
     0.00000000     0.00000000     0.00000000
     0.00000000     0.00000000     0.00000000
     0.00000000     0.00000000     0.00000000
     0.00000000     0.00000000     0.00000000
     0.00000000     0.00000000     0.00000000
     0.00000000     0.00000000     0.00000000
     0.00000000     0.00000000     0.00000000
     0.00000000     0.00000000     0.00000000
     0.00000000     0.00000000     0.00000000
     0.00000000     0.00000000     0.00000000
     0.00000000     0.00000000     0.00000000
     0.00000000     0.00000000     0.00000000
     0.00000000     0.00000000     0.00000000
     0.00000000     0.00000000     0.00000000
     0.00000000     0.00000000     0.00000000
     0.00000000     0.00000000     0.00000000
     0.00000000     0.00000000     0.00000000
     0.00000000     0.00000000     0.00000000
     0.00000000     0.00000000     0.00000000
     0.00000000     0.00000000     0.00000000
     0.00000000     0.00000000     0.00000000
     0.00000000     0.00000000     0.00000000
     0.00000000     0.00000000     0.00000000
     0.00000000     0.00000000     0.00000000
     0.00000000     0.00000000     0.00000000
     0.00000000     0.00000000     0.00000000
     0.00000000     0.00000000     0.00000000
     0.00000000     0.00000000     0.00000000
     0.00000000     0.00000000     0.00000000
     0.00000000     0.00000000     0.00000000
     0.00000000     0.00000000     0.00000000
     0.00000000     0.00000000     0.00000000
     0.00000000     0.00000000     0.00000000
     0.00000000     0.00000000     0.00000000
     0.00000000     0.00000000     0.00000000
     0.00000000     0.00000000     0.00000000
     0.00000000     0.00000000     0.00000000
     0.00000000     0.00000000     0.00000000
     0.00000000     0.00000000     0.00000000
     0.00000000     0.00000000     0.00000000
     0.00000000     0.00000000     0.00000000
     0.00000000     0.00000000     0.00000000
     0.00000000     0.00000000     0.00000000
     0.00000000     0.00000000     0.00000000
     0.00000000     0.00000000     0.00000000
     0.00000000     0.00000000     0.00000000
     0.00000000     0.00000000     0.00000000
     0.00000000     0.00000000     0.00000000
     0.00000000     0.00000000     0.00000000
     0.00000000     0.00000000     0.00000000
     0.00000000     0.00000000     0.00000000
     0.00000000     0.00000000     0.00000000
     0.00000000     0.00000000     0.00000000
     0.00000000     0.00000000     0.00000000
     0.00000000     0.00000000     0.00000000
     0.00000000     0.00000000     0.00000000
     0.00000000     0.00000000     0.00000000
     0.00000000     0.00000000     0.00000000
     0.00000000     0.00000000     0.00000000
     0.00000000     0.00000000     0.00000000
     0.00000000     0.00000000     0.00000000
     0.00000000     0.00000000     0.00000000
     0.00000000     0.00000000     0.00000000
     0.00000000     0.00000000     0.00000000
     0.00000000     0.00000000     0.00000000
     0.00000000     0.00000000     0.00000000
     0.00000000     0.00000000     0.00000000
     0.00000000     0.00000000     0.00000000
     0.00000000     0.00000000     0.00000000
     0.00000000     0.00000000     0.00000000
     0.00000000     0.00000000     0.00000000
     0.00000000     0.00000000     0.00000000
     0.00000000     0.00000000     0.00000000
     0.00000000     0.00000000     0.00000000
     0.00000000     0.00000000     0.00000000
     0.00000000     0.00000000     0.00000000
     0.00000000     0.00000000     0.00000000
     0.00000000     0.00000000     0.00000000
     0.00000000     0.00000000     0.00000000
     0.00000000     0.00000000     0.00000000
     0.00000000     0.00000000     0.00000000
     0.00000000     0.00000000     0.00000000
     0.00000000     0.00000000     0.00000000
     0.00000000     0.00000000     0.00000000
     0.00000000     0.00000000     0.00000000
     0.00000000     0.00000000     0.00000000
     0.00000000     0.00000000     0.00000000
     0.00000000     0.00000000     0.00000000
     0.00000000     0.00000000     0.00000000
     0.00000000     0.00000000     0.00000000
     0.00000000     0.00000000     0.00000000
     0.00000000     0.00000000     0.00000000
     0.00000000     0.00000000     0.00000000
     0.00000000     0.00000000     0.00000000
     0.00000000     0.00000000     0.00000000
     0.00000000     0.00000000     0.00000000
     0.00000000     0.00000000     0.00000000
     0.00000000     0.00000000     0.00000000
     0.00000000     0.00000000     0.00000000
     0.00000000     0.00000000     0.00000000
     0.00000000     0.00000000     0.00000000
     0.00000000     0.00000000     0.00000000
     0.00000000     0.00000000     0.00000000
     0.00000000     0.00000000     0.00000000
     0.00000000     0.00000000     0.00000000
     0.00000000     0.00000000     0.00000000
     0.00000000     0.00000000     0.00000000
     0.00000000     0.00000000     0.00000000
     0.00000000     0.00000000     0.00000000
     0.00000000     0.00000000     0.00000000
     0.00000000     0.00000000     0.00000000
     0.00000000     0.00000000     0.00000000
     0.00000000     0.00000000     0.00000000
     0.00000000     0.00000000     0.00000000
     0.00000000     0.00000000     0.00000000
     0.00000000     0.00000000     0.00000000
     0.00000000     0.00000000     0.00000000
     0.00000000     0.00000000     0.00000000
     0.00000000     0.00000000     0.00000000
     0.00000000     0.00000000     0.00000000
     0.00000000     0.00000000     0.00000000
     0.00000000     0.00000000     0.00000000
     0.00000000     0.00000000     0.00000000
     0.00000000     0.00000000     0.00000000
     0.00000000     0.00000000     0.00000000
     0.00000000     0.00000000     0.00000000
     0.00000000     0.00000000     0.00000000
     0.00000000     0.00000000     0.00000000
     0.00000000     0.00000000     0.00000000
     0.00000000     0.00000000     0.00000000
     0.00000000     0.00000000     0.00000000
     0.00000000     0.00000000     0.00000000
     0.00000000     0.00000000     0.00000000
     0.00000000     0.00000000     0.00000000
     0.00000000     0.00000000     0.00000000
     0.00000000     0.00000000     0.00000000
     0.00000000     0.00000000     0.00000000
     0.00000000     0.00000000     0.00000000
     0.00000000     0.00000000     0.00000000
     0.00000000     0.00000000     0.00000000
     0.00000000     0.00000000     0.00000000
     0.00000000     0.00000000     0.00000000
     0.00000000     0.00000000     0.00000000
     0.00000000     0.00000000     0.00000000
     0.00000000     0.00000000     0.00000000
     0.00000000     0.00000000     0.00000000
     0.00000000     0.00000000     0.00000000
     0.00000000     0.00000000     0.00000000
     0.00000000     0.00000000     0.00000000
     0.00000000     0.00000000     0.00000000
     0.00000000     0.00000000     0.00000000
     0.00000000     0.00000000     0.00000000
     0.00000000     0.00000000     0.00000000
     0.00000000     0.00000000     0.00000000
     0.00000000     0.00000000     0.00000000
     0.00000000     0.00000000     0.00000000
     0.00000000     0.00000000     0.00000000
     0.00000000     0.00000000     0.00000000
     0.00000000     0.00000000     0.00000000
     0.00000000     0.00000000     0.00000000
     0.00000000     0.00000000     0.00000000
     0.00000000     0.00000000     0.00000000
     0.00000000     0.00000000     0.00000000
     0.00000000     0.00000000     0.00000000
     0.00000000     0.00000000     0.00000000
     0.00000000     0.00000000     0.00000000
     0.00000000     0.00000000     0.00000000
     0.00000000     0.00000000     0.00000000
     0.00000000     0.00000000     0.00000000
     0.00000000     0.00000000     0.00000000
     0.00000000     0.00000000     0.00000000
     0.00000000     0.00000000     0.00000000
     0.00000000     0.00000000     0.00000000
     0.00000000     0.00000000     0.00000000
     0.00000000     0.00000000     0.00000000
     0.00000000     0.00000000     0.00000000
     0.00000000     0.00000000     0.00000000
     0.00000000     0.00000000     0.00000000
     0.00000000     0.00000000     0.00000000
     0.00000000     0.00000000     0.00000000
     0.00000000     0.00000000     0.00000000
     0.00000000     0.00000000     0.00000000
     0.00000000     0.00000000     0.00000000
     0.00000000     0.00000000     0.00000000
     0.00000000     0.00000000     0.00000000
     0.00000000     0.00000000     0.00000000
     0.00000000     0.00000000     0.00000000
     0.00000000     0.00000000     0.00000000
     0.00000000     0.00000000     0.00000000
     0.00000000     0.00000000     0.00000000
     0.00000000     0.00000000     0.00000000
     0.00000000     0.00000000     0.00000000
     0.00000000     0.00000000     0.00000000
     0.00000000     0.00000000     0.00000000
     0.00000000     0.00000000     0.00000000
     0.00000000     0.00000000     0.00000000
     0.00000000     0.00000000     0.00000000
     0.00000000     0.00000000     0.00000000
     0.00000000     0.00000000     0.00000000
     0.00000000     0.00000000     0.00000000
     0.00000000     0.00000000     0.00000000
     0.00000000     0.00000000     0.00000000
     0.00000000     0.00000000     0.00000000
     0.00000000     0.00000000     0.00000000
     0.00000000     0.00000000     0.00000000
     0.00000000     0.00000000     0.00000000
     0.00000000     0.00000000     0.00000000
     0.00000000     0.00000000     0.00000000
     0.00000000     0.00000000     0.00000000
     0.00000000     0.00000000     0.00000000
     0.00000000     0.00000000     0.00000000
     0.00000000     0.00000000     0.00000000
     0.00000000     0.00000000     0.00000000
     0.00000000     0.00000000     0.00000000
     0.00000000     0.00000000     0.00000000
     0.00000000     0.00000000     0.00000000
     0.00000000     0.00000000     0.00000000
     0.00000000     0.00000000     0.00000000
     0.00000000     0.00000000     0.00000000
     0.00000000     0.00000000     0.00000000
     0.00000000     0.00000000     0.00000000
     0.00000000     0.00000000     0.00000000
     0.00000000     0.00000000     0.00000000
     0.00000000     0.00000000     0.00000000
     0.00000000     0.00000000     0.00000000
     0.00000000     0.00000000     0.00000000
     0.00000000     0.00000000     0.00000000
     0.00000000     0.00000000     0.00000000
     0.00000000     0.00000000     0.00000000
     0.00000000     0.00000000     0.00000000
     0.00000000     0.00000000     0.00000000
     0.00000000     0.00000000     0.00000000
     0.00000000     0.00000000     0.00000000
     0.00000000     0.00000000     0.00000000
     0.00000000     0.00000000     0.00000000
     0.00000000     0.00000000     0.00000000
     0.00000000     0.00000000     0.00000000
     0.00000000     0.00000000     0.00000000
     0.00000000     0.00000000     0.00000000
     0.00000000     0.00000000     0.00000000
     0.00000000     0.00000000     0.00000000
     0.00000000     0.00000000     0.00000000
     0.00000000     0.00000000     0.00000000
     0.00000000     0.00000000     0.00000000
     0.00000000     0.00000000     0.00000000
     0.00000000     0.00000000     0.00000000
     0.00000000     0.00000000     0.00000000
     0.00000000     0.00000000     0.00000000
     0.00000000     0.00000000     0.00000000
     0.00000000     0.00000000     0.00000000
     0.00000000     0.00000000     0.00000000
     0.00000000     0.00000000     0.00000000
     0.00000000     0.00000000     0.00000000
     0.00000000     0.00000000     0.00000000
     0.00000000     0.00000000     0.00000000
     0.00000000     0.00000000     0.00000000
     0.00000000     0.00000000     0.00000000
     0.00000000     0.00000000     0.00000000
     0.00000000     0.00000000     0.00000000
     0.00000000     0.00000000     0.00000000
     0.00000000     0.00000000     0.00000000
     0.00000000     0.00000000     0.00000000
     0.00000000     0.00000000     0.00000000
     0.00000000     0.00000000     0.00000000
     0.00000000     0.00000000     0.00000000
     0.00000000     0.00000000     0.00000000
     0.00000000     0.00000000     0.00000000
     0.00000000     0.00000000     0.00000000
     0.00000000     0.00000000     0.00000000
     0.00000000     0.00000000     0.00000000
     0.00000000     0.00000000     0.00000000
     0.00000000     0.00000000     0.00000000
     0.00000000     0.00000000     0.00000000
     0.00000000     0.00000000     0.00000000
     0.00000000     0.00000000     0.00000000
     0.00000000     0.00000000     0.00000000
     0.00000000     0.00000000     0.00000000
     0.00000000     0.00000000     0.00000000
     0.00000000     0.00000000     0.00000000
     0.00000000     0.00000000     0.00000000
     0.00000000     0.00000000     0.00000000
     0.00000000     0.00000000     0.00000000
     0.00000000     0.00000000     0.00000000
     0.00000000     0.00000000     0.00000000
     0.00000000     0.00000000     0.00000000
     0.00000000     0.00000000     0.00000000
     0.00000000     0.00000000     0.00000000
     0.00000000     0.00000000     0.00000000
     0.00000000     0.00000000     0.00000000
     0.00000000     0.00000000     0.00000000
     0.00000000     0.00000000     0.00000000
     0.00000000     0.00000000     0.00000000
     0.00000000     0.00000000     0.00000000
     0.00000000     0.00000000     0.00000000
     0.00000000     0.00000000     0.00000000
     0.00000000     0.00000000     0.00000000
     0.00000000     0.00000000     0.00000000
     0.00000000     0.00000000     0.00000000
     0.00000000     0.00000000     0.00000000
     0.00000000     0.00000000     0.00000000
     0.00000000     0.00000000     0.00000000
     0.00000000     0.00000000     0.00000000
     0.00000000     0.00000000     0.00000000
     0.00000000     0.00000000     0.00000000
     0.00000000     0.00000000     0.00000000
     0.00000000     0.00000000     0.00000000
     0.00000000     0.00000000     0.00000000
     0.00000000     0.00000000     0.00000000
     0.00000000     0.00000000     0.00000000
     0.00000000     0.00000000     0.00000000
     0.00000000     0.00000000     0.00000000
     0.00000000     0.00000000     0.00000000
     0.00000000     0.00000000     0.00000000
     0.00000000     0.00000000     0.00000000
     0.00000000     0.00000000     0.00000000
     0.00000000     0.00000000     0.00000000
     0.00000000     0.00000000     0.00000000
     0.00000000     0.00000000     0.00000000
     0.00000000     0.00000000     0.00000000
     0.00000000     0.00000000     0.00000000
     0.00000000     0.00000000     0.00000000
     0.00000000     0.00000000     0.00000000
     0.00000000     0.00000000     0.00000000
     0.00000000     0.00000000     0.00000000
     0.00000000     0.00000000     0.00000000
     0.00000000     0.00000000     0.00000000
     0.00000000     0.00000000     0.00000000
     0.00000000     0.00000000     0.00000000
     0.00000000     0.00000000     0.00000000
     0.00000000     0.00000000     0.00000000
     0.00000000     0.00000000     0.00000000
     0.00000000     0.00000000     0.00000000
     0.00000000     0.00000000     0.00000000
     0.00000000     0.00000000     0.00000000
     0.00000000     0.00000000     0.00000000
     0.00000000     0.00000000     0.00000000
     0.00000000     0.00000000     0.00000000
     0.00000000     0.00000000     0.00000000
     0.00000000     0.00000000     0.00000000
     0.00000000     0.00000000     0.00000000
     0.00000000     0.00000000     0.00000000
     0.00000000     0.00000000     0.00000000
     0.00000000     0.00000000     0.00000000
     0.00000000     0.00000000     0.00000000
     0.00000000     0.00000000     0.00000000
     0.00000000     0.00000000     0.00000000
     0.00000000     0.00000000     0.00000000
     0.00000000     0.00000000     0.00000000
     0.00000000     0.00000000     0.00000000
     0.00000000     0.00000000     0.00000000
     0.00000000     0.00000000     0.00000000
     0.00000000     0.00000000     0.00000000
     0.00000000     0.00000000     0.00000000
     0.00000000     0.00000000     0.00000000
     0.00000000     0.00000000     0.00000000
     0.00000000     0.00000000     0.00000000
     0.00000000     0.00000000     0.00000000
     0.00000000     0.00000000     0.00000000
     0.00000000     0.00000000     0.00000000
     0.00000000     0.00000000     0.00000000
     0.00000000     0.00000000     0.00000000
     0.00000000     0.00000000     0.00000000
     0.00000000     0.00000000     0.00000000
     0.00000000     0.00000000     0.00000000
     0.00000000     0.00000000     0.00000000
     0.00000000     0.00000000     0.00000000
     0.00000000     0.00000000     0.00000000
     0.00000000     0.00000000     0.00000000
     0.00000000     0.00000000     0.00000000
     0.00000000     0.00000000     0.00000000
     0.00000000     0.00000000     0.00000000
     0.00000000     0.00000000     0.00000000
     0.00000000     0.00000000     0.00000000
     0.00000000     0.00000000     0.00000000
     0.00000000     0.00000000     0.00000000
     0.00000000     0.00000000     0.00000000
     0.00000000     0.00000000     0.00000000
     0.00000000     0.00000000     0.00000000
     0.00000000     0.00000000     0.00000000
     0.00000000     0.00000000     0.00000000
     0.00000000     0.00000000     0.00000000
     0.00000000     0.00000000     0.00000000
     0.00000000     0.00000000     0.00000000
     0.00000000     0.00000000     0.00000000
     0.00000000     0.00000000     0.00000000
     0.00000000     0.00000000     0.00000000
     0.00000000     0.00000000     0.00000000
     0.00000000     0.00000000     0.00000000
     0.00000000     0.00000000     0.00000000
     0.00000000     0.00000000     0.00000000
     0.00000000     0.00000000     0.00000000
     0.00000000     0.00000000     0.00000000
     0.00000000     0.00000000     0.00000000
     0.00000000     0.00000000     0.00000000
     0.00000000     0.00000000     0.00000000
     0.00000000     0.00000000     0.00000000
     0.00000000     0.00000000     0.00000000
     0.00000000     0.00000000     0.00000000
     0.00000000     0.00000000     0.00000000
     0.00000000     0.00000000     0.00000000
     0.00000000     0.00000000     0.00000000
     0.00000000     0.00000000     0.00000000
     0.00000000     0.00000000     0.00000000
     0.00000000     0.00000000     0.00000000
     0.00000000     0.00000000     0.00000000
     0.00000000     0.00000000     0.00000000
     0.00000000     0.00000000     0.00000000
     0.00000000     0.00000000     0.00000000
     0.00000000     0.00000000     0.00000000
     0.00000000     0.00000000     0.00000000
     0.00000000     0.00000000     0.00000000
     0.00000000     0.00000000     0.00000000
     0.00000000     0.00000000     0.00000000
     0.00000000     0.00000000     0.00000000
     0.00000000     0.00000000     0.00000000
     0.00000000     0.00000000     0.00000000
     0.00000000     0.00000000     0.00000000
     0.00000000     0.00000000     0.00000000
     0.00000000     0.00000000     0.00000000
     0.00000000     0.00000000     0.00000000
     0.00000000     0.00000000     0.00000000
     0.00000000     0.00000000     0.00000000
     0.00000000     0.00000000     0.00000000
     0.00000000     0.00000000     0.00000000
     0.00000000     0.00000000     0.00000000
     0.00000000     0.00000000     0.00000000
     0.00000000     0.00000000     0.00000000
     0.00000000     0.00000000     0.00000000
     0.00000000     0.00000000     0.00000000
     0.00000000     0.00000000     0.00000000
     0.00000000     0.00000000     0.00000000
     0.00000000     0.00000000     0.00000000
     0.00000000     0.00000000     0.00000000
     0.00000000     0.00000000     0.00000000
     0.00000000     0.00000000     0.00000000
     0.00000000     0.00000000     0.00000000
     0.00000000     0.00000000     0.00000000
     0.00000000     0.00000000     0.00000000
     0.00000000     0.00000000     0.00000000
     0.00000000     0.00000000     0.00000000
     0.00000000     0.00000000     0.00000000
     0.00000000     0.00000000     0.00000000
     0.00000000     0.00000000     0.00000000
     0.00000000     0.00000000     0.00000000
     0.00000000     0.00000000     0.00000000
     0.00000000     0.00000000     0.00000000
     0.00000000     0.00000000     0.00000000
     0.00000000     0.00000000     0.00000000
     0.00000000     0.00000000     0.00000000
     0.00000000     0.00000000     0.00000000
     0.00000000     0.00000000     0.00000000
     0.00000000     0.00000000     0.00000000
     0.00000000     0.00000000     0.00000000
     0.00000000     0.00000000     0.00000000
     0.00000000     0.00000000     0.00000000
     0.00000000     0.00000000     0.00000000
     0.00000000     0.00000000     0.00000000
     0.00000000     0.00000000     0.00000000
     0.00000000     0.00000000     0.00000000
     0.00000000     0.00000000     0.00000000
     0.00000000     0.00000000     0.00000000
     0.00000000     0.00000000     0.00000000
     0.00000000     0.00000000     0.00000000
     0.00000000     0.00000000     0.00000000
     0.00000000     0.00000000     0.00000000
     0.00000000     0.00000000     0.00000000
     0.00000000     0.00000000     0.00000000
     0.00000000     0.00000000     0.00000000
     0.00000000     0.00000000     0.00000000
     0.00000000     0.00000000     0.00000000
     0.00000000     0.00000000     0.00000000
     0.00000000     0.00000000     0.00000000
     0.00000000     0.00000000     0.00000000
     0.00000000     0.00000000     0.00000000
     0.00000000     0.00000000     0.00000000
     0.00000000     0.00000000     0.00000000
     0.00000000     0.00000000     0.00000000
     0.00000000     0.00000000     0.00000000
     0.00000000     0.00000000     0.00000000
     0.00000000     0.00000000     0.00000000
     0.00000000     0.00000000     0.00000000
     0.00000000     0.00000000     0.00000000
     0.00000000     0.00000000     0.00000000
     0.00000000     0.00000000     0.00000000
     0.00000000     0.00000000     0.00000000
     0.00000000     0.00000000     0.00000000
     0.00000000     0.00000000     0.00000000
     0.00000000     0.00000000     0.00000000
     0.00000000     0.00000000     0.00000000
     0.00000000     0.00000000     0.00000000
     0.00000000     0.00000000     0.00000000
     0.00000000     0.00000000     0.00000000
     0.00000000     0.00000000     0.00000000
     0.00000000     0.00000000     0.00000000
     0.00000000     0.00000000     0.00000000
     0.00000000     0.00000000     0.00000000
     0.00000000     0.00000000     0.00000000
     0.00000000     0.00000000     0.00000000
     0.00000000     0.00000000     0.00000000
     0.00000000     0.00000000     0.00000000
     0.00000000     0.00000000     0.00000000
     0.00000000     0.00000000     0.00000000
     0.00000000     0.00000000     0.00000000
     0.00000000     0.00000000     0.00000000
     0.00000000     0.00000000     0.00000000
     0.00000000     0.00000000     0.00000000
     0.00000000     0.00000000     0.00000000
     0.00000000     0.00000000     0.00000000
     0.00000000     0.00000000     0.00000000
     0.00000000     0.00000000     0.00000000
     0.00000000     0.00000000     0.00000000
     0.00000000     0.00000000     0.00000000
     0.00000000     0.00000000     0.00000000
     0.00000000     0.00000000     0.00000000
     0.00000000     0.00000000     0.00000000
     0.00000000     0.00000000     0.00000000
     0.00000000     0.00000000     0.00000000
     0.00000000     0.00000000     0.00000000
     0.00000000     0.00000000     0.00000000
     0.00000000     0.00000000     0.00000000
     0.00000000     0.00000000     0.00000000
     0.00000000     0.00000000     0.00000000
     0.00000000     0.00000000     0.00000000
     0.00000000     0.00000000     0.00000000
     0.00000000     0.00000000     0.00000000
     0.00000000     0.00000000     0.00000000
     0.00000000     0.00000000     0.00000000
     0.00000000     0.00000000     0.00000000
     0.00000000     0.00000000     0.00000000
     0.00000000     0.00000000     0.00000000
     0.00000000     0.00000000     0.00000000
     0.00000000     0.00000000     0.00000000
     0.00000000     0.00000000     0.00000000
     0.00000000     0.00000000     0.00000000
     0.00000000     0.00000000     0.00000000
     0.00000000     0.00000000     0.00000000
     0.00000000     0.00000000     0.00000000
     0.00000000     0.00000000     0.00000000
     0.00000000     0.00000000     0.00000000
     0.00000000     0.00000000     0.00000000
     0.00000000     0.00000000     0.00000000
     0.00000000     0.00000000     0.00000000
     0.00000000     0.00000000     0.00000000
     0.00000000     0.00000000     0.00000000
     0.00000000     0.00000000     0.00000000
     0.00000000     0.00000000     0.00000000
     0.00000000     0.00000000     0.00000000
     0.00000000     0.00000000     0.00000000
     0.00000000     0.00000000     0.00000000
     0.00000000     0.00000000     0.00000000
     0.00000000     0.00000000     0.00000000
     0.00000000     0.00000000     0.00000000
     0.00000000     0.00000000     0.00000000
     0.00000000     0.00000000     0.00000000
     0.00000000     0.00000000     0.00000000
     0.00000000     0.00000000     0.00000000
     0.00000000     0.00000000     0.00000000
     0.00000000     0.00000000     0.00000000
     0.00000000     0.00000000     0.00000000
     0.00000000     0.00000000     0.00000000
     0.00000000     0.00000000     0.00000000
     0.00000000     0.00000000     0.00000000
     0.00000000     0.00000000     0.00000000
     0.00000000     0.00000000     0.00000000
     0.00000000     0.00000000     0.00000000
     0.00000000     0.00000000     0.00000000
     0.00000000     0.00000000     0.00000000
     0.00000000     0.00000000     0.00000000
     0.00000000     0.00000000     0.00000000
     0.00000000     0.00000000     0.00000000
     0.00000000     0.00000000     0.00000000
     0.00000000     0.00000000     0.00000000
     0.00000000     0.00000000     0.00000000
     0.00000000     0.00000000     0.00000000
     0.00000000     0.00000000     0.00000000
     0.00000000     0.00000000     0.00000000
     0.00000000     0.00000000     0.00000000
     0.00000000     0.00000000     0.00000000
     0.00000000     0.00000000     0.00000000
     0.00000000     0.00000000     0.00000000
     0.00000000     0.00000000     0.00000000
     0.00000000     0.00000000     0.00000000
     0.00000000     0.00000000     0.00000000
     0.00000000     0.00000000     0.00000000
     0.00000000     0.00000000     0.00000000
     0.00000000     0.00000000     0.00000000
     0.00000000     0.00000000     0.00000000
     0.00000000     0.00000000     0.00000000
     0.00000000     0.00000000     0.00000000
     0.00000000     0.00000000     0.00000000
     0.00000000     0.00000000     0.00000000
     0.00000000     0.00000000     0.00000000
     0.00000000     0.00000000     0.00000000
     0.00000000     0.00000000     0.00000000
     0.00000000     0.00000000     0.00000000
     0.00000000     0.00000000     0.00000000
     0.00000000     0.00000000     0.00000000
     0.00000000     0.00000000     0.00000000
     0.00000000     0.00000000     0.00000000
     0.00000000     0.00000000     0.00000000
     0.00000000     0.00000000     0.00000000
     0.00000000     0.00000000     0.00000000
     0.00000000     0.00000000     0.00000000
     0.00000000     0.00000000     0.00000000
     0.00000000     0.00000000     0.00000000
     0.00000000     0.00000000     0.00000000
     0.00000000     0.00000000     0.00000000
     0.00000000     0.00000000     0.00000000
     0.00000000     0.00000000     0.00000000
     0.00000000     0.00000000     0.00000000
     0.00000000     0.00000000     0.00000000
     0.00000000     0.00000000     0.00000000
     0.00000000     0.00000000     0.00000000
     0.00000000     0.00000000     0.00000000
     0.00000000     0.00000000     0.00000000
     0.00000000     0.00000000     0.00000000
     0.00000000     0.00000000     0.00000000
     0.00000000     0.00000000     0.00000000
     0.00000000     0.00000000     0.00000000
     0.00000000     0.00000000     0.00000000
     0.00000000     0.00000000     0.00000000
     0.00000000     0.00000000     0.00000000
     0.00000000     0.00000000     0.00000000
     0.00000000     0.00000000     0.00000000
     0.00000000     0.00000000     0.00000000
     0.00000000     0.00000000     0.00000000
     0.00000000     0.00000000     0.00000000
     0.00000000     0.00000000     0.00000000
     0.00000000     0.00000000     0.00000000
     0.00000000     0.00000000     0.00000000
     0.00000000     0.00000000     0.00000000
     0.00000000     0.00000000     0.00000000
     0.00000000     0.00000000     0.00000000
     0.00000000     0.00000000     0.00000000
     0.00000000     0.00000000     0.00000000
     0.00000000     0.00000000     0.00000000
     0.00000000     0.00000000     0.00000000
     0.00000000     0.00000000     0.00000000
     0.00000000     0.00000000     0.00000000
     0.00000000     0.00000000     0.00000000
     0.00000000     0.00000000     0.00000000
     0.00000000     0.00000000     0.00000000
     0.00000000     0.00000000     0.00000000
     0.00000000     0.00000000     0.00000000
     0.00000000     0.00000000     0.00000000
     0.00000000     0.00000000     0.00000000
     0.00000000     0.00000000     0.00000000
     0.00000000     0.00000000     0.00000000
     0.00000000     0.00000000     0.00000000
     0.00000000     0.00000000     0.00000000
     0.00000000     0.00000000     0.00000000
     0.00000000     0.00000000     0.00000000
     0.00000000     0.00000000     0.00000000
     0.00000000     0.00000000     0.00000000
     0.00000000     0.00000000     0.00000000
     0.00000000     0.00000000     0.00000000
     0.00000000     0.00000000     0.00000000
     0.00000000     0.00000000     0.00000000
     0.00000000     0.00000000     0.00000000
     0.00000000     0.00000000     0.00000000
     0.00000000     0.00000000     0.00000000
     0.00000000     0.00000000     0.00000000
     0.00000000     0.00000000     0.00000000
     0.00000000     0.00000000     0.00000000
     0.00000000     0.00000000     0.00000000
     0.00000000     0.00000000     0.00000000
     0.00000000     0.00000000     0.00000000
     0.00000000     0.00000000     0.00000000
     0.00000000     0.00000000     0.00000000
     0.00000000     0.00000000     0.00000000
     0.00000000     0.00000000     0.00000000
     0.00000000     0.00000000     0.00000000
     0.00000000     0.00000000     0.00000000
     0.00000000     0.00000000     0.00000000
     0.00000000     0.00000000     0.00000000
     0.00000000     0.00000000     0.00000000
     0.00000000     0.00000000     0.00000000
     0.00000000     0.00000000     0.00000000
     0.00000000     0.00000000     0.00000000
     0.00000000     0.00000000     0.00000000
     0.00000000     0.00000000     0.00000000
     0.00000000     0.00000000     0.00000000
     0.00000000     0.00000000     0.00000000
     0.00000000     0.00000000     0.00000000
     0.00000000     0.00000000     0.00000000
     0.00000000     0.00000000     0.00000000
     0.00000000     0.00000000     0.00000000
     0.00000000     0.00000000     0.00000000
     0.00000000     0.00000000     0.00000000
     0.00000000     0.00000000     0.00000000
     0.00000000     0.00000000     0.00000000
     0.00000000     0.00000000     0.00000000
     0.00000000     0.00000000     0.00000000
     0.00000000     0.00000000     0.00000000
     0.00000000     0.00000000     0.00000000
     0.00000000     0.00000000     0.00000000
     0.00000000     0.00000000     0.00000000
     0.00000000     0.00000000     0.00000000
     0.00000000     0.00000000     0.00000000
     0.00000000     0.00000000     0.00000000
     0.00000000     0.00000000     0.00000000
     0.00000000     0.00000000     0.00000000
     0.00000000     0.00000000     0.00000000
     0.00000000     0.00000000     0.00000000
     0.00000000     0.00000000     0.00000000
     0.00000000     0.00000000     0.00000000
     0.00000000     0.00000000     0.00000000
     0.00000000     0.00000000     0.00000000
     0.00000000     0.00000000     0.00000000
     0.00000000     0.00000000     0.00000000
     0.00000000     0.00000000     0.00000000
     0.00000000     0.00000000     0.00000000
     0.00000000     0.00000000     0.00000000
     0.00000000     0.00000000     0.00000000
     0.00000000     0.00000000     0.00000000
     0.00000000     0.00000000     0.00000000
     0.00000000     0.00000000     0.00000000
     0.00000000     0.00000000     0.00000000
     0.00000000     0.00000000     0.00000000
     0.00000000     0.00000000     0.00000000
     0.00000000     0.00000000     0.00000000
     0.00000000     0.00000000     0.00000000
     0.00000000     0.00000000     0.00000000
     0.00000000     0.00000000     0.00000000
     0.00000000     0.00000000     0.00000000
     0.00000000     0.00000000     0.00000000
     0.00000000     0.00000000     0.00000000
     0.00000000     0.00000000     0.00000000
     0.00000000     0.00000000     0.00000000
     0.00000000     0.00000000     0.00000000
     0.00000000     0.00000000     0.00000000
     0.00000000     0.00000000     0.00000000
     0.00000000     0.00000000     0.00000000
     0.00000000     0.00000000     0.00000000
     0.00000000     0.00000000     0.00000000
     0.00000000     0.00000000     0.00000000
     0.00000000     0.00000000     0.00000000
     0.00000000     0.00000000     0.00000000
     0.00000000     0.00000000     0.00000000
     0.00000000     0.00000000     0.00000000
     0.00000000     0.00000000     0.00000000
     0.00000000     0.00000000     0.00000000
     0.00000000     0.00000000     0.00000000
     0.00000000     0.00000000     0.00000000
     0.00000000     0.00000000     0.00000000
     0.00000000     0.00000000     0.00000000
     0.00000000     0.00000000     0.00000000
     0.00000000     0.00000000     0.00000000
     0.00000000     0.00000000     0.00000000
     0.00000000     0.00000000     0.00000000
     0.00000000     0.00000000     0.00000000
     0.00000000     0.00000000     0.00000000
     0.00000000     0.00000000     0.00000000
     0.00000000     0.00000000     0.00000000
     0.00000000     0.00000000     0.00000000
     0.00000000     0.00000000     0.00000000
     0.00000000     0.00000000     0.00000000
     0.00000000     0.00000000     0.00000000
     0.00000000     0.00000000     0.00000000
     0.00000000     0.00000000     0.00000000
     0.00000000     0.00000000     0.00000000
     0.00000000     0.00000000     0.00000000
     0.00000000     0.00000000     0.00000000
     0.00000000     0.00000000     0.00000000
     0.00000000     0.00000000     0.00000000
     0.00000000     0.00000000     0.00000000
     0.00000000     0.00000000     0.00000000
     0.00000000     0.00000000     0.00000000
     0.00000000     0.00000000     0.00000000
     0.00000000     0.00000000     0.00000000
     0.00000000     0.00000000     0.00000000
     0.00000000     0.00000000     0.00000000
     0.00000000     0.00000000     0.00000000
     0.00000000     0.00000000     0.00000000
     0.00000000     0.00000000     0.00000000
     0.00000000     0.00000000     0.00000000
     0.00000000     0.00000000     0.00000000
     0.00000000     0.00000000     0.00000000
     0.00000000     0.00000000     0.00000000
     0.00000000     0.00000000     0.00000000
     0.00000000     0.00000000     0.00000000
     0.00000000     0.00000000     0.00000000
     0.00000000     0.00000000     0.00000000
     0.00000000     0.00000000     0.00000000
     0.00000000     0.00000000     0.00000000
     0.00000000     0.00000000     0.00000000
     0.00000000     0.00000000     0.00000000
     0.00000000     0.00000000     0.00000000
     0.00000000     0.00000000     0.00000000
     0.00000000     0.00000000     0.00000000
     0.00000000     0.00000000     0.00000000
     0.00000000     0.00000000     0.00000000
     0.00000000     0.00000000     0.00000000
     0.00000000     0.00000000     0.00000000
     0.00000000     0.00000000     0.00000000
     0.00000000     0.00000000     0.00000000
     0.00000000     0.00000000     0.00000000
     0.00000000     0.00000000     0.00000000
     0.00000000     0.00000000     0.00000000
     0.00000000     0.00000000     0.00000000
     0.00000000     0.00000000     0.00000000
     0.00000000     0.00000000     0.00000000
     0.00000000     0.00000000     0.00000000
     0.00000000     0.00000000     0.00000000
     0.00000000     0.00000000     0.00000000
     0.00000000     0.00000000     0.00000000
     0.00000000     0.00000000     0.00000000
     0.00000000     0.00000000     0.00000000
     0.00000000     0.00000000     0.00000000
     0.00000000     0.00000000     0.00000000
     0.00000000     0.00000000     0.00000000
     0.00000000     0.00000000     0.00000000
     0.00000000     0.00000000     0.00000000
     0.00000000     0.00000000     0.00000000
     0.00000000     0.00000000     0.00000000
     0.00000000     0.00000000     0.00000000
     0.00000000     0.00000000     0.00000000
     0.00000000     0.00000000     0.00000000
     0.00000000     0.00000000     0.00000000
     0.00000000     0.00000000     0.00000000
     0.00000000     0.00000000     0.00000000
     0.00000000     0.00000000     0.00000000
     0.00000000     0.00000000     0.00000000
     0.00000000     0.00000000     0.00000000
     0.00000000     0.00000000     0.00000000
     0.00000000     0.00000000     0.00000000
     0.00000000     0.00000000     0.00000000
     0.00000000     0.00000000     0.00000000
     0.00000000     0.00000000     0.00000000
     0.00000000     0.00000000     0.00000000
     0.00000000     0.00000000     0.00000000
     0.00000000     0.00000000     0.00000000
     0.00000000     0.00000000     0.00000000
     0.00000000     0.00000000     0.00000000
     0.00000000     0.00000000     0.00000000
     0.00000000     0.00000000     0.00000000
     0.00000000     0.00000000     0.00000000
     0.00000000     0.00000000     0.00000000
     0.00000000     0.00000000     0.00000000
     0.00000000     0.00000000     0.00000000
     0.00000000     0.00000000     0.00000000
     0.00000000     0.00000000     0.00000000
     0.00000000     0.00000000     0.00000000
     0.00000000     0.00000000     0.00000000
     0.00000000     0.00000000     0.00000000
     0.00000000     0.00000000     0.00000000
     0.00000000     0.00000000     0.00000000
     0.00000000     0.00000000     0.00000000
     0.00000000     0.00000000     0.00000000
     0.00000000     0.00000000     0.00000000
     0.00000000     0.00000000     0.00000000
     0.00000000     0.00000000     0.00000000
     0.00000000     0.00000000     0.00000000
     0.00000000     0.00000000     0.00000000
     0.00000000     0.00000000     0.00000000
     0.00000000     0.00000000     0.00000000
     0.00000000     0.00000000     0.00000000
     0.00000000     0.00000000     0.00000000
     0.00000000     0.00000000     0.00000000
     0.00000000     0.00000000     0.00000000
     0.00000000     0.00000000     0.00000000
     0.00000000     0.00000000     0.00000000
     0.00000000     0.00000000     0.00000000
     0.00000000     0.00000000     0.00000000
     0.00000000     0.00000000     0.00000000
     0.00000000     0.00000000     0.00000000
     0.00000000     0.00000000     0.00000000
     0.00000000     0.00000000     0.00000000
     0.00000000     0.00000000     0.00000000
     0.00000000     0.00000000     0.00000000
     0.00000000     0.00000000     0.00000000
     0.00000000     0.00000000     0.00000000
     0.00000000     0.00000000     0.00000000
     0.00000000     0.00000000     0.00000000
     0.00000000     0.00000000     0.00000000
     0.00000000     0.00000000     0.00000000
     0.00000000     0.00000000     0.00000000
     0.00000000     0.00000000     0.00000000
     0.00000000     0.00000000     0.00000000
     0.00000000     0.00000000     0.00000000
     0.00000000     0.00000000     0.00000000
     0.00000000     0.00000000     0.00000000
     0.00000000     0.00000000     0.00000000
     0.00000000     0.00000000     0.00000000
     0.00000000     0.00000000     0.00000000
     0.00000000     0.00000000     0.00000000
     0.00000000     0.00000000     0.00000000
     0.00000000     0.00000000     0.00000000
     0.00000000     0.00000000     0.00000000
     0.00000000     0.00000000     0.00000000
     0.00000000     0.00000000     0.00000000
     0.00000000     0.00000000     0.00000000
     0.00000000     0.00000000     0.00000000
     0.00000000     0.00000000     0.00000000
     0.00000000     0.00000000     0.00000000
     0.00000000     0.00000000     0.00000000
     0.00000000     0.00000000     0.00000000
     0.00000000     0.00000000     0.00000000
     0.00000000     0.00000000     0.00000000
     0.00000000     0.00000000     0.00000000
     0.00000000     0.00000000     0.00000000
     0.00000000     0.00000000     0.00000000
     0.00000000     0.00000000     0.00000000
     0.00000000     0.00000000     0.00000000
     0.00000000     0.00000000     0.00000000
     0.00000000     0.00000000     0.00000000
     0.00000000     0.00000000     0.00000000
     0.00000000     0.00000000     0.00000000
     0.00000000     0.00000000     0.00000000
     0.00000000     0.00000000     0.00000000
     0.00000000     0.00000000     0.00000000
     0.00000000     0.00000000     0.00000000
     0.00000000     0.00000000     0.00000000
     0.00000000     0.00000000     0.00000000
     0.00000000     0.00000000     0.00000000
     0.00000000     0.00000000     0.00000000
     0.00000000     0.00000000     0.00000000
     0.00000000     0.00000000     0.00000000
     0.00000000     0.00000000     0.00000000
     0.00000000     0.00000000     0.00000000
     0.00000000     0.00000000     0.00000000
     0.00000000     0.00000000     0.00000000
     0.00000000     0.00000000     0.00000000
     0.00000000     0.00000000     0.00000000
     0.00000000     0.00000000     0.00000000
     0.00000000     0.00000000     0.00000000
     0.00000000     0.00000000     0.00000000
     0.00000000     0.00000000     0.00000000
     0.00000000     0.00000000     0.00000000
     0.00000000     0.00000000     0.00000000
     0.00000000     0.00000000     0.00000000
     0.00000000     0.00000000     0.00000000
     0.00000000     0.00000000     0.00000000
     0.00000000     0.00000000     0.00000000
     0.00000000     0.00000000     0.00000000
     0.00000000     0.00000000     0.00000000
     0.00000000     0.00000000     0.00000000
     0.00000000     0.00000000     0.00000000
     0.00000000     0.00000000     0.00000000
     0.00000000     0.00000000     0.00000000
     0.00000000     0.00000000     0.00000000
     0.00000000     0.00000000     0.00000000
     0.00000000     0.00000000     0.00000000
     0.00000000     0.00000000     0.00000000
     0.00000000     0.00000000     0.00000000
     0.00000000     0.00000000     0.00000000
     0.00000000     0.00000000     0.00000000
     0.00000000     0.00000000     0.00000000
     0.00000000     0.00000000     0.00000000
     0.00000000     0.00000000     0.00000000
     0.00000000     0.00000000     0.00000000
     0.00000000     0.00000000     0.00000000
     0.00000000     0.00000000     0.00000000
     0.00000000     0.00000000     0.00000000
     0.00000000     0.00000000     0.00000000
     0.00000000     0.00000000     0.00000000
     0.00000000     0.00000000     0.00000000
     0.00000000     0.00000000     0.00000000
     0.00000000     0.00000000     0.00000000
     0.00000000     0.00000000     0.00000000
     0.00000000     0.00000000     0.00000000
     0.00000000     0.00000000     0.00000000
     0.00000000     0.00000000     0.00000000
     0.00000000     0.00000000     0.00000000
     0.00000000     0.00000000     0.00000000
     0.00000000     0.00000000     0.00000000
     0.00000000     0.00000000     0.00000000
     0.00000000     0.00000000     0.00000000
     0.00000000     0.00000000     0.00000000
     0.00000000     0.00000000     0.00000000
     0.00000000     0.00000000     0.00000000
     0.00000000     0.00000000     0.00000000
     0.00000000     0.00000000     0.00000000
     0.00000000     0.00000000     0.00000000
     0.00000000     0.00000000     0.00000000
     0.00000000     0.00000000     0.00000000
     0.00000000     0.00000000     0.00000000
     0.00000000     0.00000000     0.00000000
     0.00000000     0.00000000     0.00000000
     0.00000000     0.00000000     0.00000000
     0.00000000     0.00000000     0.00000000
     0.00000000     0.00000000     0.00000000
     0.00000000     0.00000000     0.00000000
     0.00000000     0.00000000     0.00000000
     0.00000000     0.00000000     0.00000000
     0.00000000     0.00000000     0.00000000
     0.00000000     0.00000000     0.00000000
     0.00000000     0.00000000     0.00000000
     0.00000000     0.00000000     0.00000000
     0.00000000     0.00000000     0.00000000
     0.00000000     0.00000000     0.00000000
     0.00000000     0.00000000     0.00000000
     0.00000000     0.00000000     0.00000000
     0.00000000     0.00000000     0.00000000
     0.00000000     0.00000000     0.00000000
     0.00000000     0.00000000     0.00000000
     0.00000000     0.00000000     0.00000000
     0.00000000     0.00000000     0.00000000
     0.00000000     0.00000000     0.00000000
     0.00000000     0.00000000     0.00000000
     0.00000000     0.00000000     0.00000000
     0.00000000     0.00000000     0.00000000
     0.00000000     0.00000000     0.00000000
     0.00000000     0.00000000     0.00000000
     0.00000000     0.00000000     0.00000000
     0.00000000     0.00000000     0.00000000
     0.00000000     0.00000000     0.00000000
     0.00000000     0.00000000     0.00000000
     0.00000000     0.00000000     0.00000000
     0.00000000     0.00000000     0.00000000
     0.00000000     0.00000000     0.00000000
     0.00000000     0.00000000     0.00000000
     0.00000000     0.00000000     0.00000000
     0.00000000     0.00000000     0.00000000
     0.00000000     0.00000000     0.00000000
     0.00000000     0.00000000     0.00000000
     0.00000000     0.00000000     0.00000000
     0.00000000     0.00000000     0.00000000
     0.00000000     0.00000000     0.00000000
     0.00000000     0.00000000     0.00000000
     0.00000000     0.00000000     0.00000000
     0.00000000     0.00000000     0.00000000
     0.00000000     0.00000000     0.00000000
     0.00000000     0.00000000     0.00000000
     0.00000000     0.00000000     0.00000000
     0.00000000     0.00000000     0.00000000
     0.00000000     0.00000000     0.00000000
     0.00000000     0.00000000     0.00000000
     0.00000000     0.00000000     0.00000000
     0.00000000     0.00000000     0.00000000
     0.00000000     0.00000000     0.00000000
     0.00000000     0.00000000     0.00000000
     0.00000000     0.00000000     0.00000000
     0.00000000     0.00000000     0.00000000
     0.00000000     0.00000000     0.00000000
     0.00000000     0.00000000     0.00000000
     0.00000000     0.00000000     0.00000000
     0.00000000     0.00000000     0.00000000
     0.00000000     0.00000000     0.00000000
     0.00000000     0.00000000     0.00000000
     0.00000000     0.00000000     0.00000000
     0.00000000     0.00000000     0.00000000
     0.00000000     0.00000000     0.00000000
     0.00000000     0.00000000     0.00000000
     0.00000000     0.00000000     0.00000000
     0.00000000     0.00000000     0.00000000
     0.00000000     0.00000000     0.00000000
     0.00000000     0.00000000     0.00000000
     0.00000000     0.00000000     0.00000000
     0.00000000     0.00000000     0.00000000
     0.00000000     0.00000000     0.00000000
     0.00000000     0.00000000     0.00000000
     0.00000000     0.00000000     0.00000000
     0.00000000     0.00000000     0.00000000
     0.00000000     0.00000000     0.00000000
     0.00000000     0.00000000     0.00000000
     0.00000000     0.00000000     0.00000000
     0.00000000     0.00000000     0.00000000
     0.00000000     0.00000000     0.00000000
     0.00000000     0.00000000     0.00000000
     0.00000000     0.00000000     0.00000000
     0.00000000     0.00000000     0.00000000
     0.00000000     0.00000000     0.00000000
     0.00000000     0.00000000     0.00000000
     0.00000000     0.00000000     0.00000000
     0.00000000     0.00000000     0.00000000
     0.00000000     0.00000000     0.00000000
     0.00000000     0.00000000     0.00000000
     0.00000000     0.00000000     0.00000000
     0.00000000     0.00000000     0.00000000
     0.00000000     0.00000000     0.00000000
     0.00000000     0.00000000     0.00000000
     0.00000000     0.00000000     0.00000000
     0.00000000     0.00000000     0.00000000
     0.00000000     0.00000000     0.00000000
     0.00000000     0.00000000     0.00000000
     0.00000000     0.00000000     0.00000000
     0.00000000     0.00000000     0.00000000
     0.00000000     0.00000000     0.00000000
     0.00000000     0.00000000     0.00000000
     0.00000000     0.00000000     0.00000000
     0.00000000     0.00000000     0.00000000
     0.00000000     0.00000000     0.00000000
     0.00000000     0.00000000     0.00000000
     0.00000000     0.00000000     0.00000000
     0.00000000     0.00000000     0.00000000
     0.00000000     0.00000000     0.00000000
     0.00000000     0.00000000     0.00000000
     0.00000000     0.00000000     0.00000000
     0.00000000     0.00000000     0.00000000
     0.00000000     0.00000000     0.00000000
     0.00000000     0.00000000     0.00000000
     0.00000000     0.00000000     0.00000000
     0.00000000     0.00000000     0.00000000
     0.00000000     0.00000000     0.00000000
     0.00000000     0.00000000     0.00000000
     0.00000000     0.00000000     0.00000000
     0.00000000     0.00000000     0.00000000
     0.00000000     0.00000000     0.00000000
     0.00000000     0.00000000     0.00000000
     0.00000000     0.00000000     0.00000000
     0.00000000     0.00000000     0.00000000
     0.00000000     0.00000000     0.00000000
     0.00000000     0.00000000     0.00000000
     0.00000000     0.00000000     0.00000000
     0.00000000     0.00000000     0.00000000
     0.00000000     0.00000000     0.00000000
     0.00000000     0.00000000     0.00000000
     0.00000000     0.00000000     0.00000000
     0.00000000     0.00000000     0.00000000
     0.00000000     0.00000000     0.00000000
     0.00000000     0.00000000     0.00000000
     0.00000000     0.00000000     0.00000000
     0.00000000     0.00000000     0.00000000
     0.00000000     0.00000000     0.00000000
     0.00000000     0.00000000     0.00000000
     0.00000000     0.00000000     0.00000000
     0.00000000     0.00000000     0.00000000
     0.00000000     0.00000000     0.00000000
     0.00000000     0.00000000     0.00000000
     0.00000000     0.00000000     0.00000000
     0.00000000     0.00000000     0.00000000
     0.00000000     0.00000000     0.00000000
     0.00000000     0.00000000     0.00000000
     0.00000000     0.00000000     0.00000000
     0.00000000     0.00000000     0.00000000
     0.00000000     0.00000000     0.00000000
     0.00000000     0.00000000     0.00000000
     0.00000000     0.00000000     0.00000000
     0.00000000     0.00000000     0.00000000
     0.00000000     0.00000000     0.00000000
     0.00000000     0.00000000     0.00000000
     0.00000000     0.00000000     0.00000000
     0.00000000     0.00000000     0.00000000
     0.00000000     0.00000000     0.00000000
     0.00000000     0.00000000     0.00000000
     0.00000000     0.00000000     0.00000000
     0.00000000     0.00000000     0.00000000
     0.00000000     0.00000000     0.00000000
     0.00000000     0.00000000     0.00000000
     0.00000000     0.00000000     0.00000000
     0.00000000     0.00000000     0.00000000
     0.00000000     0.00000000     0.00000000
     0.00000000     0.00000000     0.00000000
     0.00000000     0.00000000     0.00000000
     0.00000000     0.00000000     0.00000000
     0.00000000     0.00000000     0.00000000
     0.00000000     0.00000000     0.00000000
     0.00000000     0.00000000     0.00000000
     0.00000000     0.00000000     0.00000000
     0.00000000     0.00000000     0.00000000
     0.00000000     0.00000000     0.00000000
     0.00000000     0.00000000     0.00000000
     0.00000000     0.00000000     0.00000000
     0.00000000     0.00000000     0.00000000
     0.00000000     0.00000000     0.00000000
     0.00000000     0.00000000     0.00000000
     0.00000000     0.00000000     0.00000000
     0.00000000     0.00000000     0.00000000
     0.00000000     0.00000000     0.00000000
     0.00000000     0.00000000     0.00000000
     0.00000000     0.00000000     0.00000000
     0.00000000     0.00000000     0.00000000
     0.00000000     0.00000000     0.00000000
     0.00000000     0.00000000     0.00000000
     0.00000000     0.00000000     0.00000000
     0.00000000     0.00000000     0.00000000
     0.00000000     0.00000000     0.00000000
     0.00000000     0.00000000     0.00000000
     0.00000000     0.00000000     0.00000000
     0.00000000     0.00000000     0.00000000
     0.00000000     0.00000000     0.00000000
     0.00000000     0.00000000     0.00000000
     0.00000000     0.00000000     0.00000000
     0.00000000     0.00000000     0.00000000
     0.00000000     0.00000000     0.00000000
     0.00000000     0.00000000     0.00000000
     0.00000000     0.00000000     0.00000000
     0.00000000     0.00000000     0.00000000
     0.00000000     0.00000000     0.00000000
     0.00000000     0.00000000     0.00000000
     0.00000000     0.00000000     0.00000000
     0.00000000     0.00000000     0.00000000
     0.00000000     0.00000000     0.00000000
     0.00000000     0.00000000     0.00000000
     0.00000000     0.00000000     0.00000000
     0.00000000     0.00000000     0.00000000
     0.00000000     0.00000000     0.00000000
     0.00000000     0.00000000     0.00000000
     0.00000000     0.00000000     0.00000000
     0.00000000     0.00000000     0.00000000
     0.00000000     0.00000000     0.00000000
     0.00000000     0.00000000     0.00000000
     0.00000000     0.00000000     0.00000000
     0.00000000     0.00000000     0.00000000
     0.00000000     0.00000000     0.00000000
     0.00000000     0.00000000     0.00000000
     0.00000000     0.00000000     0.00000000
     0.00000000     0.00000000     0.00000000
     0.00000000     0.00000000     0.00000000
     0.00000000     0.00000000     0.00000000
     0.00000000     0.00000000     0.00000000
     0.00000000     0.00000000     0.00000000
     0.00000000     0.00000000     0.00000000
     0.00000000     0.00000000     0.00000000
     0.00000000     0.00000000     0.00000000
     0.00000000     0.00000000     0.00000000
     0.00000000     0.00000000     0.00000000
     0.00000000     0.00000000     0.00000000
     0.00000000     0.00000000     0.00000000
     0.00000000     0.00000000     0.00000000
     0.00000000     0.00000000     0.00000000
     0.00000000     0.00000000     0.00000000
     0.00000000     0.00000000     0.00000000
     0.00000000     0.00000000     0.00000000
     0.00000000     0.00000000     0.00000000
     0.00000000     0.00000000     0.00000000
     0.00000000     0.00000000     0.00000000
     0.00000000     0.00000000     0.00000000
     0.00000000     0.00000000     0.00000000
     0.00000000     0.00000000     0.00000000
     0.00000000     0.00000000     0.00000000
     0.00000000     0.00000000     0.00000000
     0.00000000     0.00000000     0.00000000
     0.00000000     0.00000000     0.00000000
     0.00000000     0.00000000     0.00000000
     0.00000000     0.00000000     0.00000000
     0.00000000     0.00000000     0.00000000
     0.00000000     0.00000000     0.00000000
     0.00000000     0.00000000     0.00000000
     0.00000000     0.00000000     0.00000000
     0.00000000     0.00000000     0.00000000
     0.00000000     0.00000000     0.00000000
     0.00000000     0.00000000     0.00000000
     0.00000000     0.00000000     0.00000000
     0.00000000     0.00000000     0.00000000
     0.00000000     0.00000000     0.00000000
     0.00000000     0.00000000     0.00000000
     0.00000000     0.00000000     0.00000000
     0.00000000     0.00000000     0.00000000
     0.00000000     0.00000000     0.00000000
     0.00000000     0.00000000     0.00000000
     0.00000000     0.00000000     0.00000000
     0.00000000     0.00000000     0.00000000
     0.00000000     0.00000000     0.00000000
     0.00000000     0.00000000     0.00000000
     0.00000000     0.00000000     0.00000000
     0.00000000     0.00000000     0.00000000
     0.00000000     0.00000000     0.00000000
     0.00000000     0.00000000     0.00000000
     0.00000000     0.00000000     0.00000000
     0.00000000     0.00000000     0.00000000
     0.00000000     0.00000000     0.00000000
     0.00000000     0.00000000     0.00000000
     0.00000000     0.00000000     0.00000000
     0.00000000     0.00000000     0.00000000
     0.00000000     0.00000000     0.00000000
     0.00000000     0.00000000     0.00000000
     0.00000000     0.00000000     0.00000000
     0.00000000     0.00000000     0.00000000
     0.00000000     0.00000000     0.00000000
     0.00000000     0.00000000     0.00000000
     0.00000000     0.00000000     0.00000000
     0.00000000     0.00000000     0.00000000
     0.00000000     0.00000000     0.00000000
     0.00000000     0.00000000     0.00000000
     0.00000000     0.00000000     0.00000000
     0.00000000     0.00000000     0.00000000
     0.00000000     0.00000000     0.00000000
     0.00000000     0.00000000     0.00000000
     0.00000000     0.00000000     0.00000000
     0.00000000     0.00000000     0.00000000
     0.00000000     0.00000000     0.00000000
     0.00000000     0.00000000     0.00000000
     0.00000000     0.00000000     0.00000000
     0.00000000     0.00000000     0.00000000
     0.00000000     0.00000000     0.00000000
     0.00000000     0.00000000     0.00000000
     0.00000000     0.00000000     0.00000000
     0.00000000     0.00000000     0.00000000
     0.00000000     0.00000000     0.00000000
     0.00000000     0.00000000     0.00000000
     0.00000000     0.00000000     0.00000000
     0.00000000     0.00000000     0.00000000
     0.00000000     0.00000000     0.00000000
     0.00000000     0.00000000     0.00000000
     0.00000000     0.00000000     0.00000000
     0.00000000     0.00000000     0.00000000
     0.00000000     0.00000000     0.00000000
     0.00000000     0.00000000     0.00000000
     0.00000000     0.00000000     0.00000000
     0.00000000     0.00000000     0.00000000
     0.00000000     0.00000000     0.00000000
     0.00000000     0.00000000     0.00000000
     0.00000000     0.00000000     0.00000000
     0.00000000     0.00000000     0.00000000
     0.00000000     0.00000000     0.00000000
     0.00000000     0.00000000     0.00000000
     0.00000000     0.00000000     0.00000000
     0.00000000     0.00000000     0.00000000
     0.00000000     0.00000000     0.00000000
     0.00000000     0.00000000     0.00000000
     0.00000000     0.00000000     0.00000000
     0.00000000     0.00000000     0.00000000
     0.00000000     0.00000000     0.00000000
     0.00000000     0.00000000     0.00000000
     0.00000000     0.00000000     0.00000000
     0.00000000     0.00000000     0.00000000
     0.00000000     0.00000000     0.00000000
     0.00000000     0.00000000     0.00000000
     0.00000000     0.00000000     0.00000000
     0.00000000     0.00000000     0.00000000
     0.00000000     0.00000000     0.00000000
     0.00000000     0.00000000     0.00000000
     0.00000000     0.00000000     0.00000000
     0.00000000     0.00000000     0.00000000
     0.00000000     0.00000000     0.00000000
     0.00000000     0.00000000     0.00000000
     0.00000000     0.00000000     0.00000000
     0.00000000     0.00000000     0.00000000
     0.00000000     0.00000000     0.00000000
     0.00000000     0.00000000     0.00000000
     0.00000000     0.00000000     0.00000000
     0.00000000     0.00000000     0.00000000
     0.00000000     0.00000000     0.00000000
     0.00000000     0.00000000     0.00000000
     0.00000000     0.00000000     0.00000000
     0.00000000     0.00000000     0.00000000
     0.00000000     0.00000000     0.00000000
     0.00000000     0.00000000     0.00000000
     0.00000000     0.00000000     0.00000000
     0.00000000     0.00000000     0.00000000
     0.00000000     0.00000000     0.00000000
     0.00000000     0.00000000     0.00000000
     0.00000000     0.00000000     0.00000000
     0.00000000     0.00000000     0.00000000
     0.00000000     0.00000000     0.00000000
     0.00000000     0.00000000     0.00000000
     0.00000000     0.00000000     0.00000000
     0.00000000     0.00000000     0.00000000
     0.00000000     0.00000000     0.00000000
     0.00000000     0.00000000     0.00000000
     0.00000000     0.00000000     0.00000000
     0.00000000     0.00000000     0.00000000
     0.00000000     0.00000000     0.00000000
     0.00000000     0.00000000     0.00000000
     0.00000000     0.00000000     0.00000000
     0.00000000     0.00000000     0.00000000
     0.00000000     0.00000000     0.00000000
     0.00000000     0.00000000     0.00000000
     0.00000000     0.00000000     0.00000000
     0.00000000     0.00000000     0.00000000
     0.00000000     0.00000000     0.00000000
     0.00000000     0.00000000     0.00000000
     0.00000000     0.00000000     0.00000000
     0.00000000     0.00000000     0.00000000
     0.00000000     0.00000000     0.00000000
     0.00000000     0.00000000     0.00000000
     0.00000000     0.00000000     0.00000000
     0.00000000     0.00000000     0.00000000
     0.00000000     0.00000000     0.00000000
     0.00000000     0.00000000     0.00000000
     0.00000000     0.00000000     0.00000000
     0.00000000     0.00000000     0.00000000
     0.00000000     0.00000000     0.00000000
     0.00000000     0.00000000     0.00000000
     0.00000000     0.00000000     0.00000000
     0.00000000     0.00000000     0.00000000
     0.00000000     0.00000000     0.00000000
     0.00000000     0.00000000     0.00000000
     0.00000000     0.00000000     0.00000000
     0.00000000     0.00000000     0.00000000
     0.00000000     0.00000000     0.00000000
     0.00000000     0.00000000     0.00000000
     0.00000000     0.00000000     0.00000000
     0.00000000     0.00000000     0.00000000
     0.00000000     0.00000000     0.00000000
     0.00000000     0.00000000     0.00000000
     0.00000000     0.00000000     0.00000000
     0.00000000     0.00000000     0.00000000
     0.00000000     0.00000000     0.00000000
     0.00000000     0.00000000     0.00000000
     0.00000000     0.00000000     0.00000000
     0.00000000     0.00000000     0.00000000
     0.00000000     0.00000000     0.00000000
     0.00000000     0.00000000     0.00000000
     0.00000000     0.00000000     0.00000000
     0.00000000     0.00000000     0.00000000
     0.00000000     0.00000000     0.00000000
     0.00000000     0.00000000     0.00000000
     0.00000000     0.00000000     0.00000000
     0.00000000     0.00000000     0.00000000
     0.00000000     0.00000000     0.00000000
     0.00000000     0.00000000     0.00000000
     0.00000000     0.00000000     0.00000000
     0.00000000     0.00000000     0.00000000
     0.00000000     0.00000000     0.00000000
     0.00000000     0.00000000     0.00000000
     0.00000000     0.00000000     0.00000000
     0.00000000     0.00000000     0.00000000
     0.00000000     0.00000000     0.00000000
     0.00000000     0.00000000     0.00000000
     0.00000000     0.00000000     0.00000000
     0.00000000     0.00000000     0.00000000
     0.00000000     0.00000000     0.00000000
     0.00000000     0.00000000     0.00000000
     0.00000000     0.00000000     0.00000000
     0.00000000     0.00000000     0.00000000
     0.00000000     0.00000000     0.00000000
     0.00000000     0.00000000     0.00000000
     0.00000000     0.00000000     0.00000000
     0.00000000     0.00000000     0.00000000
     0.00000000     0.00000000     0.00000000
     0.00000000     0.00000000     0.00000000
     0.00000000     0.00000000     0.00000000
     0.00000000     0.00000000     0.00000000
     0.00000000     0.00000000     0.00000000
     0.00000000     0.00000000     0.00000000
     0.00000000     0.00000000     0.00000000
     0.00000000     0.00000000     0.00000000
     0.00000000     0.00000000     0.00000000
     0.00000000     0.00000000     0.00000000
     0.00000000     0.00000000     0.00000000
     0.00000000     0.00000000     0.00000000
     0.00000000     0.00000000     0.00000000
     0.00000000     0.00000000     0.00000000
     0.00000000     0.00000000     0.00000000
     0.00000000     0.00000000     0.00000000
     0.00000000     0.00000000     0.00000000
     0.00000000     0.00000000     0.00000000
     0.00000000     0.00000000     0.00000000
     0.00000000     0.00000000     0.00000000
     0.00000000     0.00000000     0.00000000
     0.00000000     0.00000000     0.00000000
     0.00000000     0.00000000     0.00000000
     0.00000000     0.00000000     0.00000000
     0.00000000     0.00000000     0.00000000
     0.00000000     0.00000000     0.00000000
     0.00000000     0.00000000     0.00000000
     0.00000000     0.00000000     0.00000000
     0.00000000     0.00000000     0.00000000
     0.00000000     0.00000000     0.00000000
     0.00000000     0.00000000     0.00000000
     0.00000000     0.00000000     0.00000000
     0.00000000     0.00000000     0.00000000
     0.00000000     0.00000000     0.00000000
     0.00000000     0.00000000     0.00000000
     0.00000000     0.00000000     0.00000000
     0.00000000     0.00000000     0.00000000
     0.00000000     0.00000000     0.00000000
     0.00000000     0.00000000     0.00000000
     0.00000000     0.00000000     0.00000000
     0.00000000     0.00000000     0.00000000
     0.00000000     0.00000000     0.00000000
     0.00000000     0.00000000     0.00000000
     0.00000000     0.00000000     0.00000000
     0.00000000     0.00000000     0.00000000
     0.00000000     0.00000000     0.00000000
     0.00000000     0.00000000     0.00000000
     0.00000000     0.00000000     0.00000000
     0.00000000     0.00000000     0.00000000
     0.00000000     0.00000000     0.00000000
     0.00000000     0.00000000     0.00000000
     0.00000000     0.00000000     0.00000000
     0.00000000     0.00000000     0.00000000
     0.00000000     0.00000000     0.00000000
     0.00000000     0.00000000     0.00000000
     0.00000000     0.00000000     0.00000000
     0.00000000     0.00000000     0.00000000
     0.00000000     0.00000000     0.00000000
     0.00000000     0.00000000     0.00000000
     0.00000000     0.00000000     0.00000000
     0.00000000     0.00000000     0.00000000
     0.00000000     0.00000000     0.00000000
     0.00000000     0.00000000     0.00000000
     0.00000000     0.00000000     0.00000000
     0.00000000     0.00000000     0.00000000
     0.00000000     0.00000000     0.00000000
     0.00000000     0.00000000     0.00000000
     0.00000000     0.00000000     0.00000000
     0.00000000     0.00000000     0.00000000
     0.00000000     0.00000000     0.00000000
     0.00000000     0.00000000     0.00000000
     0.00000000     0.00000000     0.00000000
     0.00000000     0.00000000     0.00000000
     0.00000000     0.00000000     0.00000000
     0.00000000     0.00000000     0.00000000
     0.00000000     0.00000000     0.00000000
     0.00000000     0.00000000     0.00000000
     0.00000000     0.00000000     0.00000000
     0.00000000     0.00000000     0.00000000
     0.00000000     0.00000000     0.00000000
     0.00000000     0.00000000     0.00000000
     0.00000000     0.00000000     0.00000000
     0.00000000     0.00000000     0.00000000
     0.00000000     0.00000000     0.00000000
     0.00000000     0.00000000     0.00000000
     0.00000000     0.00000000     0.00000000
     0.00000000     0.00000000     0.00000000
     0.00000000     0.00000000     0.00000000
     0.00000000     0.00000000     0.00000000
     0.00000000     0.00000000     0.00000000
     0.00000000     0.00000000     0.00000000
     0.00000000     0.00000000     0.00000000
     0.00000000     0.00000000     0.00000000
     0.00000000     0.00000000     0.00000000
     0.00000000     0.00000000     0.00000000
     0.00000000     0.00000000     0.00000000
     0.00000000     0.00000000     0.00000000
     0.00000000     0.00000000     0.00000000
     0.00000000     0.00000000     0.00000000
     0.00000000     0.00000000     0.00000000
     0.00000000     0.00000000     0.00000000
     0.00000000     0.00000000     0.00000000
     0.00000000     0.00000000     0.00000000
     0.00000000     0.00000000     0.00000000
     0.00000000     0.00000000     0.00000000
     0.00000000     0.00000000     0.00000000
     0.00000000     0.00000000     0.00000000
     0.00000000     0.00000000     0.00000000
     0.00000000     0.00000000     0.00000000
     0.00000000     0.00000000     0.00000000
     0.00000000     0.00000000     0.00000000
     0.00000000     0.00000000     0.00000000
     0.00000000     0.00000000     0.00000000
     0.00000000     0.00000000     0.00000000
     0.00000000     0.00000000     0.00000000
     0.00000000     0.00000000     0.00000000
     0.00000000     0.00000000     0.00000000
     0.00000000     0.00000000     0.00000000
     0.00000000     0.00000000     0.00000000
     0.00000000     0.00000000     0.00000000
     0.00000000     0.00000000     0.00000000
     0.00000000     0.00000000     0.00000000
     0.00000000     0.00000000     0.00000000
     0.00000000     0.00000000     0.00000000
     0.00000000     0.00000000     0.00000000
     0.00000000     0.00000000     0.00000000
     0.00000000     0.00000000     0.00000000
     0.00000000     0.00000000     0.00000000
     0.00000000     0.00000000     0.00000000
     0.00000000     0.00000000     0.00000000
     0.00000000     0.00000000     0.00000000
     0.00000000     0.00000000     0.00000000
     0.00000000     0.00000000     0.00000000
     0.00000000     0.00000000     0.00000000
     0.00000000     0.00000000     0.00000000
     0.00000000     0.00000000     0.00000000
     0.00000000     0.00000000     0.00000000
     0.00000000     0.00000000     0.00000000
     0.00000000     0.00000000     0.00000000
     0.00000000     0.00000000     0.00000000
     0.00000000     0.00000000     0.00000000
     0.00000000     0.00000000     0.00000000
     0.00000000     0.00000000     0.00000000
     0.00000000     0.00000000     0.00000000
     0.00000000     0.00000000     0.00000000
     0.00000000     0.00000000     0.00000000
     0.00000000     0.00000000     0.00000000
     0.00000000     0.00000000     0.00000000
     0.00000000     0.00000000     0.00000000
     0.00000000     0.00000000     0.00000000
     0.00000000     0.00000000     0.00000000
     0.00000000     0.00000000     0.00000000
     0.00000000     0.00000000     0.00000000
     0.00000000     0.00000000     0.00000000
     0.00000000     0.00000000     0.00000000
     0.00000000     0.00000000     0.00000000
     0.00000000     0.00000000     0.00000000
     0.00000000     0.00000000     0.00000000
     0.00000000     0.00000000     0.00000000
     0.00000000     0.00000000     0.00000000
     0.00000000     0.00000000     0.00000000
     0.00000000     0.00000000     0.00000000
     0.00000000     0.00000000     0.00000000
     0.00000000     0.00000000     0.00000000
     0.00000000     0.00000000     0.00000000
     0.00000000     0.00000000     0.00000000
     0.00000000     0.00000000     0.00000000
     0.00000000     0.00000000     0.00000000
     0.00000000     0.00000000     0.00000000
     0.00000000     0.00000000     0.00000000
     0.00000000     0.00000000     0.00000000
     0.00000000     0.00000000     0.00000000
     0.00000000     0.00000000     0.00000000
     0.00000000     0.00000000     0.00000000
     0.00000000     0.00000000     0.00000000
     0.00000000     0.00000000     0.00000000
     0.00000000     0.00000000     0.00000000
     0.00000000     0.00000000     0.00000000
     0.00000000     0.00000000     0.00000000
     0.00000000     0.00000000     0.00000000
     0.00000000     0.00000000     0.00000000
     0.00000000     0.00000000     0.00000000
     0.00000000     0.00000000     0.00000000
     0.00000000     0.00000000     0.00000000
     0.00000000     0.00000000     0.00000000
     0.00000000     0.00000000     0.00000000
     0.00000000     0.00000000     0.00000000
     0.00000000     0.00000000     0.00000000
     0.00000000     0.00000000     0.00000000
     0.00000000     0.00000000     0.00000000
     0.00000000     0.00000000     0.00000000
     0.00000000     0.00000000     0.00000000
     0.00000000     0.00000000     0.00000000
     0.00000000     0.00000000     0.00000000
     0.00000000     0.00000000     0.00000000
     0.00000000     0.00000000     0.00000000
     0.00000000     0.00000000     0.00000000
     0.00000000     0.00000000     0.00000000
     0.00000000     0.00000000     0.00000000
     0.00000000     0.00000000     0.00000000
     0.00000000     0.00000000     0.00000000
     0.00000000     0.00000000     0.00000000
     0.00000000     0.00000000     0.00000000
     0.00000000     0.00000000     0.00000000
     0.00000000     0.00000000     0.00000000
     0.00000000     0.00000000     0.00000000
     0.00000000     0.00000000     0.00000000
     0.00000000     0.00000000     0.00000000
     0.00000000     0.00000000     0.00000000
     0.00000000     0.00000000     0.00000000
     0.00000000     0.00000000     0.00000000
     0.00000000     0.00000000     0.00000000
     0.00000000     0.00000000     0.00000000
     0.00000000     0.00000000     0.00000000
     0.00000000     0.00000000     0.00000000
     0.00000000     0.00000000     0.00000000
     0.00000000     0.00000000     0.00000000
     0.00000000     0.00000000     0.00000000
     0.00000000     0.00000000     0.00000000
     0.00000000     0.00000000     0.00000000
     0.00000000     0.00000000     0.00000000
     0.00000000     0.00000000     0.00000000
     0.00000000     0.00000000     0.00000000
     0.00000000     0.00000000     0.00000000
     0.00000000     0.00000000     0.00000000
     0.00000000     0.00000000     0.00000000
     0.00000000     0.00000000     0.00000000
     0.00000000     0.00000000     0.00000000
     0.00000000     0.00000000     0.00000000
     0.00000000     0.00000000     0.00000000
     0.00000000     0.00000000     0.00000000
     0.00000000     0.00000000     0.00000000
     0.00000000     0.00000000     0.00000000
     0.00000000     0.00000000     0.00000000
     0.00000000     0.00000000     0.00000000
     0.00000000     0.00000000     0.00000000
     0.00000000     0.00000000     0.00000000
     0.00000000     0.00000000     0.00000000
     0.00000000     0.00000000     0.00000000
     0.00000000     0.00000000     0.00000000
     0.00000000     0.00000000     0.00000000
     0.00000000     0.00000000     0.00000000
     0.00000000     0.00000000     0.00000000
     0.00000000     0.00000000     0.00000000
     0.00000000     0.00000000     0.00000000
     0.00000000     0.00000000     0.00000000
     0.00000000     0.00000000     0.00000000
     0.00000000     0.00000000     0.00000000
     0.00000000     0.00000000     0.00000000
     0.00000000     0.00000000     0.00000000
     0.00000000     0.00000000     0.00000000
     0.00000000     0.00000000     0.00000000
     0.00000000     0.00000000     0.00000000
     0.00000000     0.00000000     0.00000000
     0.00000000     0.00000000     0.00000000
     0.00000000     0.00000000     0.00000000
     0.00000000     0.00000000     0.00000000
     0.00000000     0.00000000     0.00000000
     0.00000000     0.00000000     0.00000000
     0.00000000     0.00000000     0.00000000
     0.00000000     0.00000000     0.00000000
     0.00000000     0.00000000     0.00000000
     0.00000000     0.00000000     0.00000000
     0.00000000     0.00000000     0.00000000
     0.00000000     0.00000000     0.00000000
     0.00000000     0.00000000     0.00000000
     0.00000000     0.00000000     0.00000000
     0.00000000     0.00000000     0.00000000
     0.00000000     0.00000000     0.00000000
     0.00000000     0.00000000     0.00000000
     0.00000000     0.00000000     0.00000000
     0.00000000     0.00000000     0.00000000
     0.00000000     0.00000000     0.00000000
     0.00000000     0.00000000     0.00000000
     0.00000000     0.00000000     0.00000000
     0.00000000     0.00000000     0.00000000
     0.00000000     0.00000000     0.00000000
     0.00000000     0.00000000     0.00000000
     0.00000000     0.00000000     0.00000000
     0.00000000     0.00000000     0.00000000
     0.00000000     0.00000000     0.00000000
     0.00000000     0.00000000     0.00000000
     0.00000000     0.00000000     0.00000000
     0.00000000     0.00000000     0.00000000
     0.00000000     0.00000000     0.00000000
     0.00000000     0.00000000     0.00000000
     0.00000000     0.00000000     0.00000000
     0.00000000     0.00000000     0.00000000
     0.00000000     0.00000000     0.00000000
     0.00000000     0.00000000     0.00000000
     0.00000000     0.00000000     0.00000000
     0.00000000     0.00000000     0.00000000
     0.00000000     0.00000000     0.00000000
     0.00000000     0.00000000     0.00000000
     0.00000000     0.00000000     0.00000000
     0.00000000     0.00000000     0.00000000
     0.00000000     0.00000000     0.00000000
     0.00000000     0.00000000     0.00000000
     0.00000000     0.00000000     0.00000000
     0.00000000     0.00000000     0.00000000
     0.00000000     0.00000000     0.00000000
     0.00000000     0.00000000     0.00000000
     0.00000000     0.00000000     0.00000000
     0.00000000     0.00000000     0.00000000
     0.00000000     0.00000000     0.00000000
     0.00000000     0.00000000     0.00000000
     0.00000000     0.00000000     0.00000000
     0.00000000     0.00000000     0.00000000
     0.00000000     0.00000000     0.00000000
     0.00000000     0.00000000     0.00000000
     0.00000000     0.00000000     0.00000000
     0.00000000     0.00000000     0.00000000
     0.00000000     0.00000000     0.00000000
     0.00000000     0.00000000     0.00000000
     0.00000000     0.00000000     0.00000000
     0.00000000     0.00000000     0.00000000
     0.00000000     0.00000000     0.00000000
     0.00000000     0.00000000     0.00000000
     0.00000000     0.00000000     0.00000000
     0.00000000     0.00000000     0.00000000
     0.00000000     0.00000000     0.00000000
     0.00000000     0.00000000     0.00000000
     0.00000000     0.00000000     0.00000000
     0.00000000     0.00000000     0.00000000
     0.00000000     0.00000000     0.00000000
     0.00000000     0.00000000     0.00000000
     0.00000000     0.00000000     0.00000000
     0.00000000     0.00000000     0.00000000
     0.00000000     0.00000000     0.00000000
     0.00000000     0.00000000     0.00000000
     0.00000000     0.00000000     0.00000000
     0.00000000     0.00000000     0.00000000
     0.00000000     0.00000000     0.00000000
     0.00000000     0.00000000     0.00000000
     0.00000000     0.00000000     0.00000000
     0.00000000     0.00000000     0.00000000
     0.00000000     0.00000000     0.00000000
     0.00000000     0.00000000     0.00000000
     0.00000000     0.00000000     0.00000000
     0.00000000     0.00000000     0.00000000
     0.00000000     0.00000000     0.00000000
     0.00000000     0.00000000     0.00000000
     0.00000000     0.00000000     0.00000000
     0.00000000     0.00000000     0.00000000
     0.00000000     0.00000000     0.00000000
     0.00000000     0.00000000     0.00000000
     0.00000000     0.00000000     0.00000000
     0.00000000     0.00000000     0.00000000
     0.00000000     0.00000000     0.00000000
     0.00000000     0.00000000     0.00000000
     0.00000000     0.00000000     0.00000000
     0.00000000     0.00000000     0.00000000
     0.00000000     0.00000000     0.00000000
     0.00000000     0.00000000     0.00000000
     0.00000000     0.00000000     0.00000000
     0.00000000     0.00000000     0.00000000
     0.00000000     0.00000000     0.00000000
     0.00000000     0.00000000     0.00000000
     0.00000000     0.00000000     0.00000000
     0.00000000     0.00000000     0.00000000
     0.00000000     0.00000000     0.00000000
     0.00000000     0.00000000     0.00000000
     0.00000000     0.00000000     0.00000000
     0.00000000     0.00000000     0.00000000
     0.00000000     0.00000000     0.00000000
     0.00000000     0.00000000     0.00000000
     0.00000000     0.00000000     0.00000000
     0.00000000     0.00000000     0.00000000
     0.00000000     0.00000000     0.00000000
     0.00000000     0.00000000     0.00000000
     0.00000000     0.00000000     0.00000000
     0.00000000     0.00000000     0.00000000
     0.00000000     0.00000000     0.00000000
     0.00000000     0.00000000     0.00000000
     0.00000000     0.00000000     0.00000000
     0.00000000     0.00000000     0.00000000
     0.00000000     0.00000000     0.00000000
     0.00000000     0.00000000     0.00000000
     0.00000000     0.00000000     0.00000000
     0.00000000     0.00000000     0.00000000
     0.00000000     0.00000000     0.00000000
     0.00000000     0.00000000     0.00000000
     0.00000000     0.00000000     0.00000000
     0.00000000     0.00000000     0.00000000
VECTORS ShearStress float 
     0.01952930    -0.00682665    -0.00366575
     0.02017965    -0.00651824    -0.00517029
     0.01928310    -0.00622770    -0.00557841
     0.01873449    -0.00596485    -0.00538074
     0.01816724    -0.00555224    -0.00533730
     0.01647387    -0.00441413    -0.00542610
     0.00000000     0.00000000     0.00000000
     0.00000000     0.00000000     0.00000000
     0.00000000     0.00000000     0.00000000
     0.00000000     0.00000000     0.00000000
     0.00000000     0.00000000     0.00000000
     0.00000000     0.00000000     0.00000000
     0.00000000     0.00000000     0.00000000
     0.00000000     0.00000000     0.00000000
     0.00000000     0.00000000     0.00000000
     0.00000000     0.00000000     0.00000000
     0.00000000     0.00000000     0.00000000
     0.00000000     0.00000000     0.00000000
     0.00000000     0.00000000     0.00000000
     0.00000000     0.00000000     0.00000000
     0.00000000     0.00000000     0.00000000
     0.00000000     0.00000000     0.00000000
     0.00000000     0.00000000     0.00000000
     0.00000000     0.00000000     0.00000000
     0.00000000     0.00000000     0.00000000
     0.00000000     0.00000000     0.00000000
     0.00000000     0.00000000     0.00000000
     0.00000000     0.00000000     0.00000000
     0.00000000     0.00000000     0.00000000
     0.00000000     0.00000000     0.00000000
     0.00000000     0.00000000     0.00000000
     0.00000000     0.00000000     0.00000000
     0.00000000     0.00000000     0.00000000
     0.00000000     0.00000000     0.00000000
     0.00000000     0.00000000     0.00000000
     0.00000000     0.00000000     0.00000000
     0.01372699    -0.00456817    -0.00516658
     0.01419503    -0.00545982    -0.00503707
     0.01499070    -0.00607599    -0.00516938
     0.01516740    -0.00616394    -0.00512413
     0.01526945    -0.00597494    -0.00504263
     0.01690546    -0.00672397    -0.00609241
     0.00000000     0.00000000     0.00000000
     0.00000000     0.00000000     0.00000000
     0.00000000     0.00000000     0.00000000
     0.00000000     0.00000000     0.00000000
     0.00000000     0.00000000     0.00000000
     0.00000000     0.00000000     0.00000000
     0.00000000     0.00000000     0.00000000
     0.00000000     0.00000000     0.00000000
     0.00000000     0.00000000     0.00000000
     0.00000000     0.00000000     0.00000000
     0.00000000     0.00000000     0.00000000
     0.00000000     0.00000000     0.00000000
     0.00000000     0.00000000     0.00000000
     0.00000000     0.00000000     0.00000000
     0.00000000     0.00000000     0.00000000
     0.00000000     0.00000000     0.00000000
     0.00000000     0.00000000     0.00000000
     0.00000000     0.00000000     0.00000000
     0.00000000     0.00000000     0.00000000
     0.00000000     0.00000000     0.00000000
     0.00000000     0.00000000     0.00000000
     0.00000000     0.00000000     0.00000000
     0.00000000     0.00000000     0.00000000
     0.00000000     0.00000000     0.00000000
     0.00000000     0.00000000     0.00000000
     0.00000000     0.00000000     0.00000000
     0.00000000     0.00000000     0.00000000
     0.00000000     0.00000000     0.00000000
     0.00000000     0.00000000     0.00000000
     0.00000000     0.00000000     0.00000000
     0.01231609    -0.00861121    -0.00659847
     0.01463705    -0.00971566    -0.00775036
     0.01462450    -0.00912681    -0.00737657
     0.01430175    -0.00830405    -0.00691926
     0.01385825    -0.00810839    -0.00664267
     0.01402909    -0.00719843    -0.00585720
     0.00000000     0.00000000     0.00000000
     0.00000000     0.00000000     0.00000000
     0.00000000     0.00000000     0.00000000
     0.00000000     0.00000000     0.00000000
     0.00000000     0.00000000     0.00000000
     0.00000000     0.00000000     0.00000000
     0.00000000     0.00000000     0.00000000
     0.00000000     0.00000000     0.00000000
     0.00000000     0.00000000     0.00000000
     0.00000000     0.00000000     0.00000000
     0.00000000     0.00000000     0.00000000
     0.00000000     0.00000000     0.00000000
     0.00000000     0.00000000     0.00000000
     0.00000000     0.00000000     0.00000000
     0.00000000     0.00000000     0.00000000
     0.00000000     0.00000000     0.00000000
     0.00000000     0.00000000     0.00000000
     0.00000000     0.00000000     0.00000000
     0.00000000     0.00000000     0.00000000
     0.00000000     0.00000000     0.00000000
     0.00000000     0.00000000     0.00000000
     0.00000000     0.00000000     0.00000000
     0.00000000     0.00000000     0.00000000
     0.00000000     0.00000000     0.00000000
     0.00000000     0.00000000     0.00000000
     0.00000000     0.00000000     0.00000000
     0.00000000     0.00000000     0.00000000
     0.00000000     0.00000000     0.00000000
     0.00000000     0.00000000     0.00000000
     0.00000000     0.00000000     0.00000000
     0.00849413    -0.00855448    -0.00862878
     0.00788103    -0.00784555    -0.00805182
     0.00722435    -0.00827063    -0.00741951
     0.00721786    -0.00884327    -0.00706828
     0.00855454    -0.00941827    -0.00761835
     0.01026226    -0.01198710    -0.01068452
     0.00000000     0.00000000     0.00000000
     0.00000000     0.00000000     0.00000000
     0.00000000     0.00000000     0.00000000
     0.00000000     0.00000000     0.00000000
     0.00000000     0.00000000     0.00000000
     0.00000000     0.00000000     0.00000000
     0.00000000     0.00000000     0.00000000
     0.00000000     0.00000000     0.00000000
     0.00000000     0.00000000     0.00000000
     0.00000000     0.00000000     0.00000000
     0.00000000     0.00000000     0.00000000
     0.00000000     0.00000000     0.00000000
     0.00000000     0.00000000     0.00000000
     0.00000000     0.00000000     0.00000000
     0.00000000     0.00000000     0.00000000
     0.00000000     0.00000000     0.00000000
     0.00000000     0.00000000     0.00000000
     0.00000000     0.00000000     0.00000000
     0.00000000     0.00000000     0.00000000
     0.00000000     0.00000000     0.00000000
     0.00000000     0.00000000     0.00000000
     0.00000000     0.00000000     0.00000000
     0.00000000     0.00000000     0.00000000
     0.00000000     0.00000000     0.00000000
     0.00000000     0.00000000     0.00000000
     0.00000000     0.00000000     0.00000000
     0.00000000     0.00000000     0.00000000
     0.00000000     0.00000000     0.00000000
     0.00000000     0.00000000     0.00000000
     0.00000000     0.00000000     0.00000000
     0.00623752    -0.01423150    -0.00740854
     0.00840810    -0.01904613    -0.01090323
     0.00867470    -0.02054770    -0.01207901
     0.00751945    -0.01814153    -0.01104039
     0.00621755    -0.01606619    -0.00926472
     0.00833728    -0.02163662    -0.01132842
     0.00000000     0.00000000     0.00000000
     0.00000000     0.00000000     0.00000000
     0.00000000     0.00000000     0.00000000
     0.00000000     0.00000000     0.00000000
     0.00000000     0.00000000     0.00000000
     0.00000000     0.00000000     0.00000000
     0.00000000     0.00000000     0.00000000
     0.00000000     0.00000000     0.00000000
     0.00000000     0.00000000     0.00000000
     0.00000000     0.00000000     0.00000000
     0.00000000     0.00000000     0.00000000
     0.00000000     0.00000000     0.00000000
     0.00000000     0.00000000     0.00000000
     0.00000000     0.00000000     0.00000000
     0.00000000     0.00000000     0.00000000
     0.00000000     0.00000000     0.00000000
     0.00000000     0.00000000     0.00000000
     0.00000000     0.00000000     0.00000000
     0.00000000     0.00000000     0.00000000
     0.00000000     0.00000000     0.00000000
     0.00000000     0.00000000     0.00000000
     0.00000000     0.00000000     0.00000000
     0.00000000     0.00000000     0.00000000
     0.00000000     0.00000000     0.00000000
     0.00000000     0.00000000     0.00000000
     0.00000000     0.00000000     0.00000000
     0.00000000     0.00000000     0.00000000
     0.00000000     0.00000000     0.00000000
     0.00000000     0.00000000     0.00000000
     0.00000000     0.00000000     0.00000000
     0.00454617    -0.01623831    -0.00664081
     0.00459022    -0.01647636    -0.00662813
     0.00465878    -0.01565415    -0.00696457
     0.00367246    -0.01488675    -0.00676654
     0.00261610    -0.01314206    -0.00628152
     0.00271889    -0.01491098    -0.00701101
     0.00000000     0.00000000     0.00000000
     0.00000000     0.00000000     0.00000000
     0.00000000     0.00000000     0.00000000
     0.00000000     0.00000000     0.00000000
     0.00000000     0.00000000     0.00000000
     0.00000000     0.00000000     0.00000000
     0.00000000     0.00000000     0.00000000
     0.00000000     0.00000000     0.00000000
     0.00000000     0.00000000     0.00000000
     0.00000000     0.00000000     0.00000000
     0.00000000     0.00000000     0.00000000
     0.00000000     0.00000000     0.00000000
     0.00000000     0.00000000     0.00000000
     0.00000000     0.00000000     0.00000000
     0.00000000     0.00000000     0.00000000
     0.00000000     0.00000000     0.00000000
     0.00000000     0.00000000     0.00000000
     0.00000000     0.00000000     0.00000000
     0.00000000     0.00000000     0.00000000
     0.00000000     0.00000000     0.00000000
     0.00000000     0.00000000     0.00000000
     0.00000000     0.00000000     0.00000000
     0.00000000     0.00000000     0.00000000
     0.00000000     0.00000000     0.00000000
     0.00000000     0.00000000     0.00000000
     0.00000000     0.00000000     0.00000000
     0.00000000     0.00000000     0.00000000
     0.00000000     0.00000000     0.00000000
     0.00000000     0.00000000     0.00000000
     0.00000000     0.00000000     0.00000000
     0.00651549    -0.01806860    -0.00990070
     0.00744023    -0.02122482    -0.01122483
     0.00774782    -0.02219112    -0.01091497
     0.00810558    -0.02059406    -0.01015462
     0.00815684    -0.01868980    -0.00907942
     0.00882731    -0.01937107    -0.00891220
     0.00000000     0.00000000     0.00000000
     0.00000000     0.00000000     0.00000000
     0.00000000     0.00000000     0.00000000
     0.00000000     0.00000000     0.00000000
     0.00000000     0.00000000     0.00000000
     0.00000000     0.00000000     0.00000000
     0.00000000     0.00000000     0.00000000
     0.00000000     0.00000000     0.00000000
     0.00000000     0.00000000     0.00000000
     0.00000000     0.00000000     0.00000000
     0.00000000     0.00000000     0.00000000
     0.00000000     0.00000000     0.00000000
     0.00000000     0.00000000     0.00000000
     0.00000000     0.00000000     0.00000000
     0.00000000     0.00000000     0.00000000
     0.00000000     0.00000000     0.00000000
     0.00000000     0.00000000     0.00000000
     0.00000000     0.00000000     0.00000000
     0.00000000     0.00000000     0.00000000
     0.00000000     0.00000000     0.00000000
     0.00000000     0.00000000     0.00000000
     0.00000000     0.00000000     0.00000000
     0.00000000     0.00000000     0.00000000
     0.00000000     0.00000000     0.00000000
     0.00000000     0.00000000     0.00000000
     0.00000000     0.00000000     0.00000000
     0.00000000     0.00000000     0.00000000
     0.00000000     0.00000000     0.00000000
     0.00000000     0.00000000     0.00000000
     0.00000000     0.00000000     0.00000000
     0.00226358    -0.01522562    -0.00282878
     0.00265363    -0.01872771    -0.00369152
     0.00395877    -0.01942244    -0.00515416
     0.00400555    -0.01900829    -0.00562622
     0.00345717    -0.02000293    -0.00627264
     0.00228672    -0.02317007    -0.00700238
     0.00000000     0.00000000     0.00000000
     0.00000000     0.00000000     0.00000000
     0.00000000     0.00000000     0.00000000
     0.00000000     0.00000000     0.00000000
     0.00000000     0.00000000     0.00000000
     0.00000000     0.00000000     0.00000000
     0.00000000     0.00000000     0.00000000
     0.00000000     0.00000000     0.00000000
     0.00000000     0.00000000     0.00000000
     0.00000000     0.00000000     0.00000000
     0.00000000     0.00000000     0.00000000
     0.00000000     0.00000000     0.00000000
     0.00000000     0.00000000     0.00000000
     0.00000000     0.00000000     0.00000000
     0.00000000     0.00000000     0.00000000
     0.00000000     0.00000000     0.00000000
     0.00000000     0.00000000     0.00000000
     0.00000000     0.00000000     0.00000000
     0.00000000     0.00000000     0.00000000
     0.00000000     0.00000000     0.00000000
     0.00000000     0.00000000     0.00000000
     0.00000000     0.00000000     0.00000000
     0.00000000     0.00000000     0.00000000
     0.00000000     0.00000000     0.00000000
     0.00000000     0.00000000     0.00000000
     0.00000000     0.00000000     0.00000000
     0.00000000     0.00000000     0.00000000
     0.00000000     0.00000000     0.00000000
     0.00000000     0.00000000     0.00000000
     0.00000000     0.00000000     0.00000000
     0.00078848    -0.02267746    -0.00529188
     0.00186381    -0.02486816    -0.00539848
     0.00235216    -0.02474779    -0.00494556
     0.00296428    -0.02490514    -0.00511940
     0.00423233    -0.02419624    -0.00540190
     0.00612553    -0.01937461    -0.00413806
     0.00000000     0.00000000     0.00000000
     0.00000000     0.00000000     0.00000000
     0.00000000     0.00000000     0.00000000
     0.00000000     0.00000000     0.00000000
     0.00000000     0.00000000     0.00000000
     0.00000000     0.00000000     0.00000000
     0.00000000     0.00000000     0.00000000
     0.00000000     0.00000000     0.00000000
     0.00000000     0.00000000     0.00000000
     0.00000000     0.00000000     0.00000000
     0.00000000     0.00000000     0.00000000
     0.00000000     0.00000000     0.00000000
     0.00000000     0.00000000     0.00000000
     0.00000000     0.00000000     0.00000000
     0.00000000     0.00000000     0.00000000
     0.00000000     0.00000000     0.00000000
     0.00000000     0.00000000     0.00000000
     0.00000000     0.00000000     0.00000000
     0.00000000     0.00000000     0.00000000
     0.00000000     0.00000000     0.00000000
     0.00000000     0.00000000     0.00000000
     0.00000000     0.00000000     0.00000000
     0.00000000     0.00000000     0.00000000
     0.00000000     0.00000000     0.00000000
     0.00000000     0.00000000     0.00000000
     0.00000000     0.00000000     0.00000000
     0.00000000     0.00000000     0.00000000
     0.00000000     0.00000000     0.00000000
     0.00000000     0.00000000     0.00000000
     0.00000000     0.00000000     0.00000000
    -0.00158989    -0.02083661    -0.00027593
    -0.00093315    -0.02295057    -0.00055414
    -0.00052213    -0.02444417    -0.00076753
    -0.00023613    -0.02541751    -0.00053120
     0.00024562    -0.02746875    -0.00048311
    -0.00196194    -0.02731888    -0.00139622
     0.00000000     0.00000000     0.00000000
     0.00000000     0.00000000     0.00000000
     0.00000000     0.00000000     0.00000000
     0.00000000     0.00000000     0.00000000
     0.00000000     0.00000000     0.00000000
     0.00000000     0.00000000     0.00000000
     0.00000000     0.00000000     0.00000000
     0.00000000     0.00000000     0.00000000
     0.00000000     0.00000000     0.00000000
     0.00000000     0.00000000     0.00000000
     0.00000000     0.00000000     0.00000000
     0.00000000     0.00000000     0.00000000
     0.00000000     0.00000000     0.00000000
     0.00000000     0.00000000     0.00000000
     0.00000000     0.00000000     0.00000000
     0.00000000     0.00000000     0.00000000
     0.00000000     0.00000000     0.00000000
     0.00000000     0.00000000     0.00000000
     0.00000000     0.00000000     0.00000000
     0.00000000     0.00000000     0.00000000
     0.00000000     0.00000000     0.00000000
     0.00000000     0.00000000     0.00000000
     0.00000000     0.00000000     0.00000000
     0.00000000     0.00000000     0.00000000
     0.00000000     0.00000000     0.00000000
     0.00000000     0.00000000     0.00000000
     0.00000000     0.00000000     0.00000000
     0.00000000     0.00000000     0.00000000
     0.00000000     0.00000000     0.00000000
     0.00000000     0.00000000     0.00000000
    -0.00494322    -0.03564916     0.00435238
    -0.00458200    -0.03164857     0.00394388
    -0.00356521    -0.03105956     0.00254051
    -0.00235392    -0.02910411     0.00153483
    -0.00082637    -0.02590043     0.00160286
     0.00537832    -0.01630090     0.00200658
     0.00000000     0.00000000     0.00000000
     0.00000000     0.00000000     0.00000000
     0.00000000     0.00000000     0.00000000
     0.00000000     0.00000000     0.00000000
     0.00000000     0.00000000     0.00000000
     0.00000000     0.00000000     0.00000000
     0.00000000     0.00000000     0.00000000
     0.00000000     0.00000000     0.00000000
     0.00000000     0.00000000     0.00000000
     0.00000000     0.00000000     0.00000000
     0.00000000     0.00000000     0.00000000
     0.00000000     0.00000000     0.00000000
     0.00000000     0.00000000     0.00000000
     0.00000000     0.00000000     0.00000000
     0.00000000     0.00000000     0.00000000
     0.00000000     0.00000000     0.00000000
     0.00000000     0.00000000     0.00000000
     0.00000000     0.00000000     0.00000000
     0.00000000     0.00000000     0.00000000
     0.00000000     0.00000000     0.00000000
     0.00000000     0.00000000     0.00000000
     0.00000000     0.00000000     0.00000000
     0.00000000     0.00000000     0.00000000
     0.00000000     0.00000000     0.00000000
     0.00000000     0.00000000     0.00000000
     0.00000000     0.00000000     0.00000000
     0.00000000     0.00000000     0.00000000
     0.00000000     0.00000000     0.00000000
     0.00000000     0.00000000     0.00000000
     0.00000000     0.00000000     0.00000000
    -0.00457133    -0.03676692     0.00537399
    -0.00474482    -0.03456594     0.00465928
    -0.00546717    -0.03577599     0.00475158
    -0.00575456    -0.03712993     0.00425245
    -0.00573742    -0.03989873     0.00344706
    -0.00695974    -0.05254822     0.00487250
     0.00000000     0.00000000     0.00000000
     0.00000000     0.00000000     0.00000000
     0.00000000     0.00000000     0.00000000
     0.00000000     0.00000000     0.00000000
     0.00000000     0.00000000     0.00000000
     0.00000000     0.00000000     0.00000000
     0.00000000     0.00000000     0.00000000
     0.00000000     0.00000000     0.00000000
     0.00000000     0.00000000     0.00000000
     0.00000000     0.00000000     0.00000000
     0.00000000     0.00000000     0.00000000
     0.00000000     0.00000000     0.00000000
     0.00000000     0.00000000     0.00000000
     0.00000000     0.00000000     0.00000000
     0.00000000     0.00000000     0.00000000
     0.00000000     0.00000000     0.00000000
     0.00000000     0.00000000     0.00000000
     0.00000000     0.00000000     0.00000000
     0.00000000     0.00000000     0.00000000
     0.00000000     0.00000000     0.00000000
     0.00000000     0.00000000     0.00000000
     0.00000000     0.00000000     0.00000000
     0.00000000     0.00000000     0.00000000
     0.00000000     0.00000000     0.00000000
     0.00000000     0.00000000     0.00000000
     0.00000000     0.00000000     0.00000000
     0.00000000     0.00000000     0.00000000
     0.00000000     0.00000000     0.00000000
     0.00000000     0.00000000     0.00000000
     0.00000000     0.00000000     0.00000000
    -0.00675612    -0.04793219     0.01857408
    -0.00567580    -0.04850140     0.01627793
    -0.00574871    -0.05045786     0.01686921
    -0.00586034    -0.05234612     0.01821081
    -0.00847558    -0.05273337     0.02005558
    -0.01525787    -0.05223165     0.02195297
     0.00000000     0.00000000     0.00000000
     0.00000000     0.00000000     0.00000000
     0.00000000     0.00000000     0.00000000
     0.00000000     0.00000000     0.00000000
     0.00000000     0.00000000     0.00000000
     0.00000000     0.00000000     0.00000000
     0.00000000     0.00000000     0.00000000
     0.00000000     0.00000000     0.00000000
     0.00000000     0.00000000     0.00000000
     0.00000000     0.00000000     0.00000000
     0.00000000     0.00000000     0.00000000
     0.00000000     0.00000000     0.00000000
     0.00000000     0.00000000     0.00000000
     0.00000000     0.00000000     0.00000000
     0.00000000     0.00000000     0.00000000
     0.00000000     0.00000000     0.00000000
     0.00000000     0.00000000     0.00000000
     0.00000000     0.00000000     0.00000000
     0.00000000     0.00000000     0.00000000
     0.00000000     0.00000000     0.00000000
     0.00000000     0.00000000     0.00000000
     0.00000000     0.00000000     0.00000000
     0.00000000     0.00000000     0.00000000
     0.00000000     0.00000000     0.00000000
     0.00000000     0.00000000     0.00000000
     0.00000000     0.00000000     0.00000000
     0.00000000     0.00000000     0.00000000
     0.00000000     0.00000000     0.00000000
     0.00000000     0.00000000     0.00000000
     0.00000000     0.00000000     0.00000000
    -0.00230159    -0.04875148     0.02043639
    -0.00298357    -0.04491642     0.01957985
    -0.00368249    -0.04265932     0.01851343
    -0.00354684    -0.04188290     0.01775718
    -0.00137661    -0.03992317     0.01664959
     0.00111940    -0.04221117     0.01847442
     0.00000000     0.00000000     0.00000000
     0.00000000     0.00000000     0.00000000
     0.00000000     0.00000000     0.00000000
     0.00000000     0.00000000     0.00000000
     0.00000000     0.00000000     0.00000000
     0.00000000     0.00000000     0.00000000
     0.00000000     0.00000000     0.00000000
     0.00000000     0.00000000     0.00000000
     0.00000000     0.00000000     0.00000000
     0.00000000     0.00000000     0.00000000
     0.00000000     0.00000000     0.00000000
     0.00000000     0.00000000     0.00000000
     0.00000000     0.00000000     0.00000000
     0.00000000     0.00000000     0.00000000
     0.00000000     0.00000000     0.00000000
     0.00000000     0.00000000     0.00000000
     0.00000000     0.00000000     0.00000000
     0.00000000     0.00000000     0.00000000
     0.00000000     0.00000000     0.00000000
     0.00000000     0.00000000     0.00000000
     0.00000000     0.00000000     0.00000000
     0.00000000     0.00000000     0.00000000
     0.00000000     0.00000000     0.00000000
     0.00000000     0.00000000     0.00000000
     0.00000000     0.00000000     0.00000000
     0.00000000     0.00000000     0.00000000
     0.00000000     0.00000000     0.00000000
     0.00000000     0.00000000     0.00000000
     0.00000000     0.00000000     0.00000000
     0.00000000     0.00000000     0.00000000
    -0.00203824    -0.04810206     0.01006882
    -0.00240929    -0.04445397     0.00640115
    -0.00325923    -0.04533300     0.00622500
    -0.00435999    -0.04477218     0.00725847
    -0.00616963    -0.04534614     0.00882796
    -0.00442658    -0.04501095     0.00953858
     0.00000000     0.00000000     0.00000000
     0.00000000     0.00000000     0.00000000
     0.00000000     0.00000000     0.00000000
     0.00000000     0.00000000     0.00000000
     0.00000000     0.00000000     0.00000000
     0.00000000     0.00000000     0.00000000
     0.00000000     0.00000000     0.00000000
     0.00000000     0.00000000     0.00000000
     0.00000000     0.00000000     0.00000000
     0.00000000     0.00000000     0.00000000
     0.00000000     0.00000000     0.00000000
     0.00000000     0.00000000     0.00000000
     0.00000000     0.00000000     0.00000000
     0.00000000     0.00000000     0.00000000
     0.00000000     0.00000000     0.00000000
     0.00000000     0.00000000     0.00000000
     0.00000000     0.00000000     0.00000000
     0.00000000     0.00000000     0.00000000
     0.00000000     0.00000000     0.00000000
     0.00000000     0.00000000     0.00000000
     0.00000000     0.00000000     0.00000000
     0.00000000     0.00000000     0.00000000
     0.00000000     0.00000000     0.00000000
     0.00000000     0.00000000     0.00000000
     0.00000000     0.00000000     0.00000000
     0.00000000     0.00000000     0.00000000
     0.00000000     0.00000000     0.00000000
     0.00000000     0.00000000     0.00000000
     0.00000000     0.00000000     0.00000000
     0.00000000     0.00000000     0.00000000
    -0.00976857    -0.03557340     0.00667347
    -0.01380660    -0.05913034     0.01048776
    -0.01101511    -0.07070965     0.00817221
    -0.00591169    -0.06930189     0.00489725
    -0.00039840    -0.05776304     0.00204381
    -0.00250216    -0.05053409     0.00039721
     0.00000000     0.00000000     0.00000000
     0.00000000     0.00000000     0.00000000
     0.00000000     0.00000000     0.00000000
     0.00000000     0.00000000     0.00000000
     0.00000000     0.00000000     0.00000000
     0.00000000     0.00000000     0.00000000
     0.00000000     0.00000000     0.00000000
     0.00000000     0.00000000     0.00000000
     0.00000000     0.00000000     0.00000000
     0.00000000     0.00000000     0.00000000
     0.00000000     0.00000000     0.00000000
     0.00000000     0.00000000     0.00000000
     0.00000000     0.00000000     0.00000000
     0.00000000     0.00000000     0.00000000
     0.00000000     0.00000000     0.00000000
     0.00000000     0.00000000     0.00000000
     0.00000000     0.00000000     0.00000000
     0.00000000     0.00000000     0.00000000
     0.00000000     0.00000000     0.00000000
     0.00000000     0.00000000     0.00000000
     0.00000000     0.00000000     0.00000000
     0.00000000     0.00000000     0.00000000
     0.00000000     0.00000000     0.00000000
     0.00000000     0.00000000     0.00000000
     0.00000000     0.00000000     0.00000000
     0.00000000     0.00000000     0.00000000
     0.00000000     0.00000000     0.00000000
     0.00000000     0.00000000     0.00000000
     0.00000000     0.00000000     0.00000000
     0.00000000     0.00000000     0.00000000
     0.00223729    -0.08721060     0.00536038
     0.00668366    -0.08477235     0.01079281
     0.00825838    -0.08501620     0.01501689
     0.00746675    -0.08263628     0.01444367
     0.00590043    -0.08218877     0.01362303
     0.00861121    -0.09166507     0.01722673
     0.00000000     0.00000000     0.00000000
     0.00000000     0.00000000     0.00000000
     0.00000000     0.00000000     0.00000000
     0.00000000     0.00000000     0.00000000
     0.00000000     0.00000000     0.00000000
     0.00000000     0.00000000     0.00000000
     0.00000000     0.00000000     0.00000000
     0.00000000     0.00000000     0.00000000
     0.00000000     0.00000000     0.00000000
     0.00000000     0.00000000     0.00000000
     0.00000000     0.00000000     0.00000000
     0.00000000     0.00000000     0.00000000
     0.00000000     0.00000000     0.00000000
     0.00000000     0.00000000     0.00000000
     0.00000000     0.00000000     0.00000000
     0.00000000     0.00000000     0.00000000
     0.00000000     0.00000000     0.00000000
     0.00000000     0.00000000     0.00000000
     0.00000000     0.00000000     0.00000000
     0.00000000     0.00000000     0.00000000
     0.00000000     0.00000000     0.00000000
     0.00000000     0.00000000     0.00000000
     0.00000000     0.00000000     0.00000000
     0.00000000     0.00000000     0.00000000
     0.00000000     0.00000000     0.00000000
     0.00000000     0.00000000     0.00000000
     0.00000000     0.00000000     0.00000000
     0.00000000     0.00000000     0.00000000
     0.00000000     0.00000000     0.00000000
     0.00000000     0.00000000     0.00000000
     0.00985113    -0.04852116     0.01214809
     0.00774732    -0.03616158     0.00638855
     0.00901269    -0.03744624     0.00600554
     0.00925243    -0.04577850     0.00920767
     0.00435835    -0.05299652     0.01293970
     0.00089561    -0.04203964     0.01312551
     0.00000000     0.00000000     0.00000000
     0.00000000     0.00000000     0.00000000
     0.00000000     0.00000000     0.00000000
     0.00000000     0.00000000     0.00000000
     0.00000000     0.00000000     0.00000000
     0.00000000     0.00000000     0.00000000
     0.00000000     0.00000000     0.00000000
     0.00000000     0.00000000     0.00000000
     0.00000000     0.00000000     0.00000000
     0.00000000     0.00000000     0.00000000
     0.00000000     0.00000000     0.00000000
     0.00000000     0.00000000     0.00000000
     0.00000000     0.00000000     0.00000000
     0.00000000     0.00000000     0.00000000
     0.00000000     0.00000000     0.00000000
     0.00000000     0.00000000     0.00000000
     0.00000000     0.00000000     0.00000000
     0.00000000     0.00000000     0.00000000
     0.00000000     0.00000000     0.00000000
     0.00000000     0.00000000     0.00000000
     0.00000000     0.00000000     0.00000000
     0.00000000     0.00000000     0.00000000
     0.00000000     0.00000000     0.00000000
     0.00000000     0.00000000     0.00000000
     0.00000000     0.00000000     0.00000000
     0.00000000     0.00000000     0.00000000
     0.00000000     0.00000000     0.00000000
     0.00000000     0.00000000     0.00000000
     0.00000000     0.00000000     0.00000000
     0.00000000     0.00000000     0.00000000
    -0.00094749    -0.03889903     0.00215400
    -0.00276658    -0.03573813     0.00428401
    -0.00254261    -0.03436663     0.00482575
    -0.00228646    -0.03703389     0.00648208
    -0.00135249    -0.04768112     0.00831300
    -0.00335461    -0.03833236     0.00386275
     0.00000000     0.00000000     0.00000000
     0.00000000     0.00000000     0.00000000
     0.00000000     0.00000000     0.00000000
     0.00000000     0.00000000     0.00000000
     0.00000000     0.00000000     0.00000000
     0.00000000     0.00000000     0.00000000
     0.00000000     0.00000000     0.00000000
     0.00000000     0.00000000     0.00000000
     0.00000000     0.00000000     0.00000000
     0.00000000     0.00000000     0.00000000
     0.00000000     0.00000000     0.00000000
     0.00000000     0.00000000     0.00000000
     0.00000000     0.00000000     0.00000000
     0.00000000     0.00000000     0.00000000
     0.00000000     0.00000000     0.00000000
     0.00000000     0.00000000     0.00000000
     0.00000000     0.00000000     0.00000000
     0.00000000     0.00000000     0.00000000
     0.00000000     0.00000000     0.00000000
     0.00000000     0.00000000     0.00000000
     0.00000000     0.00000000     0.00000000
     0.00000000     0.00000000     0.00000000
     0.00000000     0.00000000     0.00000000
     0.00000000     0.00000000     0.00000000
     0.00000000     0.00000000     0.00000000
     0.00000000     0.00000000     0.00000000
     0.00000000     0.00000000     0.00000000
     0.00000000     0.00000000     0.00000000
     0.00000000     0.00000000     0.00000000
     0.00000000     0.00000000     0.00000000
    -0.00854137    -0.04008115     0.01006196
    -0.00872609    -0.04169596     0.00940938
    -0.00893061    -0.04025878     0.00899639
    -0.00760035    -0.03692480     0.00659837
    -0.00776510    -0.03360204     0.00483121
    -0.00896749    -0.03578522     0.00469504
     0.00000000     0.00000000     0.00000000
     0.00000000     0.00000000     0.00000000
     0.00000000     0.00000000     0.00000000
     0.00000000     0.00000000     0.00000000
     0.00000000     0.00000000     0.00000000
     0.00000000     0.00000000     0.00000000
     0.00000000     0.00000000     0.00000000
     0.00000000     0.00000000     0.00000000
     0.00000000     0.00000000     0.00000000
     0.00000000     0.00000000     0.00000000
     0.00000000     0.00000000     0.00000000
     0.00000000     0.00000000     0.00000000
     0.00000000     0.00000000     0.00000000
     0.00000000     0.00000000     0.00000000
     0.00000000     0.00000000     0.00000000
     0.00000000     0.00000000     0.00000000
     0.00000000     0.00000000     0.00000000
     0.00000000     0.00000000     0.00000000
     0.00000000     0.00000000     0.00000000
     0.00000000     0.00000000     0.00000000
     0.00000000     0.00000000     0.00000000
     0.00000000     0.00000000     0.00000000
     0.00000000     0.00000000     0.00000000
     0.00000000     0.00000000     0.00000000
     0.00000000     0.00000000     0.00000000
     0.00000000     0.00000000     0.00000000
     0.00000000     0.00000000     0.00000000
     0.00000000     0.00000000     0.00000000
     0.00000000     0.00000000     0.00000000
     0.00000000     0.00000000     0.00000000
    -0.00498746    -0.02825452     0.00568531
    -0.00401447    -0.02588575     0.00418627
    -0.00440992    -0.02633692     0.00464644
    -0.00733807    -0.03046495     0.00609149
    -0.00933576    -0.03564693     0.00655746
    -0.00815810    -0.02853350     0.00512284
     0.00000000     0.00000000     0.00000000
     0.00000000     0.00000000     0.00000000
     0.00000000     0.00000000     0.00000000
     0.00000000     0.00000000     0.00000000
     0.00000000     0.00000000     0.00000000
     0.00000000     0.00000000     0.00000000
     0.00000000     0.00000000     0.00000000
     0.00000000     0.00000000     0.00000000
     0.00000000     0.00000000     0.00000000
     0.00000000     0.00000000     0.00000000
     0.00000000     0.00000000     0.00000000
     0.00000000     0.00000000     0.00000000
     0.00000000     0.00000000     0.00000000
     0.00000000     0.00000000     0.00000000
     0.00000000     0.00000000     0.00000000
     0.00000000     0.00000000     0.00000000
     0.00000000     0.00000000     0.00000000
     0.00000000     0.00000000     0.00000000
     0.00000000     0.00000000     0.00000000
     0.00000000     0.00000000     0.00000000
     0.00000000     0.00000000     0.00000000
     0.00000000     0.00000000     0.00000000
     0.00000000     0.00000000     0.00000000
     0.00000000     0.00000000     0.00000000
     0.00000000     0.00000000     0.00000000
     0.00000000     0.00000000     0.00000000
     0.00000000     0.00000000     0.00000000
     0.00000000     0.00000000     0.00000000
     0.00000000     0.00000000     0.00000000
     0.00000000     0.00000000     0.00000000
    -0.00632781    -0.02049430    -0.00145771
    -0.00897113    -0.02138061     0.00108461
    -0.00970904    -0.02155946     0.00134675
    -0.00864308    -0.02213107     0.00109970
    -0.00667538    -0.02254147     0.00133245
    -0.00567237    -0.02619408     0.00132841
     0.00000000     0.00000000     0.00000000
     0.00000000     0.00000000     0.00000000
     0.00000000     0.00000000     0.00000000
     0.00000000     0.00000000     0.00000000
     0.00000000     0.00000000     0.00000000
     0.00000000     0.00000000     0.00000000
     0.00000000     0.00000000     0.00000000
     0.00000000     0.00000000     0.00000000
     0.00000000     0.00000000     0.00000000
     0.00000000     0.00000000     0.00000000
     0.00000000     0.00000000     0.00000000
     0.00000000     0.00000000     0.00000000
     0.00000000     0.00000000     0.00000000
     0.00000000     0.00000000     0.00000000
     0.00000000     0.00000000     0.00000000
     0.00000000     0.00000000     0.00000000
     0.00000000     0.00000000     0.00000000
     0.00000000     0.00000000     0.00000000
     0.00000000     0.00000000     0.00000000
     0.00000000     0.00000000     0.00000000
     0.00000000     0.00000000     0.00000000
     0.00000000     0.00000000     0.00000000
     0.00000000     0.00000000     0.00000000
     0.00000000     0.00000000     0.00000000
     0.00000000     0.00000000     0.00000000
     0.00000000     0.00000000     0.00000000
     0.00000000     0.00000000     0.00000000
     0.00000000     0.00000000     0.00000000
     0.00000000     0.00000000     0.00000000
     0.00000000     0.00000000     0.00000000
    -0.00907787    -0.03374471    -0.00470594
    -0.00851548    -0.03587090    -0.00607434
    -0.00708499    -0.03454017    -0.00531126
    -0.00586399    -0.03182082    -0.00419720
    -0.00567318    -0.03015003    -0.00399536
    -0.00621725    -0.02372252    -0.00488730
     0.00000000     0.00000000     0.00000000
     0.00000000     0.00000000     0.00000000
     0.00000000     0.00000000     0.00000000
     0.00000000     0.00000000     0.00000000
     0.00000000     0.00000000     0.00000000
     0.00000000     0.00000000     0.00000000
     0.00000000     0.00000000     0.00000000
     0.00000000     0.00000000     0.00000000
     0.00000000     0.00000000     0.00000000
     0.00000000     0.00000000     0.00000000
     0.00000000     0.00000000     0.00000000
     0.00000000     0.00000000     0.00000000
     0.00000000     0.00000000     0.00000000
     0.00000000     0.00000000     0.00000000
     0.00000000     0.00000000     0.00000000
     0.00000000     0.00000000     0.00000000
     0.00000000     0.00000000     0.00000000
     0.00000000     0.00000000     0.00000000
     0.00000000     0.00000000     0.00000000
     0.00000000     0.00000000     0.00000000
     0.00000000     0.00000000     0.00000000
     0.00000000     0.00000000     0.00000000
     0.00000000     0.00000000     0.00000000
     0.00000000     0.00000000     0.00000000
     0.00000000     0.00000000     0.00000000
     0.00000000     0.00000000     0.00000000
     0.00000000     0.00000000     0.00000000
     0.00000000     0.00000000     0.00000000
     0.00000000     0.00000000     0.00000000
     0.00000000     0.00000000     0.00000000
    -0.00461384    -0.01918933    -0.00071528
    -0.00507799    -0.02079524    -0.00096117
    -0.00504067    -0.01931772    -0.00125379
    -0.00526506    -0.01904825    -0.00210384
    -0.00630163    -0.02465219    -0.00451911
    -0.00751334    -0.03425259    -0.00833151
     0.00037167    -0.00011277    -0.00037623
     0.00055255    -0.00016824    -0.00057480
     0.00052553    -0.00016661    -0.00071108
     0.00038729    -0.00013806    -0.00085843
     0.00024237    -0.00011384    -0.00118566
     0.00006637    -0.00009134    -0.00159676
     0.00067920    -0.00021245    -0.00083827
     0.00092298    -0.00028110    -0.00095334
     0.00090811    -0.00028142    -0.00105571
     0.00070485    -0.00023194    -0.00111832
     0.00049050    -0.00018034    -0.00118522
     0.00042154    -0.00016289    -0.00116865
     0.00094285    -0.00029937    -0.00127894
     0.00113505    -0.00035034    -0.00130959
     0.00111373    -0.00034785    -0.00135718
     0.00088072    -0.00028800    -0.00133719
     0.00062343    -0.00021821    -0.00127123
     0.00050564    -0.00018214    -0.00120391
     0.00115210    -0.00037108    -0.00164013
     0.00126654    -0.00039830    -0.00161614
     0.00120658    -0.00037880    -0.00158686
     0.00099838    -0.00032501    -0.00150052
     0.00076243    -0.00025914    -0.00136993
     0.00060354    -0.00020972    -0.00125630
     0.00131282    -0.00042184    -0.00189119
     0.00135650    -0.00043631    -0.00187199
     0.00126842    -0.00040415    -0.00178064
     0.00108406    -0.00035104    -0.00164277
     0.00087795    -0.00029537    -0.00147728
     0.00070470    -0.00024258    -0.00132207
     0.01714797    -0.00484708    -0.00480570
     0.01732229    -0.00610874    -0.00542203
     0.01801481    -0.00682275    -0.00604524
     0.01788515    -0.00620907    -0.00217787
     0.01313933    -0.00467401     0.00206815
     0.00000000     0.00000000     0.00000000
     0.00000000     0.00000000     0.00000000
     0.00000000     0.00000000     0.00000000
     0.00000000     0.00000000     0.00000000
     0.00000000     0.00000000     0.00000000
     0.00000000     0.00000000     0.00000000
     0.00000000     0.00000000     0.00000000
     0.00000000     0.00000000     0.00000000
     0.00000000     0.00000000     0.00000000
     0.00000000     0.00000000     0.00000000
     0.00000000     0.00000000     0.00000000
     0.00000000     0.00000000     0.00000000
     0.00000000     0.00000000     0.00000000
     0.00000000     0.00000000     0.00000000
     0.00000000     0.00000000     0.00000000
     0.00000000     0.00000000     0.00000000
     0.00000000     0.00000000     0.00000000
     0.00000000     0.00000000     0.00000000
     0.00000000     0.00000000     0.00000000
     0.00000000     0.00000000     0.00000000
     0.00000000     0.00000000     0.00000000
     0.00000000     0.00000000     0.00000000
     0.00000000     0.00000000     0.00000000
     0.00000000     0.00000000     0.00000000
     0.00000000     0.00000000     0.00000000
     0.01761497    -0.00673800    -0.00750661
     0.01794243    -0.00678330    -0.00642900
     0.01781114    -0.00706577    -0.00480613
     0.01865935    -0.00619391    -0.00672994
     0.02091481    -0.00521983    -0.00818348
     0.00000000     0.00000000     0.00000000
     0.00000000     0.00000000     0.00000000
     0.00000000     0.00000000     0.00000000
     0.00000000     0.00000000     0.00000000
     0.00000000     0.00000000     0.00000000
     0.00000000     0.00000000     0.00000000
     0.00000000     0.00000000     0.00000000
     0.00000000     0.00000000     0.00000000
     0.00000000     0.00000000     0.00000000
     0.00000000     0.00000000     0.00000000
     0.00000000     0.00000000     0.00000000
     0.00000000     0.00000000     0.00000000
     0.00000000     0.00000000     0.00000000
     0.00000000     0.00000000     0.00000000
     0.00000000     0.00000000     0.00000000
     0.00000000     0.00000000     0.00000000
     0.00000000     0.00000000     0.00000000
     0.00000000     0.00000000     0.00000000
     0.00000000     0.00000000     0.00000000
     0.00000000     0.00000000     0.00000000
     0.00000000     0.00000000     0.00000000
     0.00000000     0.00000000     0.00000000
     0.00000000     0.00000000     0.00000000
     0.00000000     0.00000000     0.00000000
     0.00000000     0.00000000     0.00000000
     0.01846760    -0.00842190    -0.00726444
     0.01677896    -0.00790918    -0.00821795
     0.01627819    -0.00801592    -0.01058143
     0.01912830    -0.00993233    -0.01137188
     0.01737872    -0.00972511    -0.01080804
     0.00000000     0.00000000     0.00000000
     0.00000000     0.00000000     0.00000000
     0.00000000     0.00000000     0.00000000
     0.00000000     0.00000000     0.00000000
     0.00000000     0.00000000     0.00000000
     0.00000000     0.00000000     0.00000000
     0.00000000     0.00000000     0.00000000
     0.00000000     0.00000000     0.00000000
     0.00000000     0.00000000     0.00000000
     0.00000000     0.00000000     0.00000000
     0.00000000     0.00000000     0.00000000
     0.00000000     0.00000000     0.00000000
     0.00000000     0.00000000     0.00000000
     0.00000000     0.00000000     0.00000000
     0.00000000     0.00000000     0.00000000
     0.00000000     0.00000000     0.00000000
     0.00000000     0.00000000     0.00000000
     0.00000000     0.00000000     0.00000000
     0.00000000     0.00000000     0.00000000
     0.00000000     0.00000000     0.00000000
     0.00000000     0.00000000     0.00000000
     0.00000000     0.00000000     0.00000000
     0.00000000     0.00000000     0.00000000
     0.00000000     0.00000000     0.00000000
     0.00000000     0.00000000     0.00000000
     0.01332460    -0.01648498    -0.01343293
     0.01447651    -0.01717990    -0.01220651
     0.01499425    -0.01593389    -0.01065429
     0.01581671    -0.01544055    -0.01309864
     0.01568235    -0.01641810    -0.01377914
     0.00000000     0.00000000     0.00000000
     0.00000000     0.00000000     0.00000000
     0.00000000     0.00000000     0.00000000
     0.00000000     0.00000000     0.00000000
     0.00000000     0.00000000     0.00000000
     0.00000000     0.00000000     0.00000000
     0.00000000     0.00000000     0.00000000
     0.00000000     0.00000000     0.00000000
     0.00000000     0.00000000     0.00000000
     0.00000000     0.00000000     0.00000000
     0.00000000     0.00000000     0.00000000
     0.00000000     0.00000000     0.00000000
     0.00000000     0.00000000     0.00000000
     0.00000000     0.00000000     0.00000000
     0.00000000     0.00000000     0.00000000
     0.00000000     0.00000000     0.00000000
     0.00000000     0.00000000     0.00000000
     0.00000000     0.00000000     0.00000000
     0.00000000     0.00000000     0.00000000
     0.00000000     0.00000000     0.00000000
     0.00000000     0.00000000     0.00000000
     0.00000000     0.00000000     0.00000000
     0.00000000     0.00000000     0.00000000
     0.00000000     0.00000000     0.00000000
     0.00000000     0.00000000     0.00000000
     0.00781690    -0.02253212    -0.01135256
     0.00656335    -0.02012211    -0.00983726
     0.00709825    -0.02159155    -0.01031598
     0.00948693    -0.02668057    -0.01336073
     0.00767589    -0.02049595    -0.01024273
     0.00000000     0.00000000     0.00000000
     0.00000000     0.00000000     0.00000000
     0.00000000     0.00000000     0.00000000
     0.00000000     0.00000000     0.00000000
     0.00000000     0.00000000     0.00000000
     0.00000000     0.00000000     0.00000000
     0.00000000     0.00000000     0.00000000
     0.00000000     0.00000000     0.00000000
     0.00000000     0.00000000     0.00000000
     0.00000000     0.00000000     0.00000000
     0.00000000     0.00000000     0.00000000
     0.00000000     0.00000000     0.00000000
     0.00000000     0.00000000     0.00000000
     0.00000000     0.00000000     0.00000000
     0.00000000     0.00000000     0.00000000
     0.00000000     0.00000000     0.00000000
     0.00000000     0.00000000     0.00000000
     0.00000000     0.00000000     0.00000000
     0.00000000     0.00000000     0.00000000
     0.00000000     0.00000000     0.00000000
     0.00000000     0.00000000     0.00000000
     0.00000000     0.00000000     0.00000000
     0.00000000     0.00000000     0.00000000
     0.00000000     0.00000000     0.00000000
     0.00000000     0.00000000     0.00000000
     0.00581666    -0.01977157    -0.00869183
     0.00558248    -0.01928895    -0.00906011
     0.00354352    -0.01487827    -0.00637502
     0.00271857    -0.01392682    -0.00225844
     0.00375085    -0.01442407    -0.00346770
     0.00000000     0.00000000     0.00000000
     0.00000000     0.00000000     0.00000000
     0.00000000     0.00000000     0.00000000
     0.00000000     0.00000000     0.00000000
     0.00000000     0.00000000     0.00000000
     0.00000000     0.00000000     0.00000000
     0.00000000     0.00000000     0.00000000
     0.00000000     0.00000000     0.00000000
     0.00000000     0.00000000     0.00000000
     0.00000000     0.00000000     0.00000000
     0.00000000     0.00000000     0.00000000
     0.00000000     0.00000000     0.00000000
     0.00000000     0.00000000     0.00000000
     0.00000000     0.00000000     0.00000000
     0.00000000     0.00000000     0.00000000
     0.00000000     0.00000000     0.00000000
     0.00000000     0.00000000     0.00000000
     0.00000000     0.00000000     0.00000000
     0.00000000     0.00000000     0.00000000
     0.00000000     0.00000000     0.00000000
     0.00000000     0.00000000     0.00000000
     0.00000000     0.00000000     0.00000000
     0.00000000     0.00000000     0.00000000
     0.00000000     0.00000000     0.00000000
     0.00000000     0.00000000     0.00000000
     0.00660069    -0.01951491    -0.00896224
     0.00653760    -0.01857431    -0.00876634
     0.00737392    -0.01871327    -0.00892661
     0.00758479    -0.01896926    -0.01061909
     0.00789301    -0.02147254    -0.00983914
     0.00000000     0.00000000     0.00000000
     0.00000000     0.00000000     0.00000000
     0.00000000     0.00000000     0.00000000
     0.00000000     0.00000000     0.00000000
     0.00000000     0.00000000     0.00000000
     0.00000000     0.00000000     0.00000000
     0.00000000     0.00000000     0.00000000
     0.00000000     0.00000000     0.00000000
     0.00000000     0.00000000     0.00000000
     0.00000000     0.00000000     0.00000000
     0.00000000     0.00000000     0.00000000
     0.00000000     0.00000000     0.00000000
     0.00000000     0.00000000     0.00000000
     0.00000000     0.00000000     0.00000000
     0.00000000     0.00000000     0.00000000
     0.00000000     0.00000000     0.00000000
     0.00000000     0.00000000     0.00000000
     0.00000000     0.00000000     0.00000000
     0.00000000     0.00000000     0.00000000
     0.00000000     0.00000000     0.00000000
     0.00000000     0.00000000     0.00000000
     0.00000000     0.00000000     0.00000000
     0.00000000     0.00000000     0.00000000
     0.00000000     0.00000000     0.00000000
     0.00000000     0.00000000     0.00000000
     0.00501531    -0.02429191    -0.00703660
     0.00646348    -0.02648029    -0.00763021
     0.00603346    -0.02661660    -0.00881661
     0.00547628    -0.02447218    -0.00829720
     0.00418623    -0.02050885    -0.00767070
     0.00000000     0.00000000     0.00000000
     0.00000000     0.00000000     0.00000000
     0.00000000     0.00000000     0.00000000
     0.00000000     0.00000000     0.00000000
     0.00000000     0.00000000     0.00000000
     0.00000000     0.00000000     0.00000000
     0.00000000     0.00000000     0.00000000
     0.00000000     0.00000000     0.00000000
     0.00000000     0.00000000     0.00000000
     0.00000000     0.00000000     0.00000000
     0.00000000     0.00000000     0.00000000
     0.00000000     0.00000000     0.00000000
     0.00000000     0.00000000     0.00000000
     0.00000000     0.00000000     0.00000000
     0.00000000     0.00000000     0.00000000
     0.00000000     0.00000000     0.00000000
     0.00000000     0.00000000     0.00000000
     0.00000000     0.00000000     0.00000000
     0.00000000     0.00000000     0.00000000
     0.00000000     0.00000000     0.00000000
     0.00000000     0.00000000     0.00000000
     0.00000000     0.00000000     0.00000000
     0.00000000     0.00000000     0.00000000
     0.00000000     0.00000000     0.00000000
     0.00000000     0.00000000     0.00000000
     0.00292110    -0.01500836    -0.00358834
     0.00060309    -0.01585761    -0.00516837
     0.00097559    -0.02039804    -0.00573507
     0.00168181    -0.02396858    -0.00606772
     0.00249031    -0.02387432    -0.00599103
     0.00000000     0.00000000     0.00000000
     0.00000000     0.00000000     0.00000000
     0.00000000     0.00000000     0.00000000
     0.00000000     0.00000000     0.00000000
     0.00000000     0.00000000     0.00000000
     0.00000000     0.00000000     0.00000000
     0.00000000     0.00000000     0.00000000
     0.00000000     0.00000000     0.00000000
     0.00000000     0.00000000     0.00000000
     0.00000000     0.00000000     0.00000000
     0.00000000     0.00000000     0.00000000
     0.00000000     0.00000000     0.00000000
     0.00000000     0.00000000     0.00000000
     0.00000000     0.00000000     0.00000000
     0.00000000     0.00000000     0.00000000
     0.00000000     0.00000000     0.00000000
     0.00000000     0.00000000     0.00000000
     0.00000000     0.00000000     0.00000000
     0.00000000     0.00000000     0.00000000
     0.00000000     0.00000000     0.00000000
     0.00000000     0.00000000     0.00000000
     0.00000000     0.00000000     0.00000000
     0.00000000     0.00000000     0.00000000
     0.00000000     0.00000000     0.00000000
     0.00000000     0.00000000     0.00000000
    -0.00111087    -0.03199461    -0.00074868
    -0.00143421    -0.03049069    -0.00125598
    -0.00173471    -0.02994783    -0.00186809
    -0.00072734    -0.02906853    -0.00035745
    -0.00030268    -0.02825281     0.00199654
     0.00000000     0.00000000     0.00000000
     0.00000000     0.00000000     0.00000000
     0.00000000     0.00000000     0.00000000
     0.00000000     0.00000000     0.00000000
     0.00000000     0.00000000     0.00000000
     0.00000000     0.00000000     0.00000000
     0.00000000     0.00000000     0.00000000
     0.00000000     0.00000000     0.00000000
     0.00000000     0.00000000     0.00000000
     0.00000000     0.00000000     0.00000000
     0.00000000     0.00000000     0.00000000
     0.00000000     0.00000000     0.00000000
     0.00000000     0.00000000     0.00000000
     0.00000000     0.00000000     0.00000000
     0.00000000     0.00000000     0.00000000
     0.00000000     0.00000000     0.00000000
     0.00000000     0.00000000     0.00000000
     0.00000000     0.00000000     0.00000000
     0.00000000     0.00000000     0.00000000
     0.00000000     0.00000000     0.00000000
     0.00000000     0.00000000     0.00000000
     0.00000000     0.00000000     0.00000000
     0.00000000     0.00000000     0.00000000
     0.00000000     0.00000000     0.00000000
     0.00000000     0.00000000     0.00000000
     0.00472314    -0.00305697     0.00263297
     0.00402606    -0.00215243     0.00554532
     0.00263049    -0.00797452     0.00720163
     0.00182351    -0.01777498     0.00483124
     0.00131517    -0.02401593     0.00191073
     0.00000000     0.00000000     0.00000000
     0.00000000     0.00000000     0.00000000
     0.00000000     0.00000000     0.00000000
     0.00000000     0.00000000     0.00000000
     0.00000000     0.00000000     0.00000000
     0.00000000     0.00000000     0.00000000
     0.00000000     0.00000000     0.00000000
     0.00000000     0.00000000     0.00000000
     0.00000000     0.00000000     0.00000000
     0.00000000     0.00000000     0.00000000
     0.00000000     0.00000000     0.00000000
     0.00000000     0.00000000     0.00000000
     0.00000000     0.00000000     0.00000000
     0.00000000     0.00000000     0.00000000
     0.00000000     0.00000000     0.00000000
     0.00000000     0.00000000     0.00000000
     0.00000000     0.00000000     0.00000000
     0.00000000     0.00000000     0.00000000
     0.00000000     0.00000000     0.00000000
     0.00000000     0.00000000     0.00000000
     0.00000000     0.00000000     0.00000000
     0.00000000     0.00000000     0.00000000
     0.00000000     0.00000000     0.00000000
     0.00000000     0.00000000     0.00000000
     0.00000000     0.00000000     0.00000000
    -0.00374301    -0.04701289     0.00643215
    -0.00197061    -0.04100364     0.00714388
    -0.00100036    -0.03881843     0.00856367
     0.00030091    -0.03708723     0.01108892
     0.00246008    -0.02804388     0.00666463
     0.00000000     0.00000000     0.00000000
     0.00000000     0.00000000     0.00000000
     0.00000000     0.00000000     0.00000000
     0.00000000     0.00000000     0.00000000
     0.00000000     0.00000000     0.00000000
     0.00000000     0.00000000     0.00000000
     0.00000000     0.00000000     0.00000000
     0.00000000     0.00000000     0.00000000
     0.00000000     0.00000000     0.00000000
     0.00000000     0.00000000     0.00000000
     0.00000000     0.00000000     0.00000000
     0.00000000     0.00000000     0.00000000
     0.00000000     0.00000000     0.00000000
     0.00000000     0.00000000     0.00000000
     0.00000000     0.00000000     0.00000000
     0.00000000     0.00000000     0.00000000
     0.00000000     0.00000000     0.00000000
     0.00000000     0.00000000     0.00000000
     0.00000000     0.00000000     0.00000000
     0.00000000     0.00000000     0.00000000
     0.00000000     0.00000000     0.00000000
     0.00000000     0.00000000     0.00000000
     0.00000000     0.00000000     0.00000000
     0.00000000     0.00000000     0.00000000
     0.00000000     0.00000000     0.00000000
    -0.01440784    -0.04301987     0.01875246
    -0.00878222    -0.03705817     0.01651322
    -0.00580972    -0.03563421     0.01741137
    -0.00594742    -0.04050098     0.01991204
    -0.00769474    -0.04690452     0.02693047
     0.00000000     0.00000000     0.00000000
     0.00000000     0.00000000     0.00000000
     0.00000000     0.00000000     0.00000000
     0.00000000     0.00000000     0.00000000
     0.00000000     0.00000000     0.00000000
     0.00000000     0.00000000     0.00000000
     0.00000000     0.00000000     0.00000000
     0.00000000     0.00000000     0.00000000
     0.00000000     0.00000000     0.00000000
     0.00000000     0.00000000     0.00000000
     0.00000000     0.00000000     0.00000000
     0.00000000     0.00000000     0.00000000
     0.00000000     0.00000000     0.00000000
     0.00000000     0.00000000     0.00000000
     0.00000000     0.00000000     0.00000000
     0.00000000     0.00000000     0.00000000
     0.00000000     0.00000000     0.00000000
     0.00000000     0.00000000     0.00000000
     0.00000000     0.00000000     0.00000000
     0.00000000     0.00000000     0.00000000
     0.00000000     0.00000000     0.00000000
     0.00000000     0.00000000     0.00000000
     0.00000000     0.00000000     0.00000000
     0.00000000     0.00000000     0.00000000
     0.00000000     0.00000000     0.00000000
     0.00232656    -0.03984541     0.01737377
    -0.00094900    -0.04111105     0.01683497
    -0.00322007    -0.04380273     0.01699719
    -0.00363947    -0.04074725     0.01734418
    -0.00407480    -0.03443084     0.01430796
     0.00000000     0.00000000     0.00000000
     0.00000000     0.00000000     0.00000000
     0.00000000     0.00000000     0.00000000
     0.00000000     0.00000000     0.00000000
     0.00000000     0.00000000     0.00000000
     0.00000000     0.00000000     0.00000000
     0.00000000     0.00000000     0.00000000
     0.00000000     0.00000000     0.00000000
     0.00000000     0.00000000     0.00000000
     0.00000000     0.00000000     0.00000000
     0.00000000     0.00000000     0.00000000
     0.00000000     0.00000000     0.00000000
     0.00000000     0.00000000     0.00000000
     0.00000000     0.00000000     0.00000000
     0.00000000     0.00000000     0.00000000
     0.00000000     0.00000000     0.00000000
     0.00000000     0.00000000     0.00000000
     0.00000000     0.00000000     0.00000000
     0.00000000     0.00000000     0.00000000
     0.00000000     0.00000000     0.00000000
     0.00000000     0.00000000     0.00000000
     0.00000000     0.00000000     0.00000000
     0.00000000     0.00000000     0.00000000
     0.00000000     0.00000000     0.00000000
     0.00000000     0.00000000     0.00000000
    -0.00233638    -0.04550902     0.00915100
    -0.00080953    -0.04781308     0.01162660
    -0.00056302    -0.04603258     0.01338093
    -0.00153767    -0.04809117     0.01136365
    -0.00017744    -0.05334596     0.01198519
     0.00000000     0.00000000     0.00000000
     0.00000000     0.00000000     0.00000000
     0.00000000     0.00000000     0.00000000
     0.00000000     0.00000000     0.00000000
     0.00000000     0.00000000     0.00000000
     0.00000000     0.00000000     0.00000000
     0.00000000     0.00000000     0.00000000
     0.00000000     0.00000000     0.00000000
     0.00000000     0.00000000     0.00000000
     0.00000000     0.00000000     0.00000000
     0.00000000     0.00000000     0.00000000
     0.00000000     0.00000000     0.00000000
     0.00000000     0.00000000     0.00000000
     0.00000000     0.00000000     0.00000000
     0.00000000     0.00000000     0.00000000
     0.00000000     0.00000000     0.00000000
     0.00000000     0.00000000     0.00000000
     0.00000000     0.00000000     0.00000000
     0.00000000     0.00000000     0.00000000
     0.00000000     0.00000000     0.00000000
     0.00000000     0.00000000     0.00000000
     0.00000000     0.00000000     0.00000000
     0.00000000     0.00000000     0.00000000
     0.00000000     0.00000000     0.00000000
     0.00000000     0.00000000     0.00000000
    -0.00374122    -0.05454979     0.00025895
    -0.00469993    -0.05185658    -0.00076272
    -0.00274047    -0.05462201     0.00154736
    -0.00079798    -0.05592834     0.00897986
     0.00028938    -0.05769668     0.01156182
     0.00000000     0.00000000     0.00000000
     0.00000000     0.00000000     0.00000000
     0.00000000     0.00000000     0.00000000
     0.00000000     0.00000000     0.00000000
     0.00000000     0.00000000     0.00000000
     0.00000000     0.00000000     0.00000000
     0.00000000     0.00000000     0.00000000
     0.00000000     0.00000000     0.00000000
     0.00000000     0.00000000     0.00000000
     0.00000000     0.00000000     0.00000000
     0.00000000     0.00000000     0.00000000
     0.00000000     0.00000000     0.00000000
     0.00000000     0.00000000     0.00000000
     0.00000000     0.00000000     0.00000000
     0.00000000     0.00000000     0.00000000
     0.00000000     0.00000000     0.00000000
     0.00000000     0.00000000     0.00000000
     0.00000000     0.00000000     0.00000000
     0.00000000     0.00000000     0.00000000
     0.00000000     0.00000000     0.00000000
     0.00000000     0.00000000     0.00000000
     0.00000000     0.00000000     0.00000000
     0.00000000     0.00000000     0.00000000
     0.00000000     0.00000000     0.00000000
     0.00000000     0.00000000     0.00000000
     0.00739983    -0.09520598     0.01903554
     0.00805119    -0.08155965     0.01632494
     0.00824214    -0.07117656     0.01191865
     0.00806110    -0.07640725     0.00646153
     0.00371620    -0.09568849     0.01197472
     0.00000000     0.00000000     0.00000000
     0.00000000     0.00000000     0.00000000
     0.00000000     0.00000000     0.00000000
     0.00000000     0.00000000     0.00000000
     0.00000000     0.00000000     0.00000000
     0.00000000     0.00000000     0.00000000
     0.00000000     0.00000000     0.00000000
     0.00000000     0.00000000     0.00000000
     0.00000000     0.00000000     0.00000000
     0.00000000     0.00000000     0.00000000
     0.00000000     0.00000000     0.00000000
     0.00000000     0.00000000     0.00000000
     0.00000000     0.00000000     0.00000000
     0.00000000     0.00000000     0.00000000
     0.00000000     0.00000000     0.00000000
     0.00000000     0.00000000     0.00000000
     0.00000000     0.00000000     0.00000000
     0.00000000     0.00000000     0.00000000
     0.00000000     0.00000000     0.00000000
     0.00000000     0.00000000     0.00000000
     0.00000000     0.00000000     0.00000000
     0.00000000     0.00000000     0.00000000
     0.00000000     0.00000000     0.00000000
     0.00000000     0.00000000     0.00000000
     0.00000000     0.00000000     0.00000000
     0.00653063    -0.04260452     0.01506186
     0.00611387    -0.04380943     0.01574096
     0.00449350    -0.05762838     0.01600611
     0.00386343    -0.07643054     0.01206802
    -0.00004265    -0.05810263     0.00544311
     0.00000000     0.00000000     0.00000000
     0.00000000     0.00000000     0.00000000
     0.00000000     0.00000000     0.00000000
     0.00000000     0.00000000     0.00000000
     0.00000000     0.00000000     0.00000000
     0.00000000     0.00000000     0.00000000
     0.00000000     0.00000000     0.00000000
     0.00000000     0.00000000     0.00000000
     0.00000000     0.00000000     0.00000000
     0.00000000     0.00000000     0.00000000
     0.00000000     0.00000000     0.00000000
     0.00000000     0.00000000     0.00000000
     0.00000000     0.00000000     0.00000000
     0.00000000     0.00000000     0.00000000
     0.00000000     0.00000000     0.00000000
     0.00000000     0.00000000     0.00000000
     0.00000000     0.00000000     0.00000000
     0.00000000     0.00000000     0.00000000
     0.00000000     0.00000000     0.00000000
     0.00000000     0.00000000     0.00000000
     0.00000000     0.00000000     0.00000000
     0.00000000     0.00000000     0.00000000
     0.00000000     0.00000000     0.00000000
     0.00000000     0.00000000     0.00000000
     0.00000000     0.00000000     0.00000000
    -0.00659942    -0.04222102     0.00225281
    -0.00627418    -0.04263746     0.00152691
    -0.00663291    -0.04476012     0.00194076
    -0.00725727    -0.05451492     0.00537523
    -0.00340973    -0.04349040    -0.00048610
     0.00000000     0.00000000     0.00000000
     0.00000000     0.00000000     0.00000000
     0.00000000     0.00000000     0.00000000
     0.00000000     0.00000000     0.00000000
     0.00000000     0.00000000     0.00000000
     0.00000000     0.00000000     0.00000000
     0.00000000     0.00000000     0.00000000
     0.00000000     0.00000000     0.00000000
     0.00000000     0.00000000     0.00000000
     0.00000000     0.00000000     0.00000000
     0.00000000     0.00000000     0.00000000
     0.00000000     0.00000000     0.00000000
     0.00000000     0.00000000     0.00000000
     0.00000000     0.00000000     0.00000000
     0.00000000     0.00000000     0.00000000
     0.00000000     0.00000000     0.00000000
     0.00000000     0.00000000     0.00000000
     0.00000000     0.00000000     0.00000000
     0.00000000     0.00000000     0.00000000
     0.00000000     0.00000000     0.00000000
     0.00000000     0.00000000     0.00000000
     0.00000000     0.00000000     0.00000000
     0.00000000     0.00000000     0.00000000
     0.00000000     0.00000000     0.00000000
     0.00000000     0.00000000     0.00000000
    -0.00997339    -0.04023856     0.00577735
    -0.00932249    -0.03979621     0.00677200
    -0.00991610    -0.04028307     0.00782634
    -0.01189688    -0.04170734     0.00580461
    -0.01019471    -0.03629680     0.00645756
     0.00000000     0.00000000     0.00000000
     0.00000000     0.00000000     0.00000000
     0.00000000     0.00000000     0.00000000
     0.00000000     0.00000000     0.00000000
     0.00000000     0.00000000     0.00000000
     0.00000000     0.00000000     0.00000000
     0.00000000     0.00000000     0.00000000
     0.00000000     0.00000000     0.00000000
     0.00000000     0.00000000     0.00000000
     0.00000000     0.00000000     0.00000000
     0.00000000     0.00000000     0.00000000
     0.00000000     0.00000000     0.00000000
     0.00000000     0.00000000     0.00000000
     0.00000000     0.00000000     0.00000000
     0.00000000     0.00000000     0.00000000
     0.00000000     0.00000000     0.00000000
     0.00000000     0.00000000     0.00000000
     0.00000000     0.00000000     0.00000000
     0.00000000     0.00000000     0.00000000
     0.00000000     0.00000000     0.00000000
     0.00000000     0.00000000     0.00000000
     0.00000000     0.00000000     0.00000000
     0.00000000     0.00000000     0.00000000
     0.00000000     0.00000000     0.00000000
     0.00000000     0.00000000     0.00000000
    -0.00938791    -0.03102198     0.00593853
    -0.00892861    -0.03111995     0.00557341
    -0.00732900    -0.02481307     0.00353323
    -0.00870640    -0.02751613     0.00400087
    -0.01022834    -0.03418446     0.00312255
     0.00000000     0.00000000     0.00000000
     0.00000000     0.00000000     0.00000000
     0.00000000     0.00000000     0.00000000
     0.00000000     0.00000000     0.00000000
     0.00000000     0.00000000     0.00000000
     0.00000000     0.00000000     0.00000000
     0.00000000     0.00000000     0.00000000
     0.00000000     0.00000000     0.00000000
     0.00000000     0.00000000     0.00000000
     0.00000000     0.00000000     0.00000000
     0.00000000     0.00000000     0.00000000
     0.00000000     0.00000000     0.00000000
     0.00000000     0.00000000     0.00000000
     0.00000000     0.00000000     0.00000000
     0.00000000     0.00000000     0.00000000
     0.00000000     0.00000000     0.00000000
     0.00000000     0.00000000     0.00000000
     0.00000000     0.00000000     0.00000000
     0.00000000     0.00000000     0.00000000
     0.00000000     0.00000000     0.00000000
     0.00000000     0.00000000     0.00000000
     0.00000000     0.00000000     0.00000000
     0.00000000     0.00000000     0.00000000
     0.00000000     0.00000000     0.00000000
     0.00000000     0.00000000     0.00000000
    -0.00570731    -0.02490932     0.00038770
    -0.00735943    -0.03032792     0.00124140
    -0.00907682    -0.03726563     0.00384537
    -0.00834385    -0.03266543     0.00254472
    -0.00824478    -0.03152154     0.00195296
     0.00000000     0.00000000     0.00000000
     0.00000000     0.00000000     0.00000000
     0.00000000     0.00000000     0.00000000
     0.00000000     0.00000000     0.00000000
     0.00000000     0.00000000     0.00000000
     0.00000000     0.00000000     0.00000000
     0.00000000     0.00000000     0.00000000
     0.00000000     0.00000000     0.00000000
     0.00000000     0.00000000     0.00000000
     0.00000000     0.00000000     0.00000000
     0.00000000     0.00000000     0.00000000
     0.00000000     0.00000000     0.00000000
     0.00000000     0.00000000     0.00000000
     0.00000000     0.00000000     0.00000000
     0.00000000     0.00000000     0.00000000
     0.00000000     0.00000000     0.00000000
     0.00000000     0.00000000     0.00000000
     0.00000000     0.00000000     0.00000000
     0.00000000     0.00000000     0.00000000
     0.00000000     0.00000000     0.00000000
     0.00000000     0.00000000     0.00000000
     0.00000000     0.00000000     0.00000000
     0.00000000     0.00000000     0.00000000
     0.00000000     0.00000000     0.00000000
     0.00000000     0.00000000     0.00000000
    -0.00804840    -0.03190148    -0.00537204
    -0.00687870    -0.03073108    -0.00425207
    -0.00504858    -0.02004307    -0.00501387
    -0.00401923    -0.02069870    -0.00455879
    -0.00651775    -0.03211646    -0.00248631
     0.00000000     0.00000000     0.00000000
     0.00000000     0.00000000     0.00000000
     0.00000000     0.00000000     0.00000000
     0.00000000     0.00000000     0.00000000
     0.00000000     0.00000000     0.00000000
     0.00000000     0.00000000     0.00000000
     0.00000000     0.00000000     0.00000000
     0.00000000     0.00000000     0.00000000
     0.00000000     0.00000000     0.00000000
     0.00000000     0.00000000     0.00000000
     0.00000000     0.00000000     0.00000000
     0.00000000     0.00000000     0.00000000
     0.00000000     0.00000000     0.00000000
     0.00000000     0.00000000     0.00000000
     0.00000000     0.00000000     0.00000000
     0.00000000     0.00000000     0.00000000
     0.00000000     0.00000000     0.00000000
     0.00000000     0.00000000     0.00000000
     0.00000000     0.00000000     0.00000000
     0.00000000     0.00000000     0.00000000
     0.00000000     0.00000000     0.00000000
     0.00000000     0.00000000     0.00000000
     0.00000000     0.00000000     0.00000000
     0.00000000     0.00000000     0.00000000
     0.00000000     0.00000000     0.00000000
    -0.00750129    -0.03471166    -0.00521302
    -0.00573884    -0.03627811    -0.00518723
    -0.00405783    -0.03552635    -0.00491506
    -0.00429302    -0.03370539    -0.00267835
    -0.00584971    -0.03210950    -0.00068770
     0.00029160    -0.00012862    -0.00116370
     0.00048441    -0.00017209    -0.00105097
     0.00052959    -0.00018698    -0.00110944
     0.00062399    -0.00019144    -0.00066363
     0.00061882    -0.00016522    -0.00010819
     0.00054657    -0.00018619    -0.00096843
     0.00065640    -0.00020389    -0.00077212
     0.00077084    -0.00023010    -0.00068804
     0.00077586    -0.00022229    -0.00049922
     0.00064645    -0.00017713    -0.00022171
     0.00055761    -0.00019021    -0.00106664
     0.00059803    -0.00019559    -0.00093383
     0.00065209    -0.00020566    -0.00084189
     0.00067771    -0.00020475    -0.00067282
     0.00063635    -0.00018481    -0.00048471
     0.00061765    -0.00021110    -0.00118609
     0.00063103    -0.00021255    -0.00111621
     0.00065967    -0.00021645    -0.00103108
     0.00067242    -0.00021265    -0.00089377
     0.00067366    -0.00020446    -0.00072618
     0.00072516    -0.00024746    -0.00132947
     0.00074512    -0.00025008    -0.00131303
     0.00075627    -0.00025062    -0.00125274
     0.00075373    -0.00024417    -0.00112341
     0.00073726    -0.00023174    -0.00095389
     0.01061972    -0.00342638     0.00146488
     0.01017538    -0.00309356     0.00061519
     0.01008541    -0.00344707     0.00033951
     0.01033999    -0.00360436     0.00024547
     0.01141951    -0.00556681    -0.00053515
     0.00000000     0.00000000     0.00000000
     0.00000000     0.00000000     0.00000000
     0.00000000     0.00000000     0.00000000
     0.00000000     0.00000000     0.00000000
     0.00000000     0.00000000     0.00000000
     0.00000000     0.00000000     0.00000000
     0.00000000     0.00000000     0.00000000
     0.00000000     0.00000000     0.00000000
     0.00000000     0.00000000     0.00000000
     0.00000000     0.00000000     0.00000000
     0.00000000     0.00000000     0.00000000
     0.00000000     0.00000000     0.00000000
     0.00000000     0.00000000     0.00000000
     0.00000000     0.00000000     0.00000000
     0.00000000     0.00000000     0.00000000
     0.00000000     0.00000000     0.00000000
     0.00000000     0.00000000     0.00000000
     0.00000000     0.00000000     0.00000000
     0.00000000     0.00000000     0.00000000
     0.00000000     0.00000000     0.00000000
     0.00000000     0.00000000     0.00000000
     0.00000000     0.00000000     0.00000000
     0.00000000     0.00000000     0.00000000
     0.00000000     0.00000000     0.00000000
     0.00000000     0.00000000     0.00000000
     0.02043227    -0.00760705    -0.00743962
     0.01932153    -0.00797646    -0.00710930
     0.01856882    -0.00842261    -0.00685370
     0.01808421    -0.00910248    -0.00707691
     0.01939216    -0.00975845    -0.00748865
     0.00000000     0.00000000     0.00000000
     0.00000000     0.00000000     0.00000000
     0.00000000     0.00000000     0.00000000
     0.00000000     0.00000000     0.00000000
     0.00000000     0.00000000     0.00000000
     0.00000000     0.00000000     0.00000000
     0.00000000     0.00000000     0.00000000
     0.00000000     0.00000000     0.00000000
     0.00000000     0.00000000     0.00000000
     0.00000000     0.00000000     0.00000000
     0.00000000     0.00000000     0.00000000
     0.00000000     0.00000000     0.00000000
     0.00000000     0.00000000     0.00000000
     0.00000000     0.00000000     0.00000000
     0.00000000     0.00000000     0.00000000
     0.00000000     0.00000000     0.00000000
     0.00000000     0.00000000     0.00000000
     0.00000000     0.00000000     0.00000000
     0.00000000     0.00000000     0.00000000
     0.00000000     0.00000000     0.00000000
     0.00000000     0.00000000     0.00000000
     0.00000000     0.00000000     0.00000000
     0.00000000     0.00000000     0.00000000
     0.00000000     0.00000000     0.00000000
     0.00000000     0.00000000     0.00000000
     0.01028986    -0.00604542    -0.00753095
     0.00913007    -0.00606936    -0.00620163
     0.00901127    -0.00628120    -0.00577289
     0.00975835    -0.00610683    -0.00588794
     0.01208150    -0.00710607    -0.00706254
     0.00000000     0.00000000     0.00000000
     0.00000000     0.00000000     0.00000000
     0.00000000     0.00000000     0.00000000
     0.00000000     0.00000000     0.00000000
     0.00000000     0.00000000     0.00000000
     0.00000000     0.00000000     0.00000000
     0.00000000     0.00000000     0.00000000
     0.00000000     0.00000000     0.00000000
     0.00000000     0.00000000     0.00000000
     0.00000000     0.00000000     0.00000000
     0.00000000     0.00000000     0.00000000
     0.00000000     0.00000000     0.00000000
     0.00000000     0.00000000     0.00000000
     0.00000000     0.00000000     0.00000000
     0.00000000     0.00000000     0.00000000
     0.00000000     0.00000000     0.00000000
     0.00000000     0.00000000     0.00000000
     0.00000000     0.00000000     0.00000000
     0.00000000     0.00000000     0.00000000
     0.00000000     0.00000000     0.00000000
     0.00000000     0.00000000     0.00000000
     0.00000000     0.00000000     0.00000000
     0.00000000     0.00000000     0.00000000
     0.00000000     0.00000000     0.00000000
     0.00000000     0.00000000     0.00000000
     0.01318692    -0.01243895    -0.01019349
     0.01400807    -0.01292601    -0.00973633
     0.01436064    -0.01381531    -0.00958305
     0.01301812    -0.01322183    -0.00887453
     0.01221344    -0.01295323    -0.00907473
     0.00000000     0.00000000     0.00000000
     0.00000000     0.00000000     0.00000000
     0.00000000     0.00000000     0.00000000
     0.00000000     0.00000000     0.00000000
     0.00000000     0.00000000     0.00000000
     0.00000000     0.00000000     0.00000000
     0.00000000     0.00000000     0.00000000
     0.00000000     0.00000000     0.00000000
     0.00000000     0.00000000     0.00000000
     0.00000000     0.00000000     0.00000000
     0.00000000     0.00000000     0.00000000
     0.00000000     0.00000000     0.00000000
     0.00000000     0.00000000     0.00000000
     0.00000000     0.00000000     0.00000000
     0.00000000     0.00000000     0.00000000
     0.00000000     0.00000000     0.00000000
     0.00000000     0.00000000     0.00000000
     0.00000000     0.00000000     0.00000000
     0.00000000     0.00000000     0.00000000
     0.00000000     0.00000000     0.00000000
     0.00000000     0.00000000     0.00000000
     0.00000000     0.00000000     0.00000000
     0.00000000     0.00000000     0.00000000
     0.00000000     0.00000000     0.00000000
     0.00000000     0.00000000     0.00000000
     0.00676676    -0.01681954    -0.00743731
     0.00707777    -0.01645352    -0.00817970
     0.00734726    -0.01598900    -0.00892557
     0.00739807    -0.01566198    -0.00910855
     0.00804749    -0.01619115    -0.00968662
     0.00000000     0.00000000     0.00000000
     0.00000000     0.00000000     0.00000000
     0.00000000     0.00000000     0.00000000
     0.00000000     0.00000000     0.00000000
     0.00000000     0.00000000     0.00000000
     0.00000000     0.00000000     0.00000000
     0.00000000     0.00000000     0.00000000
     0.00000000     0.00000000     0.00000000
     0.00000000     0.00000000     0.00000000
     0.00000000     0.00000000     0.00000000
     0.00000000     0.00000000     0.00000000
     0.00000000     0.00000000     0.00000000
     0.00000000     0.00000000     0.00000000
     0.00000000     0.00000000     0.00000000
     0.00000000     0.00000000     0.00000000
     0.00000000     0.00000000     0.00000000
     0.00000000     0.00000000     0.00000000
     0.00000000     0.00000000     0.00000000
     0.00000000     0.00000000     0.00000000
     0.00000000     0.00000000     0.00000000
     0.00000000     0.00000000     0.00000000
     0.00000000     0.00000000     0.00000000
     0.00000000     0.00000000     0.00000000
     0.00000000     0.00000000     0.00000000
     0.00000000     0.00000000     0.00000000
     0.00527484    -0.01572723    -0.00543664
     0.00567996    -0.01642130    -0.00621983
     0.00577885    -0.01687010    -0.00685353
     0.00579138    -0.01690603    -0.00716730
     0.00529852    -0.01690011    -0.00737598
     0.00000000     0.00000000     0.00000000
     0.00000000     0.00000000     0.00000000
     0.00000000     0.00000000     0.00000000
     0.00000000     0.00000000     0.00000000
     0.00000000     0.00000000     0.00000000
     0.00000000     0.00000000     0.00000000
     0.00000000     0.00000000     0.00000000
     0.00000000     0.00000000     0.00000000
     0.00000000     0.00000000     0.00000000
     0.00000000     0.00000000     0.00000000
     0.00000000     0.00000000     0.00000000
     0.00000000     0.00000000     0.00000000
     0.00000000     0.00000000     0.00000000
     0.00000000     0.00000000     0.00000000
     0.00000000     0.00000000     0.00000000
     0.00000000     0.00000000     0.00000000
     0.00000000     0.00000000     0.00000000
     0.00000000     0.00000000     0.00000000
     0.00000000     0.00000000     0.00000000
     0.00000000     0.00000000     0.00000000
     0.00000000     0.00000000     0.00000000
     0.00000000     0.00000000     0.00000000
     0.00000000     0.00000000     0.00000000
     0.00000000     0.00000000     0.00000000
     0.00000000     0.00000000     0.00000000
     0.00805296    -0.02254263    -0.00960417
     0.00768047    -0.02199691    -0.00934922
     0.00689098    -0.02076993    -0.00829403
     0.00630136    -0.02033570    -0.00737784
     0.00730255    -0.02150300    -0.00760839
     0.00000000     0.00000000     0.00000000
     0.00000000     0.00000000     0.00000000
     0.00000000     0.00000000     0.00000000
     0.00000000     0.00000000     0.00000000
     0.00000000     0.00000000     0.00000000
     0.00000000     0.00000000     0.00000000
     0.00000000     0.00000000     0.00000000
     0.00000000     0.00000000     0.00000000
     0.00000000     0.00000000     0.00000000
     0.00000000     0.00000000     0.00000000
     0.00000000     0.00000000     0.00000000
     0.00000000     0.00000000     0.00000000
     0.00000000     0.00000000     0.00000000
     0.00000000     0.00000000     0.00000000
     0.00000000     0.00000000     0.00000000
     0.00000000     0.00000000     0.00000000
     0.00000000     0.00000000     0.00000000
     0.00000000     0.00000000     0.00000000
     0.00000000     0.00000000     0.00000000
     0.00000000     0.00000000     0.00000000
     0.00000000     0.00000000     0.00000000
     0.00000000     0.00000000     0.00000000
     0.00000000     0.00000000     0.00000000
     0.00000000     0.00000000     0.00000000
     0.00000000     0.00000000     0.00000000
     0.00376474    -0.02198196    -0.00897449
     0.00304180    -0.02140974    -0.00786671
     0.00314496    -0.02109458    -0.00704925
     0.00385300    -0.02191722    -0.00724006
     0.00307245    -0.02264476    -0.00809189
     0.00000000     0.00000000     0.00000000
     0.00000000     0.00000000     0.00000000
     0.00000000     0.00000000     0.00000000
     0.00000000     0.00000000     0.00000000
     0.00000000     0.00000000     0.00000000
     0.00000000     0.00000000     0.00000000
     0.00000000     0.00000000     0.00000000
     0.00000000     0.00000000     0.00000000
     0.00000000     0.00000000     0.00000000
     0.00000000     0.00000000     0.00000000
     0.00000000     0.00000000     0.00000000
     0.00000000     0.00000000     0.00000000
     0.00000000     0.00000000     0.00000000
     0.00000000     0.00000000     0.00000000
     0.00000000     0.00000000     0.00000000
     0.00000000     0.00000000     0.00000000
     0.00000000     0.00000000     0.00000000
     0.00000000     0.00000000     0.00000000
     0.00000000     0.00000000     0.00000000
     0.00000000     0.00000000     0.00000000
     0.00000000     0.00000000     0.00000000
     0.00000000     0.00000000     0.00000000
     0.00000000     0.00000000     0.00000000
     0.00000000     0.00000000     0.00000000
     0.00000000     0.00000000     0.00000000
     0.00165475    -0.01979696    -0.00441514
     0.00129343    -0.01836364    -0.00370979
     0.00153620    -0.01955937    -0.00374172
     0.00170039    -0.02019071    -0.00379266
     0.00214330    -0.01827645    -0.00384715
     0.00000000     0.00000000     0.00000000
     0.00000000     0.00000000     0.00000000
     0.00000000     0.00000000     0.00000000
     0.00000000     0.00000000     0.00000000
     0.00000000     0.00000000     0.00000000
     0.00000000     0.00000000     0.00000000
     0.00000000     0.00000000     0.00000000
     0.00000000     0.00000000     0.00000000
     0.00000000     0.00000000     0.00000000
     0.00000000     0.00000000     0.00000000
     0.00000000     0.00000000     0.00000000
     0.00000000     0.00000000     0.00000000
     0.00000000     0.00000000     0.00000000
     0.00000000     0.00000000     0.00000000
     0.00000000     0.00000000     0.00000000
     0.00000000     0.00000000     0.00000000
     0.00000000     0.00000000     0.00000000
     0.00000000     0.00000000     0.00000000
     0.00000000     0.00000000     0.00000000
     0.00000000     0.00000000     0.00000000
     0.00000000     0.00000000     0.00000000
     0.00000000     0.00000000     0.00000000
     0.00000000     0.00000000     0.00000000
     0.00000000     0.00000000     0.00000000
     0.00000000     0.00000000     0.00000000
     0.00070292    -0.02225171     0.00058097
     0.00090443    -0.02140830     0.00040146
     0.00035282    -0.02305458     0.00073604
    -0.00014196    -0.02493352     0.00088160
    -0.00099593    -0.02056601     0.00032419
     0.00000000     0.00000000     0.00000000
     0.00000000     0.00000000     0.00000000
     0.00000000     0.00000000     0.00000000
     0.00000000     0.00000000     0.00000000
     0.00000000     0.00000000     0.00000000
     0.00000000     0.00000000     0.00000000
     0.00000000     0.00000000     0.00000000
     0.00000000     0.00000000     0.00000000
     0.00000000     0.00000000     0.00000000
     0.00000000     0.00000000     0.00000000
     0.00000000     0.00000000     0.00000000
     0.00000000     0.00000000     0.00000000
     0.00000000     0.00000000     0.00000000
     0.00000000     0.00000000     0.00000000
     0.00000000     0.00000000     0.00000000
     0.00000000     0.00000000     0.00000000
     0.00000000     0.00000000     0.00000000
     0.00000000     0.00000000     0.00000000
     0.00000000     0.00000000     0.00000000
     0.00000000     0.00000000     0.00000000
     0.00000000     0.00000000     0.00000000
     0.00000000     0.00000000     0.00000000
     0.00000000     0.00000000     0.00000000
     0.00000000     0.00000000     0.00000000
     0.00000000     0.00000000     0.00000000
     0.00073231    -0.02381873     0.00423863
     0.00033621    -0.02542110     0.00475034
     0.00040919    -0.02849553     0.00469584
    -0.00009340    -0.02926533     0.00520919
     0.00061803    -0.02553919     0.00557586
     0.00000000     0.00000000     0.00000000
     0.00000000     0.00000000     0.00000000
     0.00000000     0.00000000     0.00000000
     0.00000000     0.00000000     0.00000000
     0.00000000     0.00000000     0.00000000
     0.00000000     0.00000000     0.00000000
     0.00000000     0.00000000     0.00000000
     0.00000000     0.00000000     0.00000000
     0.00000000     0.00000000     0.00000000
     0.00000000     0.00000000     0.00000000
     0.00000000     0.00000000     0.00000000
     0.00000000     0.00000000     0.00000000
     0.00000000     0.00000000     0.00000000
     0.00000000     0.00000000     0.00000000
     0.00000000     0.00000000     0.00000000
     0.00000000     0.00000000     0.00000000
     0.00000000     0.00000000     0.00000000
     0.00000000     0.00000000     0.00000000
     0.00000000     0.00000000     0.00000000
     0.00000000     0.00000000     0.00000000
     0.00000000     0.00000000     0.00000000
     0.00000000     0.00000000     0.00000000
     0.00000000     0.00000000     0.00000000
     0.00000000     0.00000000     0.00000000
     0.00000000     0.00000000     0.00000000
     0.00286423    -0.03114946     0.00696772
    -0.00010172    -0.03246288     0.00800494
    -0.00320778    -0.03254582     0.00718831
    -0.00519553    -0.03280291     0.00585879
    -0.00612172    -0.03073425     0.00456592
     0.00000000     0.00000000     0.00000000
     0.00000000     0.00000000     0.00000000
     0.00000000     0.00000000     0.00000000
     0.00000000     0.00000000     0.00000000
     0.00000000     0.00000000     0.00000000
     0.00000000     0.00000000     0.00000000
     0.00000000     0.00000000     0.00000000
     0.00000000     0.00000000     0.00000000
     0.00000000     0.00000000     0.00000000
     0.00000000     0.00000000     0.00000000
     0.00000000     0.00000000     0.00000000
     0.00000000     0.00000000     0.00000000
     0.00000000     0.00000000     0.00000000
     0.00000000     0.00000000     0.00000000
     0.00000000     0.00000000     0.00000000
     0.00000000     0.00000000     0.00000000
     0.00000000     0.00000000     0.00000000
     0.00000000     0.00000000     0.00000000
     0.00000000     0.00000000     0.00000000
     0.00000000     0.00000000     0.00000000
     0.00000000     0.00000000     0.00000000
     0.00000000     0.00000000     0.00000000
     0.00000000     0.00000000     0.00000000
     0.00000000     0.00000000     0.00000000
     0.00000000     0.00000000     0.00000000
    -0.00892784    -0.04458866     0.02443289
    -0.00798458    -0.03608138     0.01871994
    -0.00641511    -0.02589094     0.01413918
    -0.00404660    -0.01670061     0.01029352
    -0.00034635    -0.01248444     0.01128237
     0.00000000     0.00000000     0.00000000
     0.00000000     0.00000000     0.00000000
     0.00000000     0.00000000     0.00000000
     0.00000000     0.00000000     0.00000000
     0.00000000     0.00000000     0.00000000
     0.00000000     0.00000000     0.00000000
     0.00000000     0.00000000     0.00000000
     0.00000000     0.00000000     0.00000000
     0.00000000     0.00000000     0.00000000
     0.00000000     0.00000000     0.00000000
     0.00000000     0.00000000     0.00000000
     0.00000000     0.00000000     0.00000000
     0.00000000     0.00000000     0.00000000
     0.00000000     0.00000000     0.00000000
     0.00000000     0.00000000     0.00000000
     0.00000000     0.00000000     0.00000000
     0.00000000     0.00000000     0.00000000
     0.00000000     0.00000000     0.00000000
     0.00000000     0.00000000     0.00000000
     0.00000000     0.00000000     0.00000000
     0.00000000     0.00000000     0.00000000
     0.00000000     0.00000000     0.00000000
     0.00000000     0.00000000     0.00000000
     0.00000000     0.00000000     0.00000000
     0.00000000     0.00000000     0.00000000
    -0.00528239    -0.03664775     0.01685359
    -0.00617947    -0.04104493     0.01964505
    -0.00561734    -0.04669487     0.02273943
    -0.00444631    -0.05436867     0.02723958
    -0.00619790    -0.06241253     0.03123079
     0.00000000     0.00000000     0.00000000
     0.00000000     0.00000000     0.00000000
     0.00000000     0.00000000     0.00000000
     0.00000000     0.00000000     0.00000000
     0.00000000     0.00000000     0.00000000
     0.00000000     0.00000000     0.00000000
     0.00000000     0.00000000     0.00000000
     0.00000000     0.00000000     0.00000000
     0.00000000     0.00000000     0.00000000
     0.00000000     0.00000000     0.00000000
     0.00000000     0.00000000     0.00000000
     0.00000000     0.00000000     0.00000000
     0.00000000     0.00000000     0.00000000
     0.00000000     0.00000000     0.00000000
     0.00000000     0.00000000     0.00000000
     0.00000000     0.00000000     0.00000000
     0.00000000     0.00000000     0.00000000
     0.00000000     0.00000000     0.00000000
     0.00000000     0.00000000     0.00000000
     0.00000000     0.00000000     0.00000000
     0.00000000     0.00000000     0.00000000
     0.00000000     0.00000000     0.00000000
     0.00000000     0.00000000     0.00000000
     0.00000000     0.00000000     0.00000000
     0.00000000     0.00000000     0.00000000
     0.00099117    -0.04801118     0.00958910
     0.00210799    -0.04406678     0.00835785
     0.00192408    -0.04550370     0.00897400
    -0.00140826    -0.04987364     0.01005987
    -0.00255485    -0.05217832     0.01082662
     0.00000000     0.00000000     0.00000000
     0.00000000     0.00000000     0.00000000
     0.00000000     0.00000000     0.00000000
     0.00000000     0.00000000     0.00000000
     0.00000000     0.00000000     0.00000000
     0.00000000     0.00000000     0.00000000
     0.00000000     0.00000000     0.00000000
     0.00000000     0.00000000     0.00000000
     0.00000000     0.00000000     0.00000000
     0.00000000     0.00000000     0.00000000
     0.00000000     0.00000000     0.00000000
     0.00000000     0.00000000     0.00000000
     0.00000000     0.00000000     0.00000000
     0.00000000     0.00000000     0.00000000
     0.00000000     0.00000000     0.00000000
     0.00000000     0.00000000     0.00000000
     0.00000000     0.00000000     0.00000000
     0.00000000     0.00000000     0.00000000
     0.00000000     0.00000000     0.00000000
     0.00000000     0.00000000     0.00000000
     0.00000000     0.00000000     0.00000000
     0.00000000     0.00000000     0.00000000
     0.00000000     0.00000000     0.00000000
     0.00000000     0.00000000     0.00000000
     0.00000000     0.00000000     0.00000000
    -0.00014994    -0.06055944     0.01330637
    -0.00171913    -0.06273524     0.01497915
    -0.00380041    -0.06403776     0.01453649
    -0.00558320    -0.06634297     0.01241655
    -0.00922105    -0.06445687     0.01039403
     0.00000000     0.00000000     0.00000000
     0.00000000     0.00000000     0.00000000
     0.00000000     0.00000000     0.00000000
     0.00000000     0.00000000     0.00000000
     0.00000000     0.00000000     0.00000000
     0.00000000     0.00000000     0.00000000
     0.00000000     0.00000000     0.00000000
     0.00000000     0.00000000     0.00000000
     0.00000000     0.00000000     0.00000000
     0.00000000     0.00000000     0.00000000
     0.00000000     0.00000000     0.00000000
     0.00000000     0.00000000     0.00000000
     0.00000000     0.00000000     0.00000000
     0.00000000     0.00000000     0.00000000
     0.00000000     0.00000000     0.00000000
     0.00000000     0.00000000     0.00000000
     0.00000000     0.00000000     0.00000000
     0.00000000     0.00000000     0.00000000
     0.00000000     0.00000000     0.00000000
     0.00000000     0.00000000     0.00000000
     0.00000000     0.00000000     0.00000000
     0.00000000     0.00000000     0.00000000
     0.00000000     0.00000000     0.00000000
     0.00000000     0.00000000     0.00000000
     0.00000000     0.00000000     0.00000000
     0.00318594    -0.08440025     0.00948633
     0.00517525    -0.08954273     0.00860170
     0.00304715    -0.09275258     0.00880640
    -0.00093499    -0.08723486     0.00923054
    -0.00437182    -0.07549572     0.00941598
     0.00000000     0.00000000     0.00000000
     0.00000000     0.00000000     0.00000000
     0.00000000     0.00000000     0.00000000
     0.00000000     0.00000000     0.00000000
     0.00000000     0.00000000     0.00000000
     0.00000000     0.00000000     0.00000000
     0.00000000     0.00000000     0.00000000
     0.00000000     0.00000000     0.00000000
     0.00000000     0.00000000     0.00000000
     0.00000000     0.00000000     0.00000000
     0.00000000     0.00000000     0.00000000
     0.00000000     0.00000000     0.00000000
     0.00000000     0.00000000     0.00000000
     0.00000000     0.00000000     0.00000000
     0.00000000     0.00000000     0.00000000
     0.00000000     0.00000000     0.00000000
     0.00000000     0.00000000     0.00000000
     0.00000000     0.00000000     0.00000000
     0.00000000     0.00000000     0.00000000
     0.00000000     0.00000000     0.00000000
     0.00000000     0.00000000     0.00000000
     0.00000000     0.00000000     0.00000000
     0.00000000     0.00000000     0.00000000
     0.00000000     0.00000000     0.00000000
     0.00000000     0.00000000     0.00000000
    -0.00057571    -0.06025587     0.00393563
     0.00090048    -0.06520634     0.00232991
     0.00086380    -0.05999140     0.00285740
     0.00236699    -0.05457064     0.00326108
     0.00845133    -0.06541273     0.00626759
     0.00000000     0.00000000     0.00000000
     0.00000000     0.00000000     0.00000000
     0.00000000     0.00000000     0.00000000
     0.00000000     0.00000000     0.00000000
     0.00000000     0.00000000     0.00000000
     0.00000000     0.00000000     0.00000000
     0.00000000     0.00000000     0.00000000
     0.00000000     0.00000000     0.00000000
     0.00000000     0.00000000     0.00000000
     0.00000000     0.00000000     0.00000000
     0.00000000     0.00000000     0.00000000
     0.00000000     0.00000000     0.00000000
     0.00000000     0.00000000     0.00000000
     0.00000000     0.00000000     0.00000000
     0.00000000     0.00000000     0.00000000
     0.00000000     0.00000000     0.00000000
     0.00000000     0.00000000     0.00000000
     0.00000000     0.00000000     0.00000000
     0.00000000     0.00000000     0.00000000
     0.00000000     0.00000000     0.00000000
     0.00000000     0.00000000     0.00000000
     0.00000000     0.00000000     0.00000000
     0.00000000     0.00000000     0.00000000
     0.00000000     0.00000000     0.00000000
     0.00000000     0.00000000     0.00000000
    -0.00430887    -0.04121686     0.00088382
    -0.00462070    -0.04170283     0.00220208
    -0.00157421    -0.04120079     0.00212690
     0.00015800    -0.03728937     0.00207121
    -0.00351303    -0.04343203     0.00025529
     0.00000000     0.00000000     0.00000000
     0.00000000     0.00000000     0.00000000
     0.00000000     0.00000000     0.00000000
     0.00000000     0.00000000     0.00000000
     0.00000000     0.00000000     0.00000000
     0.00000000     0.00000000     0.00000000
     0.00000000     0.00000000     0.00000000
     0.00000000     0.00000000     0.00000000
     0.00000000     0.00000000     0.00000000
     0.00000000     0.00000000     0.00000000
     0.00000000     0.00000000     0.00000000
     0.00000000     0.00000000     0.00000000
     0.00000000     0.00000000     0.00000000
     0.00000000     0.00000000     0.00000000
     0.00000000     0.00000000     0.00000000
     0.00000000     0.00000000     0.00000000
     0.00000000     0.00000000     0.00000000
     0.00000000     0.00000000     0.00000000
     0.00000000     0.00000000     0.00000000
     0.00000000     0.00000000     0.00000000
     0.00000000     0.00000000     0.00000000
     0.00000000     0.00000000     0.00000000
     0.00000000     0.00000000     0.00000000
     0.00000000     0.00000000     0.00000000
     0.00000000     0.00000000     0.00000000
    -0.01031189    -0.03351449     0.00538015
    -0.01080917    -0.03629023     0.00394611
    -0.01167471    -0.03685851     0.00401842
    -0.01175492    -0.03341723     0.00364990
    -0.00937065    -0.03319339     0.00366558
     0.00000000     0.00000000     0.00000000
     0.00000000     0.00000000     0.00000000
     0.00000000     0.00000000     0.00000000
     0.00000000     0.00000000     0.00000000
     0.00000000     0.00000000     0.00000000
     0.00000000     0.00000000     0.00000000
     0.00000000     0.00000000     0.00000000
     0.00000000     0.00000000     0.00000000
     0.00000000     0.00000000     0.00000000
     0.00000000     0.00000000     0.00000000
     0.00000000     0.00000000     0.00000000
     0.00000000     0.00000000     0.00000000
     0.00000000     0.00000000     0.00000000
     0.00000000     0.00000000     0.00000000
     0.00000000     0.00000000     0.00000000
     0.00000000     0.00000000     0.00000000
     0.00000000     0.00000000     0.00000000
     0.00000000     0.00000000     0.00000000
     0.00000000     0.00000000     0.00000000
     0.00000000     0.00000000     0.00000000
     0.00000000     0.00000000     0.00000000
     0.00000000     0.00000000     0.00000000
     0.00000000     0.00000000     0.00000000
     0.00000000     0.00000000     0.00000000
     0.00000000     0.00000000     0.00000000
    -0.00682612    -0.02548900     0.00144063
    -0.00770788    -0.02588197     0.00145828
    -0.00910072    -0.03194987     0.00175680
    -0.00847685    -0.03577456     0.00311184
    -0.00714556    -0.03681272     0.00366896
     0.00000000     0.00000000     0.00000000
     0.00000000     0.00000000     0.00000000
     0.00000000     0.00000000     0.00000000
     0.00000000     0.00000000     0.00000000
     0.00000000     0.00000000     0.00000000
     0.00000000     0.00000000     0.00000000
     0.00000000     0.00000000     0.00000000
     0.00000000     0.00000000     0.00000000
     0.00000000     0.00000000     0.00000000
     0.00000000     0.00000000     0.00000000
     0.00000000     0.00000000     0.00000000
     0.00000000     0.00000000     0.00000000
     0.00000000     0.00000000     0.00000000
     0.00000000     0.00000000     0.00000000
     0.00000000     0.00000000     0.00000000
     0.00000000     0.00000000     0.00000000
     0.00000000     0.00000000     0.00000000
     0.00000000     0.00000000     0.00000000
     0.00000000     0.00000000     0.00000000
     0.00000000     0.00000000     0.00000000
     0.00000000     0.00000000     0.00000000
     0.00000000     0.00000000     0.00000000
     0.00000000     0.00000000     0.00000000
     0.00000000     0.00000000     0.00000000
     0.00000000     0.00000000     0.00000000
    -0.00881539    -0.02935983     0.00300850
    -0.00983688    -0.02849285     0.00258899
    -0.01069175    -0.02918007     0.00176523
    -0.00940770    -0.02691223     0.00168603
    -0.00422313    -0.01909204     0.00271287
     0.00000000     0.00000000     0.00000000
     0.00000000     0.00000000     0.00000000
     0.00000000     0.00000000     0.00000000
     0.00000000     0.00000000     0.00000000
     0.00000000     0.00000000     0.00000000
     0.00000000     0.00000000     0.00000000
     0.00000000     0.00000000     0.00000000
     0.00000000     0.00000000     0.00000000
     0.00000000     0.00000000     0.00000000
     0.00000000     0.00000000     0.00000000
     0.00000000     0.00000000     0.00000000
     0.00000000     0.00000000     0.00000000
     0.00000000     0.00000000     0.00000000
     0.00000000     0.00000000     0.00000000
     0.00000000     0.00000000     0.00000000
     0.00000000     0.00000000     0.00000000
     0.00000000     0.00000000     0.00000000
     0.00000000     0.00000000     0.00000000
     0.00000000     0.00000000     0.00000000
     0.00000000     0.00000000     0.00000000
     0.00000000     0.00000000     0.00000000
     0.00000000     0.00000000     0.00000000
     0.00000000     0.00000000     0.00000000
     0.00000000     0.00000000     0.00000000
     0.00000000     0.00000000     0.00000000
    -0.00674509    -0.02988996     0.00014442
    -0.00566694    -0.02415205     0.00144561
    -0.00493229    -0.02573059     0.00179782
    -0.00678808    -0.04007996     0.00220231
    -0.01000107    -0.04862431    -0.00130725
     0.00000000     0.00000000     0.00000000
     0.00000000     0.00000000     0.00000000
     0.00000000     0.00000000     0.00000000
     0.00000000     0.00000000     0.00000000
     0.00000000     0.00000000     0.00000000
     0.00000000     0.00000000     0.00000000
     0.00000000     0.00000000     0.00000000
     0.00000000     0.00000000     0.00000000
     0.00000000     0.00000000     0.00000000
     0.00000000     0.00000000     0.00000000
     0.00000000     0.00000000     0.00000000
     0.00000000     0.00000000     0.00000000
     0.00000000     0.00000000     0.00000000
     0.00000000     0.00000000     0.00000000
     0.00000000     0.00000000     0.00000000
     0.00000000     0.00000000     0.00000000
     0.00000000     0.00000000     0.00000000
     0.00000000     0.00000000     0.00000000
     0.00000000     0.00000000     0.00000000
     0.00000000     0.00000000     0.00000000
     0.00000000     0.00000000     0.00000000
     0.00000000     0.00000000     0.00000000
     0.00000000     0.00000000     0.00000000
     0.00000000     0.00000000     0.00000000
     0.00000000     0.00000000     0.00000000
    -0.00581824    -0.02718989     0.00043100
    -0.00693458    -0.02973861     0.00200354
    -0.00977934    -0.03784284     0.00372044
    -0.01131896    -0.04429192     0.00258307
    -0.00808542    -0.03339970    -0.00282426
     0.00048902    -0.00011383     0.00027533
     0.00045414    -0.00009336     0.00054536
     0.00054250    -0.00011826     0.00048666
     0.00079738    -0.00019790     0.00015932
     0.00092105    -0.00025889    -0.00046300
     0.00060140    -0.00016017    -0.00011236
     0.00071086    -0.00018699    -0.00007270
     0.00088984    -0.00023589    -0.00016412
     0.00111839    -0.00031525    -0.00062074
     0.00121379    -0.00037680    -0.00141679
     0.00068035    -0.00019766    -0.00049841
     0.00087770    -0.00025383    -0.00060644
     0.00112481    -0.00032627    -0.00080892
     0.00140254    -0.00041940    -0.00127369
     0.00154909    -0.00048495    -0.00189958
     0.00079069    -0.00024260    -0.00084887
     0.00102948    -0.00031318    -0.00104984
     0.00131082    -0.00039552    -0.00132287
     0.00156376    -0.00047910    -0.00170217
     0.00171747    -0.00054025    -0.00213986
     0.00090387    -0.00028279    -0.00115430
     0.00114854    -0.00036107    -0.00140738
     0.00140176    -0.00043638    -0.00167802
     0.00162536    -0.00050430    -0.00197673
     0.00175817    -0.00055062    -0.00224316
     0.01141108    -0.00632106    -0.00049229
     0.01232964    -0.00596748    -0.00064271
     0.01399643    -0.00595894    -0.00146378
     0.01629051    -0.00630341    -0.00229049
     0.00000000     0.00000000     0.00000000
     0.00000000     0.00000000     0.00000000
     0.00000000     0.00000000     0.00000000
     0.00000000     0.00000000     0.00000000
     0.00000000     0.00000000     0.00000000
     0.00000000     0.00000000     0.00000000
     0.00000000     0.00000000     0.00000000
     0.00000000     0.00000000     0.00000000
     0.00000000     0.00000000     0.00000000
     0.00000000     0.00000000     0.00000000
     0.00000000     0.00000000     0.00000000
     0.00000000     0.00000000     0.00000000
     0.00000000     0.00000000     0.00000000
     0.00000000     0.00000000     0.00000000
     0.00000000     0.00000000     0.00000000
     0.00000000     0.00000000     0.00000000
     0.00000000     0.00000000     0.00000000
     0.00000000     0.00000000     0.00000000
     0.00000000     0.00000000     0.00000000
     0.00000000     0.00000000     0.00000000
     0.01974680    -0.00991310    -0.00721489
     0.01694265    -0.00816401    -0.00598680
     0.01481595    -0.00621764    -0.00514698
     0.01393806    -0.00483918    -0.00510846
     0.00000000     0.00000000     0.00000000
     0.00000000     0.00000000     0.00000000
     0.00000000     0.00000000     0.00000000
     0.00000000     0.00000000     0.00000000
     0.00000000     0.00000000     0.00000000
     0.00000000     0.00000000     0.00000000
     0.00000000     0.00000000     0.00000000
     0.00000000     0.00000000     0.00000000
     0.00000000     0.00000000     0.00000000
     0.00000000     0.00000000     0.00000000
     0.00000000     0.00000000     0.00000000
     0.00000000     0.00000000     0.00000000
     0.00000000     0.00000000     0.00000000
     0.00000000     0.00000000     0.00000000
     0.00000000     0.00000000     0.00000000
     0.00000000     0.00000000     0.00000000
     0.00000000     0.00000000     0.00000000
     0.00000000     0.00000000     0.00000000
     0.00000000     0.00000000     0.00000000
     0.00000000     0.00000000     0.00000000
     0.01286897    -0.00725004    -0.00748197
     0.01292129    -0.00749388    -0.00767491
     0.01085242    -0.00675064    -0.00669808
     0.00928384    -0.00623622    -0.00554669
     0.00000000     0.00000000     0.00000000
     0.00000000     0.00000000     0.00000000
     0.00000000     0.00000000     0.00000000
     0.00000000     0.00000000     0.00000000
     0.00000000     0.00000000     0.00000000
     0.00000000     0.00000000     0.00000000
     0.00000000     0.00000000     0.00000000
     0.00000000     0.00000000     0.00000000
     0.00000000     0.00000000     0.00000000
     0.00000000     0.00000000     0.00000000
     0.00000000     0.00000000     0.00000000
     0.00000000     0.00000000     0.00000000
     0.00000000     0.00000000     0.00000000
     0.00000000     0.00000000     0.00000000
     0.00000000     0.00000000     0.00000000
     0.00000000     0.00000000     0.00000000
     0.00000000     0.00000000     0.00000000
     0.00000000     0.00000000     0.00000000
     0.00000000     0.00000000     0.00000000
     0.00000000     0.00000000     0.00000000
     0.01119842    -0.01200743    -0.00913250
     0.00950440    -0.01038524    -0.00869775
     0.00939307    -0.01062201    -0.00913104
     0.00966542    -0.01127101    -0.00958745
     0.00000000     0.00000000     0.00000000
     0.00000000     0.00000000     0.00000000
     0.00000000     0.00000000     0.00000000
     0.00000000     0.00000000     0.00000000
     0.00000000     0.00000000     0.00000000
     0.00000000     0.00000000     0.00000000
     0.00000000     0.00000000     0.00000000
     0.00000000     0.00000000     0.00000000
     0.00000000     0.00000000     0.00000000
     0.00000000     0.00000000     0.00000000
     0.00000000     0.00000000     0.00000000
     0.00000000     0.00000000     0.00000000
     0.00000000     0.00000000     0.00000000
     0.00000000     0.00000000     0.00000000
     0.00000000     0.00000000     0.00000000
     0.00000000     0.00000000     0.00000000
     0.00000000     0.00000000     0.00000000
     0.00000000     0.00000000     0.00000000
     0.00000000     0.00000000     0.00000000
     0.00000000     0.00000000     0.00000000
     0.00699731    -0.01439819    -0.00870567
     0.00628520    -0.01340673    -0.00773353
     0.00603130    -0.01341028    -0.00729599
     0.00610438    -0.01394376    -0.00733394
     0.00000000     0.00000000     0.00000000
     0.00000000     0.00000000     0.00000000
     0.00000000     0.00000000     0.00000000
     0.00000000     0.00000000     0.00000000
     0.00000000     0.00000000     0.00000000
     0.00000000     0.00000000     0.00000000
     0.00000000     0.00000000     0.00000000
     0.00000000     0.00000000     0.00000000
     0.00000000     0.00000000     0.00000000
     0.00000000     0.00000000     0.00000000
     0.00000000     0.00000000     0.00000000
     0.00000000     0.00000000     0.00000000
     0.00000000     0.00000000     0.00000000
     0.00000000     0.00000000     0.00000000
     0.00000000     0.00000000     0.00000000
     0.00000000     0.00000000     0.00000000
     0.00000000     0.00000000     0.00000000
     0.00000000     0.00000000     0.00000000
     0.00000000     0.00000000     0.00000000
     0.00000000     0.00000000     0.00000000
     0.00546148    -0.01671297    -0.00763800
     0.00572161    -0.01736649    -0.00818055
     0.00631455    -0.01921098    -0.00928816
     0.00647271    -0.02020914    -0.00947084
     0.00000000     0.00000000     0.00000000
     0.00000000     0.00000000     0.00000000
     0.00000000     0.00000000     0.00000000
     0.00000000     0.00000000     0.00000000
     0.00000000     0.00000000     0.00000000
     0.00000000     0.00000000     0.00000000
     0.00000000     0.00000000     0.00000000
     0.00000000     0.00000000     0.00000000
     0.00000000     0.00000000     0.00000000
     0.00000000     0.00000000     0.00000000
     0.00000000     0.00000000     0.00000000
     0.00000000     0.00000000     0.00000000
     0.00000000     0.00000000     0.00000000
     0.00000000     0.00000000     0.00000000
     0.00000000     0.00000000     0.00000000
     0.00000000     0.00000000     0.00000000
     0.00000000     0.00000000     0.00000000
     0.00000000     0.00000000     0.00000000
     0.00000000     0.00000000     0.00000000
     0.00000000     0.00000000     0.00000000
     0.00598325    -0.01847622    -0.00672045
     0.00538227    -0.01738590    -0.00634390
     0.00541898    -0.01738872    -0.00656373
     0.00587383    -0.01806918    -0.00775455
     0.00000000     0.00000000     0.00000000
     0.00000000     0.00000000     0.00000000
     0.00000000     0.00000000     0.00000000
     0.00000000     0.00000000     0.00000000
     0.00000000     0.00000000     0.00000000
     0.00000000     0.00000000     0.00000000
     0.00000000     0.00000000     0.00000000
     0.00000000     0.00000000     0.00000000
     0.00000000     0.00000000     0.00000000
     0.00000000     0.00000000     0.00000000
     0.00000000     0.00000000     0.00000000
     0.00000000     0.00000000     0.00000000
     0.00000000     0.00000000     0.00000000
     0.00000000     0.00000000     0.00000000
     0.00000000     0.00000000     0.00000000
     0.00000000     0.00000000     0.00000000
     0.00000000     0.00000000     0.00000000
     0.00000000     0.00000000     0.00000000
     0.00000000     0.00000000     0.00000000
     0.00000000     0.00000000     0.00000000
     0.00234848    -0.02000307    -0.00707128
     0.00254056    -0.01889752    -0.00630461
     0.00275243    -0.01880821    -0.00585843
     0.00308435    -0.01808547    -0.00478216
     0.00000000     0.00000000     0.00000000
     0.00000000     0.00000000     0.00000000
     0.00000000     0.00000000     0.00000000
     0.00000000     0.00000000     0.00000000
     0.00000000     0.00000000     0.00000000
     0.00000000     0.00000000     0.00000000
     0.00000000     0.00000000     0.00000000
     0.00000000     0.00000000     0.00000000
     0.00000000     0.00000000     0.00000000
     0.00000000     0.00000000     0.00000000
     0.00000000     0.00000000     0.00000000
     0.00000000     0.00000000     0.00000000
     0.00000000     0.00000000     0.00000000
     0.00000000     0.00000000     0.00000000
     0.00000000     0.00000000     0.00000000
     0.00000000     0.00000000     0.00000000
     0.00000000     0.00000000     0.00000000
     0.00000000     0.00000000     0.00000000
     0.00000000     0.00000000     0.00000000
     0.00000000     0.00000000     0.00000000
     0.00194224    -0.01915012    -0.00368310
     0.00124689    -0.02067951    -0.00395117
     0.00101344    -0.02233878    -0.00423165
     0.00099070    -0.02422562    -0.00445139
     0.00000000     0.00000000     0.00000000
     0.00000000     0.00000000     0.00000000
     0.00000000     0.00000000     0.00000000
     0.00000000     0.00000000     0.00000000
     0.00000000     0.00000000     0.00000000
     0.00000000     0.00000000     0.00000000
     0.00000000     0.00000000     0.00000000
     0.00000000     0.00000000     0.00000000
     0.00000000     0.00000000     0.00000000
     0.00000000     0.00000000     0.00000000
     0.00000000     0.00000000     0.00000000
     0.00000000     0.00000000     0.00000000
     0.00000000     0.00000000     0.00000000
     0.00000000     0.00000000     0.00000000
     0.00000000     0.00000000     0.00000000
     0.00000000     0.00000000     0.00000000
     0.00000000     0.00000000     0.00000000
     0.00000000     0.00000000     0.00000000
     0.00000000     0.00000000     0.00000000
     0.00000000     0.00000000     0.00000000
    -0.00198573    -0.01975718    -0.00077469
    -0.00167945    -0.01969690    -0.00065397
    -0.00169860    -0.02096009    -0.00065973
    -0.00172373    -0.02138534    -0.00117648
     0.00000000     0.00000000     0.00000000
     0.00000000     0.00000000     0.00000000
     0.00000000     0.00000000     0.00000000
     0.00000000     0.00000000     0.00000000
     0.00000000     0.00000000     0.00000000
     0.00000000     0.00000000     0.00000000
     0.00000000     0.00000000     0.00000000
     0.00000000     0.00000000     0.00000000
     0.00000000     0.00000000     0.00000000
     0.00000000     0.00000000     0.00000000
     0.00000000     0.00000000     0.00000000
     0.00000000     0.00000000     0.00000000
     0.00000000     0.00000000     0.00000000
     0.00000000     0.00000000     0.00000000
     0.00000000     0.00000000     0.00000000
     0.00000000     0.00000000     0.00000000
     0.00000000     0.00000000     0.00000000
     0.00000000     0.00000000     0.00000000
     0.00000000     0.00000000     0.00000000
     0.00000000     0.00000000     0.00000000
     0.00080592    -0.02841552     0.00615494
    -0.00102058    -0.03409699     0.00498966
    -0.00223775    -0.03611696     0.00426228
    -0.00367049    -0.03587783     0.00494803
     0.00000000     0.00000000     0.00000000
     0.00000000     0.00000000     0.00000000
     0.00000000     0.00000000     0.00000000
     0.00000000     0.00000000     0.00000000
     0.00000000     0.00000000     0.00000000
     0.00000000     0.00000000     0.00000000
     0.00000000     0.00000000     0.00000000
     0.00000000     0.00000000     0.00000000
     0.00000000     0.00000000     0.00000000
     0.00000000     0.00000000     0.00000000
     0.00000000     0.00000000     0.00000000
     0.00000000     0.00000000     0.00000000
     0.00000000     0.00000000     0.00000000
     0.00000000     0.00000000     0.00000000
     0.00000000     0.00000000     0.00000000
     0.00000000     0.00000000     0.00000000
     0.00000000     0.00000000     0.00000000
     0.00000000     0.00000000     0.00000000
     0.00000000     0.00000000     0.00000000
     0.00000000     0.00000000     0.00000000
    -0.00569075    -0.02582200     0.00508002
    -0.00276218    -0.02096551     0.00834585
    -0.00311822    -0.02473008     0.00866300
    -0.00357006    -0.03295679     0.00582482
     0.00000000     0.00000000     0.00000000
     0.00000000     0.00000000     0.00000000
     0.00000000     0.00000000     0.00000000
     0.00000000     0.00000000     0.00000000
     0.00000000     0.00000000     0.00000000
     0.00000000     0.00000000     0.00000000
     0.00000000     0.00000000     0.00000000
     0.00000000     0.00000000     0.00000000
     0.00000000     0.00000000     0.00000000
     0.00000000     0.00000000     0.00000000
     0.00000000     0.00000000     0.00000000
     0.00000000     0.00000000     0.00000000
     0.00000000     0.00000000     0.00000000
     0.00000000     0.00000000     0.00000000
     0.00000000     0.00000000     0.00000000
     0.00000000     0.00000000     0.00000000
     0.00000000     0.00000000     0.00000000
     0.00000000     0.00000000     0.00000000
     0.00000000     0.00000000     0.00000000
     0.00000000     0.00000000     0.00000000
    -0.00103568    -0.02847778     0.02150384
    -0.00836385    -0.04728871     0.02156485
    -0.00848729    -0.04823663     0.01722807
    -0.00613222    -0.04026593     0.01618960
     0.00000000     0.00000000     0.00000000
     0.00000000     0.00000000     0.00000000
     0.00000000     0.00000000     0.00000000
     0.00000000     0.00000000     0.00000000
     0.00000000     0.00000000     0.00000000
     0.00000000     0.00000000     0.00000000
     0.00000000     0.00000000     0.00000000
     0.00000000     0.00000000     0.00000000
     0.00000000     0.00000000     0.00000000
     0.00000000     0.00000000     0.00000000
     0.00000000     0.00000000     0.00000000
     0.00000000     0.00000000     0.00000000
     0.00000000     0.00000000     0.00000000
     0.00000000     0.00000000     0.00000000
     0.00000000     0.00000000     0.00000000
     0.00000000     0.00000000     0.00000000
     0.00000000     0.00000000     0.00000000
     0.00000000     0.00000000     0.00000000
     0.00000000     0.00000000     0.00000000
     0.00000000     0.00000000     0.00000000
    -0.00611204    -0.05725445     0.02441106
    -0.00200525    -0.05547628     0.02251208
    -0.00192564    -0.05313539     0.02231521
    -0.00255270    -0.05126335     0.02092257
     0.00000000     0.00000000     0.00000000
     0.00000000     0.00000000     0.00000000
     0.00000000     0.00000000     0.00000000
     0.00000000     0.00000000     0.00000000
     0.00000000     0.00000000     0.00000000
     0.00000000     0.00000000     0.00000000
     0.00000000     0.00000000     0.00000000
     0.00000000     0.00000000     0.00000000
     0.00000000     0.00000000     0.00000000
     0.00000000     0.00000000     0.00000000
     0.00000000     0.00000000     0.00000000
     0.00000000     0.00000000     0.00000000
     0.00000000     0.00000000     0.00000000
     0.00000000     0.00000000     0.00000000
     0.00000000     0.00000000     0.00000000
     0.00000000     0.00000000     0.00000000
     0.00000000     0.00000000     0.00000000
     0.00000000     0.00000000     0.00000000
     0.00000000     0.00000000     0.00000000
     0.00000000     0.00000000     0.00000000
     0.00136173    -0.04313926     0.00998659
    -0.00381954    -0.04853529     0.01137266
    -0.00413462    -0.04525361     0.01208486
    -0.00271128    -0.04160123     0.01098874
     0.00000000     0.00000000     0.00000000
     0.00000000     0.00000000     0.00000000
     0.00000000     0.00000000     0.00000000
     0.00000000     0.00000000     0.00000000
     0.00000000     0.00000000     0.00000000
     0.00000000     0.00000000     0.00000000
     0.00000000     0.00000000     0.00000000
     0.00000000     0.00000000     0.00000000
     0.00000000     0.00000000     0.00000000
     0.00000000     0.00000000     0.00000000
     0.00000000     0.00000000     0.00000000
     0.00000000     0.00000000     0.00000000
     0.00000000     0.00000000     0.00000000
     0.00000000     0.00000000     0.00000000
     0.00000000     0.00000000     0.00000000
     0.00000000     0.00000000     0.00000000
     0.00000000     0.00000000     0.00000000
     0.00000000     0.00000000     0.00000000
     0.00000000     0.00000000     0.00000000
     0.00000000     0.00000000     0.00000000
    -0.00937392    -0.04658152     0.00793474
    -0.00827857    -0.05468164     0.00835893
    -0.01209358    -0.06221328     0.00541290
    -0.01107054    -0.04828900     0.00367448
     0.00000000     0.00000000     0.00000000
     0.00000000     0.00000000     0.00000000
     0.00000000     0.00000000     0.00000000
     0.00000000     0.00000000     0.00000000
     0.00000000     0.00000000     0.00000000
     0.00000000     0.00000000     0.00000000
     0.00000000     0.00000000     0.00000000
     0.00000000     0.00000000     0.00000000
     0.00000000     0.00000000     0.00000000
     0.00000000     0.00000000     0.00000000
     0.00000000     0.00000000     0.00000000
     0.00000000     0.00000000     0.00000000
     0.00000000     0.00000000     0.00000000
     0.00000000     0.00000000     0.00000000
     0.00000000     0.00000000     0.00000000
     0.00000000     0.00000000     0.00000000
     0.00000000     0.00000000     0.00000000
     0.00000000     0.00000000     0.00000000
     0.00000000     0.00000000     0.00000000
     0.00000000     0.00000000     0.00000000
    -0.00432043    -0.07967526     0.00718296
    -0.00148575    -0.08276277     0.00303938
     0.00236282    -0.09025154     0.00544368
     0.00172037    -0.09689973     0.00734247
     0.00000000     0.00000000     0.00000000
     0.00000000     0.00000000     0.00000000
     0.00000000     0.00000000     0.00000000
     0.00000000     0.00000000     0.00000000
     0.00000000     0.00000000     0.00000000
     0.00000000     0.00000000     0.00000000
     0.00000000     0.00000000     0.00000000
     0.00000000     0.00000000     0.00000000
     0.00000000     0.00000000     0.00000000
     0.00000000     0.00000000     0.00000000
     0.00000000     0.00000000     0.00000000
     0.00000000     0.00000000     0.00000000
     0.00000000     0.00000000     0.00000000
     0.00000000     0.00000000     0.00000000
     0.00000000     0.00000000     0.00000000
     0.00000000     0.00000000     0.00000000
     0.00000000     0.00000000     0.00000000
     0.00000000     0.00000000     0.00000000
     0.00000000     0.00000000     0.00000000
     0.00000000     0.00000000     0.00000000
     0.00885817    -0.04442071     0.00696498
     0.00875059    -0.02945348     0.00718914
     0.00893642    -0.03656125     0.00862683
     0.01064610    -0.04827815     0.01201676
     0.00000000     0.00000000     0.00000000
     0.00000000     0.00000000     0.00000000
     0.00000000     0.00000000     0.00000000
     0.00000000     0.00000000     0.00000000
     0.00000000     0.00000000     0.00000000
     0.00000000     0.00000000     0.00000000
     0.00000000     0.00000000     0.00000000
     0.00000000     0.00000000     0.00000000
     0.00000000     0.00000000     0.00000000
     0.00000000     0.00000000     0.00000000
     0.00000000     0.00000000     0.00000000
     0.00000000     0.00000000     0.00000000
     0.00000000     0.00000000     0.00000000
     0.00000000     0.00000000     0.00000000
     0.00000000     0.00000000     0.00000000
     0.00000000     0.00000000     0.00000000
     0.00000000     0.00000000     0.00000000
     0.00000000     0.00000000     0.00000000
     0.00000000     0.00000000     0.00000000
     0.00000000     0.00000000     0.00000000
    -0.00606151    -0.05895924     0.00484121
    -0.00270524    -0.04368036     0.00625548
    -0.00106214    -0.03387083     0.00481271
    -0.00042774    -0.03801491     0.00305855
     0.00000000     0.00000000     0.00000000
     0.00000000     0.00000000     0.00000000
     0.00000000     0.00000000     0.00000000
     0.00000000     0.00000000     0.00000000
     0.00000000     0.00000000     0.00000000
     0.00000000     0.00000000     0.00000000
     0.00000000     0.00000000     0.00000000
     0.00000000     0.00000000     0.00000000
     0.00000000     0.00000000     0.00000000
     0.00000000     0.00000000     0.00000000
     0.00000000     0.00000000     0.00000000
     0.00000000     0.00000000     0.00000000
     0.00000000     0.00000000     0.00000000
     0.00000000     0.00000000     0.00000000
     0.00000000     0.00000000     0.00000000
     0.00000000     0.00000000     0.00000000
     0.00000000     0.00000000     0.00000000
     0.00000000     0.00000000     0.00000000
     0.00000000     0.00000000     0.00000000
     0.00000000     0.00000000     0.00000000
    -0.00793663    -0.03922479     0.00375391
    -0.00723670    -0.02731236     0.00169446
    -0.00686798    -0.02803079     0.00278777
    -0.00702718    -0.03250325     0.00521112
     0.00000000     0.00000000     0.00000000
     0.00000000     0.00000000     0.00000000
     0.00000000     0.00000000     0.00000000
     0.00000000     0.00000000     0.00000000
     0.00000000     0.00000000     0.00000000
     0.00000000     0.00000000     0.00000000
     0.00000000     0.00000000     0.00000000
     0.00000000     0.00000000     0.00000000
     0.00000000     0.00000000     0.00000000
     0.00000000     0.00000000     0.00000000
     0.00000000     0.00000000     0.00000000
     0.00000000     0.00000000     0.00000000
     0.00000000     0.00000000     0.00000000
     0.00000000     0.00000000     0.00000000
     0.00000000     0.00000000     0.00000000
     0.00000000     0.00000000     0.00000000
     0.00000000     0.00000000     0.00000000
     0.00000000     0.00000000     0.00000000
     0.00000000     0.00000000     0.00000000
     0.00000000     0.00000000     0.00000000
    -0.00897332    -0.04186570     0.00347819
    -0.00816924    -0.03813263     0.00501033
    -0.00703923    -0.03136558     0.00605502
    -0.00611046    -0.02743961     0.00679548
     0.00000000     0.00000000     0.00000000
     0.00000000     0.00000000     0.00000000
     0.00000000     0.00000000     0.00000000
     0.00000000     0.00000000     0.00000000
     0.00000000     0.00000000     0.00000000
     0.00000000     0.00000000     0.00000000
     0.00000000     0.00000000     0.00000000
     0.00000000     0.00000000     0.00000000
     0.00000000     0.00000000     0.00000000
     0.00000000     0.00000000     0.00000000
     0.00000000     0.00000000     0.00000000
     0.00000000     0.00000000     0.00000000
     0.00000000     0.00000000     0.00000000
     0.00000000     0.00000000     0.00000000
     0.00000000     0.00000000     0.00000000
     0.00000000     0.00000000     0.00000000
     0.00000000     0.00000000     0.00000000
     0.00000000     0.00000000     0.00000000
     0.00000000     0.00000000     0.00000000
     0.00000000     0.00000000     0.00000000
     0.00181597    -0.01896904     0.00804608
    -0.00049062    -0.02512260     0.01045278
    -0.00548462    -0.03082001     0.00571505
    -0.00741245    -0.03028645    -0.00172290
     0.00000000     0.00000000     0.00000000
     0.00000000     0.00000000     0.00000000
     0.00000000     0.00000000     0.00000000
     0.00000000     0.00000000     0.00000000
     0.00000000     0.00000000     0.00000000
     0.00000000     0.00000000     0.00000000
     0.00000000     0.00000000     0.00000000
     0.00000000     0.00000000     0.00000000
     0.00000000     0.00000000     0.00000000
     0.00000000     0.00000000     0.00000000
     0.00000000     0.00000000     0.00000000
     0.00000000     0.00000000     0.00000000
     0.00000000     0.00000000     0.00000000
     0.00000000     0.00000000     0.00000000
     0.00000000     0.00000000     0.00000000
     0.00000000     0.00000000     0.00000000
     0.00000000     0.00000000     0.00000000
     0.00000000     0.00000000     0.00000000
     0.00000000     0.00000000     0.00000000
     0.00000000     0.00000000     0.00000000
    -0.01432061    -0.04880221    -0.00682093
    -0.01371148    -0.04355148    -0.00842414
    -0.01096132    -0.03839545    -0.00723501
    -0.00857419    -0.03305048    -0.00472925
     0.00000000     0.00000000     0.00000000
     0.00000000     0.00000000     0.00000000
     0.00000000     0.00000000     0.00000000
     0.00000000     0.00000000     0.00000000
     0.00000000     0.00000000     0.00000000
     0.00000000     0.00000000     0.00000000
     0.00000000     0.00000000     0.00000000
     0.00000000     0.00000000     0.00000000
     0.00000000     0.00000000     0.00000000
     0.00000000     0.00000000     0.00000000
     0.00000000     0.00000000     0.00000000
     0.00000000     0.00000000     0.00000000
     0.00000000     0.00000000     0.00000000
     0.00000000     0.00000000     0.00000000
     0.00000000     0.00000000     0.00000000
     0.00000000     0.00000000     0.00000000
     0.00000000     0.00000000     0.00000000
     0.00000000     0.00000000     0.00000000
     0.00000000     0.00000000     0.00000000
     0.00000000     0.00000000     0.00000000
    -0.00361484    -0.01936390    -0.00445508
    -0.00259569    -0.01703560    -0.00353337
    -0.00376921    -0.01795078    -0.00203545
    -0.00465314    -0.01785637    -0.00100881
     0.00066189    -0.00023677    -0.00149725
     0.00057940    -0.00022719    -0.00175205
     0.00047095    -0.00017690    -0.00124935
     0.00036150    -0.00011929    -0.00059443
     0.00127827    -0.00043951    -0.00242615
     0.00120157    -0.00043130    -0.00263685
     0.00095315    -0.00033781    -0.00207037
     0.00077083    -0.00025605    -0.00126993
     0.00169665    -0.00055707    -0.00267546
     0.00161967    -0.00054344    -0.00288528
     0.00136174    -0.00045986    -0.00247179
     0.00111162    -0.00036637    -0.00177697
     0.00184372    -0.00058869    -0.00267043
     0.00179744    -0.00058764    -0.00281126
     0.00160036    -0.00052772    -0.00257281
     0.00135947    -0.00044611    -0.00209249
     0.00182190    -0.00058449    -0.00252115
     0.00178247    -0.00058025    -0.00260790
     0.00165992    -0.00053861    -0.00249389
     0.00148718    -0.00048246    -0.00222341
     0.00000000     0.00000000     0.00000000
     0.00000000     0.00000000     0.00000000
     0.00000000     0.00000000     0.00000000
     0.00000000     0.00000000     0.00000000
     0.00000000     0.00000000     0.00000000
     0.00000000     0.00000000     0.00000000
     0.00000000     0.00000000     0.00000000
     0.00000000     0.00000000     0.00000000
     0.00000000     0.00000000     0.00000000
     0.00000000     0.00000000     0.00000000
     0.00000000     0.00000000     0.00000000
     0.00000000     0.00000000     0.00000000
     0.00000000     0.00000000     0.00000000
     0.00000000     0.00000000     0.00000000
     0.00000000     0.00000000     0.00000000
     0.00000000     0.00000000     0.00000000
     0.00000000     0.00000000     0.00000000
     0.00000000     0.00000000     0.00000000
     0.00000000     0.00000000     0.00000000
     0.00000000     0.00000000     0.00000000
     0.00000000     0.00000000     0.00000000
     0.00000000     0.00000000     0.00000000
     0.00000000     0.00000000     0.00000000
     0.00000000     0.00000000     0.00000000
     0.00000000     0.00000000     0.00000000
     0.00000000     0.00000000     0.00000000
     0.00000000     0.00000000     0.00000000
     0.00000000     0.00000000     0.00000000
     0.00000000     0.00000000     0.00000000
     0.00000000     0.00000000     0.00000000
     0.00000000     0.00000000     0.00000000
     0.00000000     0.00000000     0.00000000
     0.00000000     0.00000000     0.00000000
     0.00000000     0.00000000     0.00000000
     0.00000000     0.00000000     0.00000000
     0.00000000     0.00000000     0.00000000
     0.00000000     0.00000000     0.00000000
     0.00000000     0.00000000     0.00000000
     0.00000000     0.00000000     0.00000000
     0.00000000     0.00000000     0.00000000
     0.00000000     0.00000000     0.00000000
     0.00000000     0.00000000     0.00000000
     0.00000000     0.00000000     0.00000000
     0.00000000     0.00000000     0.00000000
     0.00000000     0.00000000     0.00000000
     0.00000000     0.00000000     0.00000000
     0.00000000     0.00000000     0.00000000
     0.00000000     0.00000000     0.00000000
     0.00000000     0.00000000     0.00000000
     0.00000000     0.00000000     0.00000000
     0.00000000     0.00000000     0.00000000
     0.00000000     0.00000000     0.00000000
     0.00000000     0.00000000     0.00000000
     0.00000000     0.00000000     0.00000000
     0.00000000     0.00000000     0.00000000
     0.00000000     0.00000000     0.00000000
     0.00000000     0.00000000     0.00000000
     0.00000000     0.00000000     0.00000000
     0.00000000     0.00000000     0.00000000
     0.00000000     0.00000000     0.00000000
     0.00000000     0.00000000     0.00000000
     0.00000000     0.00000000     0.00000000
     0.00000000     0.00000000     0.00000000
     0.00000000     0.00000000     0.00000000
     0.00000000     0.00000000     0.00000000
     0.00000000     0.00000000     0.00000000
     0.00000000     0.00000000     0.00000000
     0.00000000     0.00000000     0.00000000
     0.00000000     0.00000000     0.00000000
     0.00000000     0.00000000     0.00000000
     0.00000000     0.00000000     0.00000000
     0.00000000     0.00000000     0.00000000
     0.00000000     0.00000000     0.00000000
     0.00000000     0.00000000     0.00000000
     0.00000000     0.00000000     0.00000000
     0.00000000     0.00000000     0.00000000
     0.00000000     0.00000000     0.00000000
     0.00000000     0.00000000     0.00000000
     0.00000000     0.00000000     0.00000000
     0.00000000     0.00000000     0.00000000
     0.00000000     0.00000000     0.00000000
     0.00000000     0.00000000     0.00000000
     0.00000000     0.00000000     0.00000000
     0.00000000     0.00000000     0.00000000
     0.00000000     0.00000000     0.00000000
     0.00000000     0.00000000     0.00000000
     0.00000000     0.00000000     0.00000000
     0.00000000     0.00000000     0.00000000
     0.00000000     0.00000000     0.00000000
     0.00000000     0.00000000     0.00000000
     0.00000000     0.00000000     0.00000000
     0.00000000     0.00000000     0.00000000
     0.00000000     0.00000000     0.00000000
     0.00000000     0.00000000     0.00000000
     0.00000000     0.00000000     0.00000000
     0.00000000     0.00000000     0.00000000
     0.00000000     0.00000000     0.00000000
     0.00000000     0.00000000     0.00000000
     0.00000000     0.00000000     0.00000000
     0.00000000     0.00000000     0.00000000
     0.00000000     0.00000000     0.00000000
     0.00000000     0.00000000     0.00000000
     0.00000000     0.00000000     0.00000000
     0.00000000     0.00000000     0.00000000
     0.00000000     0.00000000     0.00000000
     0.00000000     0.00000000     0.00000000
     0.00000000     0.00000000     0.00000000
     0.00000000     0.00000000     0.00000000
     0.00000000     0.00000000     0.00000000
     0.00000000     0.00000000     0.00000000
     0.00000000     0.00000000     0.00000000
     0.00000000     0.00000000     0.00000000
     0.00000000     0.00000000     0.00000000
     0.00000000     0.00000000     0.00000000
     0.00000000     0.00000000     0.00000000
     0.00000000     0.00000000     0.00000000
     0.00000000     0.00000000     0.00000000
     0.00000000     0.00000000     0.00000000
     0.00000000     0.00000000     0.00000000
     0.00000000     0.00000000     0.00000000
     0.00000000     0.00000000     0.00000000
     0.00000000     0.00000000     0.00000000
     0.00000000     0.00000000     0.00000000
     0.00000000     0.00000000     0.00000000
     0.00000000     0.00000000     0.00000000
     0.00000000     0.00000000     0.00000000
     0.00000000     0.00000000     0.00000000
     0.00000000     0.00000000     0.00000000
     0.00000000     0.00000000     0.00000000
     0.00000000     0.00000000     0.00000000
     0.00000000     0.00000000     0.00000000
     0.00000000     0.00000000     0.00000000
     0.00000000     0.00000000     0.00000000
     0.00000000     0.00000000     0.00000000
     0.00000000     0.00000000     0.00000000
     0.00000000     0.00000000     0.00000000
     0.00000000     0.00000000     0.00000000
     0.00000000     0.00000000     0.00000000
     0.00000000     0.00000000     0.00000000
     0.00000000     0.00000000     0.00000000
     0.00000000     0.00000000     0.00000000
     0.00000000     0.00000000     0.00000000
     0.00000000     0.00000000     0.00000000
     0.00000000     0.00000000     0.00000000
     0.00000000     0.00000000     0.00000000
     0.00000000     0.00000000     0.00000000
     0.00000000     0.00000000     0.00000000
     0.00000000     0.00000000     0.00000000
     0.00000000     0.00000000     0.00000000
     0.00000000     0.00000000     0.00000000
     0.00000000     0.00000000     0.00000000
     0.00000000     0.00000000     0.00000000
     0.00000000     0.00000000     0.00000000
     0.00000000     0.00000000     0.00000000
     0.00000000     0.00000000     0.00000000
     0.00000000     0.00000000     0.00000000
     0.00000000     0.00000000     0.00000000
     0.00000000     0.00000000     0.00000000
     0.00000000     0.00000000     0.00000000
     0.00000000     0.00000000     0.00000000
     0.00000000     0.00000000     0.00000000
     0.00000000     0.00000000     0.00000000
     0.00000000     0.00000000     0.00000000
     0.00000000     0.00000000     0.00000000
     0.00000000     0.00000000     0.00000000
     0.00000000     0.00000000     0.00000000
     0.00000000     0.00000000     0.00000000
     0.00000000     0.00000000     0.00000000
     0.00000000     0.00000000     0.00000000
     0.00000000     0.00000000     0.00000000
     0.00000000     0.00000000     0.00000000
     0.00000000     0.00000000     0.00000000
     0.00000000     0.00000000     0.00000000
     0.00000000     0.00000000     0.00000000
     0.00000000     0.00000000     0.00000000
     0.00000000     0.00000000     0.00000000
     0.00000000     0.00000000     0.00000000
     0.00000000     0.00000000     0.00000000
     0.00000000     0.00000000     0.00000000
     0.00000000     0.00000000     0.00000000
     0.00000000     0.00000000     0.00000000
     0.00000000     0.00000000     0.00000000
     0.00000000     0.00000000     0.00000000
     0.00000000     0.00000000     0.00000000
     0.00000000     0.00000000     0.00000000
     0.00000000     0.00000000     0.00000000
     0.00000000     0.00000000     0.00000000
     0.00000000     0.00000000     0.00000000
     0.00000000     0.00000000     0.00000000
     0.00000000     0.00000000     0.00000000
     0.00000000     0.00000000     0.00000000
     0.00000000     0.00000000     0.00000000
     0.00000000     0.00000000     0.00000000
     0.00000000     0.00000000     0.00000000
     0.00000000     0.00000000     0.00000000
     0.00000000     0.00000000     0.00000000
     0.00000000     0.00000000     0.00000000
     0.00000000     0.00000000     0.00000000
     0.00000000     0.00000000     0.00000000
     0.00000000     0.00000000     0.00000000
     0.00000000     0.00000000     0.00000000
     0.00000000     0.00000000     0.00000000
     0.00000000     0.00000000     0.00000000
     0.00000000     0.00000000     0.00000000
     0.00000000     0.00000000     0.00000000
     0.00000000     0.00000000     0.00000000
     0.00000000     0.00000000     0.00000000
     0.00000000     0.00000000     0.00000000
     0.00000000     0.00000000     0.00000000
     0.00000000     0.00000000     0.00000000
     0.00000000     0.00000000     0.00000000
     0.00000000     0.00000000     0.00000000
     0.00000000     0.00000000     0.00000000
     0.00000000     0.00000000     0.00000000
     0.00000000     0.00000000     0.00000000
     0.00000000     0.00000000     0.00000000
     0.00000000     0.00000000     0.00000000
     0.00000000     0.00000000     0.00000000
     0.00000000     0.00000000     0.00000000
     0.00000000     0.00000000     0.00000000
     0.00000000     0.00000000     0.00000000
     0.00000000     0.00000000     0.00000000
     0.00000000     0.00000000     0.00000000
     0.00000000     0.00000000     0.00000000
     0.00000000     0.00000000     0.00000000
     0.00000000     0.00000000     0.00000000
     0.00000000     0.00000000     0.00000000
     0.00000000     0.00000000     0.00000000
     0.00000000     0.00000000     0.00000000
     0.00000000     0.00000000     0.00000000
     0.00000000     0.00000000     0.00000000
     0.00000000     0.00000000     0.00000000
     0.00000000     0.00000000     0.00000000
     0.00000000     0.00000000     0.00000000
     0.00000000     0.00000000     0.00000000
     0.00000000     0.00000000     0.00000000
     0.00000000     0.00000000     0.00000000
     0.00000000     0.00000000     0.00000000
     0.00000000     0.00000000     0.00000000
     0.00000000     0.00000000     0.00000000
     0.00000000     0.00000000     0.00000000
     0.00000000     0.00000000     0.00000000
     0.00000000     0.00000000     0.00000000
     0.00000000     0.00000000     0.00000000
     0.00000000     0.00000000     0.00000000
     0.00000000     0.00000000     0.00000000
     0.00000000     0.00000000     0.00000000
     0.00000000     0.00000000     0.00000000
     0.00000000     0.00000000     0.00000000
     0.00000000     0.00000000     0.00000000
     0.00000000     0.00000000     0.00000000
     0.00000000     0.00000000     0.00000000
     0.00000000     0.00000000     0.00000000
     0.00000000     0.00000000     0.00000000
     0.00000000     0.00000000     0.00000000
     0.00000000     0.00000000     0.00000000
     0.00000000     0.00000000     0.00000000
     0.00000000     0.00000000     0.00000000
     0.00000000     0.00000000     0.00000000
     0.00000000     0.00000000     0.00000000
     0.00000000     0.00000000     0.00000000
     0.00000000     0.00000000     0.00000000
     0.00000000     0.00000000     0.00000000
     0.00000000     0.00000000     0.00000000
     0.00000000     0.00000000     0.00000000
     0.00000000     0.00000000     0.00000000
     0.00000000     0.00000000     0.00000000
     0.00000000     0.00000000     0.00000000
     0.00000000     0.00000000     0.00000000
     0.00000000     0.00000000     0.00000000
     0.00000000     0.00000000     0.00000000
     0.00000000     0.00000000     0.00000000
     0.00000000     0.00000000     0.00000000
     0.00000000     0.00000000     0.00000000
     0.00000000     0.00000000     0.00000000
     0.00000000     0.00000000     0.00000000
     0.00000000     0.00000000     0.00000000
     0.00000000     0.00000000     0.00000000
     0.00000000     0.00000000     0.00000000
     0.00000000     0.00000000     0.00000000
     0.00000000     0.00000000     0.00000000
     0.00000000     0.00000000     0.00000000
     0.00000000     0.00000000     0.00000000
     0.00000000     0.00000000     0.00000000
     0.00000000     0.00000000     0.00000000
     0.00000000     0.00000000     0.00000000
     0.00000000     0.00000000     0.00000000
     0.00000000     0.00000000     0.00000000
     0.00000000     0.00000000     0.00000000
     0.00000000     0.00000000     0.00000000
     0.00000000     0.00000000     0.00000000
     0.00000000     0.00000000     0.00000000
     0.00000000     0.00000000     0.00000000
     0.00000000     0.00000000     0.00000000
     0.00000000     0.00000000     0.00000000
     0.00000000     0.00000000     0.00000000
     0.00000000     0.00000000     0.00000000
     0.00000000     0.00000000     0.00000000
     0.00000000     0.00000000     0.00000000
     0.00000000     0.00000000     0.00000000
     0.00000000     0.00000000     0.00000000
     0.00000000     0.00000000     0.00000000
     0.00000000     0.00000000     0.00000000
     0.00000000     0.00000000     0.00000000
     0.00000000     0.00000000     0.00000000
     0.00000000     0.00000000     0.00000000
     0.00000000     0.00000000     0.00000000
     0.00000000     0.00000000     0.00000000
     0.00000000     0.00000000     0.00000000
     0.00000000     0.00000000     0.00000000
     0.00000000     0.00000000     0.00000000
     0.00000000     0.00000000     0.00000000
     0.00000000     0.00000000     0.00000000
     0.00000000     0.00000000     0.00000000
     0.00000000     0.00000000     0.00000000
     0.00000000     0.00000000     0.00000000
     0.00000000     0.00000000     0.00000000
     0.00000000     0.00000000     0.00000000
     0.00000000     0.00000000     0.00000000
     0.00000000     0.00000000     0.00000000
     0.00000000     0.00000000     0.00000000
     0.00000000     0.00000000     0.00000000
     0.00000000     0.00000000     0.00000000
     0.00000000     0.00000000     0.00000000
     0.00000000     0.00000000     0.00000000
     0.00000000     0.00000000     0.00000000
     0.00000000     0.00000000     0.00000000
     0.00000000     0.00000000     0.00000000
     0.00000000     0.00000000     0.00000000
     0.00000000     0.00000000     0.00000000
     0.00000000     0.00000000     0.00000000
     0.00000000     0.00000000     0.00000000
     0.00000000     0.00000000     0.00000000
     0.00000000     0.00000000     0.00000000
     0.00000000     0.00000000     0.00000000
     0.00000000     0.00000000     0.00000000
     0.00000000     0.00000000     0.00000000
     0.00000000     0.00000000     0.00000000
     0.00000000     0.00000000     0.00000000
     0.00000000     0.00000000     0.00000000
     0.00000000     0.00000000     0.00000000
     0.00000000     0.00000000     0.00000000
     0.00000000     0.00000000     0.00000000
     0.00000000     0.00000000     0.00000000
     0.00000000     0.00000000     0.00000000
     0.00000000     0.00000000     0.00000000
     0.00000000     0.00000000     0.00000000
     0.00000000     0.00000000     0.00000000
     0.00000000     0.00000000     0.00000000
     0.00000000     0.00000000     0.00000000
     0.00000000     0.00000000     0.00000000
     0.00000000     0.00000000     0.00000000
     0.00000000     0.00000000     0.00000000
     0.00000000     0.00000000     0.00000000
     0.00000000     0.00000000     0.00000000
     0.00000000     0.00000000     0.00000000
     0.00000000     0.00000000     0.00000000
     0.00000000     0.00000000     0.00000000
     0.00000000     0.00000000     0.00000000
     0.00000000     0.00000000     0.00000000
     0.00000000     0.00000000     0.00000000
     0.00000000     0.00000000     0.00000000
     0.00000000     0.00000000     0.00000000
     0.00000000     0.00000000     0.00000000
     0.00000000     0.00000000     0.00000000
     0.00000000     0.00000000     0.00000000
     0.00000000     0.00000000     0.00000000
     0.00000000     0.00000000     0.00000000
     0.00146774    -0.00047561    -0.00211870
     0.00133560    -0.00043178    -0.00194436
     0.00113734    -0.00036618    -0.00174475
     0.00092043    -0.00030571    -0.00153787
     0.00157281    -0.00051068    -0.00228652
     0.00139746    -0.00045536    -0.00204755
     0.00117127    -0.00038180    -0.00180247
     0.00094270    -0.00031153    -0.00155148
     0.00164438    -0.00052930    -0.00233738
     0.00143525    -0.00046174    -0.00205962
     0.00119302    -0.00038639    -0.00177966
     0.00095101    -0.00031551    -0.00150812
     0.00166027    -0.00052961    -0.00224028
     0.00144106    -0.00045966    -0.00194385
     0.00118785    -0.00037957    -0.00165365
     0.00094220    -0.00030377    -0.00138038
     0.00000000     0.00000000     0.00000000
     0.00000000     0.00000000     0.00000000
     0.00000000     0.00000000     0.00000000
     0.00000000     0.00000000     0.00000000
     0.00000000     0.00000000     0.00000000
     0.00000000     0.00000000     0.00000000
     0.00000000     0.00000000     0.00000000
     0.00000000     0.00000000     0.00000000
     0.00000000     0.00000000     0.00000000
     0.00000000     0.00000000     0.00000000
     0.00000000     0.00000000     0.00000000
     0.00000000     0.00000000     0.00000000
     0.00000000     0.00000000     0.00000000
     0.00000000     0.00000000     0.00000000
     0.00000000     0.00000000     0.00000000
     0.00000000     0.00000000     0.00000000
     0.00000000     0.00000000     0.00000000
     0.00000000     0.00000000     0.00000000
     0.00000000     0.00000000     0.00000000
     0.00000000     0.00000000     0.00000000
     0.00000000     0.00000000     0.00000000
     0.00000000     0.00000000     0.00000000
     0.00000000     0.00000000     0.00000000
     0.00000000     0.00000000     0.00000000
     0.00000000     0.00000000     0.00000000
     0.00000000     0.00000000     0.00000000
     0.00000000     0.00000000     0.00000000
     0.00000000     0.00000000     0.00000000
     0.00000000     0.00000000     0.00000000
     0.00000000     0.00000000     0.00000000
     0.00000000     0.00000000     0.00000000
     0.00000000     0.00000000     0.00000000
     0.00000000     0.00000000     0.00000000
     0.00000000     0.00000000     0.00000000
     0.00000000     0.00000000     0.00000000
     0.00000000     0.00000000     0.00000000
     0.00000000     0.00000000     0.00000000
     0.00000000     0.00000000     0.00000000
     0.00000000     0.00000000     0.00000000
     0.00000000     0.00000000     0.00000000
     0.00000000     0.00000000     0.00000000
     0.00000000     0.00000000     0.00000000
     0.00000000     0.00000000     0.00000000
     0.00000000     0.00000000     0.00000000
     0.00000000     0.00000000     0.00000000
     0.00000000     0.00000000     0.00000000
     0.00000000     0.00000000     0.00000000
     0.00000000     0.00000000     0.00000000
     0.00000000     0.00000000     0.00000000
     0.00000000     0.00000000     0.00000000
     0.00000000     0.00000000     0.00000000
     0.00000000     0.00000000     0.00000000
     0.00000000     0.00000000     0.00000000
     0.00000000     0.00000000     0.00000000
     0.00000000     0.00000000     0.00000000
     0.00000000     0.00000000     0.00000000
     0.00000000     0.00000000     0.00000000
     0.00000000     0.00000000     0.00000000
     0.00000000     0.00000000     0.00000000
     0.00000000     0.00000000     0.00000000
     0.00000000     0.00000000     0.00000000
     0.00000000     0.00000000     0.00000000
     0.00000000     0.00000000     0.00000000
     0.00000000     0.00000000     0.00000000
     0.00000000     0.00000000     0.00000000
     0.00000000     0.00000000     0.00000000
     0.00000000     0.00000000     0.00000000
     0.00000000     0.00000000     0.00000000
     0.00000000     0.00000000     0.00000000
     0.00000000     0.00000000     0.00000000
     0.00000000     0.00000000     0.00000000
     0.00000000     0.00000000     0.00000000
     0.00000000     0.00000000     0.00000000
     0.00000000     0.00000000     0.00000000
     0.00000000     0.00000000     0.00000000
     0.00000000     0.00000000     0.00000000
     0.00000000     0.00000000     0.00000000
     0.00000000     0.00000000     0.00000000
     0.00000000     0.00000000     0.00000000
     0.00000000     0.00000000     0.00000000
     0.00000000     0.00000000     0.00000000
     0.00000000     0.00000000     0.00000000
     0.00000000     0.00000000     0.00000000
     0.00000000     0.00000000     0.00000000
     0.00000000     0.00000000     0.00000000
     0.00000000     0.00000000     0.00000000
     0.00000000     0.00000000     0.00000000
     0.00000000     0.00000000     0.00000000
     0.00000000     0.00000000     0.00000000
     0.00000000     0.00000000     0.00000000
     0.00000000     0.00000000     0.00000000
     0.00000000     0.00000000     0.00000000
     0.00000000     0.00000000     0.00000000
     0.00000000     0.00000000     0.00000000
     0.00000000     0.00000000     0.00000000
     0.00000000     0.00000000     0.00000000
     0.00000000     0.00000000     0.00000000
     0.00000000     0.00000000     0.00000000
     0.00000000     0.00000000     0.00000000
     0.00000000     0.00000000     0.00000000
     0.00000000     0.00000000     0.00000000
     0.00000000     0.00000000     0.00000000
     0.00000000     0.00000000     0.00000000
     0.00000000     0.00000000     0.00000000
     0.00000000     0.00000000     0.00000000
     0.00000000     0.00000000     0.00000000
     0.00000000     0.00000000     0.00000000
     0.00000000     0.00000000     0.00000000
     0.00000000     0.00000000     0.00000000
     0.00000000     0.00000000     0.00000000
     0.00000000     0.00000000     0.00000000
     0.00000000     0.00000000     0.00000000
     0.00000000     0.00000000     0.00000000
     0.00000000     0.00000000     0.00000000
     0.00000000     0.00000000     0.00000000
     0.00000000     0.00000000     0.00000000
     0.00000000     0.00000000     0.00000000
     0.00000000     0.00000000     0.00000000
     0.00000000     0.00000000     0.00000000
     0.00000000     0.00000000     0.00000000
     0.00000000     0.00000000     0.00000000
     0.00000000     0.00000000     0.00000000
     0.00000000     0.00000000     0.00000000
     0.00000000     0.00000000     0.00000000
     0.00000000     0.00000000     0.00000000
     0.00000000     0.00000000     0.00000000
     0.00000000     0.00000000     0.00000000
     0.00000000     0.00000000     0.00000000
     0.00000000     0.00000000     0.00000000
     0.00000000     0.00000000     0.00000000
     0.00000000     0.00000000     0.00000000
     0.00000000     0.00000000     0.00000000
     0.00000000     0.00000000     0.00000000
     0.00000000     0.00000000     0.00000000
     0.00000000     0.00000000     0.00000000
     0.00000000     0.00000000     0.00000000
     0.00000000     0.00000000     0.00000000
     0.00000000     0.00000000     0.00000000
     0.00000000     0.00000000     0.00000000
     0.00000000     0.00000000     0.00000000
     0.00000000     0.00000000     0.00000000
     0.00000000     0.00000000     0.00000000
     0.00000000     0.00000000     0.00000000
     0.00000000     0.00000000     0.00000000
     0.00000000     0.00000000     0.00000000
     0.00000000     0.00000000     0.00000000
     0.00000000     0.00000000     0.00000000
     0.00000000     0.00000000     0.00000000
     0.00000000     0.00000000     0.00000000
     0.00000000     0.00000000     0.00000000
     0.00000000     0.00000000     0.00000000
     0.00000000     0.00000000     0.00000000
     0.00000000     0.00000000     0.00000000
     0.00000000     0.00000000     0.00000000
     0.00000000     0.00000000     0.00000000
     0.00000000     0.00000000     0.00000000
     0.00000000     0.00000000     0.00000000
     0.00000000     0.00000000     0.00000000
     0.00000000     0.00000000     0.00000000
     0.00000000     0.00000000     0.00000000
     0.00000000     0.00000000     0.00000000
     0.00000000     0.00000000     0.00000000
     0.00000000     0.00000000     0.00000000
     0.00000000     0.00000000     0.00000000
     0.00000000     0.00000000     0.00000000
     0.00000000     0.00000000     0.00000000
     0.00000000     0.00000000     0.00000000
     0.00000000     0.00000000     0.00000000
     0.00000000     0.00000000     0.00000000
     0.00000000     0.00000000     0.00000000
     0.00000000     0.00000000     0.00000000
     0.00000000     0.00000000     0.00000000
     0.00000000     0.00000000     0.00000000
     0.00000000     0.00000000     0.00000000
     0.00000000     0.00000000     0.00000000
     0.00000000     0.00000000     0.00000000
     0.00000000     0.00000000     0.00000000
     0.00000000     0.00000000     0.00000000
     0.00000000     0.00000000     0.00000000
     0.00000000     0.00000000     0.00000000
     0.00000000     0.00000000     0.00000000
     0.00000000     0.00000000     0.00000000
     0.00000000     0.00000000     0.00000000
     0.00000000     0.00000000     0.00000000
     0.00000000     0.00000000     0.00000000
     0.00000000     0.00000000     0.00000000
     0.00000000     0.00000000     0.00000000
     0.00000000     0.00000000     0.00000000
     0.00000000     0.00000000     0.00000000
     0.00000000     0.00000000     0.00000000
     0.00000000     0.00000000     0.00000000
     0.00000000     0.00000000     0.00000000
     0.00000000     0.00000000     0.00000000
     0.00000000     0.00000000     0.00000000
     0.00000000     0.00000000     0.00000000
     0.00000000     0.00000000     0.00000000
     0.00000000     0.00000000     0.00000000
     0.00000000     0.00000000     0.00000000
     0.00000000     0.00000000     0.00000000
     0.00000000     0.00000000     0.00000000
     0.00000000     0.00000000     0.00000000
     0.00000000     0.00000000     0.00000000
     0.00000000     0.00000000     0.00000000
     0.00000000     0.00000000     0.00000000
     0.00000000     0.00000000     0.00000000
     0.00000000     0.00000000     0.00000000
     0.00000000     0.00000000     0.00000000
     0.00000000     0.00000000     0.00000000
     0.00000000     0.00000000     0.00000000
     0.00000000     0.00000000     0.00000000
     0.00000000     0.00000000     0.00000000
     0.00000000     0.00000000     0.00000000
     0.00000000     0.00000000     0.00000000
     0.00000000     0.00000000     0.00000000
     0.00000000     0.00000000     0.00000000
     0.00000000     0.00000000     0.00000000
     0.00000000     0.00000000     0.00000000
     0.00000000     0.00000000     0.00000000
     0.00000000     0.00000000     0.00000000
     0.00000000     0.00000000     0.00000000
     0.00000000     0.00000000     0.00000000
     0.00000000     0.00000000     0.00000000
     0.00000000     0.00000000     0.00000000
     0.00000000     0.00000000     0.00000000
     0.00000000     0.00000000     0.00000000
     0.00000000     0.00000000     0.00000000
     0.00000000     0.00000000     0.00000000
     0.00000000     0.00000000     0.00000000
     0.00000000     0.00000000     0.00000000
     0.00000000     0.00000000     0.00000000
     0.00000000     0.00000000     0.00000000
     0.00000000     0.00000000     0.00000000
     0.00000000     0.00000000     0.00000000
     0.00000000     0.00000000     0.00000000
     0.00000000     0.00000000     0.00000000
     0.00000000     0.00000000     0.00000000
     0.00000000     0.00000000     0.00000000
     0.00000000     0.00000000     0.00000000
     0.00000000     0.00000000     0.00000000
     0.00000000     0.00000000     0.00000000
     0.00000000     0.00000000     0.00000000
     0.00000000     0.00000000     0.00000000
     0.00000000     0.00000000     0.00000000
     0.00000000     0.00000000     0.00000000
     0.00000000     0.00000000     0.00000000
     0.00000000     0.00000000     0.00000000
     0.00000000     0.00000000     0.00000000
     0.00000000     0.00000000     0.00000000
     0.00000000     0.00000000     0.00000000
     0.00000000     0.00000000     0.00000000
     0.00000000     0.00000000     0.00000000
     0.00000000     0.00000000     0.00000000
     0.00000000     0.00000000     0.00000000
     0.00000000     0.00000000     0.00000000
     0.00000000     0.00000000     0.00000000
     0.00000000     0.00000000     0.00000000
     0.00000000     0.00000000     0.00000000
     0.00000000     0.00000000     0.00000000
     0.00000000     0.00000000     0.00000000
     0.00000000     0.00000000     0.00000000
     0.00000000     0.00000000     0.00000000
     0.00000000     0.00000000     0.00000000
     0.00000000     0.00000000     0.00000000
     0.00000000     0.00000000     0.00000000
     0.00000000     0.00000000     0.00000000
     0.00000000     0.00000000     0.00000000
     0.00000000     0.00000000     0.00000000
     0.00000000     0.00000000     0.00000000
     0.00000000     0.00000000     0.00000000
     0.00000000     0.00000000     0.00000000
     0.00000000     0.00000000     0.00000000
     0.00000000     0.00000000     0.00000000
     0.00000000     0.00000000     0.00000000
     0.00000000     0.00000000     0.00000000
     0.00000000     0.00000000     0.00000000
     0.00000000     0.00000000     0.00000000
     0.00000000     0.00000000     0.00000000
     0.00000000     0.00000000     0.00000000
     0.00000000     0.00000000     0.00000000
     0.00000000     0.00000000     0.00000000
     0.00000000     0.00000000     0.00000000
     0.00000000     0.00000000     0.00000000
     0.00000000     0.00000000     0.00000000
     0.00000000     0.00000000     0.00000000
     0.00000000     0.00000000     0.00000000
     0.00000000     0.00000000     0.00000000
     0.00000000     0.00000000     0.00000000
     0.00000000     0.00000000     0.00000000
     0.00000000     0.00000000     0.00000000
     0.00000000     0.00000000     0.00000000
     0.00000000     0.00000000     0.00000000
     0.00000000     0.00000000     0.00000000
     0.00000000     0.00000000     0.00000000
     0.00000000     0.00000000     0.00000000
     0.00000000     0.00000000     0.00000000
     0.00000000     0.00000000     0.00000000
     0.00000000     0.00000000     0.00000000
     0.00000000     0.00000000     0.00000000
     0.00000000     0.00000000     0.00000000
     0.00000000     0.00000000     0.00000000
     0.00000000     0.00000000     0.00000000
     0.00000000     0.00000000     0.00000000
     0.00000000     0.00000000     0.00000000
     0.00000000     0.00000000     0.00000000
     0.00000000     0.00000000     0.00000000
     0.00000000     0.00000000     0.00000000
     0.00000000     0.00000000     0.00000000
     0.00000000     0.00000000     0.00000000
     0.00000000     0.00000000     0.00000000
     0.00000000     0.00000000     0.00000000
     0.00000000     0.00000000     0.00000000
     0.00000000     0.00000000     0.00000000
     0.00000000     0.00000000     0.00000000
     0.00000000     0.00000000     0.00000000
     0.00000000     0.00000000     0.00000000
     0.00000000     0.00000000     0.00000000
     0.00000000     0.00000000     0.00000000
     0.00000000     0.00000000     0.00000000
     0.00000000     0.00000000     0.00000000
     0.00000000     0.00000000     0.00000000
     0.00000000     0.00000000     0.00000000
     0.00000000     0.00000000     0.00000000
     0.00000000     0.00000000     0.00000000
     0.00000000     0.00000000     0.00000000
     0.00000000     0.00000000     0.00000000
     0.00000000     0.00000000     0.00000000
     0.00000000     0.00000000     0.00000000
     0.00000000     0.00000000     0.00000000
     0.00000000     0.00000000     0.00000000
     0.00000000     0.00000000     0.00000000
     0.00000000     0.00000000     0.00000000
     0.00000000     0.00000000     0.00000000
     0.00000000     0.00000000     0.00000000
     0.00000000     0.00000000     0.00000000
     0.00000000     0.00000000     0.00000000
     0.00000000     0.00000000     0.00000000
     0.00000000     0.00000000     0.00000000
     0.00000000     0.00000000     0.00000000
     0.00000000     0.00000000     0.00000000
     0.00000000     0.00000000     0.00000000
     0.00000000     0.00000000     0.00000000
     0.00000000     0.00000000     0.00000000
     0.00000000     0.00000000     0.00000000
     0.00000000     0.00000000     0.00000000
     0.00000000     0.00000000     0.00000000
     0.00000000     0.00000000     0.00000000
     0.00000000     0.00000000     0.00000000
     0.00000000     0.00000000     0.00000000
     0.00000000     0.00000000     0.00000000
     0.00000000     0.00000000     0.00000000
     0.00000000     0.00000000     0.00000000
     0.00000000     0.00000000     0.00000000
     0.00000000     0.00000000     0.00000000
     0.00000000     0.00000000     0.00000000
     0.00000000     0.00000000     0.00000000
     0.00000000     0.00000000     0.00000000
     0.00000000     0.00000000     0.00000000
     0.00000000     0.00000000     0.00000000
     0.00000000     0.00000000     0.00000000
     0.00000000     0.00000000     0.00000000
     0.00000000     0.00000000     0.00000000
     0.00000000     0.00000000     0.00000000
     0.00000000     0.00000000     0.00000000
     0.00000000     0.00000000     0.00000000
     0.00000000     0.00000000     0.00000000
     0.00000000     0.00000000     0.00000000
     0.00000000     0.00000000     0.00000000
     0.00000000     0.00000000     0.00000000
     0.00000000     0.00000000     0.00000000
     0.00000000     0.00000000     0.00000000
     0.00000000     0.00000000     0.00000000
     0.00000000     0.00000000     0.00000000
     0.00000000     0.00000000     0.00000000
     0.00000000     0.00000000     0.00000000
     0.00000000     0.00000000     0.00000000
     0.00000000     0.00000000     0.00000000
     0.00000000     0.00000000     0.00000000
     0.00000000     0.00000000     0.00000000
     0.00000000     0.00000000     0.00000000
     0.00000000     0.00000000     0.00000000
     0.00000000     0.00000000     0.00000000
     0.00000000     0.00000000     0.00000000
     0.00000000     0.00000000     0.00000000
     0.00000000     0.00000000     0.00000000
     0.00000000     0.00000000     0.00000000
     0.00000000     0.00000000     0.00000000
     0.00000000     0.00000000     0.00000000
     0.00000000     0.00000000     0.00000000
     0.00000000     0.00000000     0.00000000
     0.00000000     0.00000000     0.00000000
     0.00000000     0.00000000     0.00000000
     0.00000000     0.00000000     0.00000000
     0.00000000     0.00000000     0.00000000
     0.00000000     0.00000000     0.00000000
     0.00000000     0.00000000     0.00000000
     0.00000000     0.00000000     0.00000000
     0.00000000     0.00000000     0.00000000
     0.00000000     0.00000000     0.00000000
     0.00000000     0.00000000     0.00000000
     0.00000000     0.00000000     0.00000000
     0.00000000     0.00000000     0.00000000
     0.00000000     0.00000000     0.00000000
     0.00000000     0.00000000     0.00000000
     0.00000000     0.00000000     0.00000000
     0.00000000     0.00000000     0.00000000
     0.00000000     0.00000000     0.00000000
     0.00000000     0.00000000     0.00000000
     0.00000000     0.00000000     0.00000000
     0.00000000     0.00000000     0.00000000
     0.00000000     0.00000000     0.00000000
     0.00000000     0.00000000     0.00000000
     0.00000000     0.00000000     0.00000000
     0.00000000     0.00000000     0.00000000
     0.00000000     0.00000000     0.00000000
     0.00000000     0.00000000     0.00000000
     0.00000000     0.00000000     0.00000000
     0.00000000     0.00000000     0.00000000
     0.00000000     0.00000000     0.00000000
     0.00000000     0.00000000     0.00000000
     0.00000000     0.00000000     0.00000000
     0.00000000     0.00000000     0.00000000
     0.00000000     0.00000000     0.00000000
     0.00000000     0.00000000     0.00000000
     0.00000000     0.00000000     0.00000000
     0.00000000     0.00000000     0.00000000
     0.00000000     0.00000000     0.00000000
     0.00000000     0.00000000     0.00000000
     0.00000000     0.00000000     0.00000000
     0.00000000     0.00000000     0.00000000
     0.00000000     0.00000000     0.00000000
     0.00000000     0.00000000     0.00000000
     0.00000000     0.00000000     0.00000000
     0.00000000     0.00000000     0.00000000
     0.00000000     0.00000000     0.00000000
     0.00000000     0.00000000     0.00000000
     0.00000000     0.00000000     0.00000000
     0.00000000     0.00000000     0.00000000
     0.00000000     0.00000000     0.00000000
     0.00000000     0.00000000     0.00000000
     0.00000000     0.00000000     0.00000000
     0.00000000     0.00000000     0.00000000
     0.00000000     0.00000000     0.00000000
     0.00000000     0.00000000     0.00000000
     0.00000000     0.00000000     0.00000000
     0.00000000     0.00000000     0.00000000
     0.00000000     0.00000000     0.00000000
     0.00000000     0.00000000     0.00000000
     0.00000000     0.00000000     0.00000000
     0.00000000     0.00000000     0.00000000
     0.00000000     0.00000000     0.00000000
     0.00000000     0.00000000     0.00000000
     0.00000000     0.00000000     0.00000000
     0.00000000     0.00000000     0.00000000
     0.00000000     0.00000000     0.00000000
     0.00000000     0.00000000     0.00000000
     0.00000000     0.00000000     0.00000000
     0.00000000     0.00000000     0.00000000
     0.00000000     0.00000000     0.00000000
     0.00000000     0.00000000     0.00000000
     0.00000000     0.00000000     0.00000000
     0.00000000     0.00000000     0.00000000
     0.00000000     0.00000000     0.00000000
     0.00000000     0.00000000     0.00000000
     0.00000000     0.00000000     0.00000000
     0.00000000     0.00000000     0.00000000
     0.00000000     0.00000000     0.00000000
     0.00000000     0.00000000     0.00000000
     0.00000000     0.00000000     0.00000000
     0.00000000     0.00000000     0.00000000
     0.00000000     0.00000000     0.00000000
     0.00000000     0.00000000     0.00000000
     0.00000000     0.00000000     0.00000000
     0.00000000     0.00000000     0.00000000
     0.00000000     0.00000000     0.00000000
     0.00000000     0.00000000     0.00000000
     0.00000000     0.00000000     0.00000000
     0.00000000     0.00000000     0.00000000
     0.00000000     0.00000000     0.00000000
     0.00000000     0.00000000     0.00000000
     0.00000000     0.00000000     0.00000000
     0.00000000     0.00000000     0.00000000
     0.00000000     0.00000000     0.00000000
     0.00000000     0.00000000     0.00000000
     0.00000000     0.00000000     0.00000000
     0.00000000     0.00000000     0.00000000
     0.00000000     0.00000000     0.00000000
     0.00000000     0.00000000     0.00000000
     0.00000000     0.00000000     0.00000000
     0.00000000     0.00000000     0.00000000
     0.00000000     0.00000000     0.00000000
     0.00000000     0.00000000     0.00000000
     0.00000000     0.00000000     0.00000000
     0.00000000     0.00000000     0.00000000
     0.00000000     0.00000000     0.00000000
     0.00000000     0.00000000     0.00000000
     0.00000000     0.00000000     0.00000000
     0.00000000     0.00000000     0.00000000
     0.00000000     0.00000000     0.00000000
     0.00000000     0.00000000     0.00000000
     0.00000000     0.00000000     0.00000000
     0.00000000     0.00000000     0.00000000
     0.00000000     0.00000000     0.00000000
     0.00000000     0.00000000     0.00000000
     0.00000000     0.00000000     0.00000000
     0.00000000     0.00000000     0.00000000
     0.00000000     0.00000000     0.00000000
     0.00000000     0.00000000     0.00000000
     0.00000000     0.00000000     0.00000000
     0.00000000     0.00000000     0.00000000
     0.00000000     0.00000000     0.00000000
     0.00000000     0.00000000     0.00000000
     0.00000000     0.00000000     0.00000000
     0.00000000     0.00000000     0.00000000
     0.00000000     0.00000000     0.00000000
     0.00000000     0.00000000     0.00000000
     0.00000000     0.00000000     0.00000000
     0.00000000     0.00000000     0.00000000
     0.00000000     0.00000000     0.00000000
     0.00000000     0.00000000     0.00000000
     0.00000000     0.00000000     0.00000000
     0.00000000     0.00000000     0.00000000
     0.00000000     0.00000000     0.00000000
     0.00000000     0.00000000     0.00000000
     0.00000000     0.00000000     0.00000000
     0.00000000     0.00000000     0.00000000
     0.00000000     0.00000000     0.00000000
     0.00000000     0.00000000     0.00000000
     0.00000000     0.00000000     0.00000000
     0.00000000     0.00000000     0.00000000
     0.00000000     0.00000000     0.00000000
     0.00000000     0.00000000     0.00000000
     0.00000000     0.00000000     0.00000000
     0.00000000     0.00000000     0.00000000
     0.00000000     0.00000000     0.00000000
     0.00000000     0.00000000     0.00000000
     0.00000000     0.00000000     0.00000000
     0.00000000     0.00000000     0.00000000
     0.00000000     0.00000000     0.00000000
     0.00000000     0.00000000     0.00000000
     0.00000000     0.00000000     0.00000000
     0.00000000     0.00000000     0.00000000
     0.00000000     0.00000000     0.00000000
     0.00000000     0.00000000     0.00000000
     0.00000000     0.00000000     0.00000000
     0.00000000     0.00000000     0.00000000
     0.00000000     0.00000000     0.00000000
     0.00000000     0.00000000     0.00000000
     0.00000000     0.00000000     0.00000000
     0.00000000     0.00000000     0.00000000
     0.00000000     0.00000000     0.00000000
     0.00000000     0.00000000     0.00000000
     0.00000000     0.00000000     0.00000000
     0.00000000     0.00000000     0.00000000
     0.00000000     0.00000000     0.00000000
     0.00000000     0.00000000     0.00000000
     0.00000000     0.00000000     0.00000000
     0.00000000     0.00000000     0.00000000
     0.00000000     0.00000000     0.00000000
     0.00000000     0.00000000     0.00000000
     0.00000000     0.00000000     0.00000000
     0.00000000     0.00000000     0.00000000
     0.00000000     0.00000000     0.00000000
     0.00000000     0.00000000     0.00000000
     0.00000000     0.00000000     0.00000000
     0.00000000     0.00000000     0.00000000
     0.00000000     0.00000000     0.00000000
     0.00000000     0.00000000     0.00000000
     0.00000000     0.00000000     0.00000000
     0.00000000     0.00000000     0.00000000
     0.00000000     0.00000000     0.00000000
     0.00000000     0.00000000     0.00000000
     0.00000000     0.00000000     0.00000000
     0.00000000     0.00000000     0.00000000
     0.00000000     0.00000000     0.00000000
     0.00000000     0.00000000     0.00000000
     0.00000000     0.00000000     0.00000000
     0.00000000     0.00000000     0.00000000
     0.00000000     0.00000000     0.00000000
     0.00000000     0.00000000     0.00000000
     0.00000000     0.00000000     0.00000000
     0.00000000     0.00000000     0.00000000
     0.00000000     0.00000000     0.00000000
     0.00000000     0.00000000     0.00000000
     0.00000000     0.00000000     0.00000000
     0.00000000     0.00000000     0.00000000
     0.00000000     0.00000000     0.00000000
     0.00000000     0.00000000     0.00000000
     0.00000000     0.00000000     0.00000000
     0.00000000     0.00000000     0.00000000
     0.00000000     0.00000000     0.00000000
     0.00000000     0.00000000     0.00000000
     0.00000000     0.00000000     0.00000000
     0.00000000     0.00000000     0.00000000
     0.00000000     0.00000000     0.00000000
     0.00000000     0.00000000     0.00000000
     0.00000000     0.00000000     0.00000000
     0.00000000     0.00000000     0.00000000
     0.00000000     0.00000000     0.00000000
     0.00000000     0.00000000     0.00000000
     0.00000000     0.00000000     0.00000000
     0.00000000     0.00000000     0.00000000
     0.00000000     0.00000000     0.00000000
     0.00000000     0.00000000     0.00000000
     0.00000000     0.00000000     0.00000000
     0.00000000     0.00000000     0.00000000
     0.00000000     0.00000000     0.00000000
     0.00000000     0.00000000     0.00000000
     0.00000000     0.00000000     0.00000000
     0.00000000     0.00000000     0.00000000
     0.00000000     0.00000000     0.00000000
     0.00000000     0.00000000     0.00000000
     0.00000000     0.00000000     0.00000000
     0.00000000     0.00000000     0.00000000
     0.00000000     0.00000000     0.00000000
     0.00000000     0.00000000     0.00000000
     0.00000000     0.00000000     0.00000000
     0.00000000     0.00000000     0.00000000
     0.00000000     0.00000000     0.00000000
     0.00000000     0.00000000     0.00000000
     0.00000000     0.00000000     0.00000000
     0.00000000     0.00000000     0.00000000
     0.00000000     0.00000000     0.00000000
     0.00000000     0.00000000     0.00000000
     0.00000000     0.00000000     0.00000000
     0.00000000     0.00000000     0.00000000
     0.00000000     0.00000000     0.00000000
     0.00000000     0.00000000     0.00000000
     0.00000000     0.00000000     0.00000000
     0.00000000     0.00000000     0.00000000
     0.00000000     0.00000000     0.00000000
     0.00000000     0.00000000     0.00000000
     0.00000000     0.00000000     0.00000000
     0.00000000     0.00000000     0.00000000
     0.00000000     0.00000000     0.00000000
     0.00000000     0.00000000     0.00000000
     0.00000000     0.00000000     0.00000000
     0.00000000     0.00000000     0.00000000
     0.00000000     0.00000000     0.00000000
     0.00000000     0.00000000     0.00000000
     0.00000000     0.00000000     0.00000000
     0.00000000     0.00000000     0.00000000
     0.00000000     0.00000000     0.00000000
     0.00000000     0.00000000     0.00000000
     0.00000000     0.00000000     0.00000000
     0.00000000     0.00000000     0.00000000
     0.00000000     0.00000000     0.00000000
     0.00000000     0.00000000     0.00000000
     0.00000000     0.00000000     0.00000000
     0.00000000     0.00000000     0.00000000
     0.00000000     0.00000000     0.00000000
     0.00000000     0.00000000     0.00000000
     0.00000000     0.00000000     0.00000000
     0.00000000     0.00000000     0.00000000
     0.00000000     0.00000000     0.00000000
     0.00000000     0.00000000     0.00000000
     0.00000000     0.00000000     0.00000000
     0.00000000     0.00000000     0.00000000
     0.00000000     0.00000000     0.00000000
     0.00000000     0.00000000     0.00000000
     0.00000000     0.00000000     0.00000000
     0.00000000     0.00000000     0.00000000
     0.00000000     0.00000000     0.00000000
     0.00000000     0.00000000     0.00000000
     0.00000000     0.00000000     0.00000000
     0.00000000     0.00000000     0.00000000
     0.00000000     0.00000000     0.00000000
     0.00000000     0.00000000     0.00000000
     0.00000000     0.00000000     0.00000000
     0.00000000     0.00000000     0.00000000
     0.00000000     0.00000000     0.00000000
     0.00000000     0.00000000     0.00000000
     0.00000000     0.00000000     0.00000000
     0.00000000     0.00000000     0.00000000
     0.00000000     0.00000000     0.00000000
     0.00000000     0.00000000     0.00000000
     0.00000000     0.00000000     0.00000000
     0.00000000     0.00000000     0.00000000
     0.00000000     0.00000000     0.00000000
     0.00000000     0.00000000     0.00000000
     0.00000000     0.00000000     0.00000000
     0.00000000     0.00000000     0.00000000
     0.00000000     0.00000000     0.00000000
     0.00000000     0.00000000     0.00000000
     0.00000000     0.00000000     0.00000000
     0.00000000     0.00000000     0.00000000
     0.00000000     0.00000000     0.00000000
     0.00000000     0.00000000     0.00000000
     0.00000000     0.00000000     0.00000000
     0.00000000     0.00000000     0.00000000
     0.00000000     0.00000000     0.00000000
     0.00000000     0.00000000     0.00000000
     0.00000000     0.00000000     0.00000000
     0.00000000     0.00000000     0.00000000
     0.00000000     0.00000000     0.00000000
     0.00000000     0.00000000     0.00000000
     0.00000000     0.00000000     0.00000000
     0.00000000     0.00000000     0.00000000
     0.00000000     0.00000000     0.00000000
     0.00000000     0.00000000     0.00000000
     0.00000000     0.00000000     0.00000000
     0.00000000     0.00000000     0.00000000
     0.00000000     0.00000000     0.00000000
     0.00000000     0.00000000     0.00000000
     0.00000000     0.00000000     0.00000000
     0.00000000     0.00000000     0.00000000
     0.00000000     0.00000000     0.00000000
     0.00000000     0.00000000     0.00000000
     0.00000000     0.00000000     0.00000000
     0.00000000     0.00000000     0.00000000
     0.00000000     0.00000000     0.00000000
     0.00000000     0.00000000     0.00000000
     0.00000000     0.00000000     0.00000000
     0.00000000     0.00000000     0.00000000
     0.00000000     0.00000000     0.00000000
     0.00000000     0.00000000     0.00000000
     0.00000000     0.00000000     0.00000000
     0.00000000     0.00000000     0.00000000
     0.00000000     0.00000000     0.00000000
     0.00000000     0.00000000     0.00000000
     0.00000000     0.00000000     0.00000000
     0.00000000     0.00000000     0.00000000
     0.00000000     0.00000000     0.00000000
     0.00000000     0.00000000     0.00000000
     0.00000000     0.00000000     0.00000000
     0.00000000     0.00000000     0.00000000
     0.00000000     0.00000000     0.00000000
     0.00000000     0.00000000     0.00000000
     0.00000000     0.00000000     0.00000000
     0.00000000     0.00000000     0.00000000
     0.00000000     0.00000000     0.00000000
     0.00000000     0.00000000     0.00000000
     0.00000000     0.00000000     0.00000000
     0.00000000     0.00000000     0.00000000
     0.00000000     0.00000000     0.00000000
     0.00000000     0.00000000     0.00000000
     0.00000000     0.00000000     0.00000000
     0.00000000     0.00000000     0.00000000
     0.00000000     0.00000000     0.00000000
     0.00000000     0.00000000     0.00000000
     0.00000000     0.00000000     0.00000000
     0.00000000     0.00000000     0.00000000
     0.00000000     0.00000000     0.00000000
     0.00000000     0.00000000     0.00000000
     0.00000000     0.00000000     0.00000000
     0.00000000     0.00000000     0.00000000
     0.00000000     0.00000000     0.00000000
     0.00000000     0.00000000     0.00000000
     0.00000000     0.00000000     0.00000000
     0.00000000     0.00000000     0.00000000
     0.00000000     0.00000000     0.00000000
     0.00000000     0.00000000     0.00000000
     0.00000000     0.00000000     0.00000000
     0.00000000     0.00000000     0.00000000
     0.00000000     0.00000000     0.00000000
     0.00000000     0.00000000     0.00000000
     0.00000000     0.00000000     0.00000000
     0.00000000     0.00000000     0.00000000
     0.00000000     0.00000000     0.00000000
     0.00000000     0.00000000     0.00000000
     0.00000000     0.00000000     0.00000000
     0.00000000     0.00000000     0.00000000
     0.00000000     0.00000000     0.00000000
     0.00000000     0.00000000     0.00000000
     0.00000000     0.00000000     0.00000000
     0.00000000     0.00000000     0.00000000
     0.00000000     0.00000000     0.00000000
     0.00000000     0.00000000     0.00000000
     0.00000000     0.00000000     0.00000000
     0.00000000     0.00000000     0.00000000
     0.00000000     0.00000000     0.00000000
     0.00000000     0.00000000     0.00000000
     0.00000000     0.00000000     0.00000000
     0.00000000     0.00000000     0.00000000
     0.00000000     0.00000000     0.00000000
     0.00000000     0.00000000     0.00000000
     0.00000000     0.00000000     0.00000000
     0.00000000     0.00000000     0.00000000
     0.00000000     0.00000000     0.00000000
     0.00000000     0.00000000     0.00000000
     0.00000000     0.00000000     0.00000000
     0.00000000     0.00000000     0.00000000
     0.00000000     0.00000000     0.00000000
     0.00000000     0.00000000     0.00000000
     0.00000000     0.00000000     0.00000000
     0.00000000     0.00000000     0.00000000
     0.00000000     0.00000000     0.00000000
     0.00000000     0.00000000     0.00000000
     0.00000000     0.00000000     0.00000000
     0.00000000     0.00000000     0.00000000
     0.00000000     0.00000000     0.00000000
     0.00000000     0.00000000     0.00000000
     0.00000000     0.00000000     0.00000000
     0.00000000     0.00000000     0.00000000
     0.00000000     0.00000000     0.00000000
     0.00000000     0.00000000     0.00000000
     0.00000000     0.00000000     0.00000000
     0.00000000     0.00000000     0.00000000
     0.00000000     0.00000000     0.00000000
     0.00000000     0.00000000     0.00000000
     0.00000000     0.00000000     0.00000000
     0.00000000     0.00000000     0.00000000
     0.00000000     0.00000000     0.00000000
     0.00000000     0.00000000     0.00000000
     0.00000000     0.00000000     0.00000000
     0.00000000     0.00000000     0.00000000
     0.00000000     0.00000000     0.00000000
     0.00000000     0.00000000     0.00000000
     0.00000000     0.00000000     0.00000000
     0.00000000     0.00000000     0.00000000
     0.00000000     0.00000000     0.00000000
     0.00000000     0.00000000     0.00000000
     0.00000000     0.00000000     0.00000000
     0.00000000     0.00000000     0.00000000
     0.00000000     0.00000000     0.00000000
     0.00000000     0.00000000     0.00000000
     0.00000000     0.00000000     0.00000000
     0.00000000     0.00000000     0.00000000
     0.00000000     0.00000000     0.00000000
     0.00000000     0.00000000     0.00000000
     0.00000000     0.00000000     0.00000000
     0.00000000     0.00000000     0.00000000
     0.00000000     0.00000000     0.00000000
     0.00000000     0.00000000     0.00000000
     0.00000000     0.00000000     0.00000000
     0.00000000     0.00000000     0.00000000
     0.00000000     0.00000000     0.00000000
     0.00000000     0.00000000     0.00000000
     0.00000000     0.00000000     0.00000000
     0.00000000     0.00000000     0.00000000
     0.00000000     0.00000000     0.00000000
     0.00000000     0.00000000     0.00000000
     0.00000000     0.00000000     0.00000000
     0.00000000     0.00000000     0.00000000
     0.00000000     0.00000000     0.00000000
     0.00000000     0.00000000     0.00000000
     0.00000000     0.00000000     0.00000000
     0.00000000     0.00000000     0.00000000
     0.00000000     0.00000000     0.00000000
     0.00000000     0.00000000     0.00000000
     0.00000000     0.00000000     0.00000000
     0.00000000     0.00000000     0.00000000
     0.00000000     0.00000000     0.00000000
     0.00000000     0.00000000     0.00000000
     0.00000000     0.00000000     0.00000000
     0.00000000     0.00000000     0.00000000
     0.00000000     0.00000000     0.00000000
     0.00000000     0.00000000     0.00000000
     0.00000000     0.00000000     0.00000000
     0.00000000     0.00000000     0.00000000
     0.00000000     0.00000000     0.00000000
     0.00000000     0.00000000     0.00000000
     0.00000000     0.00000000     0.00000000
     0.00000000     0.00000000     0.00000000
     0.00000000     0.00000000     0.00000000
     0.00000000     0.00000000     0.00000000
     0.00000000     0.00000000     0.00000000
     0.00000000     0.00000000     0.00000000
     0.00000000     0.00000000     0.00000000
     0.00000000     0.00000000     0.00000000
     0.00000000     0.00000000     0.00000000
     0.00000000     0.00000000     0.00000000
     0.00000000     0.00000000     0.00000000
     0.00000000     0.00000000     0.00000000
     0.00000000     0.00000000     0.00000000
     0.00000000     0.00000000     0.00000000
     0.00000000     0.00000000     0.00000000
     0.00000000     0.00000000     0.00000000
     0.00000000     0.00000000     0.00000000
     0.00000000     0.00000000     0.00000000
     0.00000000     0.00000000     0.00000000
     0.00000000     0.00000000     0.00000000
     0.00000000     0.00000000     0.00000000
     0.00000000     0.00000000     0.00000000
     0.00000000     0.00000000     0.00000000
     0.00000000     0.00000000     0.00000000
     0.00000000     0.00000000     0.00000000
     0.00000000     0.00000000     0.00000000
     0.00000000     0.00000000     0.00000000
     0.00000000     0.00000000     0.00000000
     0.00000000     0.00000000     0.00000000
     0.00000000     0.00000000     0.00000000
     0.00000000     0.00000000     0.00000000
     0.00000000     0.00000000     0.00000000
     0.00000000     0.00000000     0.00000000
     0.00000000     0.00000000     0.00000000
     0.00000000     0.00000000     0.00000000
     0.00000000     0.00000000     0.00000000
     0.00000000     0.00000000     0.00000000
     0.00000000     0.00000000     0.00000000
     0.00000000     0.00000000     0.00000000
     0.00000000     0.00000000     0.00000000
     0.00000000     0.00000000     0.00000000
     0.00000000     0.00000000     0.00000000
     0.00000000     0.00000000     0.00000000
     0.00000000     0.00000000     0.00000000
     0.00000000     0.00000000     0.00000000
     0.00000000     0.00000000     0.00000000
     0.00000000     0.00000000     0.00000000
     0.00000000     0.00000000     0.00000000
     0.00000000     0.00000000     0.00000000
     0.00000000     0.00000000     0.00000000
     0.00000000     0.00000000     0.00000000
     0.00000000     0.00000000     0.00000000
     0.00000000     0.00000000     0.00000000
     0.00000000     0.00000000     0.00000000
     0.00000000     0.00000000     0.00000000
     0.00000000     0.00000000     0.00000000
     0.00000000     0.00000000     0.00000000
     0.00000000     0.00000000     0.00000000
     0.00000000     0.00000000     0.00000000
     0.00000000     0.00000000     0.00000000
     0.00000000     0.00000000     0.00000000
     0.00000000     0.00000000     0.00000000
     0.00000000     0.00000000     0.00000000
     0.00000000     0.00000000     0.00000000
     0.00000000     0.00000000     0.00000000
     0.00000000     0.00000000     0.00000000
     0.00000000     0.00000000     0.00000000
     0.00000000     0.00000000     0.00000000
     0.00000000     0.00000000     0.00000000
     0.00000000     0.00000000     0.00000000
     0.00000000     0.00000000     0.00000000
     0.00000000     0.00000000     0.00000000
     0.00000000     0.00000000     0.00000000
     0.00000000     0.00000000     0.00000000
     0.00000000     0.00000000     0.00000000
     0.00000000     0.00000000     0.00000000
     0.00000000     0.00000000     0.00000000
     0.00000000     0.00000000     0.00000000
     0.00000000     0.00000000     0.00000000
     0.00000000     0.00000000     0.00000000
     0.00000000     0.00000000     0.00000000
     0.00000000     0.00000000     0.00000000
     0.00000000     0.00000000     0.00000000
     0.00000000     0.00000000     0.00000000
     0.00000000     0.00000000     0.00000000
     0.00000000     0.00000000     0.00000000
     0.00000000     0.00000000     0.00000000
     0.00000000     0.00000000     0.00000000
     0.00000000     0.00000000     0.00000000
     0.00000000     0.00000000     0.00000000
     0.00000000     0.00000000     0.00000000
     0.00000000     0.00000000     0.00000000
     0.00000000     0.00000000     0.00000000
     0.00000000     0.00000000     0.00000000
     0.00000000     0.00000000     0.00000000
     0.00000000     0.00000000     0.00000000
     0.00000000     0.00000000     0.00000000
     0.00000000     0.00000000     0.00000000
     0.00000000     0.00000000     0.00000000
     0.00000000     0.00000000     0.00000000
     0.00000000     0.00000000     0.00000000
     0.00000000     0.00000000     0.00000000
     0.00000000     0.00000000     0.00000000
     0.00000000     0.00000000     0.00000000
     0.00000000     0.00000000     0.00000000
     0.00000000     0.00000000     0.00000000
     0.00000000     0.00000000     0.00000000
     0.00000000     0.00000000     0.00000000
     0.00000000     0.00000000     0.00000000
     0.00000000     0.00000000     0.00000000
     0.00000000     0.00000000     0.00000000
     0.00000000     0.00000000     0.00000000
     0.00000000     0.00000000     0.00000000
     0.00000000     0.00000000     0.00000000
     0.00000000     0.00000000     0.00000000
     0.00000000     0.00000000     0.00000000
     0.00000000     0.00000000     0.00000000
     0.00000000     0.00000000     0.00000000
     0.00000000     0.00000000     0.00000000
     0.00000000     0.00000000     0.00000000
     0.00000000     0.00000000     0.00000000
     0.00000000     0.00000000     0.00000000
     0.00000000     0.00000000     0.00000000
     0.00000000     0.00000000     0.00000000
     0.00000000     0.00000000     0.00000000
     0.00000000     0.00000000     0.00000000
     0.00000000     0.00000000     0.00000000
     0.00000000     0.00000000     0.00000000
     0.00000000     0.00000000     0.00000000
     0.00000000     0.00000000     0.00000000
     0.00000000     0.00000000     0.00000000
     0.00000000     0.00000000     0.00000000
     0.00000000     0.00000000     0.00000000
     0.00000000     0.00000000     0.00000000
     0.00000000     0.00000000     0.00000000
     0.00000000     0.00000000     0.00000000
     0.00000000     0.00000000     0.00000000
     0.00000000     0.00000000     0.00000000
     0.00000000     0.00000000     0.00000000
     0.00000000     0.00000000     0.00000000
     0.00000000     0.00000000     0.00000000
     0.00000000     0.00000000     0.00000000
     0.00000000     0.00000000     0.00000000
     0.00000000     0.00000000     0.00000000
     0.00000000     0.00000000     0.00000000
     0.00000000     0.00000000     0.00000000
     0.00000000     0.00000000     0.00000000
     0.00000000     0.00000000     0.00000000
     0.00000000     0.00000000     0.00000000
     0.00000000     0.00000000     0.00000000
     0.00000000     0.00000000     0.00000000
     0.00000000     0.00000000     0.00000000
     0.00000000     0.00000000     0.00000000
     0.00000000     0.00000000     0.00000000
     0.00000000     0.00000000     0.00000000
     0.00000000     0.00000000     0.00000000
     0.00000000     0.00000000     0.00000000
     0.00000000     0.00000000     0.00000000
     0.00000000     0.00000000     0.00000000
     0.00000000     0.00000000     0.00000000
     0.00000000     0.00000000     0.00000000
     0.00000000     0.00000000     0.00000000
     0.00000000     0.00000000     0.00000000
     0.00000000     0.00000000     0.00000000
     0.00000000     0.00000000     0.00000000
     0.00000000     0.00000000     0.00000000
     0.00000000     0.00000000     0.00000000
     0.00000000     0.00000000     0.00000000
     0.00000000     0.00000000     0.00000000
     0.00000000     0.00000000     0.00000000
     0.00000000     0.00000000     0.00000000
     0.00000000     0.00000000     0.00000000
     0.00000000     0.00000000     0.00000000
     0.00000000     0.00000000     0.00000000
     0.00000000     0.00000000     0.00000000
     0.00000000     0.00000000     0.00000000
     0.00000000     0.00000000     0.00000000
     0.00000000     0.00000000     0.00000000
     0.00000000     0.00000000     0.00000000
     0.00000000     0.00000000     0.00000000
     0.00000000     0.00000000     0.00000000
     0.00000000     0.00000000     0.00000000
     0.00000000     0.00000000     0.00000000
     0.00000000     0.00000000     0.00000000
     0.00000000     0.00000000     0.00000000
     0.00000000     0.00000000     0.00000000
     0.00000000     0.00000000     0.00000000
     0.00000000     0.00000000     0.00000000
     0.00000000     0.00000000     0.00000000
     0.00000000     0.00000000     0.00000000
     0.00000000     0.00000000     0.00000000
     0.00000000     0.00000000     0.00000000
     0.00000000     0.00000000     0.00000000
     0.00000000     0.00000000     0.00000000
     0.00000000     0.00000000     0.00000000
     0.00000000     0.00000000     0.00000000
     0.00000000     0.00000000     0.00000000
     0.00000000     0.00000000     0.00000000
     0.00000000     0.00000000     0.00000000
     0.00000000     0.00000000     0.00000000
     0.00000000     0.00000000     0.00000000
     0.00000000     0.00000000     0.00000000
     0.00000000     0.00000000     0.00000000
     0.00000000     0.00000000     0.00000000
     0.00000000     0.00000000     0.00000000
     0.00000000     0.00000000     0.00000000
     0.00000000     0.00000000     0.00000000
     0.00000000     0.00000000     0.00000000
     0.00000000     0.00000000     0.00000000
     0.00000000     0.00000000     0.00000000
     0.00000000     0.00000000     0.00000000
     0.00000000     0.00000000     0.00000000
     0.00000000     0.00000000     0.00000000
     0.00000000     0.00000000     0.00000000
     0.00000000     0.00000000     0.00000000
     0.00000000     0.00000000     0.00000000
     0.00000000     0.00000000     0.00000000
     0.00000000     0.00000000     0.00000000
     0.00000000     0.00000000     0.00000000
     0.00000000     0.00000000     0.00000000
     0.00000000     0.00000000     0.00000000
     0.00000000     0.00000000     0.00000000
     0.00000000     0.00000000     0.00000000
     0.00000000     0.00000000     0.00000000
     0.00000000     0.00000000     0.00000000
     0.00000000     0.00000000     0.00000000
     0.00000000     0.00000000     0.00000000
     0.00000000     0.00000000     0.00000000
     0.00000000     0.00000000     0.00000000
     0.00000000     0.00000000     0.00000000
     0.00000000     0.00000000     0.00000000
     0.00000000     0.00000000     0.00000000
     0.00000000     0.00000000     0.00000000
     0.00000000     0.00000000     0.00000000
     0.00000000     0.00000000     0.00000000
     0.00000000     0.00000000     0.00000000
     0.00000000     0.00000000     0.00000000
     0.00000000     0.00000000     0.00000000
     0.00000000     0.00000000     0.00000000
     0.00000000     0.00000000     0.00000000
     0.00000000     0.00000000     0.00000000
     0.00000000     0.00000000     0.00000000
     0.00000000     0.00000000     0.00000000
     0.00000000     0.00000000     0.00000000
     0.00000000     0.00000000     0.00000000
     0.00000000     0.00000000     0.00000000
     0.00000000     0.00000000     0.00000000
     0.00000000     0.00000000     0.00000000
     0.00000000     0.00000000     0.00000000
     0.00000000     0.00000000     0.00000000
     0.00000000     0.00000000     0.00000000
     0.00000000     0.00000000     0.00000000
     0.00000000     0.00000000     0.00000000
     0.00000000     0.00000000     0.00000000
     0.00000000     0.00000000     0.00000000
     0.00000000     0.00000000     0.00000000
     0.00000000     0.00000000     0.00000000
     0.00000000     0.00000000     0.00000000
     0.00000000     0.00000000     0.00000000
     0.00000000     0.00000000     0.00000000
     0.00000000     0.00000000     0.00000000
     0.00000000     0.00000000     0.00000000
     0.00000000     0.00000000     0.00000000
     0.00000000     0.00000000     0.00000000
     0.00000000     0.00000000     0.00000000
     0.00000000     0.00000000     0.00000000
     0.00000000     0.00000000     0.00000000
     0.00000000     0.00000000     0.00000000
     0.00000000     0.00000000     0.00000000
     0.00000000     0.00000000     0.00000000
     0.00000000     0.00000000     0.00000000
     0.00000000     0.00000000     0.00000000
     0.00000000     0.00000000     0.00000000
     0.00000000     0.00000000     0.00000000
     0.00000000     0.00000000     0.00000000
     0.00000000     0.00000000     0.00000000
     0.00000000     0.00000000     0.00000000
     0.00000000     0.00000000     0.00000000
     0.00000000     0.00000000     0.00000000
     0.00000000     0.00000000     0.00000000
     0.00000000     0.00000000     0.00000000
     0.00000000     0.00000000     0.00000000
     0.00000000     0.00000000     0.00000000
     0.00000000     0.00000000     0.00000000
     0.00000000     0.00000000     0.00000000
     0.00000000     0.00000000     0.00000000
     0.00000000     0.00000000     0.00000000
     0.00000000     0.00000000     0.00000000
     0.00000000     0.00000000     0.00000000
     0.00000000     0.00000000     0.00000000
     0.00000000     0.00000000     0.00000000
     0.00000000     0.00000000     0.00000000
     0.00000000     0.00000000     0.00000000
     0.00000000     0.00000000     0.00000000
     0.00000000     0.00000000     0.00000000
     0.00000000     0.00000000     0.00000000
     0.00000000     0.00000000     0.00000000
     0.00000000     0.00000000     0.00000000
     0.00000000     0.00000000     0.00000000
     0.00000000     0.00000000     0.00000000
     0.00000000     0.00000000     0.00000000
     0.00000000     0.00000000     0.00000000
     0.00000000     0.00000000     0.00000000
     0.00000000     0.00000000     0.00000000
     0.00000000     0.00000000     0.00000000
     0.00000000     0.00000000     0.00000000
     0.00000000     0.00000000     0.00000000
     0.00000000     0.00000000     0.00000000
     0.00000000     0.00000000     0.00000000
     0.00000000     0.00000000     0.00000000
     0.00000000     0.00000000     0.00000000
     0.00000000     0.00000000     0.00000000
     0.00000000     0.00000000     0.00000000
     0.00000000     0.00000000     0.00000000
     0.00000000     0.00000000     0.00000000
     0.00000000     0.00000000     0.00000000
     0.00000000     0.00000000     0.00000000
     0.00000000     0.00000000     0.00000000
     0.00000000     0.00000000     0.00000000
     0.00000000     0.00000000     0.00000000
     0.00000000     0.00000000     0.00000000
     0.00000000     0.00000000     0.00000000
     0.00000000     0.00000000     0.00000000
     0.00000000     0.00000000     0.00000000
     0.00000000     0.00000000     0.00000000
     0.00000000     0.00000000     0.00000000
     0.00000000     0.00000000     0.00000000
     0.00000000     0.00000000     0.00000000
     0.00000000     0.00000000     0.00000000
     0.00000000     0.00000000     0.00000000
     0.00000000     0.00000000     0.00000000
     0.00000000     0.00000000     0.00000000
     0.00000000     0.00000000     0.00000000
     0.00000000     0.00000000     0.00000000
     0.00000000     0.00000000     0.00000000
     0.00000000     0.00000000     0.00000000
     0.00000000     0.00000000     0.00000000
     0.00000000     0.00000000     0.00000000
     0.00000000     0.00000000     0.00000000
     0.00000000     0.00000000     0.00000000
     0.00000000     0.00000000     0.00000000
     0.00000000     0.00000000     0.00000000
     0.00000000     0.00000000     0.00000000
     0.00000000     0.00000000     0.00000000
     0.00000000     0.00000000     0.00000000
     0.00000000     0.00000000     0.00000000
     0.00000000     0.00000000     0.00000000
     0.00000000     0.00000000     0.00000000
     0.00000000     0.00000000     0.00000000
     0.00000000     0.00000000     0.00000000
     0.00000000     0.00000000     0.00000000
     0.00000000     0.00000000     0.00000000
     0.00000000     0.00000000     0.00000000
     0.00000000     0.00000000     0.00000000
     0.00000000     0.00000000     0.00000000
     0.00000000     0.00000000     0.00000000
     0.00000000     0.00000000     0.00000000
     0.00000000     0.00000000     0.00000000
     0.00000000     0.00000000     0.00000000
     0.00000000     0.00000000     0.00000000
     0.00000000     0.00000000     0.00000000
     0.00000000     0.00000000     0.00000000
     0.00000000     0.00000000     0.00000000
     0.00000000     0.00000000     0.00000000
     0.00000000     0.00000000     0.00000000
     0.00000000     0.00000000     0.00000000
     0.00000000     0.00000000     0.00000000
     0.00000000     0.00000000     0.00000000
     0.00000000     0.00000000     0.00000000
     0.00000000     0.00000000     0.00000000
     0.00000000     0.00000000     0.00000000
     0.00000000     0.00000000     0.00000000
     0.00000000     0.00000000     0.00000000
     0.00000000     0.00000000     0.00000000
     0.00000000     0.00000000     0.00000000
     0.00000000     0.00000000     0.00000000
     0.00000000     0.00000000     0.00000000
     0.00000000     0.00000000     0.00000000
     0.00000000     0.00000000     0.00000000
     0.00000000     0.00000000     0.00000000
     0.00000000     0.00000000     0.00000000
     0.00000000     0.00000000     0.00000000
     0.00000000     0.00000000     0.00000000
     0.00000000     0.00000000     0.00000000
     0.00000000     0.00000000     0.00000000
     0.00000000     0.00000000     0.00000000
     0.00000000     0.00000000     0.00000000
     0.00000000     0.00000000     0.00000000
     0.00000000     0.00000000     0.00000000
     0.00000000     0.00000000     0.00000000
     0.00000000     0.00000000     0.00000000
     0.00000000     0.00000000     0.00000000
     0.00000000     0.00000000     0.00000000
     0.00000000     0.00000000     0.00000000
     0.00000000     0.00000000     0.00000000
     0.00000000     0.00000000     0.00000000
     0.00000000     0.00000000     0.00000000
     0.00000000     0.00000000     0.00000000
     0.00000000     0.00000000     0.00000000
     0.00000000     0.00000000     0.00000000
     0.00000000     0.00000000     0.00000000
     0.00000000     0.00000000     0.00000000
     0.00000000     0.00000000     0.00000000
     0.00000000     0.00000000     0.00000000
     0.00000000     0.00000000     0.00000000
     0.00000000     0.00000000     0.00000000
     0.00000000     0.00000000     0.00000000
     0.00000000     0.00000000     0.00000000
     0.00000000     0.00000000     0.00000000
     0.00000000     0.00000000     0.00000000
     0.00000000     0.00000000     0.00000000
     0.00000000     0.00000000     0.00000000
     0.00000000     0.00000000     0.00000000
     0.00000000     0.00000000     0.00000000
     0.00000000     0.00000000     0.00000000
     0.00000000     0.00000000     0.00000000
     0.00000000     0.00000000     0.00000000
     0.00000000     0.00000000     0.00000000
     0.00000000     0.00000000     0.00000000
     0.00000000     0.00000000     0.00000000
     0.00000000     0.00000000     0.00000000
     0.00000000     0.00000000     0.00000000
     0.00000000     0.00000000     0.00000000
     0.00000000     0.00000000     0.00000000
     0.00000000     0.00000000     0.00000000
     0.00000000     0.00000000     0.00000000
     0.00000000     0.00000000     0.00000000
     0.00000000     0.00000000     0.00000000
     0.00000000     0.00000000     0.00000000
     0.00000000     0.00000000     0.00000000
     0.00000000     0.00000000     0.00000000
     0.00000000     0.00000000     0.00000000
     0.00000000     0.00000000     0.00000000
     0.00000000     0.00000000     0.00000000
     0.00000000     0.00000000     0.00000000
     0.00000000     0.00000000     0.00000000
     0.00000000     0.00000000     0.00000000
     0.00000000     0.00000000     0.00000000
     0.00000000     0.00000000     0.00000000
     0.00000000     0.00000000     0.00000000
     0.00000000     0.00000000     0.00000000
     0.00000000     0.00000000     0.00000000
     0.00000000     0.00000000     0.00000000
     0.00000000     0.00000000     0.00000000
     0.00000000     0.00000000     0.00000000
     0.00000000     0.00000000     0.00000000
     0.00000000     0.00000000     0.00000000
     0.00000000     0.00000000     0.00000000
     0.00000000     0.00000000     0.00000000
     0.00000000     0.00000000     0.00000000
     0.00000000     0.00000000     0.00000000
     0.00000000     0.00000000     0.00000000
     0.00000000     0.00000000     0.00000000
     0.00000000     0.00000000     0.00000000
     0.00000000     0.00000000     0.00000000
     0.00000000     0.00000000     0.00000000
     0.00000000     0.00000000     0.00000000
     0.00000000     0.00000000     0.00000000
     0.00000000     0.00000000     0.00000000
     0.00000000     0.00000000     0.00000000
     0.00000000     0.00000000     0.00000000
     0.00000000     0.00000000     0.00000000
     0.00000000     0.00000000     0.00000000
     0.00000000     0.00000000     0.00000000
     0.00000000     0.00000000     0.00000000
     0.00000000     0.00000000     0.00000000
     0.00000000     0.00000000     0.00000000
     0.00000000     0.00000000     0.00000000
     0.00000000     0.00000000     0.00000000
     0.00000000     0.00000000     0.00000000
     0.00000000     0.00000000     0.00000000
     0.00000000     0.00000000     0.00000000
     0.00000000     0.00000000     0.00000000
     0.00000000     0.00000000     0.00000000
     0.00000000     0.00000000     0.00000000
     0.00000000     0.00000000     0.00000000
     0.00000000     0.00000000     0.00000000
     0.00000000     0.00000000     0.00000000
     0.00000000     0.00000000     0.00000000
     0.00000000     0.00000000     0.00000000
     0.00000000     0.00000000     0.00000000
     0.00000000     0.00000000     0.00000000
     0.00000000     0.00000000     0.00000000
     0.00000000     0.00000000     0.00000000
     0.00000000     0.00000000     0.00000000
     0.00000000     0.00000000     0.00000000
     0.00000000     0.00000000     0.00000000
     0.00000000     0.00000000     0.00000000
     0.00000000     0.00000000     0.00000000
     0.00000000     0.00000000     0.00000000
     0.00000000     0.00000000     0.00000000
     0.00000000     0.00000000     0.00000000
     0.00000000     0.00000000     0.00000000
     0.00000000     0.00000000     0.00000000
     0.00000000     0.00000000     0.00000000
     0.00000000     0.00000000     0.00000000
     0.00000000     0.00000000     0.00000000
     0.00000000     0.00000000     0.00000000
     0.00000000     0.00000000     0.00000000
     0.00000000     0.00000000     0.00000000
     0.00000000     0.00000000     0.00000000
     0.00000000     0.00000000     0.00000000
     0.00000000     0.00000000     0.00000000
     0.00000000     0.00000000     0.00000000
     0.00000000     0.00000000     0.00000000
     0.00000000     0.00000000     0.00000000
     0.00000000     0.00000000     0.00000000
     0.00000000     0.00000000     0.00000000
     0.00000000     0.00000000     0.00000000
     0.00000000     0.00000000     0.00000000
     0.00000000     0.00000000     0.00000000
     0.00000000     0.00000000     0.00000000
     0.00000000     0.00000000     0.00000000
     0.00000000     0.00000000     0.00000000
     0.00000000     0.00000000     0.00000000
     0.00000000     0.00000000     0.00000000
     0.00000000     0.00000000     0.00000000
     0.00000000     0.00000000     0.00000000
     0.00000000     0.00000000     0.00000000
     0.00000000     0.00000000     0.00000000
     0.00000000     0.00000000     0.00000000
     0.00000000     0.00000000     0.00000000
     0.00000000     0.00000000     0.00000000
     0.00000000     0.00000000     0.00000000
     0.00000000     0.00000000     0.00000000
     0.00000000     0.00000000     0.00000000
     0.00000000     0.00000000     0.00000000
     0.00000000     0.00000000     0.00000000
     0.00000000     0.00000000     0.00000000
     0.00000000     0.00000000     0.00000000
     0.00000000     0.00000000     0.00000000
     0.00000000     0.00000000     0.00000000
     0.00000000     0.00000000     0.00000000
     0.00000000     0.00000000     0.00000000
     0.00000000     0.00000000     0.00000000
     0.00000000     0.00000000     0.00000000
     0.00000000     0.00000000     0.00000000
     0.00000000     0.00000000     0.00000000
     0.00000000     0.00000000     0.00000000
     0.00000000     0.00000000     0.00000000
     0.00000000     0.00000000     0.00000000
     0.00000000     0.00000000     0.00000000
     0.00000000     0.00000000     0.00000000
     0.00000000     0.00000000     0.00000000
     0.00000000     0.00000000     0.00000000
     0.00000000     0.00000000     0.00000000
     0.00000000     0.00000000     0.00000000
     0.00000000     0.00000000     0.00000000
     0.00000000     0.00000000     0.00000000
     0.00000000     0.00000000     0.00000000
     0.00000000     0.00000000     0.00000000
     0.00000000     0.00000000     0.00000000
     0.00000000     0.00000000     0.00000000
     0.00000000     0.00000000     0.00000000
     0.00000000     0.00000000     0.00000000
     0.00000000     0.00000000     0.00000000
     0.00000000     0.00000000     0.00000000
     0.00000000     0.00000000     0.00000000
     0.00000000     0.00000000     0.00000000
     0.00000000     0.00000000     0.00000000
     0.00000000     0.00000000     0.00000000
     0.00000000     0.00000000     0.00000000
     0.00000000     0.00000000     0.00000000
     0.00000000     0.00000000     0.00000000
     0.00000000     0.00000000     0.00000000
     0.00000000     0.00000000     0.00000000
     0.00000000     0.00000000     0.00000000
     0.00000000     0.00000000     0.00000000
     0.00000000     0.00000000     0.00000000
     0.00000000     0.00000000     0.00000000
     0.00000000     0.00000000     0.00000000
     0.00000000     0.00000000     0.00000000
     0.00000000     0.00000000     0.00000000
     0.00000000     0.00000000     0.00000000
     0.00000000     0.00000000     0.00000000
     0.00000000     0.00000000     0.00000000
     0.00000000     0.00000000     0.00000000
     0.00000000     0.00000000     0.00000000
     0.00000000     0.00000000     0.00000000
     0.00000000     0.00000000     0.00000000
     0.00000000     0.00000000     0.00000000
     0.00000000     0.00000000     0.00000000
     0.00000000     0.00000000     0.00000000
     0.00000000     0.00000000     0.00000000
     0.00000000     0.00000000     0.00000000
     0.00000000     0.00000000     0.00000000
     0.00000000     0.00000000     0.00000000
     0.00000000     0.00000000     0.00000000
     0.00000000     0.00000000     0.00000000
     0.00000000     0.00000000     0.00000000
     0.00000000     0.00000000     0.00000000
     0.00000000     0.00000000     0.00000000
     0.00000000     0.00000000     0.00000000
     0.00000000     0.00000000     0.00000000
     0.00000000     0.00000000     0.00000000
     0.00000000     0.00000000     0.00000000
     0.00000000     0.00000000     0.00000000
     0.00000000     0.00000000     0.00000000
     0.00000000     0.00000000     0.00000000
     0.00000000     0.00000000     0.00000000
     0.00000000     0.00000000     0.00000000
     0.00000000     0.00000000     0.00000000
     0.00000000     0.00000000     0.00000000
     0.00000000     0.00000000     0.00000000
     0.00000000     0.00000000     0.00000000
     0.00000000     0.00000000     0.00000000
     0.00000000     0.00000000     0.00000000
     0.00000000     0.00000000     0.00000000
     0.00000000     0.00000000     0.00000000
     0.00000000     0.00000000     0.00000000
     0.00000000     0.00000000     0.00000000
     0.00000000     0.00000000     0.00000000
     0.00000000     0.00000000     0.00000000
     0.00000000     0.00000000     0.00000000
     0.00000000     0.00000000     0.00000000
     0.00000000     0.00000000     0.00000000
     0.00000000     0.00000000     0.00000000
     0.00000000     0.00000000     0.00000000
     0.00000000     0.00000000     0.00000000
     0.00000000     0.00000000     0.00000000
     0.00000000     0.00000000     0.00000000
     0.00000000     0.00000000     0.00000000
     0.00000000     0.00000000     0.00000000
     0.00000000     0.00000000     0.00000000
     0.00000000     0.00000000     0.00000000
     0.00000000     0.00000000     0.00000000
     0.00000000     0.00000000     0.00000000
     0.00000000     0.00000000     0.00000000
     0.00000000     0.00000000     0.00000000
     0.00000000     0.00000000     0.00000000
     0.00000000     0.00000000     0.00000000
     0.00000000     0.00000000     0.00000000
     0.00000000     0.00000000     0.00000000
     0.00000000     0.00000000     0.00000000
     0.00000000     0.00000000     0.00000000
     0.00000000     0.00000000     0.00000000
     0.00000000     0.00000000     0.00000000
     0.00000000     0.00000000     0.00000000
     0.00000000     0.00000000     0.00000000
     0.00000000     0.00000000     0.00000000
     0.00000000     0.00000000     0.00000000
     0.00000000     0.00000000     0.00000000
     0.00000000     0.00000000     0.00000000
     0.00000000     0.00000000     0.00000000
     0.00000000     0.00000000     0.00000000
     0.00000000     0.00000000     0.00000000
     0.00000000     0.00000000     0.00000000
     0.00000000     0.00000000     0.00000000
     0.00000000     0.00000000     0.00000000
     0.00000000     0.00000000     0.00000000
     0.00000000     0.00000000     0.00000000
     0.00000000     0.00000000     0.00000000
     0.00000000     0.00000000     0.00000000
     0.00000000     0.00000000     0.00000000
     0.00000000     0.00000000     0.00000000
     0.00000000     0.00000000     0.00000000
     0.00000000     0.00000000     0.00000000
     0.00000000     0.00000000     0.00000000
     0.00000000     0.00000000     0.00000000
     0.00000000     0.00000000     0.00000000
     0.00000000     0.00000000     0.00000000
     0.00000000     0.00000000     0.00000000
     0.00000000     0.00000000     0.00000000
     0.00000000     0.00000000     0.00000000
     0.00000000     0.00000000     0.00000000
     0.00000000     0.00000000     0.00000000
     0.00000000     0.00000000     0.00000000
     0.00000000     0.00000000     0.00000000
     0.00000000     0.00000000     0.00000000
     0.00000000     0.00000000     0.00000000
     0.00000000     0.00000000     0.00000000
     0.00000000     0.00000000     0.00000000
     0.00000000     0.00000000     0.00000000
     0.00000000     0.00000000     0.00000000
     0.00000000     0.00000000     0.00000000
     0.00000000     0.00000000     0.00000000
     0.00000000     0.00000000     0.00000000
     0.00000000     0.00000000     0.00000000
     0.00000000     0.00000000     0.00000000
     0.00000000     0.00000000     0.00000000
     0.00000000     0.00000000     0.00000000
     0.00000000     0.00000000     0.00000000
     0.00000000     0.00000000     0.00000000
     0.00000000     0.00000000     0.00000000
     0.00000000     0.00000000     0.00000000
     0.00000000     0.00000000     0.00000000
     0.00000000     0.00000000     0.00000000
     0.00000000     0.00000000     0.00000000
     0.00000000     0.00000000     0.00000000
     0.00000000     0.00000000     0.00000000
     0.00000000     0.00000000     0.00000000
     0.00000000     0.00000000     0.00000000
     0.00000000     0.00000000     0.00000000
     0.00000000     0.00000000     0.00000000
     0.00000000     0.00000000     0.00000000
     0.00000000     0.00000000     0.00000000
     0.00000000     0.00000000     0.00000000
     0.00000000     0.00000000     0.00000000
     0.00000000     0.00000000     0.00000000
     0.00000000     0.00000000     0.00000000
     0.00000000     0.00000000     0.00000000
     0.00000000     0.00000000     0.00000000
     0.00000000     0.00000000     0.00000000
     0.00000000     0.00000000     0.00000000
     0.00000000     0.00000000     0.00000000
     0.00000000     0.00000000     0.00000000
     0.00000000     0.00000000     0.00000000
     0.00000000     0.00000000     0.00000000
     0.00000000     0.00000000     0.00000000
     0.00000000     0.00000000     0.00000000
     0.00000000     0.00000000     0.00000000
     0.00000000     0.00000000     0.00000000
     0.00000000     0.00000000     0.00000000
     0.00000000     0.00000000     0.00000000
     0.00000000     0.00000000     0.00000000
     0.00000000     0.00000000     0.00000000
     0.00000000     0.00000000     0.00000000
     0.00000000     0.00000000     0.00000000
     0.00000000     0.00000000     0.00000000
     0.00000000     0.00000000     0.00000000
     0.00000000     0.00000000     0.00000000
     0.00000000     0.00000000     0.00000000
     0.00000000     0.00000000     0.00000000
     0.00000000     0.00000000     0.00000000
     0.00000000     0.00000000     0.00000000
     0.00000000     0.00000000     0.00000000
     0.00000000     0.00000000     0.00000000
     0.00000000     0.00000000     0.00000000
     0.00000000     0.00000000     0.00000000
     0.00000000     0.00000000     0.00000000
     0.00000000     0.00000000     0.00000000
     0.00000000     0.00000000     0.00000000
     0.00000000     0.00000000     0.00000000
     0.00000000     0.00000000     0.00000000
     0.00000000     0.00000000     0.00000000
     0.00000000     0.00000000     0.00000000
     0.00000000     0.00000000     0.00000000
     0.00000000     0.00000000     0.00000000
     0.00000000     0.00000000     0.00000000
     0.00000000     0.00000000     0.00000000
     0.00000000     0.00000000     0.00000000
     0.00000000     0.00000000     0.00000000
     0.00000000     0.00000000     0.00000000
     0.00000000     0.00000000     0.00000000
     0.00000000     0.00000000     0.00000000
     0.00000000     0.00000000     0.00000000
     0.00000000     0.00000000     0.00000000
     0.00000000     0.00000000     0.00000000
     0.00000000     0.00000000     0.00000000
     0.00000000     0.00000000     0.00000000
     0.00000000     0.00000000     0.00000000
     0.00000000     0.00000000     0.00000000
     0.00000000     0.00000000     0.00000000
     0.00000000     0.00000000     0.00000000
     0.00000000     0.00000000     0.00000000
     0.00000000     0.00000000     0.00000000
     0.00000000     0.00000000     0.00000000
     0.00000000     0.00000000     0.00000000
     0.00000000     0.00000000     0.00000000
     0.00000000     0.00000000     0.00000000
     0.00000000     0.00000000     0.00000000
     0.00000000     0.00000000     0.00000000
     0.00000000     0.00000000     0.00000000
     0.00000000     0.00000000     0.00000000
     0.00000000     0.00000000     0.00000000
     0.00000000     0.00000000     0.00000000
     0.00000000     0.00000000     0.00000000
     0.00000000     0.00000000     0.00000000
     0.00000000     0.00000000     0.00000000
     0.00000000     0.00000000     0.00000000
     0.00000000     0.00000000     0.00000000
     0.00000000     0.00000000     0.00000000
     0.00000000     0.00000000     0.00000000
     0.00000000     0.00000000     0.00000000
     0.00000000     0.00000000     0.00000000
     0.00000000     0.00000000     0.00000000
     0.00000000     0.00000000     0.00000000
     0.00000000     0.00000000     0.00000000
     0.00000000     0.00000000     0.00000000
     0.00000000     0.00000000     0.00000000
     0.00000000     0.00000000     0.00000000
     0.00000000     0.00000000     0.00000000
     0.00000000     0.00000000     0.00000000
     0.00000000     0.00000000     0.00000000
     0.00000000     0.00000000     0.00000000
     0.00000000     0.00000000     0.00000000
     0.00000000     0.00000000     0.00000000
     0.00000000     0.00000000     0.00000000
     0.00000000     0.00000000     0.00000000
     0.00000000     0.00000000     0.00000000
     0.00000000     0.00000000     0.00000000
     0.00000000     0.00000000     0.00000000
     0.00000000     0.00000000     0.00000000
     0.00000000     0.00000000     0.00000000
     0.00000000     0.00000000     0.00000000
     0.00000000     0.00000000     0.00000000
     0.00000000     0.00000000     0.00000000
     0.00000000     0.00000000     0.00000000
     0.00000000     0.00000000     0.00000000
     0.00000000     0.00000000     0.00000000
     0.00000000     0.00000000     0.00000000
     0.00000000     0.00000000     0.00000000
     0.00000000     0.00000000     0.00000000
     0.00000000     0.00000000     0.00000000
     0.00000000     0.00000000     0.00000000
     0.00000000     0.00000000     0.00000000
     0.00000000     0.00000000     0.00000000
     0.00000000     0.00000000     0.00000000
     0.00000000     0.00000000     0.00000000
     0.00000000     0.00000000     0.00000000
     0.00000000     0.00000000     0.00000000
     0.00000000     0.00000000     0.00000000
     0.00000000     0.00000000     0.00000000
     0.00000000     0.00000000     0.00000000
     0.00000000     0.00000000     0.00000000
     0.00000000     0.00000000     0.00000000
     0.00000000     0.00000000     0.00000000
     0.00000000     0.00000000     0.00000000
     0.00000000     0.00000000     0.00000000
     0.00000000     0.00000000     0.00000000
     0.00000000     0.00000000     0.00000000
     0.00000000     0.00000000     0.00000000
     0.00000000     0.00000000     0.00000000
     0.00000000     0.00000000     0.00000000
     0.00000000     0.00000000     0.00000000
     0.00000000     0.00000000     0.00000000
     0.00000000     0.00000000     0.00000000
     0.00000000     0.00000000     0.00000000
     0.00000000     0.00000000     0.00000000
     0.00000000     0.00000000     0.00000000
     0.00000000     0.00000000     0.00000000
     0.00000000     0.00000000     0.00000000
     0.00000000     0.00000000     0.00000000
     0.00000000     0.00000000     0.00000000
     0.00000000     0.00000000     0.00000000
     0.00000000     0.00000000     0.00000000
     0.00000000     0.00000000     0.00000000
     0.00000000     0.00000000     0.00000000
     0.00000000     0.00000000     0.00000000
     0.00000000     0.00000000     0.00000000
     0.00000000     0.00000000     0.00000000
     0.00000000     0.00000000     0.00000000
     0.00000000     0.00000000     0.00000000
     0.00000000     0.00000000     0.00000000
     0.00000000     0.00000000     0.00000000
     0.00000000     0.00000000     0.00000000
     0.00000000     0.00000000     0.00000000
     0.00000000     0.00000000     0.00000000
     0.00000000     0.00000000     0.00000000
     0.00000000     0.00000000     0.00000000
     0.00000000     0.00000000     0.00000000
     0.00000000     0.00000000     0.00000000
     0.00000000     0.00000000     0.00000000
     0.00000000     0.00000000     0.00000000
     0.00000000     0.00000000     0.00000000
     0.00000000     0.00000000     0.00000000
     0.00000000     0.00000000     0.00000000
     0.00000000     0.00000000     0.00000000
     0.00000000     0.00000000     0.00000000
     0.00000000     0.00000000     0.00000000
     0.00000000     0.00000000     0.00000000
     0.00000000     0.00000000     0.00000000
     0.00000000     0.00000000     0.00000000
     0.00000000     0.00000000     0.00000000
     0.00000000     0.00000000     0.00000000
     0.00000000     0.00000000     0.00000000
     0.00000000     0.00000000     0.00000000
     0.00000000     0.00000000     0.00000000
     0.00000000     0.00000000     0.00000000
     0.00000000     0.00000000     0.00000000
     0.00000000     0.00000000     0.00000000
     0.00000000     0.00000000     0.00000000
     0.00000000     0.00000000     0.00000000
     0.00000000     0.00000000     0.00000000
     0.00000000     0.00000000     0.00000000
     0.00000000     0.00000000     0.00000000
     0.00000000     0.00000000     0.00000000
     0.00000000     0.00000000     0.00000000
     0.00000000     0.00000000     0.00000000
     0.00000000     0.00000000     0.00000000
     0.00000000     0.00000000     0.00000000
     0.00000000     0.00000000     0.00000000
     0.00000000     0.00000000     0.00000000
     0.00000000     0.00000000     0.00000000
     0.00000000     0.00000000     0.00000000
     0.00000000     0.00000000     0.00000000
     0.00000000     0.00000000     0.00000000
     0.00000000     0.00000000     0.00000000
     0.00000000     0.00000000     0.00000000
     0.00000000     0.00000000     0.00000000
     0.00000000     0.00000000     0.00000000
     0.00000000     0.00000000     0.00000000
     0.00000000     0.00000000     0.00000000
     0.00000000     0.00000000     0.00000000
     0.00000000     0.00000000     0.00000000
     0.00000000     0.00000000     0.00000000
     0.00000000     0.00000000     0.00000000
     0.00000000     0.00000000     0.00000000
     0.00000000     0.00000000     0.00000000
     0.00000000     0.00000000     0.00000000
     0.00000000     0.00000000     0.00000000
     0.00000000     0.00000000     0.00000000
     0.00000000     0.00000000     0.00000000
     0.00000000     0.00000000     0.00000000
     0.00000000     0.00000000     0.00000000
     0.00000000     0.00000000     0.00000000
     0.00000000     0.00000000     0.00000000
     0.00000000     0.00000000     0.00000000
     0.00000000     0.00000000     0.00000000
     0.00000000     0.00000000     0.00000000
     0.00000000     0.00000000     0.00000000
     0.00000000     0.00000000     0.00000000
     0.00000000     0.00000000     0.00000000
     0.00000000     0.00000000     0.00000000
     0.00000000     0.00000000     0.00000000
     0.00000000     0.00000000     0.00000000
     0.00000000     0.00000000     0.00000000
     0.00000000     0.00000000     0.00000000
     0.00000000     0.00000000     0.00000000
     0.00000000     0.00000000     0.00000000
     0.00000000     0.00000000     0.00000000
     0.00000000     0.00000000     0.00000000
     0.00000000     0.00000000     0.00000000
     0.00000000     0.00000000     0.00000000
     0.00000000     0.00000000     0.00000000
     0.00000000     0.00000000     0.00000000
     0.00000000     0.00000000     0.00000000
     0.00000000     0.00000000     0.00000000
     0.00000000     0.00000000     0.00000000
     0.00000000     0.00000000     0.00000000
     0.00000000     0.00000000     0.00000000
     0.00000000     0.00000000     0.00000000
     0.00000000     0.00000000     0.00000000
     0.00000000     0.00000000     0.00000000
     0.00000000     0.00000000     0.00000000
     0.00000000     0.00000000     0.00000000
     0.00000000     0.00000000     0.00000000
     0.00000000     0.00000000     0.00000000
     0.00000000     0.00000000     0.00000000
     0.00000000     0.00000000     0.00000000
     0.00000000     0.00000000     0.00000000
     0.00000000     0.00000000     0.00000000
     0.00000000     0.00000000     0.00000000
     0.00000000     0.00000000     0.00000000
     0.00000000     0.00000000     0.00000000
     0.00000000     0.00000000     0.00000000
     0.00000000     0.00000000     0.00000000
     0.00000000     0.00000000     0.00000000
     0.00000000     0.00000000     0.00000000
     0.00000000     0.00000000     0.00000000
     0.00000000     0.00000000     0.00000000
     0.00000000     0.00000000     0.00000000
     0.00000000     0.00000000     0.00000000
     0.00000000     0.00000000     0.00000000
     0.00000000     0.00000000     0.00000000
     0.00000000     0.00000000     0.00000000
     0.00000000     0.00000000     0.00000000
     0.00000000     0.00000000     0.00000000
     0.00000000     0.00000000     0.00000000
     0.00000000     0.00000000     0.00000000
     0.00000000     0.00000000     0.00000000
     0.00000000     0.00000000     0.00000000
     0.00000000     0.00000000     0.00000000
     0.00000000     0.00000000     0.00000000
     0.00000000     0.00000000     0.00000000
     0.00000000     0.00000000     0.00000000
     0.00000000     0.00000000     0.00000000
     0.00000000     0.00000000     0.00000000
     0.00000000     0.00000000     0.00000000
     0.00000000     0.00000000     0.00000000
     0.00000000     0.00000000     0.00000000
     0.00000000     0.00000000     0.00000000
     0.00000000     0.00000000     0.00000000
     0.00000000     0.00000000     0.00000000
     0.00000000     0.00000000     0.00000000
     0.00000000     0.00000000     0.00000000
     0.00000000     0.00000000     0.00000000
     0.00000000     0.00000000     0.00000000
     0.00000000     0.00000000     0.00000000
     0.00000000     0.00000000     0.00000000
     0.00000000     0.00000000     0.00000000
     0.00000000     0.00000000     0.00000000
     0.00000000     0.00000000     0.00000000
     0.00000000     0.00000000     0.00000000
     0.00000000     0.00000000     0.00000000
     0.00000000     0.00000000     0.00000000
     0.00000000     0.00000000     0.00000000
     0.00000000     0.00000000     0.00000000
     0.00000000     0.00000000     0.00000000
     0.00000000     0.00000000     0.00000000
     0.00000000     0.00000000     0.00000000
     0.00000000     0.00000000     0.00000000
     0.00000000     0.00000000     0.00000000
     0.00000000     0.00000000     0.00000000
     0.00000000     0.00000000     0.00000000
     0.00000000     0.00000000     0.00000000
     0.00000000     0.00000000     0.00000000
     0.00000000     0.00000000     0.00000000
     0.00000000     0.00000000     0.00000000
     0.00000000     0.00000000     0.00000000
     0.00000000     0.00000000     0.00000000
     0.00000000     0.00000000     0.00000000
     0.00000000     0.00000000     0.00000000
     0.00000000     0.00000000     0.00000000
     0.00000000     0.00000000     0.00000000
     0.00000000     0.00000000     0.00000000
     0.00000000     0.00000000     0.00000000
     0.00000000     0.00000000     0.00000000
     0.00000000     0.00000000     0.00000000
     0.00000000     0.00000000     0.00000000
     0.00000000     0.00000000     0.00000000
     0.00000000     0.00000000     0.00000000
     0.00000000     0.00000000     0.00000000
     0.00000000     0.00000000     0.00000000
     0.00000000     0.00000000     0.00000000
     0.00000000     0.00000000     0.00000000
     0.00000000     0.00000000     0.00000000
     0.00000000     0.00000000     0.00000000
     0.00000000     0.00000000     0.00000000
     0.00000000     0.00000000     0.00000000
     0.00000000     0.00000000     0.00000000
     0.00000000     0.00000000     0.00000000
     0.00000000     0.00000000     0.00000000
     0.00000000     0.00000000     0.00000000
     0.00000000     0.00000000     0.00000000
     0.00000000     0.00000000     0.00000000
     0.00000000     0.00000000     0.00000000
     0.00000000     0.00000000     0.00000000
     0.00000000     0.00000000     0.00000000
     0.00000000     0.00000000     0.00000000
     0.00000000     0.00000000     0.00000000
     0.00000000     0.00000000     0.00000000
     0.00000000     0.00000000     0.00000000
     0.00000000     0.00000000     0.00000000
     0.00000000     0.00000000     0.00000000
     0.00000000     0.00000000     0.00000000
     0.00000000     0.00000000     0.00000000
     0.00000000     0.00000000     0.00000000
     0.00000000     0.00000000     0.00000000
     0.00000000     0.00000000     0.00000000
     0.00000000     0.00000000     0.00000000
     0.00000000     0.00000000     0.00000000
     0.00000000     0.00000000     0.00000000
     0.00000000     0.00000000     0.00000000
     0.00000000     0.00000000     0.00000000
     0.00000000     0.00000000     0.00000000
     0.00000000     0.00000000     0.00000000
     0.00000000     0.00000000     0.00000000
     0.00000000     0.00000000     0.00000000
     0.00000000     0.00000000     0.00000000
     0.00000000     0.00000000     0.00000000
     0.00000000     0.00000000     0.00000000
     0.00000000     0.00000000     0.00000000
     0.00000000     0.00000000     0.00000000
     0.00000000     0.00000000     0.00000000
     0.00000000     0.00000000     0.00000000
     0.00000000     0.00000000     0.00000000
     0.00000000     0.00000000     0.00000000
     0.00000000     0.00000000     0.00000000
     0.00000000     0.00000000     0.00000000
     0.00000000     0.00000000     0.00000000
     0.00000000     0.00000000     0.00000000
     0.00000000     0.00000000     0.00000000
     0.00000000     0.00000000     0.00000000
     0.00000000     0.00000000     0.00000000
     0.00000000     0.00000000     0.00000000
     0.00000000     0.00000000     0.00000000
     0.00000000     0.00000000     0.00000000
     0.00000000     0.00000000     0.00000000
     0.00000000     0.00000000     0.00000000
     0.00000000     0.00000000     0.00000000
     0.00000000     0.00000000     0.00000000
     0.00000000     0.00000000     0.00000000
     0.00000000     0.00000000     0.00000000
     0.00000000     0.00000000     0.00000000
     0.00000000     0.00000000     0.00000000
     0.00000000     0.00000000     0.00000000
     0.00000000     0.00000000     0.00000000
     0.00000000     0.00000000     0.00000000
     0.00000000     0.00000000     0.00000000
     0.00000000     0.00000000     0.00000000
     0.00000000     0.00000000     0.00000000
     0.00000000     0.00000000     0.00000000
     0.00000000     0.00000000     0.00000000
     0.00000000     0.00000000     0.00000000
     0.00000000     0.00000000     0.00000000
     0.00000000     0.00000000     0.00000000
     0.00000000     0.00000000     0.00000000
     0.00000000     0.00000000     0.00000000
     0.00000000     0.00000000     0.00000000
     0.00000000     0.00000000     0.00000000
     0.00000000     0.00000000     0.00000000
     0.00000000     0.00000000     0.00000000
     0.00000000     0.00000000     0.00000000
     0.00000000     0.00000000     0.00000000
     0.00000000     0.00000000     0.00000000
     0.00000000     0.00000000     0.00000000
     0.00000000     0.00000000     0.00000000
     0.00000000     0.00000000     0.00000000
     0.00000000     0.00000000     0.00000000
     0.00000000     0.00000000     0.00000000
     0.00000000     0.00000000     0.00000000
     0.00000000     0.00000000     0.00000000
     0.00000000     0.00000000     0.00000000
     0.00000000     0.00000000     0.00000000
     0.00000000     0.00000000     0.00000000
     0.00000000     0.00000000     0.00000000
     0.00000000     0.00000000     0.00000000
     0.00000000     0.00000000     0.00000000
     0.00000000     0.00000000     0.00000000
     0.00000000     0.00000000     0.00000000
     0.00000000     0.00000000     0.00000000
     0.00000000     0.00000000     0.00000000
     0.00000000     0.00000000     0.00000000
     0.00000000     0.00000000     0.00000000
     0.00000000     0.00000000     0.00000000
     0.00000000     0.00000000     0.00000000
     0.00000000     0.00000000     0.00000000
     0.00000000     0.00000000     0.00000000
     0.00000000     0.00000000     0.00000000
     0.00000000     0.00000000     0.00000000
     0.00000000     0.00000000     0.00000000
     0.00000000     0.00000000     0.00000000
     0.00000000     0.00000000     0.00000000
     0.00000000     0.00000000     0.00000000
     0.00000000     0.00000000     0.00000000
     0.00000000     0.00000000     0.00000000
     0.00000000     0.00000000     0.00000000
     0.00000000     0.00000000     0.00000000
     0.00000000     0.00000000     0.00000000
     0.00000000     0.00000000     0.00000000
     0.00000000     0.00000000     0.00000000
     0.00000000     0.00000000     0.00000000
     0.00000000     0.00000000     0.00000000
     0.00000000     0.00000000     0.00000000
     0.00000000     0.00000000     0.00000000
     0.00000000     0.00000000     0.00000000
     0.00000000     0.00000000     0.00000000
     0.00000000     0.00000000     0.00000000
     0.00000000     0.00000000     0.00000000
     0.00000000     0.00000000     0.00000000
     0.00000000     0.00000000     0.00000000
     0.00000000     0.00000000     0.00000000
     0.00000000     0.00000000     0.00000000
     0.00000000     0.00000000     0.00000000
     0.00000000     0.00000000     0.00000000
     0.00000000     0.00000000     0.00000000
     0.00000000     0.00000000     0.00000000
     0.00000000     0.00000000     0.00000000
     0.00000000     0.00000000     0.00000000
     0.00000000     0.00000000     0.00000000
     0.00000000     0.00000000     0.00000000
     0.00000000     0.00000000     0.00000000
     0.00000000     0.00000000     0.00000000
     0.00000000     0.00000000     0.00000000
     0.00000000     0.00000000     0.00000000
     0.00000000     0.00000000     0.00000000
     0.00000000     0.00000000     0.00000000
     0.00000000     0.00000000     0.00000000
     0.00000000     0.00000000     0.00000000
     0.00000000     0.00000000     0.00000000
     0.00000000     0.00000000     0.00000000
     0.00000000     0.00000000     0.00000000
     0.00000000     0.00000000     0.00000000
     0.00000000     0.00000000     0.00000000
     0.00000000     0.00000000     0.00000000
     0.00000000     0.00000000     0.00000000
     0.00000000     0.00000000     0.00000000
     0.00000000     0.00000000     0.00000000
     0.00000000     0.00000000     0.00000000
     0.00000000     0.00000000     0.00000000
     0.00000000     0.00000000     0.00000000
     0.00000000     0.00000000     0.00000000
     0.00000000     0.00000000     0.00000000
     0.00000000     0.00000000     0.00000000
     0.00000000     0.00000000     0.00000000
     0.00000000     0.00000000     0.00000000
     0.00000000     0.00000000     0.00000000
     0.00000000     0.00000000     0.00000000
     0.00000000     0.00000000     0.00000000
     0.00000000     0.00000000     0.00000000
     0.00000000     0.00000000     0.00000000
     0.00000000     0.00000000     0.00000000
     0.00000000     0.00000000     0.00000000
     0.00000000     0.00000000     0.00000000
     0.00000000     0.00000000     0.00000000
     0.00000000     0.00000000     0.00000000
     0.00000000     0.00000000     0.00000000
     0.00000000     0.00000000     0.00000000
     0.00000000     0.00000000     0.00000000
     0.00000000     0.00000000     0.00000000
     0.00000000     0.00000000     0.00000000
     0.00000000     0.00000000     0.00000000
     0.00000000     0.00000000     0.00000000
     0.00000000     0.00000000     0.00000000
     0.00000000     0.00000000     0.00000000
     0.00000000     0.00000000     0.00000000
     0.00000000     0.00000000     0.00000000
     0.00000000     0.00000000     0.00000000
     0.00000000     0.00000000     0.00000000
     0.00000000     0.00000000     0.00000000
     0.00000000     0.00000000     0.00000000
     0.00000000     0.00000000     0.00000000
     0.00000000     0.00000000     0.00000000
     0.00000000     0.00000000     0.00000000
     0.00000000     0.00000000     0.00000000
     0.00000000     0.00000000     0.00000000
     0.00000000     0.00000000     0.00000000
     0.00000000     0.00000000     0.00000000
     0.00000000     0.00000000     0.00000000
     0.00000000     0.00000000     0.00000000
     0.00000000     0.00000000     0.00000000
     0.00000000     0.00000000     0.00000000
     0.00000000     0.00000000     0.00000000
     0.00000000     0.00000000     0.00000000
     0.00000000     0.00000000     0.00000000
     0.00000000     0.00000000     0.00000000
     0.00000000     0.00000000     0.00000000
     0.00000000     0.00000000     0.00000000
     0.00000000     0.00000000     0.00000000
     0.00000000     0.00000000     0.00000000
     0.00000000     0.00000000     0.00000000
     0.00000000     0.00000000     0.00000000
     0.00000000     0.00000000     0.00000000
     0.00000000     0.00000000     0.00000000
     0.00000000     0.00000000     0.00000000
     0.00000000     0.00000000     0.00000000
     0.00000000     0.00000000     0.00000000
     0.00000000     0.00000000     0.00000000
     0.00000000     0.00000000     0.00000000
     0.00000000     0.00000000     0.00000000
     0.00000000     0.00000000     0.00000000
     0.00000000     0.00000000     0.00000000
     0.00000000     0.00000000     0.00000000
     0.00000000     0.00000000     0.00000000
     0.00000000     0.00000000     0.00000000
     0.00000000     0.00000000     0.00000000
     0.00000000     0.00000000     0.00000000
     0.00000000     0.00000000     0.00000000
     0.00000000     0.00000000     0.00000000
     0.00000000     0.00000000     0.00000000
     0.00000000     0.00000000     0.00000000
     0.00000000     0.00000000     0.00000000
     0.00000000     0.00000000     0.00000000
     0.00000000     0.00000000     0.00000000
     0.00000000     0.00000000     0.00000000
     0.00000000     0.00000000     0.00000000
     0.00000000     0.00000000     0.00000000
     0.00000000     0.00000000     0.00000000
     0.00000000     0.00000000     0.00000000
     0.00000000     0.00000000     0.00000000
     0.00000000     0.00000000     0.00000000
     0.00000000     0.00000000     0.00000000
     0.00000000     0.00000000     0.00000000
     0.00000000     0.00000000     0.00000000
     0.00000000     0.00000000     0.00000000
     0.00000000     0.00000000     0.00000000
     0.00000000     0.00000000     0.00000000
     0.00000000     0.00000000     0.00000000
     0.00000000     0.00000000     0.00000000
     0.00000000     0.00000000     0.00000000
     0.00000000     0.00000000     0.00000000
     0.00000000     0.00000000     0.00000000
     0.00000000     0.00000000     0.00000000
     0.00000000     0.00000000     0.00000000
     0.00000000     0.00000000     0.00000000
     0.00000000     0.00000000     0.00000000
     0.00000000     0.00000000     0.00000000
     0.00000000     0.00000000     0.00000000
     0.00000000     0.00000000     0.00000000
     0.00000000     0.00000000     0.00000000
     0.00000000     0.00000000     0.00000000
     0.00000000     0.00000000     0.00000000
     0.00000000     0.00000000     0.00000000
     0.00000000     0.00000000     0.00000000
     0.00000000     0.00000000     0.00000000
     0.00000000     0.00000000     0.00000000
     0.00000000     0.00000000     0.00000000
     0.00000000     0.00000000     0.00000000
     0.00000000     0.00000000     0.00000000
     0.00000000     0.00000000     0.00000000
     0.00000000     0.00000000     0.00000000
     0.00000000     0.00000000     0.00000000
     0.00000000     0.00000000     0.00000000
     0.00000000     0.00000000     0.00000000
     0.00000000     0.00000000     0.00000000
     0.00000000     0.00000000     0.00000000
     0.00000000     0.00000000     0.00000000
     0.00000000     0.00000000     0.00000000
     0.00000000     0.00000000     0.00000000
     0.00000000     0.00000000     0.00000000
     0.00000000     0.00000000     0.00000000
     0.00000000     0.00000000     0.00000000
     0.00000000     0.00000000     0.00000000
     0.00000000     0.00000000     0.00000000
     0.00000000     0.00000000     0.00000000
     0.00000000     0.00000000     0.00000000
     0.00000000     0.00000000     0.00000000
     0.00000000     0.00000000     0.00000000
     0.00000000     0.00000000     0.00000000
     0.00000000     0.00000000     0.00000000
     0.00000000     0.00000000     0.00000000
     0.00000000     0.00000000     0.00000000
     0.00000000     0.00000000     0.00000000
     0.00000000     0.00000000     0.00000000
     0.00000000     0.00000000     0.00000000
     0.00000000     0.00000000     0.00000000
     0.00000000     0.00000000     0.00000000
     0.00000000     0.00000000     0.00000000
     0.00000000     0.00000000     0.00000000
     0.00000000     0.00000000     0.00000000
     0.00000000     0.00000000     0.00000000
     0.00000000     0.00000000     0.00000000
     0.00000000     0.00000000     0.00000000
     0.00000000     0.00000000     0.00000000
     0.00000000     0.00000000     0.00000000
     0.00000000     0.00000000     0.00000000
     0.00000000     0.00000000     0.00000000
     0.00000000     0.00000000     0.00000000
     0.00000000     0.00000000     0.00000000
     0.00000000     0.00000000     0.00000000
     0.00000000     0.00000000     0.00000000
     0.00000000     0.00000000     0.00000000
     0.00000000     0.00000000     0.00000000
     0.00000000     0.00000000     0.00000000
     0.00000000     0.00000000     0.00000000
     0.00000000     0.00000000     0.00000000
     0.00000000     0.00000000     0.00000000
     0.00000000     0.00000000     0.00000000
     0.00000000     0.00000000     0.00000000
     0.00000000     0.00000000     0.00000000
     0.00000000     0.00000000     0.00000000
     0.00000000     0.00000000     0.00000000
     0.00000000     0.00000000     0.00000000
     0.00000000     0.00000000     0.00000000
     0.00000000     0.00000000     0.00000000
     0.00000000     0.00000000     0.00000000
     0.00000000     0.00000000     0.00000000
     0.00000000     0.00000000     0.00000000
     0.00000000     0.00000000     0.00000000
     0.00000000     0.00000000     0.00000000
     0.00000000     0.00000000     0.00000000
     0.00000000     0.00000000     0.00000000
     0.00000000     0.00000000     0.00000000
     0.00000000     0.00000000     0.00000000
     0.00000000     0.00000000     0.00000000
     0.00000000     0.00000000     0.00000000
     0.00000000     0.00000000     0.00000000
     0.00000000     0.00000000     0.00000000
     0.00000000     0.00000000     0.00000000
     0.00000000     0.00000000     0.00000000
     0.00000000     0.00000000     0.00000000
     0.00000000     0.00000000     0.00000000
     0.00000000     0.00000000     0.00000000
     0.00000000     0.00000000     0.00000000
     0.00000000     0.00000000     0.00000000
     0.00000000     0.00000000     0.00000000
     0.00000000     0.00000000     0.00000000
     0.00000000     0.00000000     0.00000000
     0.00000000     0.00000000     0.00000000
     0.00000000     0.00000000     0.00000000
     0.00000000     0.00000000     0.00000000
     0.00000000     0.00000000     0.00000000
     0.00000000     0.00000000     0.00000000
     0.00000000     0.00000000     0.00000000
     0.00000000     0.00000000     0.00000000
     0.00000000     0.00000000     0.00000000
     0.00000000     0.00000000     0.00000000
     0.00000000     0.00000000     0.00000000
     0.00000000     0.00000000     0.00000000
     0.00000000     0.00000000     0.00000000
     0.00000000     0.00000000     0.00000000
     0.00000000     0.00000000     0.00000000
     0.00000000     0.00000000     0.00000000
     0.00000000     0.00000000     0.00000000
     0.00000000     0.00000000     0.00000000
     0.00000000     0.00000000     0.00000000
     0.00000000     0.00000000     0.00000000
     0.00000000     0.00000000     0.00000000
     0.00000000     0.00000000     0.00000000
     0.00000000     0.00000000     0.00000000
     0.00000000     0.00000000     0.00000000
     0.00000000     0.00000000     0.00000000
     0.00000000     0.00000000     0.00000000
     0.00000000     0.00000000     0.00000000
     0.00000000     0.00000000     0.00000000
     0.00000000     0.00000000     0.00000000
     0.00000000     0.00000000     0.00000000
     0.00000000     0.00000000     0.00000000
     0.00000000     0.00000000     0.00000000
     0.00000000     0.00000000     0.00000000
     0.00000000     0.00000000     0.00000000
     0.00000000     0.00000000     0.00000000
     0.00000000     0.00000000     0.00000000
     0.00000000     0.00000000     0.00000000
     0.00000000     0.00000000     0.00000000
     0.00000000     0.00000000     0.00000000
     0.00000000     0.00000000     0.00000000
     0.00000000     0.00000000     0.00000000
     0.00000000     0.00000000     0.00000000
     0.00000000     0.00000000     0.00000000
     0.00000000     0.00000000     0.00000000
     0.00000000     0.00000000     0.00000000
     0.00000000     0.00000000     0.00000000
     0.00000000     0.00000000     0.00000000
     0.00000000     0.00000000     0.00000000
     0.00000000     0.00000000     0.00000000
     0.00000000     0.00000000     0.00000000
     0.00000000     0.00000000     0.00000000
     0.00000000     0.00000000     0.00000000
     0.00000000     0.00000000     0.00000000
     0.00000000     0.00000000     0.00000000
     0.00000000     0.00000000     0.00000000
     0.00000000     0.00000000     0.00000000
     0.00000000     0.00000000     0.00000000
     0.00000000     0.00000000     0.00000000
     0.00000000     0.00000000     0.00000000
     0.00000000     0.00000000     0.00000000
     0.00000000     0.00000000     0.00000000
     0.00000000     0.00000000     0.00000000
     0.00000000     0.00000000     0.00000000
     0.00000000     0.00000000     0.00000000
     0.00000000     0.00000000     0.00000000
     0.00000000     0.00000000     0.00000000
     0.00000000     0.00000000     0.00000000
     0.00000000     0.00000000     0.00000000
     0.00000000     0.00000000     0.00000000
     0.00000000     0.00000000     0.00000000
     0.00000000     0.00000000     0.00000000
     0.00000000     0.00000000     0.00000000
     0.00000000     0.00000000     0.00000000
     0.00000000     0.00000000     0.00000000
     0.00000000     0.00000000     0.00000000
     0.00000000     0.00000000     0.00000000
     0.00000000     0.00000000     0.00000000
     0.00000000     0.00000000     0.00000000
     0.00000000     0.00000000     0.00000000
     0.00000000     0.00000000     0.00000000
     0.00000000     0.00000000     0.00000000
     0.00000000     0.00000000     0.00000000
     0.00000000     0.00000000     0.00000000
     0.00000000     0.00000000     0.00000000
     0.00000000     0.00000000     0.00000000
     0.00000000     0.00000000     0.00000000
     0.00000000     0.00000000     0.00000000
     0.00000000     0.00000000     0.00000000
     0.00000000     0.00000000     0.00000000
     0.00000000     0.00000000     0.00000000
     0.00000000     0.00000000     0.00000000
     0.00000000     0.00000000     0.00000000
     0.00000000     0.00000000     0.00000000
     0.00000000     0.00000000     0.00000000
     0.00000000     0.00000000     0.00000000
     0.00000000     0.00000000     0.00000000
     0.00000000     0.00000000     0.00000000
     0.00000000     0.00000000     0.00000000
     0.00000000     0.00000000     0.00000000
     0.00000000     0.00000000     0.00000000
     0.00000000     0.00000000     0.00000000
     0.00000000     0.00000000     0.00000000
     0.00000000     0.00000000     0.00000000
     0.00000000     0.00000000     0.00000000
     0.00000000     0.00000000     0.00000000
     0.00000000     0.00000000     0.00000000
     0.00000000     0.00000000     0.00000000
     0.00000000     0.00000000     0.00000000
     0.00000000     0.00000000     0.00000000
     0.00000000     0.00000000     0.00000000
     0.00000000     0.00000000     0.00000000
     0.00000000     0.00000000     0.00000000
     0.00000000     0.00000000     0.00000000
     0.00000000     0.00000000     0.00000000
     0.00000000     0.00000000     0.00000000
     0.00000000     0.00000000     0.00000000
     0.00000000     0.00000000     0.00000000
     0.00000000     0.00000000     0.00000000
     0.00000000     0.00000000     0.00000000
     0.00000000     0.00000000     0.00000000
     0.00000000     0.00000000     0.00000000
     0.00000000     0.00000000     0.00000000
     0.00000000     0.00000000     0.00000000
     0.00000000     0.00000000     0.00000000
     0.00000000     0.00000000     0.00000000
     0.00000000     0.00000000     0.00000000
     0.00000000     0.00000000     0.00000000
     0.00000000     0.00000000     0.00000000
     0.00000000     0.00000000     0.00000000
     0.00000000     0.00000000     0.00000000
     0.00000000     0.00000000     0.00000000
     0.00000000     0.00000000     0.00000000
     0.00000000     0.00000000     0.00000000
     0.00000000     0.00000000     0.00000000
     0.00000000     0.00000000     0.00000000
     0.00000000     0.00000000     0.00000000
     0.00000000     0.00000000     0.00000000
     0.00000000     0.00000000     0.00000000
     0.00000000     0.00000000     0.00000000
     0.00000000     0.00000000     0.00000000
     0.00000000     0.00000000     0.00000000
     0.00000000     0.00000000     0.00000000
     0.00000000     0.00000000     0.00000000
     0.00000000     0.00000000     0.00000000
     0.00000000     0.00000000     0.00000000
     0.00000000     0.00000000     0.00000000
     0.00000000     0.00000000     0.00000000
     0.00000000     0.00000000     0.00000000
     0.00000000     0.00000000     0.00000000
     0.00000000     0.00000000     0.00000000
     0.00000000     0.00000000     0.00000000
     0.00000000     0.00000000     0.00000000
     0.00000000     0.00000000     0.00000000
     0.00000000     0.00000000     0.00000000
     0.00000000     0.00000000     0.00000000
     0.00000000     0.00000000     0.00000000
     0.00000000     0.00000000     0.00000000
     0.00000000     0.00000000     0.00000000
     0.00000000     0.00000000     0.00000000
     0.00000000     0.00000000     0.00000000
     0.00000000     0.00000000     0.00000000
     0.00000000     0.00000000     0.00000000
     0.00000000     0.00000000     0.00000000
     0.00000000     0.00000000     0.00000000
     0.00000000     0.00000000     0.00000000
     0.00000000     0.00000000     0.00000000
     0.00000000     0.00000000     0.00000000
     0.00000000     0.00000000     0.00000000
     0.00000000     0.00000000     0.00000000
     0.00000000     0.00000000     0.00000000
     0.00000000     0.00000000     0.00000000
     0.00000000     0.00000000     0.00000000
     0.00000000     0.00000000     0.00000000
     0.00000000     0.00000000     0.00000000
     0.00000000     0.00000000     0.00000000
     0.00000000     0.00000000     0.00000000
     0.00000000     0.00000000     0.00000000
     0.00000000     0.00000000     0.00000000
     0.00000000     0.00000000     0.00000000
     0.00000000     0.00000000     0.00000000
     0.00000000     0.00000000     0.00000000
     0.00000000     0.00000000     0.00000000
     0.00000000     0.00000000     0.00000000
     0.00000000     0.00000000     0.00000000
     0.00000000     0.00000000     0.00000000
     0.00000000     0.00000000     0.00000000
     0.00000000     0.00000000     0.00000000
     0.00000000     0.00000000     0.00000000
     0.00000000     0.00000000     0.00000000
     0.00000000     0.00000000     0.00000000
     0.00000000     0.00000000     0.00000000
SCALARS Pressures float
LOOKUP_TABLE default
        0.012315154075622558593750000000
        0.012529700994491577148437500000
        0.011676758527755737304687500000
        0.010924279689788818359375000000
        0.009954214096069335937500000000
        0.008638128638267517089843750000
        0.023227572441101074218750000000
        0.023367419838905334472656250000
        0.021864555776119232177734375000
        0.020513884723186492919921875000
        0.019011348485946655273437500000
        0.017144657671451568603515625000
        0.021266778931021690368652343750
        0.021158771589398384094238281250
        0.020122904330492019653320312500
        0.019043929874897003173828125000
        0.018042385578155517578125000000
        0.017067417502403259277343750000
        0.020223638042807579040527343750
        0.020202213898301124572753906250
        0.019503075629472732543945312500
        0.018690057098865509033203125000
        0.017898268997669219970703125000
        0.017166472971439361572265625000
        0.019376486539840698242187500000
        0.019372917711734771728515625000
        0.018869020044803619384765625000
        0.018278516829013824462890625000
        0.017734475433826446533203125000
        0.017205953598022460937500000000
        0.018826047579447429541898983985
        0.018623277544975280761718750000
        0.018253669142723083496093750000
        0.017834231257438659667968750000
        0.017467573285102844238281250000
        0.017184615135192871093750000000
        0.019797138869762420654296875000
        0.019253406673669815063476562500
        0.019049692898988723754882812500
        0.018796388059854507446289062500
        0.018229946494102478027343750000
        0.017367962747812271118164062500
        0.039832249283790588378906250000
        0.039175346493721008300781250000
        0.038808915764093399047851562500
        0.038175228983163833618164062500
        0.036868236958980560302734375000
        0.035106252878904342651367187500
        0.039676499553024768829345703125
        0.039505160413682460784912109375
        0.039075670763850212097167968750
        0.038328863680362701416015625000
        0.037061572074890136718750000000
        0.035477172583341598510742187500
        0.038977748714387416839599609375
        0.038847071118652820587158203125
        0.038350863382220268249511718750
        0.037635456770658493041992187500
        0.036656375974416732788085937500
        0.035457361489534378051757812500
        0.038352429866790771484375000000
        0.038215711712837219238281250000
        0.037732824683189392089843750000
        0.037109147757291793823242187500
        0.036309648305177688598632812500
        0.035398937761783599853515625000
        0.037827335298061370849609375000
        0.037556430324912071228027343750
        0.037075284868478775024414062500
        0.036529012024402618408203125000
        0.035889886319637298583984375000
        0.035353640715281166306827032031
        0.037148784846067428588867187500
        0.037849631160497665405273437500
        0.038113001734018325805664062500
        0.037762489169836044311523437500
        0.037163205444812774658203125000
        0.035914596170186996459960937500
        0.073997426778078079223632812500
        0.074872482568025588989257812500
        0.075059480965137481689453125000
        0.074419289827346801757812500000
        0.073393691331148147583007812500
        0.071165651082992553710937500000
        0.073797894641757011413574218750
        0.073977479711174964904785156250
        0.073800727725028991699218750000
        0.073179803788661956787109375000
        0.072177145630121231079101562500
        0.070315200835466384887695312500
        0.073835395276546478271484375000
        0.073794614523649215698242187500
        0.073487076908349990844726562500
        0.072807397693395614624023437500
        0.071709737181663513183593750000
        0.070099476724863052368164062500
        0.073669329285621643066406250000
        0.073516231030225753784179687500
        0.073084436357021331787109375000
        0.072380583733320236206054687500
        0.071404829621315002441406250000
        0.070148129016160964965820312500
        0.073434097071488707575426246876
        0.073147865012288093566894531250
        0.072650957852602005004882812500
        0.071967147290706634521484375000
        0.071101091802120208740234375000
        0.070295060674349471585564685938
        0.053487746044993400573730468750
        0.052458666265010833740234375000
        0.051824215799570083618164062500
        0.051979295909404754638671875000
        0.051923410035669803619384765625
        0.052218346856534481048583984375
        0.107445504516363143920898437500
        0.105980046093463897705078125000
        0.105082191526889801025390625000
        0.105048395693302154541015625000
        0.104931534267961978912353515625
        0.105129229836165904998779296875
        0.107959993183612823486328125000
        0.107265818864107131958007812500
        0.106733232736587524414062500000
        0.106404330581426620483398437500
        0.106367461383342742919921875000
        0.106202799826860427856445312500
        0.108137337490916252136230468750
        0.107685156166553497314453125000
        0.107262790203094482421875000000
        0.106973025947809219360351562500
        0.106971636414527893066406250000
        0.106797050684690475463867187500
        0.108350727707147598266601562500
        0.108043169602751731872558593750
        0.107759401202201843261718750000
        0.107502743601799011230468750000
        0.107392231002449989318847656250
        0.107140399515628814697265625000
        0.108445022255182266235351562500
        0.108303320594131946563720703125
        0.108091820031404495239257812500
        0.107864134013652801513671875000
        0.107627255842089653015136718750
        0.107360839843750013877787807814
        0.074185075238347053527832031250
        0.074737068265676498413085937500
        0.074674610048532485961914062500
        0.074450433254241943359375000000
        0.074999273754656314849853515625
        0.075999937020242214202880859375
        0.147651173174381256103515625000
        0.148344278335571289062500000000
        0.148213960230350494384765625000
        0.148214377462863922119140625000
        0.149614644236862659454345703125
        0.151813159696757793426513671875
        0.147255532443523406982421875000
        0.147468231618404388427734375000
        0.147574711591005325317382812500
        0.147980511188507080078125000000
        0.149375114589929580688476562500
        0.151432473212480545043945312500
        0.147751171141862869262695312500
        0.147914875298738479614257812500
        0.148232296109199523925781250000
        0.148622855544090270996093750000
        0.149617232382297515869140625000
        0.151004664599895477294921875000
        0.148118743672966957092285156250
        0.148257134482264518737792968750
        0.148584295064210891723632812500
        0.148962941020727157592773437500
        0.149732166901230812072753906250
        0.150586102157831192016601562500
        0.148376220216353743586168434376
        0.148542248643934726715087890625
        0.148888882249593734741210937500
        0.149246498942375183105468750000
        0.149814506992697715759277343750
        0.150317842761675535268039993753
        0.094168204814195632934570312500
        0.094613205641508102416992187500
        0.094826322048902511596679687500
        0.095350239425897598266601562500
        0.096492026001214981079101562500
        0.098229654133319854736328125000
        0.189328458160161972045898437500
        0.190042234957218170166015625000
        0.190514054149389266967773437500
        0.191344272345304489135742187500
        0.193008657544851303100585937500
        0.195138894021511077880859375000
        0.190264560282230377197265625000
        0.190745744854211807250976562500
        0.191176392138004302978515625000
        0.191822782158851623535156250000
        0.192722193896770477294921875000
        0.193304426968097686767578125000
        0.190290628001093864440917968750
        0.190629921853542327880859375000
        0.191005729138851165771484375000
        0.191606990993022918701171875000
        0.192217774689197540283203125000
        0.192614812403917312622070312500
        0.190401701256632804870605468750
        0.190657243132591247558593750000
        0.191014334559440612792968750000
        0.191499397158622741699218750000
        0.191952951252460479736328125000
        0.192310180515050888061523437500
        0.190451999505360930475816871876
        0.190664038062095642089843750000
        0.190986931324005126953125000000
        0.191403031349182128906250000000
        0.191854849457740783691406250000
        0.192154765129089327713174384371
        0.117236189544200897216796875000
        0.116005782037973403930664062500
        0.116067845374345779418945312500
        0.116257781162858009338378906250
        0.115648759528994560241699218750
        0.113630045205354690551757812500
        0.233905486762523651123046875000
        0.232064018025994300842285156250
        0.231883807107806205749511718750
        0.232139876112341880798339843750
        0.231374466791749000549316406250
        0.228660903871059417724609375000
        0.233266193419694900512695312500
        0.232333483174443244934082031250
        0.231981115415692329406738281250
        0.231978211551904678344726562500
        0.231713570654392242431640625000
        0.230703016743063926696777343750
        0.233093138784170150756835937500
        0.232626918703317642211914062500
        0.232413016259670257568359375000
        0.232272118330001831054687500000
        0.232148971408605575561523437500
        0.231611432507634162902832031250
        0.232949838042259216308593750000
        0.232731424272060394287109375000
        0.232567586004734039306640625000
        0.232432499527931213378906250000
        0.232379294931888580322265625000
        0.232068557292222976684570312500
        0.232853949069976778885049384371
        0.232751689851284027099609375000
        0.232674308121204376220703125000
        0.232596695423126220703125000000
        0.232508342713117599487304687500
        0.232331673304239871846732512495
        0.137351758778095245361328125000
        0.138051018118858337402343750000
        0.138329062610864639282226562500
        0.137896897271275520324707031250
        0.137543579563498497009277343750
        0.138675097376108169555664062500
        0.275400346145033836364746093750
        0.276309495791792869567871093750
        0.276630071923136711120605468750
        0.275868920609354972839355468750
        0.275178505107760429382324218750
        0.276554811745882034301757812500
        0.276225281879305839538574218750
        0.276481920853257179260253906250
        0.276431115344166755676269531250
        0.275870513170957565307617187500
        0.275338955223560333251953125000
        0.275501245632767677307128906250
        0.276506848633289337158203125000
        0.276482533663511276245117187500
        0.276298619806766510009765625000
        0.275893993675708770751953125000
        0.275471452623605728149414062500
        0.275282764807343482971191406250
        0.276764020323753356933593750000
        0.276597835123538970947265625000
        0.276398137211799621582031250000
        0.276101201772689819335937500000
        0.275712694972753524780273437500
        0.275436397641897201538085937500
        0.276917755603790283203125000000
        0.276812575757503509521484375000
        0.276634700596332550048828125000
        0.276388816535472869873046875000
        0.276087578386068344116210937500
        0.275760064522425296651420012495
        0.160648491233587265014648437500
        0.160140570253133773803710937500
        0.160356950014829635620117187500
        0.160246390849351882934570312500
        0.159764513373374938964843750000
        0.157696019858121871948242187500
        0.321302050724625587463378906250
        0.320534734055399894714355468750
        0.320834619924426078796386718750
        0.320728067308664321899414062500
        0.319830257445573806762695312500
        0.317134648561477661132812500000
        0.321607073768973350524902343750
        0.321126127615571022033691406250
        0.321336003020405769348144531250
        0.321286909282207489013671875000
        0.320673637092113494873046875000
        0.319717872887849807739257812500
        0.322154853492975234985351562500
        0.321781171485781669616699218750
        0.321971790865063667297363281250
        0.321926333010196685791015625000
        0.321656495332717895507812500000
        0.321174297481775283813476562500
        0.322651516646146774291992187500
        0.322383457794785499572753906250
        0.322524042800068855285644531250
        0.322531614452600479125976562500
        0.322432901710271835327148437500
        0.322232615202665328979492187500
        0.322995230555534362792968750000
        0.322975475341081619262695312500
        0.323132880032062530517578125000
        0.323189087212085723876953125000
        0.323131874203681945800781250000
        0.322911838690439878529758743753
        0.184125237166881561279296875000
        0.185028877109289169311523437500
        0.185836326330900192260742187500
        0.186890430748462677001953125000
        0.186994571238756179809570312500
        0.188170213252305984497070312500
        0.369475435465574264526367187500
        0.370759168639779090881347656250
        0.372338337823748588562011718750
        0.373770684003829956054687500000
        0.374290514737367630004882812500
        0.375647913664579391479492187500
        0.371100455522537231445312500000
        0.371760187670588493347167968750
        0.372973496094346046447753906250
        0.373827099800109863281250000000
        0.374528720974922180175781250000
        0.374888971447944641113281250000
        0.371922329068183898925781250000
        0.372328585013747215270996093750
        0.373161667957901954650878906250
        0.373932532966136932373046875000
        0.374467253684997558593750000000
        0.374725081026554107666015625000
        0.372649218887090682983398437500
        0.372883977368474006652832031250
        0.373545626178383827209472656250
        0.374099615961313247680664062500
        0.374536454677581787109375000000
        0.374643340706825256347656250000
        0.373127763470013973368111237505
        0.373442966490983963012695312500
        0.373971484601497650146484375000
        0.374428525567054748535156250000
        0.374768316745758056640625000000
        0.374811083078384399414062500000
        0.220834560692310333251953125000
        0.220807868987321853637695312500
        0.221196595579385757446289062500
        0.220568649470806121826171875000
        0.220692783594131469726562500000
        0.217828124761581420898437500000
        0.440964978188276290893554687500
        0.440942842513322830200195312500
        0.441537905484437942504882812500
        0.440938919782638549804687500000
        0.440308742225170135498046875000
        0.436586588621139526367187500000
        0.440593868494033813476562500000
        0.440497525036334991455078125000
        0.440864004194736480712890625000
        0.440506488084793090820312500000
        0.439340714365243911743164062500
        0.437608722597360610961914062500
        0.441113192588090896606445312500
        0.440878331661224365234375000000
        0.441013179719448089599609375000
        0.440368093550205230712890625000
        0.439530272036790847778320312500
        0.438173990696668624877929687500
        0.441360674798488616943359375000
        0.441089235246181488037109375000
        0.441036384552717208862304687500
        0.440490510314702987670898437500
        0.439797036349773406982421875000
        0.438873298466205596923828125000
        0.441435972849528013295383743753
        0.441215194761753082275390625000
        0.441080380231142044067382812500
        0.440640997141599655151367187500
        0.440115213394165039062500000000
        0.439399580160776792592258743753
        0.261500194668769836425781250000
        0.260844402015209197998046875000
        0.260324783623218536376953125000
        0.260115377604961395263671875000
        0.259488008916378021240234375000
        0.259416408836841583251953125000
        0.524025470018386840820312500000
        0.522696398198604583740234375000
        0.522001706063747406005859375000
        0.521700389683246612548828125000
        0.521097615361213684082031250000
        0.520687505602836608886718750000
        0.525148361921310424804687500000
        0.524223066866397857666015625000
        0.523933552205562591552734375000
        0.524003677070140838623046875000
        0.524012643843889236450195312500
        0.523532252758741378784179687500
        0.525285169482231140136718750000
        0.524967208504676818847656250000
        0.524869881570339202880859375000
        0.525140397250652313232421875000
        0.525090713053941726684570312500
        0.524735551327466964721679687500
        0.525280848145484924316406250000
        0.525259710848331451416015625000
        0.525288131088018417358398437500
        0.525476064532995223999023437500
        0.525389559566974639892578125000
        0.525033496320247650146484375000
        0.525235752264658684040909975010
        0.525312148034572601318359375000
        0.525349084287881851196289062500
        0.525432806462049484252929687500
        0.525276616215705871582031250000
        0.525052050749460819112357512495
        0.306281853467226028442382812500
        0.310066096484661102294921875000
        0.312927201390266418457031250000
        0.315784396603703498840332031250
        0.319597600027918815612792968750
        0.326969742774963378906250000000
        0.612337172031402587890625000000
        0.619773119688034057617187500000
        0.625551760196685791015625000000
        0.630707943812012672424316406250
        0.638472130522131919860839843750
        0.649442821741104125976562500000
        0.612660188227891921997070312500
        0.618991009891033172607421875000
        0.624540239572525024414062500000
        0.629250369966030120849609375000
        0.635900914669036865234375000000
        0.641772754490375518798828125000
        0.613630115985870361328125000000
        0.618433371186256408691406250000
        0.623338460922241210937500000000
        0.627716109156608581542968750000
        0.632656954228878021240234375000
        0.636328764259815216064453125000
        0.614494703710079193115234375000
        0.618222646415233612060546875000
        0.622209168970584869384765625000
        0.625837236642837524414062500000
        0.629764243960380554199218750000
        0.632258445024490356445312500000
        0.615004539489746093750000000000
        0.617456831037998199462890625000
        0.620683483779430389404296875000
        0.623801350593566894531250000000
        0.627030089497566223144531250000
        0.629426459471384647237357512495
        0.370013087987899780273437500000
        0.374275423586368560791015625000
        0.378011353313922882080078125000
        0.380770402029156684875488281250
        0.381683124229311943054199218750
        0.379471346270292997360229492188
        0.739924076944589614868164062500
        0.747441273182630538940429687500
        0.753947990015149116516113281250
        0.759276323020458221435546875000
        0.761445792391896247863769531250
        0.758416287135332822799682617188
        0.739521611481904983520507812500
        0.745445918291807174682617187500
        0.750357383862137794494628906250
        0.755064280703663825988769531250
        0.757717378437519073486328125000
        0.757055282592773437500000000000
        0.738718502223491668701171875000
        0.743569701910018920898437500000
        0.747388236224651336669921875000
        0.751290950924158096313476562500
        0.754095915704965591430664062500
        0.754757158458232879638671875000
        0.737787924706935882568359375000
        0.741562098264694213867187500000
        0.744578748941421508789062500000
        0.747806958854198455810546875000
        0.750591062009334564208984375000
        0.751724258065223693847656250000
        0.737110038598378536356392487505
        0.739184759557247161865234375000
        0.741757117211818695068359375000
        0.744572699069976806640625000000
        0.747375167906284332275390625000
        0.749187290668487437805822537484
        0.441586907953023910522460937500
        0.438037663698196411132812500000
        0.434077404439449310302734375000
        0.433347590267658233642578125000
        0.434619419276714324951171875000
        0.435973345767706632614135742188
        0.879874248057603836059570312500
        0.874921839684247970581054687500
        0.869088755920529365539550781250
        0.867633348330855369567871093750
        0.869194146245718002319335937500
        0.870725437533110380172729492188
        0.874374657869338989257812500000
        0.872649434953927993774414062500
        0.869939284399151802062988281250
        0.868646608665585517883300781250
        0.868887156248092651367187500000
        0.868408039212226867675781250000
        0.871102593839168548583984375000
        0.870715960860252380371093750000
        0.869663696736097335815429687500
        0.868735812604427337646484375000
        0.868445511907339096069335937500
        0.867161363363265991210937500000
        0.869233131408691406250000000000
        0.869336955249309539794921875000
        0.869059395045042037963867187500
        0.868486221879720687866210937500
        0.868021808564662933349609375000
        0.866839468479156494140625000000
        0.868130187193552615987357512495
        0.868078529834747314453125000000
        0.867969270795583724975585937500
        0.867665942758321762084960937500
        0.867262460291385650634765625000
        0.866648336251576667521590024990
        0.485864430665969848632812500000
        0.490137510001659393310546875000
        0.493358459323644638061523437500
        0.492853128351271152496337890625
        0.489327964372932910919189453125
        0.488572768867015838623046875000
        0.976117923855781555175781250000
        0.982973225414752960205078125000
        0.988339524716138839721679687500
        0.987437591888010501861572265625
        0.981943842954933643341064453125
        0.980286035686731338500976562500
        0.983976110816001892089843750000
        0.988091394305229187011718750000
        0.991407044231891632080078125000
        0.990931645035743713378906250000
        0.987629219889640808105468750000
        0.986495848745107650756835937500
        0.989807635545730590820312500000
        0.992397442460060119628906250000
        0.994334880262613296508789062500
        0.994144860655069351196289062500
        0.991870537400245666503906250000
        0.991513475775718688964843750000
        0.994050025939941406250000000000
        0.995733469724655151367187500000
        0.997073624283075332641601562500
        0.996926818042993545532226562500
        0.995360031723976135253906250000
        0.995046429336071014404296875000
        0.996961553891499763224715024990
        0.998502075672149658203125000000
        0.999574046581983566284179687500
        0.999497916549444198608398437500
        0.998411417007446289062500000000
        0.997480601072311290344885037484
        0.621729567646980285644531250000
        0.626193515956401824951171875000
        0.629074405878782272338867187500
        0.624291294254362583160400390625
        0.620399651117622852325439453125
        0.618737451732158660888671875000
        1.245214864611625671386718750000
        1.251532740890979766845703125000
        1.255391385406255722045898437500
        1.247575492598116397857666015625
        1.240531076677143573760986328125
        1.236422475427389144897460937500
        1.246838450431823730468750000000
        1.248774319887161254882812500000
        1.249622493982315063476562500000
        1.244802750647068023681640625000
        1.239448457956314086914062500000
        1.234722118824720382690429687500
        1.245939657092094421386718750000
        1.245368033647537231445312500000
        1.244610667228698730468750000000
        1.241543315351009368896484375000
        1.237936794757843017578125000000
        1.233708538115024566650390625000
        1.244149461388587951660156250000
        1.242689907550811767578125000000
        1.241201091557741165161132812500
        1.238979410380125045776367187500
        1.236533336341381072998046875000
        1.233293555676937103271484375000
        1.242226243019104003906250000000
        1.240554742515087127685546875000
        1.238758411258459091186523437500
        1.236903462558984756469726562500
        1.234831631183624267578125000000
        1.233017037312189811970597475010
        0.787352949380874633789062500000
        0.785843268036842346191406250000
        0.781554728746414184570312500000
        0.775409825146198272705078125000
        0.771226964890956878662109375000
        0.769156739115715026855468750000
        1.568090423941612243652343750000
        1.565921887755393981933593750000
        1.557268530130386352539062500000
        1.546547435224056243896484375000
        1.538994543254375457763671875000
        1.533179700374603271484375000000
        1.556222960352897644042968750000
        1.554797500371932983398437500000
        1.547078132629394531250000000000
        1.538875192403793334960937500000
        1.532699204981327056884765625000
        1.525422595441341400146484375000
        1.546321645379066467285156250000
        1.544760987162590026855468750000
        1.538637652993202209472656250000
        1.532280512154102325439453125000
        1.527168512344360351562500000000
        1.520426906645298004150390625000
        1.537686064839363098144531250000
        1.535882294178009033203125000000
        1.530903626233339309692382812500
        1.526092898100614547729492187500
        1.521997116506099700927734375000
        1.516316562891006469726562500000
        1.531115055084228515625000000000
        1.527759097516536712646484375000
        1.523427631705999374389648437500
        1.519577030092477798461914062500
        1.516267374157905578613281250000
        1.513512233893076652790909975010
        0.834312811493873596191406250000
        0.833648502826690673828125000000
        0.834950566291809082031250000000
        0.837130568921566009521484375000
        0.833651095628738403320312500000
        0.827220432460308074951171875000
        1.670597180724143981933593750000
        1.669366441667079925537109375000
        1.671338930726051330566406250000
        1.673470452427864074707031250000
        1.667376346886157989501953125000
        1.657698132097721099853515625000
        1.672845132648944854736328125000
        1.672172412276268005371093750000
        1.672539234161376953125000000000
        1.671703018248081207275390625000
        1.667203329503536224365234375000
        1.661625146865844726562500000000
        1.672887258231639862060546875000
        1.672603033483028411865234375000
        1.671686448156833648681640625000
        1.669987060129642486572265625000
        1.666593566536903381347656250000
        1.662640079855918884277343750000
        1.671928003430366516113281250000
        1.671486258506774902343750000000
        1.670148678123950958251953125000
        1.668414421379566192626953125000
        1.665815770626068115234375000000
        1.663040876388549804687500000000
        1.670529445012410407755965024990
        1.669586762785911560058593750000
        1.668099939823150634765625000000
        1.666473701596260070800781250000
        1.664550781250000000000000000000
        1.662998517354329353068465024990
        0.871845915913581848144531250000
        0.873146250844001770019531250000
        0.873324751853942871093750000000
        0.872526068240404129028320312500
        0.871102016419172286987304687500
        0.870801895856857299804687500000
        1.742751806974411010742187500000
        1.745051033794879913330078125000
        1.745190024375915527343750000000
        1.743916098028421401977539062500
        1.741345006972551345825195312500
        1.740298654884099960327148437500
        1.741297572851181030273437500000
        1.743063233792781829833984375000
        1.743100635707378387451171875000
        1.742296241223812103271484375000
        1.740295708179473876953125000000
        1.738990556448698043823242187500
        1.740611977875232696533203125000
        1.741870544850826263427734375000
        1.742020994424819946289062500000
        1.741400942206382751464843750000
        1.739952571690082550048828125000
        1.738966539502143859863281250000
        1.740376494824886322021484375000
        1.741155706346035003662109375000
        1.741240553557872772216796875000
        1.740718565881252288818359375000
        1.739743635058403015136718750000
        1.739036098122596740722656250000
        1.740168372790018569418180049979
        1.740468531847000122070312500000
        1.740515157580375671386718750000
        1.740162014961242675781250000000
        1.739633128046989440917968750000
        1.739226559797922622152555049979
        0.909317329525947570800781250000
        0.910515755414962768554687500000
        0.909888483583927154541015625000
        0.910109082236886024475097656250
        0.909518575295805931091308593750
        0.909087546169757843017578125000
        1.817457661032676696777343750000
        1.819538700394332408905029296875
        1.818952363915741443634033203125
        1.819405604153871536254882812500
        1.819422086700797080993652343750
        1.819380376487970352172851562500
        1.815215133130550384521484375000
        1.816757510416209697723388671875
        1.816837904043495655059814453125
        1.817546626552939414978027343750
        1.818848293274641036987304687500
        1.819191846996545791625976562500
        1.813336659222841262817382812500
        1.814447570592164993286132812500
        1.814655818045139312744140625000
        1.815626028925180435180664062500
        1.816881295293569564819335937500
        1.817001424729824066162109375000
        1.811923483386635780334472656250
        1.812684245407581329345703125000
        1.813046045601367950439453125000
        1.813969098031520843505859375000
        1.815063167363405227661132812500
        1.815345112234354019165039062500
        1.811035685241222381591796875000
        1.811234213411808013916015625000
        1.811624020338058471679687500000
        1.812413189560174942016601562500
        1.813387311995029449462890625000
        1.813993707299232482910156250000
        0.933292401954531669616699218750
        0.933597186580300331115722656250
        0.935965068638324737548828125000
        0.938260877504944801330566406250
        0.940104419365525245666503906250
        0.940080866217613220214843750000
        1.867894617840647697448730468750
        1.868516688235104084014892578125
        1.872509465552866458892822265625
        1.876223977655172348022460937500
        1.878477698192000389099121093750
        1.877932615578174591064453125000
        1.870101526379585266113281250000
        1.871113789267838001251220703125
        1.873872171156108379364013671875
        1.876145942136645317077636718750
        1.876716490834951400756835937500
        1.875864606350660324096679687500
        1.871801901608705520629882812500
        1.873153461143374443054199218750
        1.875130856409668922424316406250
        1.876518722623586654663085937500
        1.876772869378328323364257812500
        1.876312397420406341552734375000
        1.873196573927998542785644531250
        1.874404363334178924560546875000
        1.875830903649330139160156250000
        1.876736946403980255126953125000
        1.876915760338306427001953125000
        1.876709483563899993896484375000
        1.874119969705740684773331850010
        1.875100456178188323974609375000
        1.876108806580305099487304687500
        1.876726418733596801757812500000
        1.876957751810550689697265625000
        1.876903936266899108886718750000
        0.975185515359044075012207031250
        0.973356241360306739807128906250
        0.971049919724464416503906250000
        0.968877799808979034423828125000
        0.966662295162677764892578125000
        0.965140089392662048339843750000
        1.949949260801076889038085937500
        1.946616100147366523742675781250
        1.942603718489408493041992187500
        1.938888113945722579956054687500
        1.936014305800199508666992187500
        1.934946082532405853271484375000
        1.949390632100403308868408203125
        1.946479057893157005310058593750
        1.943371543660759925842285156250
        1.940604064613580703735351562500
        1.939413346350193023681640625000
        1.939984772354364395141601562500
        1.949103654362261295318603515625
        1.946525296196341514587402343750
        1.943955710157752037048339843750
        1.941803403198719024658203125000
        1.940778344869613647460937500000
        1.940851263701915740966796875000
        1.948829399421811103820800781250
        1.946709040552377700805664062500
        1.944673903286457061767578125000
        1.943032890558242797851562500000
        1.942019280046224594116210937500
        1.941836278885602951049804687500
        1.948531890908877128865128725010
        1.947119917720556259155273437500
        1.945519115775823593139648437500
        1.944198470562696456909179687500
        1.943131372332572937011718750000
        1.942573537429173713420027524990
        1.011651195585727691650390625000
        1.000748664140701293945312500000
        0.991621196269989013671875000000
        0.986879371106624603271484375000
        0.987156495451927185058593750000
        0.972710192203521728515625000000
        2.009157951921224594116210937500
        1.990648418664932250976562500000
        1.977516308426856994628906250000
        1.970138221979141235351562500000
        1.974911242723464965820312500000
        1.968341410160064697265625000000
        1.993966424837708473205566406250
        1.978624485433101654052734375000
        1.972659774124622344970703125000
        1.966873519122600555419921875000
        1.973826646804809570312500000000
        1.982559829950332641601562500000
        1.991355570033192634582519531250
        1.976995341479778289794921875000
        1.972635053098201751708984375000
        1.967870339751243591308593750000
        1.972337394952774047851562500000
        1.973498865962028503417968750000
        1.988200996071100234985351562500
        1.976794831454753875732421875000
        1.972407251596450805664062500000
        1.969172656536102294921875000000
        1.971859857439994812011718750000
        1.972659662365913391113281250000
        1.984971731901168823242187500000
        1.977737419307231903076171875000
        1.973432838916778564453125000000
        1.970862507820129394531250000000
        1.970898240804672241210937500000
        1.971405665079752456136930049979
        0.007048070430755615234375000000
        0.006162226200103759765625000000
        0.007400136440992355346679687500
        0.006961630657315254211425781250
        0.002665793523192405700683593750
        0.015255905687808990478515625000
        0.014427259564399719238281250000
        0.015277225524187088012695312500
        0.013495625928044319152832031250
        0.007323903962969779968261718750
        0.016485363245010375976562500000
        0.016302332282066345214843750000
        0.015466772019863128662109375000
        0.013298302888870239257812500000
        0.010412149131298065185546875000
        0.016607291996479034423828125000
        0.016105234622955322265625000000
        0.015283256769180297851562500000
        0.013848945498466491699218750000
        0.012188509106636047363281250000
        0.016693085432052612304687500000
        0.016178444027900695800781250000
        0.015465542674064636230468750000
        0.014428168535232543945312500000
        0.013380140066146850585937500000
        0.016826719045639038085937500000
        0.016326054930686950683593750000
        0.015697121620178222656250000000
        0.014870569109916687011718750000
        0.014117062091827392578125000000
        0.017580211162567138671875000000
        0.017915062606334686279296875000
        0.015806363895535469055175781250
        0.013472483493387699127197265625
        0.015029561705887317657470703125
        0.034447345882654190063476562500
        0.033994540572166442871093750000
        0.031098058447241783142089843750
        0.028278813697397708892822265625
        0.030049555934965610504150390625
        0.033892735838890075683593750000
        0.032462134957313537597656250000
        0.031152870506048202514648437500
        0.030244596302509307861328125000
        0.030383121222257614135742187500
        0.034170974045991897583007812500
        0.032999910414218902587890625000
        0.032032161951065063476562500000
        0.031283639371395111083984375000
        0.031093746423721313476562500000
        0.034418933093547821044921875000
        0.033483311533927917480468750000
        0.032688029110431671142578125000
        0.032041981816291809082031250000
        0.031807728111743927001953125000
        0.034760542213916778564453125000
        0.034021817147731781005859375000
        0.033365651965141296386718750000
        0.032742537558078765869140625000
        0.032370636860529586331658435938
        0.032536916434764862060546875000
        0.029741317033767700195312500000
        0.030786048620939254760742187500
        0.032964996993541717529296875000
        0.033863925375044345855712890625
        0.066316071897745132446289062500
        0.062325224280357360839843750000
        0.063164692372083663940429687500
        0.065912261605262756347656250000
        0.067726575769484043121337890625
        0.067793384194374084472656250000
        0.065785065293312072753906250000
        0.065283514559268951416015625000
        0.066162869334220886230468750000
        0.067786127328872680664062500000
        0.068335354328155517578125000000
        0.067004740238189697265625000000
        0.066473526880145072937011718750
        0.066843386739492416381835937500
        0.067966951057314872741699218750
        0.068955425173044204711914062500
        0.068111613392829895019531250000
        0.067671073600649833679199218750
        0.067686852067708969116210937500
        0.068293398246169090270996093750
        0.069714099168777465820312500000
        0.069151174277067184448242187500
        0.068771749734878540039062500000
        0.068626180291175842285156250000
        0.068692723910013839261345935938
        0.054223164916038513183593750000
        0.055281883105635643005371093750
        0.052595213055610656738281250000
        0.051099177449941635131835937500
        0.051955862902104854583740234375
        0.107054211199283599853515625000
        0.107742207124829292297363281250
        0.104496963322162628173828125000
        0.103121180087327957153320312500
        0.104494712315499782562255859375
        0.105912903323769569396972656250
        0.105379855260252952575683593750
        0.104651454836130142211914062500
        0.104656860232353210449218750000
        0.105370536446571350097656250000
        0.106373718008399009704589843750
        0.106076618656516075134277343750
        0.105796514078974723815917968750
        0.105625450611114501953125000000
        0.105962993577122688293457031250
        0.106767017394304275512695312500
        0.106555029749870300292968750000
        0.106412878260016441345214843750
        0.106289479881525039672851562500
        0.106532482430338859558105468750
        0.107230253517627716064453125000
        0.107134595513343811035156250000
        0.107076909393072128295898437500
        0.106980334967374801635742187500
        0.106984938184420258489026878124
        0.077100880444049835205078125000
        0.078488668426871299743652343750
        0.077860374003648757934570312500
        0.077168684452772140502929687500
        0.078009892255067825317382812500
        0.154350619763135910034179687500
        0.156622031703591346740722656250
        0.155600752681493759155273437500
        0.153995994478464126586914062500
        0.154349230229854583740234375000
        0.153631428256630897521972656250
        0.154891019687056541442871093750
        0.154258774593472480773925781250
        0.152971340343356132507324218750
        0.152147814631462097167968750000
        0.152153288945555686950683593750
        0.152697717770934104919433593750
        0.152369314804673194885253906250
        0.151806114241480827331542968750
        0.151283308863639831542968750000
        0.151138015091419219970703125000
        0.151355274021625518798828125000
        0.151223186403512954711914062500
        0.150991279631853103637695312500
        0.150710299611091613769531250000
        0.150454200804233551025390625000
        0.150537487119436264038085937500
        0.150494102388620376586914062500
        0.150461260229349136352539062500
        0.150423839688301086425781250000
        0.098623514175415039062500000000
        0.098148599267005920410156250000
        0.099886368960142135620117187500
        0.098929530009627342224121093750
        0.095378780737519264221191406250
        0.195412974804639816284179687500
        0.195209626108407974243164062500
        0.197465311735868453979492187500
        0.196363145485520362854003906250
        0.191622612997889518737792968750
        0.193383015692234039306640625000
        0.193936303257942199707031250000
        0.194670179858803749084472656250
        0.194216525182127952575683593750
        0.192373871803283691406250000000
        0.192977735772728919982910156250
        0.193415855988860130310058593750
        0.193641768768429756164550781250
        0.193137517198920249938964843750
        0.192126147449016571044921875000
        0.192586196586489677429199218750
        0.192787935957312583923339843750
        0.192765362560749053955078125000
        0.192434288561344146728515625000
        0.191881615668535232543945312500
        0.192220754921436309814453125000
        0.192223142832517623901367187500
        0.192142091691493988037109375000
        0.191915068775415420532226562500
        0.191701600948969513860120628124
        0.111693389713764190673828125000
        0.111289881169795989990234375000
        0.110600806772708892822265625000
        0.112177707254886627197265625000
        0.114927418529987335205078125000
        0.226153600960969924926757812500
        0.225392621010541915893554687500
        0.224678479135036468505859375000
        0.226354561746120452880859375000
        0.229485742747783660888671875000
        0.229674926027655601501464843750
        0.229083169251680374145507812500
        0.228927407413721084594726562500
        0.229120802134275436401367187500
        0.229728795588016510009765625000
        0.230898275971412658691406250000
        0.230537453666329383850097656250
        0.230357240885496139526367187500
        0.230441205203533172607421875000
        0.230726361274719238281250000000
        0.231651639565825462341308593750
        0.231438921764492988586425781250
        0.231342934072017669677734375000
        0.231308143585920333862304687500
        0.231402341276407241821289062500
        0.232204798609018325805664062500
        0.232085704803466796875000000000
        0.231978826224803924560546875000
        0.231899145990610122680664062500
        0.231837163368860871281995628124
        0.140156067907810211181640625000
        0.139724135398864746093750000000
        0.139842592179775238037109375000
        0.139966363087296485900878906250
        0.139590283855795860290527343750
        0.278434794396162033081054687500
        0.278078412637114524841308593750
        0.277886794880032539367675781250
        0.278389448300004005432128906250
        0.279183266684412956237792968750
        0.276028228923678398132324218750
        0.276177177205681800842285156250
        0.275994403287768363952636718750
        0.276725795120000839233398437500
        0.278730597347021102905273437500
        0.275404142215847969055175781250
        0.275563661009073257446289062500
        0.275854840874671936035156250000
        0.276570744812488555908203125000
        0.278055578470230102539062500000
        0.275447331368923187255859375000
        0.275643404573202133178710937500
        0.275992166250944137573242187500
        0.276646450161933898925781250000
        0.277737528085708618164062500000
        0.275897491723299026489257812500
        0.276119720190763473510742187500
        0.276490055024623870849609375000
        0.277030326426029205322265625000
        0.277634809414545713490696243753
        0.156528487801551818847656250000
        0.157604828476905822753906250000
        0.158819105476140975952148437500
        0.160570066422224044799804687500
        0.162857193499803543090820312500
        0.315634299069643020629882812500
        0.317237799987196922302246093750
        0.319817772135138511657714843750
        0.322412218898534774780273437500
        0.325592931360006332397460937500
        0.319375306367874145507812500000
        0.320354940369725227355957031250
        0.322343738749623298645019531250
        0.323970366269350051879882812500
        0.325760241597890853881835937500
        0.321273334324359893798828125000
        0.322109390050172805786132812500
        0.323204003274440765380859375000
        0.324496258050203323364257812500
        0.326084747910499572753906250000
        0.322445075958967208862304687500
        0.323110278695821762084960937500
        0.323916692286729812622070312500
        0.324860773980617523193359375000
        0.326041515916585922241210937500
        0.323256403207778930664062500000
        0.323815461248159408569335937500
        0.324450138956308364868164062500
        0.325238443911075592041015625000
        0.325944483280181829254473768742
        0.188707601279020309448242187500
        0.188296079635620117187500000000
        0.189713384956121444702148437500
        0.189889684319496154785156250000
        0.188248656690120697021484375000
        0.376770567148923873901367187500
        0.376910768449306488037109375000
        0.378205385059118270874023437500
        0.378533102571964263916015625000
        0.376804631203413009643554687500
        0.375677399337291717529296875000
        0.376597065478563308715820312500
        0.376806531101465225219726562500
        0.376926101744174957275390625000
        0.376866150647401809692382812500
        0.374989327043294906616210937500
        0.375586148351430892944335937500
        0.376163031905889511108398437500
        0.376273214817047119140625000000
        0.376428101211786270141601562500
        0.374726127833127975463867187500
        0.375118549913167953491210937500
        0.375575248152017593383789062500
        0.375844620168209075927734375000
        0.376126911491155624389648437500
        0.374907270073890686035156250000
        0.375143464654684066772460937500
        0.375486943870782852172851562500
        0.375751979649066925048828125000
        0.375997483730316106598223768742
        0.217069964855909347534179687500
        0.219371780753135681152343750000
        0.219028614461421966552734375000
        0.218506556004285812377929687500
        0.218696214258670806884765625000
        0.434786800295114517211914062500
        0.437217175960540771484375000000
        0.437413834035396575927734375000
        0.436694964766502380371093750000
        0.436744693666696548461914062500
        0.435996003448963165283203125000
        0.435982987284660339355468750000
        0.436553671956062316894531250000
        0.436488401144742965698242187500
        0.436127711087465286254882812500
        0.437123768031597137451171875000
        0.436908148229122161865234375000
        0.436874896287918090820312500000
        0.436868242919445037841796875000
        0.436595439910888671875000000000
        0.438192151486873626708984375000
        0.438028052449226379394531250000
        0.437817260622978210449218750000
        0.437550857663154602050781250000
        0.437354281544685363769531250000
        0.439232185482978820800781250000
        0.439051985740661621093750000000
        0.438758403062820434570312500000
        0.438399724662303924560546875000
        0.438023438056310054911079987505
        0.259452059864997863769531250000
        0.259320065379142761230468750000
        0.259057760238647460937500000000
        0.254716813564300537109375000000
        0.251360759139060974121093750000
        0.520293220877647399902343750000
        0.519407838582992553710937500000
        0.516940787434577941894531250000
        0.510139621794223785400390625000
        0.506113640964031219482421875000
        0.522661387920379638671875000000
        0.520975694060325622558593750000
        0.517430141568183898925781250000
        0.513038463890552520751953125000
        0.511492766439914703369140625000
        0.523835919797420501708984375000
        0.521987609565258026123046875000
        0.519482299685478210449218750000
        0.516332104802131652832031250000
        0.514915816485881805419921875000
        0.524127237498760223388671875000
        0.522508457303047180175781250000
        0.520533069968223571777343750000
        0.518411964178085327148437500000
        0.517432987689971923828125000000
        0.524382300674915313720703125000
        0.523164175450801849365234375000
        0.521706134080886840820312500000
        0.520103342831134796142578125000
        0.519028296073277828348579987505
        0.329655900597572326660156250000
        0.326310664415359497070312500000
        0.319068171083927154541015625000
        0.312923133373260498046875000000
        0.310341574251651763916015625000
        0.653693668544292449951171875000
        0.648770563304424285888671875000
        0.637964375317096710205078125000
        0.626893781125545501708984375000
        0.619382470846176147460937500000
        0.643601693212985992431640625000
        0.640783868730068206787109375000
        0.634297154843807220458984375000
        0.625927001237869262695312500000
        0.617936827242374420166015625000
        0.636473774909973144531250000000
        0.634001541882753372192382812500
        0.629137955605983734130859375000
        0.623200871050357818603515625000
        0.617491800338029861450195312500
        0.631730727851390838623046875000
        0.629260499030351638793945312500
        0.625792644917964935302734375000
        0.621569305658340454101562500000
        0.617141310125589370727539062500
        0.627912662923336029052734375000
        0.625399187207221984863281250000
        0.622525550425052642822265625000
        0.619405254721641540527343750000
        0.616961280504862541462784975010
        0.374912738334387540817260742188
        0.371454231441020965576171875000
        0.371513560414314270019531250000
        0.370280455797910690307617187500
        0.367122668772935867309570312500
        0.751410938333719968795776367188
        0.745194323360919952392578125000
        0.742812022566795349121093750000
        0.739768575876951217651367187500
        0.734716456383466720581054687500
        0.753337591886520385742187500000
        0.748377077281475067138671875000
        0.743778027594089508056640625000
        0.739876225590705871582031250000
        0.735362872481346130371093750000
        0.752565003931522369384765625000
        0.748563814908266067504882812500
        0.744452290236949920654296875000
        0.740349128842353820800781250000
        0.735462751239538192749023437500
        0.750043936073780059814453125000
        0.746699590235948562622070312500
        0.743122078478336334228515625000
        0.739438146352767944335937500000
        0.735274780541658401489257812500
        0.747151836752891540527343750000
        0.744078859686851501464843750000
        0.740968756377696990966796875000
        0.737765982747077941894531250000
        0.735114912192026737081107512495
        0.436090170871466398239135742188
        0.433130264282226562500000000000
        0.429065987467765808105468750000
        0.428157750517129898071289062500
        0.425630610436201095581054687500
        0.869485675822943449020385742188
        0.865049980580806732177734375000
        0.860107235610485076904296875000
        0.857164423912763595581054687500
        0.852288264781236648559570312500
        0.865852795541286468505859375000
        0.863288417458534240722656250000
        0.861074261367321014404296875000
        0.857616618275642395019531250000
        0.854053013026714324951171875000
        0.864950455725193023681640625000
        0.862968020141124725341796875000
        0.860572554171085357666015625000
        0.857866667211055755615234375000
        0.855752497911453247070312500000
        0.865098111331462860107421875000
        0.863439381122589111328125000000
        0.861469201743602752685546875000
        0.859183624386787414550781250000
        0.857626840472221374511718750000
        0.865573149174451828002929687500
        0.864115495234727859497070312500
        0.862402051687240600585937500000
        0.860520109534263610839843750000
        0.859133263429006088784944950021
        0.489654229022562503814697265625
        0.492844172753393650054931640625
        0.498574025928974151611328125000
        0.497479923069477081298828125000
        0.495143704116344451904296875000
        0.982831877656280994415283203125
        0.987873808480799198150634765625
        0.994443878531455993652343750000
        0.994400307536125183105468750000
        0.992262318730354309082031250000
        0.989443119615316390991210937500
        0.992664899677038192749023437500
        0.994634211063385009765625000000
        0.996037494391202926635742187500
        0.995974980294704437255859375000
        0.994198463857173919677734375000
        0.996730785816907882690429687500
        0.998597122728824615478515625000
        0.999305572360754013061523437500
        0.998874589800834655761718750000
        0.997171178460121154785156250000
        0.999394394457340240478515625000
        1.000795185565948486328125000000
        1.001312270760536193847656250000
        1.000916846096515655517578125000
        0.999332185834646224975585937500
        1.001299995929002761840820312500
        1.002550989389419555664062500000
        1.002820484340190887451171875000
        1.002278357744216918945312500000
        0.613788769580423831939697265625
        0.607331276871263980865478515625
        0.598732948303222656250000000000
        0.598039865493774414062500000000
        0.605199269950389862060546875000
        1.227808591909706592559814453125
        1.215608694590628147125244140625
        1.202417328953742980957031250000
        1.201596438884735107421875000000
        1.211643084883689880371093750000
        1.227612596005201339721679687500
        1.218391072005033493041992187500
        1.210892640054225921630859375000
        1.209864262491464614868164062500
        1.214446336030960083007812500000
        1.227816812694072723388671875000
        1.222018588334321975708007812500
        1.217219516634941101074218750000
        1.215469997376203536987304687500
        1.217612184584140777587890625000
        1.229097597301006317138671875000
        1.225414119660854339599609375000
        1.222405903041362762451171875000
        1.220573529601097106933593750000
        1.221063517034053802490234375000
        1.230823129415512084960937500000
        1.228619314730167388916015625000
        1.226641014218330383300781250000
        1.224909119307994842529296875000
        1.224008808533350478597867549979
        0.762415602803230285644531250000
        0.752881735563278198242187500000
        0.744059816002845764160156250000
        0.739349275827407836914062500000
        0.741661787033081054687500000000
        1.521074146032333374023437500000
        1.504021376371383666992187500000
        1.488251417875289916992187500000
        1.480307064950466156005859375000
        1.481987319886684417724609375000
        1.514705866575241088867187500000
        1.501206487417221069335937500000
        1.488913074135780334472656250000
        1.483067147433757781982421875000
        1.482204668223857879638671875000
        1.510538563132286071777343750000
        1.499783933162689208984375000000
        1.490617334842681884765625000000
        1.485803842544555664062500000000
        1.484925568103790283203125000000
        1.508134543895721435546875000000
        1.499786272644996643066406250000
        1.493056535720825195312500000000
        1.488884679973125457763671875000
        1.487596251070499420166015625000
        1.507801428437232971191406250000
        1.501330867409706115722656250000
        1.496051371097564697265625000000
        1.492220677435398101806640625000
        1.490184058745702033732527524990
        0.827270202338695526123046875000
        0.828149892389774322509765625000
        0.829252541065216064453125000000
        0.825534254312515258789062500000
        0.822181880474090576171875000000
        1.656138405203819274902343750000
        1.657847158610820770263671875000
        1.659075707197189331054687500000
        1.652883306145668029785156250000
        1.647479608654975891113281250000
        1.658792190253734588623046875000
        1.659226208925247192382812500000
        1.658762603998184204101562500000
        1.654659792780876159667968750000
        1.651372909545898437500000000000
        1.660334780812263488769531250000
        1.659234449267387390136718750000
        1.657828688621520996093750000000
        1.654961720108985900878906250000
        1.652848437428474426269531250000
        1.661013647913932800292968750000
        1.659513324499130249023437500000
        1.657890871167182922363281250000
        1.655726276338100433349609375000
        1.654299251735210418701171875000
        1.661601223051548004150390625000
        1.660015530884265899658203125000
        1.658449202775955200195312500000
        1.656783927232027053833007812500
        1.655596042672793144490128725010
        0.871194042265415191650390625000
        0.870962925255298614501953125000
        0.870018169283866882324218750000
        0.871858738362789154052734375000
        0.872855775058269500732421875000
        1.740917589515447616577148437500
        1.740512862801551818847656250000
        1.739294394850730895996093750000
        1.741554997861385345458984375000
        1.743413507938385009765625000000
        1.739322934299707412719726562500
        1.739234320819377899169921875000
        1.738846011459827423095703125000
        1.739452805370092391967773437500
        1.740703258663415908813476562500
        1.739103130996227264404296875000
        1.739267915487289428710937500000
        1.739097535610198974609375000000
        1.739376265555620193481445312500
        1.740075442939996719360351562500
        1.739047296345233917236328125000
        1.739142797887325286865234375000
        1.739067107439041137695312500000
        1.739245213568210601806640625000
        1.739713914692401885986328125000
        1.739261522889137268066406250000
        1.739315323531627655029296875000
        1.739304296672344207763671875000
        1.739469598978757858276367187500
        1.739677086472511291503906250000
        0.909720874391496181488037109375
        0.908203576691448688507080078125
        0.907984416931867599487304687500
        0.907404002733528614044189453125
        0.904749403707683086395263671875
        1.819150052033364772796630859375
        1.817085557617247104644775390625
        1.816391933709383010864257812500
        1.814874147064983844757080078125
        1.811059030704200267791748046875
        1.817806020379066467285156250000
        1.816542748361825942993164062500
        1.815662462264299392700195312500
        1.814322616904973983764648437500
        1.812237069010734558105468750000
        1.815887972712516784667968750000
        1.814577423036098480224609375000
        1.813820332288742065429687500000
        1.813052676618099212646484375000
        1.811608687043190002441406250000
        1.814353324472904205322265625000
        1.813256025314331054687500000000
        1.812588710337877273559570312500
        1.811980221420526504516601562500
        1.811061315238475799560546875000
        1.813036344945430755615234375000
        1.812074057757854461669921875000
        1.811486206948757171630859375000
        1.811023354530334472656250000000
        1.810604850451151381918180049979
        0.938569507561624050140380859375
        0.938949559815227985382080078125
        0.939649868756532669067382812500
        0.938984130509197711944580078125
        0.938094454817473888397216796875
        1.875816049985587596893310546875
        1.876216352917253971099853515625
        1.876993071287870407104492187500
        1.875989065505564212799072265625
        1.874776287935674190521240234375
        1.875207044184207916259765625000
        1.875334717333316802978515625000
        1.875220026820898056030273437500
        1.874625023454427719116210937500
        1.873993374407291412353515625000
        1.876241374760866165161132812500
        1.876413676887750625610351562500
        1.876021809875965118408203125000
        1.875452574342489242553710937500
        1.874926593154668807983398437500
        1.876738004386425018310546875000
        1.876787520945072174072265625000
        1.876402031630277633666992187500
        1.875838655978441238403320312500
        1.875359542667865753173828125000
        1.876948729157447814941406250000
        1.876876063644886016845703125000
        1.876547172665596008300781250000
        1.876093439757823944091796875000
        1.875669787327448378988492549979
        0.966406870633363723754882812500
        0.968040589243173599243164062500
        0.968169968575239181518554687500
        0.969854388386011123657226562500
        0.972519010305404663085937500000
        1.937171634286642074584960937500
        1.939935673028230667114257812500
        1.941149082034826278686523437500
        1.943666085600852966308593750000
        1.947014946490526199340820312500
        1.941638324409723281860351562500
        1.943787228316068649291992187500
        1.945800438523292541503906250000
        1.947386670857667922973632812500
        1.948674011975526809692382812500
        1.942063149064779281616210937500
        1.943908419460058212280273437500
        1.945622660219669342041015625000
        1.947046644985675811767578125000
        1.948127694427967071533203125000
        1.942711420357227325439453125000
        1.944208294153213500976562500000
        1.945642806589603424072265625000
        1.946884296834468841552734375000
        1.947815701365470886230468750000
        1.943414762616157531738281250000
        1.944707155227661132812500000000
        1.945887491106986999511718750000
        1.946951813995838165283203125000
        1.947663754224777221679687500000
        0.971795447170734405517578125000
        0.969930805265903472900390625000
        0.944703854620456695556640625000
        0.961511291563510894775390625000
        0.987733989953994750976562500000
        1.967707313597202301025390625000
        1.970287986099720001220703125000
        1.955063439905643463134765625000
        1.964701347053050994873046875000
        1.982008442282676696777343750000
        1.980890244245529174804687500000
        1.987844318151473999023437500000
        1.998986244201660156250000000000
        1.992545709013938903808593750000
        1.984041467308998107910156250000
        1.970432519912719726562500000000
        1.975257158279418945312500000000
        1.978731215000152587890625000000
        1.978936403989791870117187500000
        1.978690072894096374511718750000
        1.971051752567291259765625000000
        1.974635481834411621093750000000
        1.978168725967407226562500000000
        1.978282988071441650390625000000
        1.978238508105278015136718750000
        1.971484005451202392578125000000
        1.974055111408233642578125000000
        1.976005852222442626953125000000
        1.977519690990447998046875000000
        1.978612422943115234375000000000
        0.000000000000000000000000000000
        0.000000000000000000000000000000
        0.000000000000000000000000000000
        0.001276582479476928710937500000
        0.002583354711532592773437500000
        0.003032758831977844238281250000
        0.002731427550315856933593750000
        0.003642335534095764160156250000
        0.005318112671375274658203125000
        0.007115490734577178955078125000
        0.008590683341026306152343750000
        0.008331432938575744628906250000
        0.008825361728668212890625000000
        0.009389113634824752807617187500
        0.010251011699438095092773437500
        0.011270329356193542480468750000
        0.011145114898681640625000000000
        0.011401310563087463378906250000
        0.011651519685983657836914062500
        0.012266803532838821411132812500
        0.012940227985382080078125000000
        0.013016015291213989257812500000
        0.013175338506698608398437500000
        0.013299107551574707031250000000
        0.013709664344787597656250000000
        0.014149948954582214355468750000
        0.014339208602905273437500000000
        0.014508217573165893554687500000
        0.014591008424758911132812500000
        0.014592568079630535010648983985
        0.017374103888869285583496093750
        0.017802931368350982666015625000
        0.017926350235939025878906250000
        0.017595790326595306396484375000
        0.017315044999122619628906250000
        0.033050617203116416931152343750
        0.033918567001819610595703125000
        0.034334547817707061767578125000
        0.034314084798097610473632812500
        0.034332621842622756958007812500
        0.031409315764904022216796875000
        0.032362043857574462890625000000
        0.032971676439046859741210937500
        0.033495819196105003356933593750
        0.034125762060284614562988281250
        0.031635880470275878906250000000
        0.032468505203723907470703125000
        0.033133778721094131469726562500
        0.033652191981673240661621093750
        0.034290665760636329650878906250
        0.032144606113433837890625000000
        0.032753854990005493164062500000
        0.033380247652530670166015625000
        0.033884305506944656372070312500
        0.034467082470655441284179687500
        0.032799571752548217773437500000
        0.033358812332153320312500000000
        0.033871077001094818115234375000
        0.034291855990886688232421875000
        0.034634093443552657620720935938
        0.034836702980101108551025390625
        0.035753652453422546386718750000
        0.035989534109830856323242187500
        0.036231756210327148437500000000
        0.036829657852649688720703125000
        0.069778093136847019195556640625
        0.071593388915061950683593750000
        0.072228897362947463989257812500
        0.072631519287824630737304687500
        0.073586545884609222412109375000
        0.069599766284227371215820312500
        0.071054771542549133300781250000
        0.071947794407606124877929687500
        0.072507664561271667480468750000
        0.073245581239461898803710937500
        0.069286417216062545776367187500
        0.070370845496654510498046875000
        0.071303967386484146118164062500
        0.072066389024257659912109375000
        0.072807364165782928466796875000
        0.069281317293643951416015625000
        0.070231109857559204101562500000
        0.071074962615966796875000000000
        0.071824040263891220092773437500
        0.072485830634832382202148437500
        0.069414034485816955566406250000
        0.070261470973491668701171875000
        0.071028210222721099853515625000
        0.071736074984073638916015625000
        0.072245240211486816406250000000
        0.051983605138957500457763671875
        0.052142463624477386474609375000
        0.052423041313886642456054687500
        0.052891105413436889648437500000
        0.053640078753232955932617187500
        0.104764091782271862030029296875
        0.104943744838237762451171875000
        0.105509821325540542602539062500
        0.106293901801109313964843750000
        0.107579514384269714355468750000
        0.106032747775316238403320312500
        0.106409795582294464111328125000
        0.106876961886882781982421875000
        0.107341926544904708862304687500
        0.108194891363382339477539062500
        0.106705788522958755493164062500
        0.107339285314083099365234375000
        0.107783436775207519531250000000
        0.108110774308443069458007812500
        0.108649119734764099121093750000
        0.107127010822296142578125000000
        0.107661426067352294921875000000
        0.108144927769899368286132812500
        0.108458066359162330627441406250
        0.108842393383383750915527343750
        0.107489965856075286865234375000
        0.107988335192203521728515625000
        0.108389247208833694458007812500
        0.108662074431777000427246093750
        0.108887376884619399564080310938
        0.077383618801832199096679687500
        0.076027538627386093139648437500
        0.075643453747034072875976562500
        0.075305387377738952636718750000
        0.075105655938386917114257812500
        0.153335191309452056884765625000
        0.151418093591928482055664062500
        0.150666659697890281677246093750
        0.150298193097114562988281250000
        0.150083877146244049072265625000
        0.151266735047101974487304687500
        0.150231301784515380859375000000
        0.149671496823430061340332031250
        0.149662032723426818847656250000
        0.149702927097678184509277343750
        0.150456316769123077392578125000
        0.149674095213413238525390625000
        0.149314455687999725341796875000
        0.149274431169033050537109375000
        0.149359116330742835998535156250
        0.150177963078022003173828125000
        0.149628371000289916992187500000
        0.149328425526618957519531250000
        0.149214161559939384460449218750
        0.149230470880866050720214843750
        0.150071114301681518554687500000
        0.149631917476654052734375000000
        0.149362981319427490234375000000
        0.149204561486840248107910156250
        0.149167927602926880803480003124
        0.093882691115140914916992187500
        0.093639414757490158081054687500
        0.093700634315609931945800781250
        0.093963867053389549255371093750
        0.094148807227611541748046875000
        0.188735343515872955322265625000
        0.187809281051158905029296875000
        0.187757275998592376708984375000
        0.188033981248736381530761718750
        0.188300741836428642272949218750
        0.190275739878416061401367187500
        0.189091581851243972778320312500
        0.188714912161231040954589843750
        0.188523538410663604736328125000
        0.188610047101974487304687500000
        0.190927550196647644042968750000
        0.189962081611156463623046875000
        0.189464122056961059570312500000
        0.189116194844245910644531250000
        0.189072312787175178527832031250
        0.191076800227165222167968750000
        0.190296985208988189697265625000
        0.189832750707864761352539062500
        0.189484398812055587768554687500
        0.189398601651191711425781250000
        0.191210448741912841796875000000
        0.190617285668849945068359375000
        0.190171908587217330932617187500
        0.189796548336744308471679687500
        0.189636747042338044133558128124
        0.115221787244081497192382812500
        0.115034740418195724487304687500
        0.115177994593977928161621093750
        0.114782543852925300598144531250
        0.114897111430764198303222656250
        0.230531930923461914062500000000
        0.230661083012819290161132812500
        0.230649201199412345886230468750
        0.230108434334397315979003906250
        0.230364236980676651000976562500
        0.230711486190557479858398437500
        0.231150008738040924072265625000
        0.230994664132595062255859375000
        0.230894442647695541381835937500
        0.231163701042532920837402343750
        0.231164947152137756347656250000
        0.231431953608989715576171875000
        0.231392748653888702392578125000
        0.231383379548788070678710937500
        0.231585312634706497192382812500
        0.231722429394721984863281250000
        0.231938078999519348144531250000
        0.231882341206073760986328125000
        0.231807544827461242675781250000
        0.231905236840248107910156250000
        0.232077982276678085327148437500
        0.232209131121635437011718750000
        0.232164010405540466308593750000
        0.232077449560165405273437500000
        0.232055832942326872858629371876
        0.140841018408536911010742187500
        0.141862001270055770874023437500
        0.141156446188688278198242187500
        0.141095113009214401245117187500
        0.141377465799450874328613281250
        0.281220246106386184692382812500
        0.282377850264310836791992187500
        0.281662592664361000061035156250
        0.281643711030483245849609375000
        0.281851649284362792968750000000
        0.280347103253006935119628906250
        0.280803134664893150329589843750
        0.280834058299660682678222656250
        0.280822984874248504638671875000
        0.280654326081275939941406250000
        0.279423775151371955871582031250
        0.279963884502649307250976562500
        0.280161676928400993347167968750
        0.280218690633773803710937500000
        0.280060788616538047790527343750
        0.278671566396951675415039062500
        0.279102982953190803527832031250
        0.279417140409350395202636718750
        0.279603529721498489379882812500
        0.279537454247474670410156250000
        0.278133053332567214965820312500
        0.278514973819255828857421875000
        0.278812412172555923461914062500
        0.279004409909248352050781250000
        0.279134268561999021596164993753
        0.164375223219394683837890625000
        0.164655677974224090576171875000
        0.164709143340587615966796875000
        0.164444291964173316955566406250
        0.164265053346753120422363281250
        0.328402075916528701782226562500
        0.329378426074981689453125000000
        0.329406177625060081481933593750
        0.328953001648187637329101562500
        0.328631037846207618713378906250
        0.327726593241095542907714843750
        0.328661179170012474060058593750
        0.328811300918459892272949218750
        0.328732023015618324279785156250
        0.328425395302474498748779296875
        0.327291244640946388244628906250
        0.327716689556837081909179687500
        0.327980363741517066955566406250
        0.328123319894075393676757812500
        0.327831855975091457366943359375
        0.326888244599103927612304687500
        0.327147202566266059875488281250
        0.327291605994105339050292968750
        0.327423278242349624633789062500
        0.327213980257511138916015625000
        0.326280035078525543212890625000
        0.326389476656913757324218750000
        0.326453763991594314575195312500
        0.326551459729671478271484375000
        0.326607728997866331166477493753
        0.187253177165985107421875000000
        0.187206134200096130371093750000
        0.186896007508039474487304687500
        0.186853619292378425598144531250
        0.186453411355614662170410156250
        0.374967947602272033691406250000
        0.374006003141403198242187500000
        0.373522739857435226440429687500
        0.373237926512956619262695312500
        0.372479554265737533569335937500
        0.375773064792156219482421875000
        0.374320346862077713012695312500
        0.373686805367469787597656250000
        0.372972393408417701721191406250
        0.372279710136353969573974609375
        0.376045309007167816162109375000
        0.375019427388906478881835937500
        0.374219521880149841308593750000
        0.373358562588691711425781250000
        0.372746680863201618194580078125
        0.375953532755374908447265625000
        0.375173158943653106689453125000
        0.374531358480453491210937500000
        0.373771853744983673095703125000
        0.373288996517658233642578125000
        0.375855430960655212402343750000
        0.375355347990989685058593750000
        0.374818086624145507812500000000
        0.374163061380386352539062500000
        0.373723655939102117340411268742
        0.217494130134582519531250000000
        0.215949900448322296142578125000
        0.216048829257488250732421875000
        0.216050371527671813964843750000
        0.217868350446224212646484375000
        0.435382403433322906494140625000
        0.433736804872751235961914062500
        0.433703336864709854125976562500
        0.434361800551414489746093750000
        0.437316190451383590698242187500
        0.435816437005996704101562500000
        0.435689777135848999023437500000
        0.435947328805923461914062500000
        0.437312334775924682617187500000
        0.439350653439760208129882812500
        0.436449117958545684814453125000
        0.436680857092142105102539062500
        0.437352102249860763549804687500
        0.438558317720890045166015625000
        0.440065003931522369384765625000
        0.437518954277038574218750000000
        0.438001886010169982910156250000
        0.438545413315296173095703125000
        0.439407728612422943115234375000
        0.440362900495529174804687500000
        0.438441008329391479492187500000
        0.438878789544105529785156250000
        0.439327716827392578125000000000
        0.439853280782699584960937500000
        0.440337965885798099385795012495
        0.254312336444854736328125000000
        0.258634008467197418212890625000
        0.261022306978702545166015625000
        0.261699609458446502685546875000
        0.260507427155971527099609375000
        0.510039344429969787597656250000
        0.515961773693561553955078125000
        0.520184032618999481201171875000
        0.521643482148647308349609375000
        0.519884683191776275634765625000
        0.513303786516189575195312500000
        0.516129538416862487792968750000
        0.518703520298004150390625000000
        0.519488111138343811035156250000
        0.518679499626159667968750000000
        0.516140699386596679687500000000
        0.517902880907058715820312500000
        0.519058421254158020019531250000
        0.519059345126152038574218750000
        0.518717549741268157958984375000
        0.518084257841110229492187500000
        0.519041255116462707519531250000
        0.519592583179473876953125000000
        0.519412755966186523437500000000
        0.519222795963287353515625000000
        0.519786477088928222656250000000
        0.520518466830253601074218750000
        0.520724281668663024902343750000
        0.520444393157958984375000000000
        0.520043005545934078348579987505
        0.305227309465408325195312500000
        0.298315174877643585205078125000
        0.292949654161930084228515625000
        0.288669310510158538818359375000
        0.284471943974494934082031250000
        0.610573843121528625488281250000
        0.599019952118396759033203125000
        0.588212884962558746337890625000
        0.578789882361888885498046875000
        0.572412312030792236328125000000
        0.610547214746475219726562500000
        0.601817861199378967285156250000
        0.592110916972160339355468750000
        0.583322346210479736328125000000
        0.579589694738388061523437500000
        0.611088797450065612792968750000
        0.603760704398155212402343750000
        0.596169844269752502441406250000
        0.589485734701156616210937500000
        0.586675092577934265136718750000
        0.612270161509513854980468750000
        0.606620162725448608398437500000
        0.600868508219718933105468750000
        0.595386907458305358886718750000
        0.592996388673782348632812500000
        0.613834962248802185058593750000
        0.609550967812538146972656250000
        0.605140477418899536132812500000
        0.600597366690635681152343750000
        0.597562591234842899190482512495
        0.364749662578105926513671875000
        0.360327385365962982177734375000
        0.354582428932189941406250000000
        0.351948596537113189697265625000
        0.351830489933490753173828125000
        0.728555791079998016357421875000
        0.719343028962612152099609375000
        0.709769949316978454589843750000
        0.704896204173564910888671875000
        0.705030627548694610595703125000
        0.728348895907402038574218750000
        0.720040500164031982421875000000
        0.712950825691223144531250000000
        0.708454877138137817382812500000
        0.708707064390182495117187500000
        0.729324445128440856933593750000
        0.722771763801574707031250000000
        0.716996803879737854003906250000
        0.712909534573554992675781250000
        0.712635651230812072753906250000
        0.730202108621597290039062500000
        0.724964708089828491210937500000
        0.720422759652137756347656250000
        0.716842547059059143066406250000
        0.716093763709068298339843750000
        0.732024848461151123046875000000
        0.728046208620071411132812500000
        0.724344000220298767089843750000
        0.721004590392112731933593750000
        0.719138224919637081278267487505
        0.423301495611667633056640625000
        0.425835564732551574707031250000
        0.430391997098922729492187500000
        0.433430068194866180419921875000
        0.435404092073440551757812500000
        0.849744774401187896728515625000
        0.854187250137329101562500000000
        0.861004196107387542724609375000
        0.865927256643772125244140625000
        0.869093663990497589111328125000
        0.853785566985607147216796875000
        0.856722742319107055664062500000
        0.860409073531627655029296875000
        0.863765574991703033447265625000
        0.865805581212043762207031250000
        0.855913259088993072509765625000
        0.857749395072460174560546875000
        0.859905928373336791992187500000
        0.862167537212371826171875000000
        0.863709084689617156982421875000
        0.858015999197959899902343750000
        0.859312884509563446044921875000
        0.860459305346012115478515625000
        0.861732304096221923828125000000
        0.862804464995861053466796875000
        0.859775543212890625000000000000
        0.860588103532791137695312500000
        0.861205674707889556884765625000
        0.861895799636840820312500000000
        0.862429201602935791015625000000
        0.496343821287155151367187500000
        0.496387179940938949584960937500
        0.495517868548631668090820312500
        0.496754668653011322021484375000
        0.496384732425212860107421875000
        0.992650270462036132812500000000
        0.992167785763740539550781250000
        0.992145709693431854248046875000
        0.994459867477416992187500000000
        0.994358547031879425048828125000
        0.995058670639991760253906250000
        0.995027136057615280151367187500
        0.996324967592954635620117187500
        0.997393175959587097167968750000
        0.997859366238117218017578125000
        0.998603641986846923828125000000
        0.999385647475719451904296875000
        1.000313825905323028564453125000
        1.000325635075569152832031250000
        1.000463165342807769775390625000
        1.000857412815093994140625000000
        1.001560926437377929687500000000
        1.002234868705272674560546875000
        1.002088859677314758300781250000
        1.001927681267261505126953125000
        1.002781465649604797363281250000
        1.003519624471664428710937500000
        1.003912143409252166748046875000
        1.003638342022895812988281250000
        1.003167629241943359375000000000
        0.607966586947441101074218750000
        0.610506791621446609497070312500
        0.614842701703310012817382812500
        0.619496993720531463623046875000
        0.620148368179798126220703125000
        1.218057289719581604003906250000
        1.223350323736667633056640625000
        1.230534747242927551269531250000
        1.237352699041366577148437500000
        1.239005699753761291503906250000
        1.220573924481868743896484375000
        1.225838329643011093139648437500
        1.230900023132562637329101562500
        1.235024921596050262451171875000
        1.237466886639595031738281250000
        1.222085945308208465576171875000
        1.226879954338073730468750000000
        1.230935074388980865478515625000
        1.234516605734825134277343750000
        1.237441800534725189208984375000
        1.224410906434059143066406250000
        1.228508688509464263916015625000
        1.231926292181015014648437500000
        1.234944835305213928222656250000
        1.237681791186332702636718750000
        1.226818755269050598144531250000
        1.230246394872665405273437500000
        1.233162209391593933105468750000
        1.235746517777442932128906250000
        1.237600862979888916015625000000
        0.744835063815116882324218750000
        0.747901797294616699218750000000
        0.752212002873420715332031250000
        0.753844320774078369140625000000
        0.757055141031742095947265625000
        1.487774267792701721191406250000
        1.495103552937507629394531250000
        1.502793535590171813964843750000
        1.507411912083625793457031250000
        1.515029899775981903076171875000
        1.486382678151130676269531250000
        1.493828967213630676269531250000
        1.500343337655067443847656250000
        1.506587177515029907226562500000
        1.515449292957782745361328125000
        1.487823799252510070800781250000
        1.493518471717834472656250000000
        1.499362811446189880371093750000
        1.505639269948005676269531250000
        1.513802982866764068603515625000
        1.489883273839950561523437500000
        1.494387239217758178710937500000
        1.499331310391426086425781250000
        1.504982560873031616210937500000
        1.511700093746185302734375000000
        1.492552593350410461425781250000
        1.496320128440856933593750000000
        1.500563383102416992187500000000
        1.505465582013130187988281250000
        1.510005335013071547933805049979
        0.824874088168144226074218750000
        0.825938239693641662597656250000
        0.827469974756240844726562500000
        0.831682711839675903320312500000
        0.834474571049213409423828125000
        1.650618076324462890625000000000
        1.652997031807899475097656250000
        1.656283959746360778808593750000
        1.662292122840881347656250000000
        1.666276820003986358642578125000
        1.651933088898658752441406250000
        1.654279887676239013671875000000
        1.657516829669475555419921875000
        1.660342507064342498779296875000
        1.662677749991416931152343750000
        1.653114840388298034667968750000
        1.654915630817413330078125000000
        1.657541006803512573242187500000
        1.659454688429832458496093750000
        1.661446928977966308593750000000
        1.654608324170112609863281250000
        1.656052634119987487792968750000
        1.658089242875576019287109375000
        1.659646376967430114746093750000
        1.661230884492397308349609375000
        1.656344141811132431030273437500
        1.657677635550498962402343750000
        1.659297768026590347290039062500
        1.660656403750181198120117187500
        1.661564538876215468832242549979
        0.871240139007568359375000000000
        0.871491350233554840087890625000
        0.871627770364284515380859375000
        0.869348801672458648681640625000
        0.866248071193695068359375000000
        1.741791434586048126220703125000
        1.741533983498811721801757812500
        1.741514835506677627563476562500
        1.738667830824851989746093750000
        1.735135920345783233642578125000
        1.740876615047454833984375000000
        1.740250784903764724731445312500
        1.740012448281049728393554687500
        1.739293858408927917480468750000
        1.738840490579605102539062500000
        1.740395016968250274658203125000
        1.740273006260395050048828125000
        1.740198254585266113281250000000
        1.740084744989871978759765625000
        1.740306816995143890380859375000
        1.740010619163513183593750000000
        1.740049645304679870605468750000
        1.740120805799961090087890625000
        1.740276753902435302734375000000
        1.740807019174098968505859375000
        1.739896547049283981323242187500
        1.740010932087898254394531250000
        1.740166272968053817749023437500
        1.740429673343896865844726562500
        1.740855564673741584513777524990
        0.904504964128136634826660156250
        0.905373765155673027038574218750
        0.905469462275505065917968750000
        0.905561272054910659790039062500
        0.908163487911224365234375000000
        1.809860067442059516906738281250
        1.810784632340073585510253906250
        1.810874346643686294555664062500
        1.810990607365965843200683593750
        1.813893916085362434387207031250
        1.810513250529766082763671875000
        1.810313383117318153381347656250
        1.810227872803807258605957031250
        1.809927919879555702209472656250
        1.810106227174401283264160156250
        1.810160487890243530273437500000
        1.809446917846798896789550781250
        1.809103174135088920593261718750
        1.808500897139310836791992187500
        1.808088444173336029052734375000
        1.809874162077903747558593750000
        1.808969918638467788696289062500
        1.808360740542411804199218750000
        1.807763833552598953247070312500
        1.807200245559215545654296875000
        1.809782877564430236816406250000
        1.808930054306983947753906250000
        1.808257520198822021484375000000
        1.807610072195529937744140625000
        1.807101647059122795369034975010
        0.937292898073792457580566406250
        0.937664298340678215026855468750
        0.937146499752998352050781250000
        0.933487731963396072387695312500
        0.929945677518844604492187500000
        1.873654963448643684387207031250
        1.873147768899798393249511718750
        1.871397480368614196777343750000
        1.866653246805071830749511718750
        1.862388784065842628479003906250
        1.873570933938026428222656250000
        1.872250964865088462829589843750
        1.870057215914130210876464843750
        1.868038641288876533508300781250
        1.867063039913773536682128906250
        1.874576859176158905029296875000
        1.873740503564476966857910156250
        1.872206164523959159851074218750
        1.870785374194383621215820312500
        1.870549723505973815917968750000
        1.874995961785316467285156250000
        1.874352175742387771606445312500
        1.873402774333953857421875000000
        1.872522059828042984008789062500
        1.872615940868854522705078125000
        1.875536352396011352539062500000
        1.875101044774055480957031250000
        1.874496884644031524658203125000
        1.873911082744598388671875000000
        1.873752971490224350503694950021
        0.973473541438579559326171875000
        0.973203502595424652099609375000
        0.974112309515476226806640625000
        0.977029152214527130126953125000
        0.983970314264297485351562500000
        1.948634237051010131835937500000
        1.949255779385566711425781250000
        1.950979448854923248291015625000
        1.955601878464221954345703125000
        1.966080099344253540039062500000
        1.949836149811744689941406250000
        1.951283708214759826660156250000
        1.952865466475486755371093750000
        1.956288054585456848144531250000
        1.962194532155990600585937500000
        1.949093893170356750488281250000
        1.950234822928905487060546875000
        1.951804965734481811523437500000
        1.954845339059829711914062500000
        1.958624921739101409912109375000
        1.948620431125164031982421875000
        1.949686795473098754882812500000
        1.951191961765289306640625000000
        1.953592389822006225585937500000
        1.955906979739665985107421875000
        1.948172345757484436035156250000
        1.949124276638031005859375000000
        1.950481072068214416503906250000
        1.952404230833053588867187500000
        1.954086879889170402790909975010
        0.976658388972282409667968750000
        0.962443113327026367187500000000
        0.977152526378631591796875000000
        1.007677853107452392578125000000
        1.043967872858047485351562500000
        1.978460088372230529785156250000
        1.974870279431343078613281250000
        1.991545006632804870605468750000
        2.025420606136322021484375000000
        2.067859202623367309570312500000
        1.990452006459236145019531250000
        2.001387745141983032226562500000
        2.008677437901496887207031250000
        2.020123749971389770507812500000
        2.028781890869140625000000000000
        1.980275332927703857421875000000
        1.984177932143211364746093750000
        1.991210937500000000000000000000
        2.001884162425994873046875000000
        2.004945740103721618652343750000
        1.981703713536262512207031250000
        1.986522763967514038085937500000
        1.990389883518218994140625000000
        1.996130526065826416015625000000
        1.995944365859031677246093750000
        1.980042040348052978515625000000
        1.982613325119018554687500000000
        1.985731631517410278320312500000
        1.989634215831756591796875000000
        1.990155657132466782144319950021
        0.003480032086372375488281250000
        0.005488291382789611816406250000
        0.008076876401901245117187500000
        0.010456293821334838867187500000
        0.008917838335037231445312500000
        0.012194082140922546386718750000
        0.016499131917953491210937500000
        0.020493507385253906250000000000
        0.011995255947113037109375000000
        0.014342918992042541503906250000
        0.017129063606262207031250000000
        0.019760489463806152343750000000
        0.013774856925010681152343750000
        0.015652105212211608886718750000
        0.017490446567535400390625000000
        0.019162505865097045898437500000
        0.014844596385955810546875000000
        0.016268372535705566406250000000
        0.017530620098114013671875000000
        0.018651485443115234375000000000
        0.015462875366210937500000000000
        0.016557693481445312500000000000
        0.017440617084503173828125000000
        0.018266916275024414062500000000
        0.017551802098751068115234375000
        0.018261760473251342773437500000
        0.019500501453876495361328125000
        0.020261377096176147460937500000
        0.035079963505268096923828125000
        0.036540403962135314941406250000
        0.038620233535766601562500000000
        0.040048837661743164062500000000
        0.035040535032749176025390625000
        0.036363162100315093994140625000
        0.037917219102382659912109375000
        0.039170242846012115478515625000
        0.035105355083942413330078125000
        0.036162100732326507568359375000
        0.037401653826236724853515625000
        0.038463711738586425781250000000
        0.035231098532676696777343750000
        0.036089166998863220214843750000
        0.037027232348918914794921875000
        0.037875890731811523437500000000
        0.035178020596504211425781250000
        0.035878047347068786621093750000
        0.036621570587158203125000000000
        0.037330370396375656127929687500
        0.037581644952297210693359375000
        0.037882085889577865600585937500
        0.037368152290582656860351562500
        0.036776077002286911010742187500
        0.074683856219053268432617187500
        0.075107783079147338867187500000
        0.074472026899456977844238281250
        0.073642501607537269592285156250
        0.073957044631242752075195312500
        0.074266951531171798706054687500
        0.074128596112132072448730468750
        0.073806358501315116882324218750
        0.073446832597255706787109375000
        0.073796555399894714355468750000
        0.073869585990905761718750000000
        0.073817774653434753417968750000
        0.072972364723682403564453125000
        0.073288641870021820068359375000
        0.073486119508743286132812500000
        0.073617964982986450195312500000
        0.072483688592910766601562500000
        0.072767257690429687500000000000
        0.073010817170143127441406250000
        0.073254708200693130493164062500
        0.054253131151199340820312500000
        0.054312936961650848388671875000
        0.054024327546358108520507812500
        0.053923608735203742980957031250
        0.108788415789604187011718750000
        0.108941815793514251708984375000
        0.108408106490969657897949218750
        0.108122983947396278381347656250
        0.109090760350227355957031250000
        0.109190888702869415283203125000
        0.108827663585543632507324218750
        0.108460573479533195495605468750
        0.109158188104629516601562500000
        0.109170138835906982421875000000
        0.108944486826658248901367187500
        0.108591938391327857971191406250
        0.109186418354511260986328125000
        0.109194949269294738769531250000
        0.109017305076122283935546875000
        0.108697850257158279418945312500
        0.109040159732103347778320312500
        0.109042286872863769531250000000
        0.108916655182838439941406250000
        0.108669388107955455780029296875
        0.074886992573738098144531250000
        0.074177432805299758911132812500
        0.073430456221103668212890625000
        0.073325527831912040710449218750
        0.149427628144621849060058593750
        0.148072931915521621704101562500
        0.147007603198289871215820312500
        0.146783396601676940917968750000
        0.149127013981342315673828125000
        0.148158516734838485717773437500
        0.147550698369741439819335937500
        0.147271171212196350097656250000
        0.149147769436240196228027343750
        0.148634530603885650634765625000
        0.148185685276985168457031250000
        0.147877946496009826660156250000
        0.149135615676641464233398437500
        0.148864511400461196899414062500
        0.148597531020641326904296875000
        0.148328283801674842834472656250
        0.149132650345563888549804687500
        0.149013571441173553466796875000
        0.148835234344005584716796875000
        0.148596602492034435272216796875
        0.094072196632623672485351562500
        0.094147522002458572387695312500
        0.094306845217943191528320312500
        0.094206657260656356811523437500
        0.188643243163824081420898437500
        0.189047429710626602172851562500
        0.189176335930824279785156250000
        0.189075946807861328125000000000
        0.189167210832238197326660156250
        0.189661014825105667114257812500
        0.189773615449666976928710937500
        0.189858663827180862426757812500
        0.189352957531809806823730468750
        0.189660318195819854736328125000
        0.189900942146778106689453125000
        0.190062558278441429138183593750
        0.189635757356882095336914062500
        0.189891669899225234985351562500
        0.190080128610134124755859375000
        0.190210564061999320983886718750
        0.189837560057640075683593750000
        0.190064087510108947753906250000
        0.190240509808063507080078125000
        0.190362006425857543945312500000
        0.115671033039689064025878906250
        0.116323348134756088256835937500
        0.117100637406110763549804687500
        0.117781925946474075317382812500
        0.231319230049848556518554687500
        0.232235930860042572021484375000
        0.233576755970716476440429687500
        0.234753806143999099731445312500
        0.231514791026711463928222656250
        0.231988403946161270141601562500
        0.232858320698142051696777343750
        0.233632633462548255920410156250
        0.231884509325027465820312500000
        0.232246994972229003906250000000
        0.232738010585308074951171875000
        0.233195725828409194946289062500
        0.232134759426116943359375000000
        0.232416529208421707153320312500
        0.232723845168948173522949218750
        0.232991779223084449768066406250
        0.232235826551914215087890625000
        0.232467334717512130737304687500
        0.232660796493291854858398437500
        0.232808060944080352783203125000
        0.139961158856749534606933593750
        0.138330621644854545593261718750
        0.137496965005993843078613281250
        0.137209519743919372558593750000
        0.280052833259105682373046875000
        0.277649208903312683105468750000
        0.276035165414214134216308593750
        0.275238553062081336975097656250
        0.279880732297897338867187500000
        0.278581833466887474060058593750
        0.277314281091094017028808593750
        0.276395741850137710571289062500
        0.279411720111966133117675781250
        0.278513006865978240966796875000
        0.277669906616210937500000000000
        0.276902738958597183227539062500
        0.279089618474245071411132812500
        0.278444617986679077148437500000
        0.277824254706501960754394531250
        0.277176195755600929260253906250
        0.278734326362609863281250000000
        0.278224002569913864135742187500
        0.277755189687013626098632812500
        0.277263708412647247314453125000
        0.164376314729452133178710937500
        0.163565343245863914489746093750
        0.162396641448140144348144531250
        0.161675028502941131591796875000
        0.327989844605326652526855468750
        0.326144758611917495727539062500
        0.324310021474957466125488281250
        0.323011705651879310607910156250
        0.327080992050468921661376953125
        0.325222162529826164245605468750
        0.323874175548553466796875000000
        0.322802701964974403381347656250
        0.326749703846871852874755859375
        0.325291853398084640502929687500
        0.324063684791326522827148437500
        0.323115855455398559570312500000
        0.326362129300832748413085937500
        0.325291827321052551269531250000
        0.324330948293209075927734375000
        0.323470905423164367675781250000
        0.325931057333946228027343750000
        0.325128633528947830200195312500
        0.324364595115184783935546875000
        0.323604851961135864257812500000
        0.184924598783254623413085937500
        0.183964617550373077392578125000
        0.184161165729165077209472656250
        0.183928797021508216857910156250
        0.371015857905149459838867187500
        0.370101980865001678466796875000
        0.369764883071184158325195312500
        0.369215682148933410644531250000
        0.372338441200554370880126953125
        0.372441712766885757446289062500
        0.371760958805680274963378906250
        0.371164174750447273254394531250
        0.372803849168121814727783203125
        0.372960146516561508178710937500
        0.372704468667507171630859375000
        0.372200798243284225463867187500
        0.373420432209968566894531250000
        0.373601999133825302124023437500
        0.373419348150491714477539062500
        0.372978389263153076171875000000
        0.373917236924171447753906250000
        0.374052118510007858276367187500
        0.373926356434822082519531250000
        0.373528487980365753173828125000
        0.221477292478084564208984375000
        0.222911663353443145751953125000
        0.221761228516697883605957031250
        0.221351573243737220764160156250
        0.441766690462827682495117187500
        0.443631049245595932006835937500
        0.442701082676649093627929687500
        0.441909860819578170776367187500
        0.440976109355688095092773437500
        0.441814739257097244262695312500
        0.441935287788510322570800781250
        0.441376199945807456970214843750
        0.441366054117679595947265625000
        0.442100666463375091552734375000
        0.442062385380268096923828125000
        0.441754665225744247436523437500
        0.441231744363903999328613281250
        0.441871320828795433044433593750
        0.442043479532003402709960937500
        0.441912084817886352539062500000
        0.440819935873150825500488281250
        0.441396651789546012878417968750
        0.441647345200181007385253906250
        0.441696321591734886169433593750
        0.257629662752151489257812500000
        0.258023768663406372070312500000
        0.261928945779800415039062500000
        0.262796886265277862548828125000
        0.516816183924674987792968750000
        0.518536344170570373535156250000
        0.523998387157917022705078125000
        0.525616109371185302734375000000
        0.518640384078025817871093750000
        0.520892776548862457275390625000
        0.523796498775482177734375000000
        0.525380648672580718994140625000
        0.519272118806838989257812500000
        0.521051138639450073242187500000
        0.523374073207378387451171875000
        0.524957537651062011718750000000
        0.520068453624844551086425781250
        0.521681731566786766052246093750
        0.523408483713865280151367187500
        0.524711720645427703857421875000
        0.520971434190869331359863281250
        0.522340266034007072448730468750
        0.523704940453171730041503906250
        0.524734130129218101501464843750
        0.288719415664672851562500000000
        0.297195069491863250732421875000
        0.299065743573009967803955078125
        0.300743934698402881622314453125
        0.579139679670333862304687500000
        0.592951960861682891845703125000
        0.598930944688618183135986328125
        0.603542805649340152740478515625
        0.584414750337600708007812500000
        0.593946844339370727539062500000
        0.601301953196525573730468750000
        0.606874253600835800170898437500
        0.590867131948471069335937500000
        0.598358049988746643066406250000
        0.604290127754211425781250000000
        0.609160318970680236816406250000
        0.596296936273574829101562500000
        0.602125197649002075195312500000
        0.606981277465820312500000000000
        0.611009694635868072509765625000
        0.600984275341033935546875000000
        0.605681329965591430664062500000
        0.609664767980575561523437500000
        0.612880006432533264160156250000
        0.352475486695766448974609375000
        0.355630528181791305541992187500
        0.361052871681749820709228515625
        0.366015904583036899566650390625
        0.708615928888320922851562500000
        0.715082492679357528686523437500
        0.723706879653036594390869140625
        0.732283675111830234527587890625
        0.713538609445095062255859375000
        0.719460263848304748535156250000
        0.725830167531967163085937500000
        0.732653185725212097167968750000
        0.716166965663433074951171875000
        0.721135281026363372802734375000
        0.726951673626899719238281250000
        0.732859700918197631835937500000
        0.719032555818557739257812500000
        0.723480619490146636962890625000
        0.728284746408462524414062500000
        0.733092784881591796875000000000
        0.722070597112178802490234375000
        0.726102009415626525878906250000
        0.730119340121746063232421875000
        0.734050929546356201171875000000
        0.439114995300769805908203125000
        0.437901619821786880493164062500
        0.435553472489118576049804687500
        0.439358782023191452026367187500
        0.872587740421295166015625000000
        0.871566940099000930786132812500
        0.870065484195947647094726562500
        0.875901453197002410888671875000
        0.866073638200759887695312500000
        0.866786725819110870361328125000
        0.868474781513214111328125000000
        0.871821839362382888793945312500
        0.864546820521354675292968750000
        0.865724340081214904785156250000
        0.867411255836486816406250000000
        0.869661882519721984863281250000
        0.863618247210979461669921875000
        0.864890418946743011474609375000
        0.866488456726074218750000000000
        0.868204541504383087158203125000
        0.863077439367771148681640625000
        0.864261075854301452636718750000
        0.865698747336864471435546875000
        0.867181405425071716308593750000
        0.490399725735187530517578125000
        0.489091664552688598632812500000
        0.490144282579421997070312500000
        0.486383080482482910156250000000
        0.988302625715732574462890625000
        0.985205724835395812988281250000
        0.984134316444396972656250000000
        0.977672740817070007324218750000
        0.997179150581359863281250000000
        0.994018301367759704589843750000
        0.990345150232315063476562500000
        0.985526710748672485351562500000
        0.999769311398267745971679687500
        0.997441437095403671264648437500
        0.994632318615913391113281250000
        0.990881934762001037597656250000
        1.001757372170686721801757812500
        1.000298734754323959350585937500
        0.998114615678787231445312500000
        0.995156586170196533203125000000
        1.003331393003463745117187500000
        1.002561375498771667480468750000
        1.000917091965675354003906250000
        0.998589128255844116210937500000
        0.622537404298782348632812500000
        0.629922270774841308593750000000
        0.631485924124717712402343750000
        0.625478394329547882080078125000
        1.243341974914073944091796875000
        1.254639059305191040039062500000
        1.258574143052101135253906250000
        1.250652834773063659667968750000
        1.241343446075916290283203125000
        1.247667089104652404785156250000
        1.251316465437412261962890625000
        1.249221689999103546142578125000
        1.240696292370557785034179687500
        1.244373092427849769592285156250
        1.246636850759387016296386718750
        1.246920950710773468017578125000
        1.239925142377614974975585937500
        1.241837888956069946289062500000
        1.243401151150465011596679687500
        1.244423322379589080810546875000
        1.238665275275707244873046875000
        1.239700620993971824645996093750
        1.240662826225161552429199218750
        1.241587549448013305664062500000
        0.765666246414184570312500000000
        0.774268403649330139160156250000
        0.779386028647422790527343750000
        0.784058786928653717041015625000
        1.530210465192794799804687500000
        1.544632844626903533935546875000
        1.553731173276901245117187500000
        1.561915472149848937988281250000
        1.526795469224452972412109375000
        1.536866396665573120117187500000
        1.544216580688953399658203125000
        1.550841473042964935302734375000
        1.522289507091045379638671875000
        1.529513945803046226501464843750
        1.535694045946002006530761718750
        1.541790850460529327392578125000
        1.517850741744041442871093750000
        1.522946018725633621215820312500
        1.528133612126111984252929687500
        1.533904887735843658447265625000
        1.512960709631443023681640625000
        1.516840538010001182556152343750
        1.521364254876971244812011718750
        1.526747822761535644531250000000
        0.832505755126476287841796875000
        0.830691069364547729492187500000
        0.833607934415340423583984375000
        0.836160384118556976318359375000
        1.664317592978477478027343750000
        1.662889249622821807861328125000
        1.667998753488063812255859375000
        1.672278083860874176025390625000
        1.663664259016513824462890625000
        1.664998374879360198974609375000
        1.669014781713485717773437500000
        1.672304213047027587890625000000
        1.663654446601867675781250000000
        1.665891692042350769042968750000
        1.669132947921752929687500000000
        1.671916082501411437988281250000
        1.663564667105674743652343750000
        1.666030347347259521484375000000
        1.668559402227401733398437500000
        1.670779347419738769531250000000
        1.663260519504547119140625000000
        1.665315955877304077148437500000
        1.667289063334465026855468750000
        1.669190824031829833984375000000
        0.868001841008663177490234375000
        0.871391475200653076171875000000
        0.871244467794895172119140625000
        0.870623797178268432617187500000
        1.737892799079418182373046875000
        1.742898598313331604003906250000
        1.742509633302688598632812500000
        1.740842141211032867431640625000
        1.740440875291824340820312500000
        1.742544308304786682128906250000
        1.742056749761104583740234375000
        1.740297369658946990966796875000
        1.741236388683319091796875000000
        1.741877228021621704101562500000
        1.741334497928619384765625000000
        1.740130767226219177246093750000
        1.741376012563705444335937500000
        1.741457909345626831054687500000
        1.740945786237716674804687500000
        1.740142464637756347656250000000
        1.741063833236694335937500000000
        1.740922510623931884765625000000
        1.740545958280563354492187500000
        1.740084707736968994140625000000
        0.908007062971591949462890625000
        0.903907448053359985351562500000
        0.903103034943342208862304687500
        0.905858892947435379028320312500
        1.813804358243942260742187500000
        1.808516122400760650634765625000
        1.807120388373732566833496093750
        1.811704276129603385925292968750
        1.810005340725183486938476562500
        1.808609034866094589233398437500
        1.808418480679392814636230468750
        1.811454271897673606872558593750
        1.807870127260684967041015625000
        1.807839576154947280883789062500
        1.808799996972084045410156250000
        1.810911897569894790649414062500
        1.807162299752235412597656250000
        1.807687986642122268676757812500
        1.808781825006008148193359375000
        1.810356086120009422302246093750
        1.807248648256063461303710937500
        1.807845998555421829223632812500
        1.808792255818843841552734375000
        1.809990083798766136169433593750
        0.929152905941009521484375000000
        0.930912610143423080444335937500
        0.934956908226013183593750000000
        0.935767259448766708374023437500
        1.861990906298160552978515625000
        1.865390527993440628051757812500
        1.870695451274514198303222656250
        1.871244108304381370544433593750
        1.867873791605234146118164062500
        1.870107378810644149780273437500
        1.872010430321097373962402343750
        1.871401814743876457214355468750
        1.871343351900577545166015625000
        1.872269641607999801635742187500
        1.873034529387950897216796875000
        1.872345943003892898559570312500
        1.873385399580001831054687500000
        1.873849254101514816284179687500
        1.873973533511161804199218750000
        1.873335083946585655212402343750
        1.874503191560506820678710937500
        1.874837744981050491333007812500
        1.874845877289772033691406250000
        1.874413190409541130065917968750
        0.989670358598232269287109375000
        0.987466741353273391723632812500
        0.981346983462572097778320312500
        0.976951561868190765380859375000
        1.974088918417692184448242187500
        1.970326043665409088134765625000
        1.960883934050798416137695312500
        1.953661574050784111022949218750
        1.965615935623645782470703125000
        1.963257499039173126220703125000
        1.957906894385814666748046875000
        1.952987448312342166900634765625
        1.960125114768743515014648437500
        1.958666201680898666381835937500
        1.955525185912847518920898437500
        1.952056665904819965362548828125
        1.956247828900814056396484375000
        1.955010488629341125488281250000
        1.953180015087127685546875000000
        1.950998878106474876403808593750
        1.953411936759948730468750000000
        1.952248133718967437744140625000
        1.950971644371747970581054687500
        1.949600648134946823120117187500
        1.084399059414863586425781250000
        1.072704657912254333496093750000
        1.024110674858093261718750000000
        1.011029109358787536621093750000
        2.099034421145915985107421875000
        2.076302997767925262451171875000
        2.026220276951789855957031250000
        2.013625603169202804565429687500
        2.019569978117942810058593750000
        2.007519528269767761230468750000
        2.002991303801536560058593750000
        2.004564853385090827941894531250
        2.002665035426616668701171875000
        2.001990444958209991455078125000
        1.999636687338352203369140625000
        2.001565078273415565490722656250
        1.992080345749855041503906250000
        1.993025347590446472167968750000
        1.994220629334449768066406250000
        1.996272426098585128784179687500
        1.986748456954956054687500000000
        1.986480847001075744628906250000
        1.986721314489841461181640625000
        1.987501300871372222900390625000
        0.017952173948287963867187500000
        0.017640590667724609375000000000
        0.017331808805465698242187500000
        0.017052128911018371582031250000
        0.017295598983764648437500000000
        0.017072618007659912109375000000
        0.016802072525024414062500000000
        0.016546964645385742187500000000
        0.016560673713684082031250000000
        0.016413390636444091796875000000
        0.016185402870178222656250000000
        0.015953540802001953125000000000
        0.015681564807891845703125000000
        0.015614777803421020507812500000
        0.015420049428939819335937500000
        0.015178188681602478027343750000
        0.036867372691631317138671875000
        0.036412538960576057434082031250
        0.035875378176569938659667968750
        0.035281784832477569580078125000
        0.036194086074829101562500000000
        0.035738835111260414123535156250
        0.035207867622375488281250000000
        0.034620372578501701354980468750
        0.035527542233467102050781250000
        0.035082366317510604858398437500
        0.034561181440949440002441406250
        0.033988503739237785339355468750
        0.034878477454185485839843750000
        0.034440323710441589355468750000
        0.033950448036193847656250000000
        0.033394627273082733154296875000
        0.072782710194587707519531250000
        0.072215670719742774963378906250
        0.071516269817948341369628906250
        0.070648524910211563110351562500
        0.072463050484657287597656250000
        0.071847999468445777893066406250
        0.071088306605815887451171875000
        0.070176938548684120178222656250
        0.072162918746471405029296875000
        0.071497339755296707153320312500
        0.070723170414566993713378906250
        0.069824164733290672302246093750
        0.071881480515003204345703125000
        0.071214444935321807861328125000
        0.070466347038745880126953125000
        0.069597169756889343261718750000
        0.108529659919440746307373046875
        0.108338050544261932373046875000
        0.108059630729258060455322265625
        0.107704059220850467681884765625
        0.108720973134040832519531250000
        0.108487717807292938232421875000
        0.108138189651072025299072265625
        0.107708145864307880401611328125
        0.108811333775520324707031250000
        0.108544982969760894775390625000
        0.108154414221644401550292968750
        0.107676139101386070251464843750
        0.108794804662466049194335937500
        0.108512938022613525390625000000
        0.108134349808096885681152343750
        0.107641210779547691345214843750
        0.148822876624763011932373046875
        0.149128273129463195800781250000
        0.149473880417644977569580078125
        0.149923306889832019805908203125
        0.149043537676334381103515625000
        0.149320989847183227539062500000
        0.149603218771517276763916015625
        0.149998203851282596588134765625
        0.149166934192180633544921875000
        0.149400062859058380126953125000
        0.149652300402522087097167968750
        0.150020433589816093444824218750
        0.149202909320592880249023437500
        0.149406544864177703857421875000
        0.149670010432600975036621093750
        0.150040013715624809265136718750
        0.190591596066951751708984375000
        0.190917819738388061523437500000
        0.191310621798038482666015625000
        0.191778510808944702148437500000
        0.190468870103359222412109375000
        0.190795302391052246093750000000
        0.191192671656608581542968750000
        0.191684827208518981933593750000
        0.190301962196826934814453125000
        0.190645687282085418701171875000
        0.191052526235580444335937500000
        0.191564433276653289794921875000
        0.190079607069492340087890625000
        0.190423548221588134765625000000
        0.190849266946315765380859375000
        0.191382117569446563720703125000
        0.232713274657726287841796875000
        0.232714481651782989501953125000
        0.232677429914474487304687500000
        0.232561688870191574096679687500
        0.232630491256713867187500000000
        0.232682611793279647827148437500
        0.232642430812120437622070312500
        0.232501357793807983398437500000
        0.232501994818449020385742187500
        0.232572726905345916748046875000
        0.232550736516714096069335937500
        0.232401423156261444091796875000
        0.232297573238611221313476562500
        0.232400972396135330200195312500
        0.232424877583980560302734375000
        0.232290755957365036010742187500
        0.277168296277523040771484375000
        0.276985399425029754638671875000
        0.276721589267253875732421875000
        0.276385743170976638793945312500
        0.277578271925449371337890625000
        0.277363400906324386596679687500
        0.277047004550695419311523437500
        0.276654191315174102783203125000
        0.277990456670522689819335937500
        0.277781978249549865722656250000
        0.277444329112768173217773437500
        0.277026191353797912597656250000
        0.278451833873987197875976562500
        0.278227936476469039916992187500
        0.277924384921789169311523437500
        0.277532823383808135986328125000
        0.323642160743474960327148437500
        0.323766171932220458984375000000
        0.323819506913423538208007812500
        0.323726885020732879638671875000
        0.324335638433694839477539062500
        0.324415676295757293701171875000
        0.324382834136486053466796875000
        0.324258863925933837890625000000
        0.325018465518951416015625000000
        0.325064383447170257568359375000
        0.325013600289821624755859375000
        0.324874147772789001464843750000
        0.325711950659751892089843750000
        0.325720839202404022216796875000
        0.325692232698202133178710937500
        0.325577888637781143188476562500
        0.373975586146116256713867187500
        0.374410450458526611328125000000
        0.374751824885606765747070312500
        0.374999389052391052246093750000
        0.374349173158407211303710937500
        0.374733686447143554687500000000
        0.374998100101947784423828125000
        0.375188037753105163574218750000
        0.374491401016712188720703125000
        0.374946594238281250000000000000
        0.375232361257076263427734375000
        0.375431448221206665039062500000
        0.374421820044517517089843750000
        0.374953493475914001464843750000
        0.375352628529071807861328125000
        0.375665374100208282470703125000
        0.441307609900832176208496093750
        0.441045917570590972900390625000
        0.440703362226486206054687500000
        0.440128698945045471191406250000
        0.441210879012942314147949218750
        0.440911561250686645507812500000
        0.440486222505569458007812500000
        0.439909212291240692138671875000
        0.440898761153221130371093750000
        0.440558314323425292968750000000
        0.440120786428451538085937500000
        0.439578175544738769531250000000
        0.440356716513633728027343750000
        0.439999774098396301269531250000
        0.439610451459884643554687500000
        0.439116977155208587646484375000
        0.524929067119956016540527343750
        0.525034777820110321044921875000
        0.524983644485473632812500000000
        0.524730168282985687255859375000
        0.524063287302851676940917968750
        0.524263173341751098632812500000
        0.524159297347068786621093750000
        0.523771345615386962890625000000
        0.522951155900955200195312500000
        0.523273348808288574218750000000
        0.523144468665122985839843750000
        0.522601053118705749511718750000
        0.521715104579925537109375000000
        0.522019073367118835449218750000
        0.521868661046028137207031250000
        0.521251283586025238037109375000
        0.615480288863182067871093750000
        0.618539094924926757812500000000
        0.621521018445491790771484375000
        0.624598748981952667236328125000
        0.612656533718109130859375000000
        0.615825116634368896484375000000
        0.618949465453624725341796875000
        0.622060276567935943603515625000
        0.609203726053237915039062500000
        0.612654328346252441406250000000
        0.615998044610023498535156250000
        0.619293123483657836914062500000
        0.605138331651687622070312500000
        0.609065338969230651855468750000
        0.612794622778892517089843750000
        0.616388097405433654785156250000
        0.736082881689071655273437500000
        0.738618209958076477050781250000
        0.741384461522102355957031250000
        0.744250215590000152587890625000
        0.732531353831291198730468750000
        0.735231027007102966308593750000
        0.738123118877410888671875000000
        0.741119436919689178466796875000
        0.728877842426300048828125000000
        0.731756001710891723632812500000
        0.734832257032394409179687500000
        0.738025128841400146484375000000
        0.725081384181976318359375000000
        0.728152066469192504882812500000
        0.731423676013946533203125000000
        0.734835013747215270996093750000
        0.866670802235603332519531250000
        0.866595808416604995727539062500
        0.866453152149915695190429687500
        0.866136770695447921752929687500
        0.865248829126358032226562500000
        0.865166448056697845458984375000
        0.865060925483703613281250000000
        0.864759963005781173706054687500
        0.863858178257942199707031250000
        0.863700620830059051513671875000
        0.863518603146076202392578125000
        0.863174960017204284667968750000
        0.862650521099567413330078125000
        0.862339764833450317382812500000
        0.862009704113006591796875000000
        0.861508548259735107421875000000
        1.000943794846534729003906250000
        1.001884941011667251586914062500
        1.001777607947587966918945312500
        1.000853035598993301391601562500
        1.002865657210350036621093750000
        1.003668226301670074462890625000
        1.003505446016788482666015625000
        1.002624321728944778442382812500
        1.004129275679588317871093750000
        1.004718534648418426513671875000
        1.004499413073062896728515625000
        1.003698885440826416015625000000
        1.004484184086322784423828125000
        1.004819899797439575195312500000
        1.004500612616539001464843750000
        1.003794491291046142578125000000
        1.239086948335170745849609375000
        1.237167261540889739990234375000
        1.235217109322547912597656250000
        1.233048439025878906250000000000
        1.238220222294330596923828125000
        1.236132681369781494140625000000
        1.233978301286697387695312500000
        1.231505692005157470703125000000
        1.237455621361732482910156250000
        1.235209628939628601074218750000
        1.232838377356529235839843750000
        1.230045214295387268066406250000
        1.236673645675182342529296875000
        1.234344750642776489257812500000
        1.231751233339309692382812500000
        1.228680476546287536621093750000
        1.521004222333431243896484375000
        1.516729943454265594482421875000
        1.513078197836875915527343750000
        1.509861603379249572753906250000
        1.515765763819217681884765625000
        1.511388048529624938964843750000
        1.507546037435531616210937500000
        1.504132181406021118164062500000
        1.511371374130249023437500000000
        1.506841748952865600585937500000
        1.502939701080322265625000000000
        1.499453514814376831054687500000
        1.507793627679347991943359375000
        1.503219395875930786132812500000
        1.499268949031829833984375000000
        1.495725437998771667480468750000
        1.667579591274261474609375000000
        1.666057474911212921142578125000
        1.664409577846527099609375000000
        1.662789016962051391601562500000
        1.665779069066047668457031250000
        1.664249263703823089599609375000
        1.662573501467704772949218750000
        1.661072373390197753906250000000
        1.664049074053764343261718750000
        1.662516109645366668701171875000
        1.660889632999897003173828125000
        1.659493073821067810058593750000
        1.662332151085138320922851562500
        1.660884167999029159545898437500
        1.659362040460109710693359375000
        1.658020775765180587768554687500
        1.740077108144760131835937500000
        1.740080676972866058349609375000
        1.739873662590980529785156250000
        1.739594079554080963134765625000
        1.740204364061355590820312500000
        1.740040637552738189697265625000
        1.739836484193801879882812500000
        1.739613182842731475830078125000
        1.740394860506057739257812500000
        1.740054674446582794189453125000
        1.739831753075122833251953125000
        1.739632233977317810058593750000
        1.740505520254373550415039062500
        1.740152817219495773315429687500
        1.739956893026828765869140625000
        1.739779409021139144897460937500
        1.809989899396896362304687500000
        1.810409054160118103027343750000
        1.811097618192434310913085937500
        1.811935607343912124633789062500
        1.809014145284891128540039062500
        1.809496559202671051025390625000
        1.810152225196361541748046875000
        1.810995198786258697509765625000
        1.808261111378669738769531250000
        1.808830931782722473144531250000
        1.809507966041564941406250000000
        1.810403801500797271728515625000
        1.807822443544864654541015625000
        1.808460623025894165039062500000
        1.809137880802154541015625000000
        1.809994608163833618164062500000
        1.875448506325483322143554687500
        1.876173209398984909057617187500
        1.876645226031541824340820312500
        1.876913037151098251342773437500
        1.875587448477745056152343750000
        1.876137651503086090087890625000
        1.876538749784231185913085937500
        1.876787856221199035644531250000
        1.875485345721244812011718750000
        1.875910609960556030273437500000
        1.876272037625312805175781250000
        1.876508228480815887451171875000
        1.874992407858371734619140625000
        1.875359222292900085449218750000
        1.875775039196014404296875000000
        1.876070141792297363281250000000
        1.947962086647748947143554687500
        1.946498643606901168823242187500
        1.945286013185977935791015625000
        1.944261386990547180175781250000
        1.949059288948774337768554687500
        1.947574794292449951171875000000
        1.946369457989931106567382812500
        1.945422217249870300292968750000
        1.950173377990722656250000000000
        1.948641046881675720214843750000
        1.947404325008392333984375000000
        1.946477025747299194335937500000
        1.951301053166389465332031250000
        1.949677467346191406250000000000
        1.948386520147323608398437500000
        1.947457447648048400878906250000
        1.978792488574981689453125000000
        1.974744260311126708984375000000
        1.972757995128631591796875000000
        1.971867024898529052734375000000
        1.979960471391677856445312500000
        1.976624608039855957031250000000
        1.974789917469024658203125000000
        1.974059760570526123046875000000
        1.981395900249481201171875000000
        1.978591322898864746093750000000
        1.976691603660583496093750000000
        1.975913107395172119140625000000
        1.984021574258804321289062500000
        1.982082724571228027343750000000
        1.980022072792053222656250000000
        1.978379845619201660156250000000
        0.000000000000000000000000000000
        0.000000000000000000000000000000
        0.000000000000000000000000000000
        0.000000000000000000000000000000
        0.000000000000000000000000000000
        0.000000000000000000000000000000
        0.000000000000000000000000000000
        0.000000000000000000000000000000
        0.000000000000000000000000000000
        0.000000000000000000000000000000
        0.000000000000000000000000000000
        0.000000000000000000000000000000
        0.000000000000000000000000000000
        0.000000000000000000000000000000
        0.000000000000000000000000000000
        0.000000000000000000000000000000
        0.000000000000000000000000000000
        0.000000000000000000000000000000
        0.000000000000000000000000000000
        0.000000000000000000000000000000
        0.000000000000000000000000000000
        0.000000000000000000000000000000
        0.000000000000000000000000000000
        0.000000000000000000000000000000
        0.000000000000000000000000000000
        0.000000000000000000000000000000
        0.000000000000000000000000000000
        0.000000000000000000000000000000
        0.000000000000000000000000000000
        0.000000000000000000000000000000
        0.000000000000000000000000000000
        0.000000000000000000000000000000
        0.000000000000000000000000000000
        0.000000000000000000000000000000
        0.000000000000000000000000000000
        0.000000000000000000000000000000
        0.000000000000000000000000000000
        0.000000000000000000000000000000
        0.000000000000000000000000000000
        0.000000000000000000000000000000
        0.000000000000000000000000000000
        0.000000000000000000000000000000
        0.000000000000000000000000000000
        0.000000000000000000000000000000
        0.000000000000000000000000000000
        0.000000000000000000000000000000
        0.000000000000000000000000000000
        0.000000000000000000000000000000
        0.000000000000000000000000000000
        0.000000000000000000000000000000
        0.000000000000000000000000000000
        0.000000000000000000000000000000
        0.000000000000000000000000000000
        0.000000000000000000000000000000
        0.000000000000000000000000000000
        0.000000000000000000000000000000
        0.000000000000000000000000000000
        0.000000000000000000000000000000
        0.000000000000000000000000000000
        0.000000000000000000000000000000
        0.000000000000000000000000000000
        0.000000000000000000000000000000
        0.000000000000000000000000000000
        0.000000000000000000000000000000
        0.000000000000000000000000000000
        0.000000000000000000000000000000
        0.000000000000000000000000000000
        0.000000000000000000000000000000
        0.000000000000000000000000000000
        0.000000000000000000000000000000
        0.000000000000000000000000000000
        0.000000000000000000000000000000
        0.000000000000000000000000000000
        0.000000000000000000000000000000
        0.000000000000000000000000000000
        0.000000000000000000000000000000
        0.000000000000000000000000000000
        0.000000000000000000000000000000
        0.000000000000000000000000000000
        0.000000000000000000000000000000
        0.000000000000000000000000000000
        0.000000000000000000000000000000
        0.000000000000000000000000000000
        0.000000000000000000000000000000
        0.000000000000000000000000000000
        0.000000000000000000000000000000
        0.000000000000000000000000000000
        0.000000000000000000000000000000
        0.000000000000000000000000000000
        0.000000000000000000000000000000
        0.000000000000000000000000000000
        0.000000000000000000000000000000
        0.000000000000000000000000000000
        0.000000000000000000000000000000
        0.000000000000000000000000000000
        0.000000000000000000000000000000
        0.000000000000000000000000000000
        0.000000000000000000000000000000
        0.000000000000000000000000000000
        0.000000000000000000000000000000
        0.000000000000000000000000000000
        0.000000000000000000000000000000
        0.000000000000000000000000000000
        0.000000000000000000000000000000
        0.000000000000000000000000000000
        0.000000000000000000000000000000
        0.000000000000000000000000000000
        0.000000000000000000000000000000
        0.000000000000000000000000000000
        0.000000000000000000000000000000
        0.000000000000000000000000000000
        0.000000000000000000000000000000
        0.000000000000000000000000000000
        0.000000000000000000000000000000
        0.000000000000000000000000000000
        0.000000000000000000000000000000
        0.000000000000000000000000000000
        0.000000000000000000000000000000
        0.000000000000000000000000000000
        0.000000000000000000000000000000
        0.000000000000000000000000000000
        0.000000000000000000000000000000
        0.000000000000000000000000000000
        0.000000000000000000000000000000
        0.000000000000000000000000000000
        0.000000000000000000000000000000
        0.000000000000000000000000000000
        0.000000000000000000000000000000
        0.000000000000000000000000000000
        0.000000000000000000000000000000
        0.000000000000000000000000000000
        0.000000000000000000000000000000
        0.000000000000000000000000000000
        0.000000000000000000000000000000
        0.000000000000000000000000000000
        0.000000000000000000000000000000
        0.000000000000000000000000000000
        0.000000000000000000000000000000
        0.000000000000000000000000000000
        0.000000000000000000000000000000
        0.000000000000000000000000000000
        0.000000000000000000000000000000
        0.000000000000000000000000000000
        0.000000000000000000000000000000
        0.000000000000000000000000000000
        0.000000000000000000000000000000
        0.000000000000000000000000000000
        0.000000000000000000000000000000
        0.000000000000000000000000000000
        0.000000000000000000000000000000
        0.000000000000000000000000000000
        0.000000000000000000000000000000
        0.000000000000000000000000000000
        0.000000000000000000000000000000
        0.000000000000000000000000000000
        0.000000000000000000000000000000
        0.000000000000000000000000000000
        0.000000000000000000000000000000
        0.000000000000000000000000000000
        0.000000000000000000000000000000
        0.000000000000000000000000000000
        0.000000000000000000000000000000
        0.000000000000000000000000000000
        0.000000000000000000000000000000
        0.000000000000000000000000000000
        0.000000000000000000000000000000
        0.000000000000000000000000000000
        0.000000000000000000000000000000
        0.000000000000000000000000000000
        0.000000000000000000000000000000
        0.000000000000000000000000000000
        0.000000000000000000000000000000
        0.000000000000000000000000000000
        0.000000000000000000000000000000
        0.000000000000000000000000000000
        0.000000000000000000000000000000
        0.000000000000000000000000000000
        0.000000000000000000000000000000
        0.000000000000000000000000000000
        0.000000000000000000000000000000
        0.000000000000000000000000000000
        0.000000000000000000000000000000
        0.000000000000000000000000000000
        0.000000000000000000000000000000
        0.000000000000000000000000000000
        0.000000000000000000000000000000
        0.000000000000000000000000000000
        0.000000000000000000000000000000
        0.000000000000000000000000000000
        0.000000000000000000000000000000
        0.000000000000000000000000000000
        0.000000000000000000000000000000
        0.000000000000000000000000000000
        0.000000000000000000000000000000
        0.000000000000000000000000000000
        0.000000000000000000000000000000
        0.000000000000000000000000000000
        0.000000000000000000000000000000
        0.000000000000000000000000000000
        0.000000000000000000000000000000
        0.000000000000000000000000000000
        0.000000000000000000000000000000
        0.000000000000000000000000000000
        0.000000000000000000000000000000
        0.000000000000000000000000000000
        0.000000000000000000000000000000
        0.000000000000000000000000000000
        0.000000000000000000000000000000
        0.000000000000000000000000000000
        0.000000000000000000000000000000
        0.000000000000000000000000000000
        0.000000000000000000000000000000
        0.000000000000000000000000000000
        0.000000000000000000000000000000
        0.000000000000000000000000000000
        0.000000000000000000000000000000
        0.000000000000000000000000000000
        0.000000000000000000000000000000
        0.000000000000000000000000000000
        0.000000000000000000000000000000
        0.000000000000000000000000000000
        0.000000000000000000000000000000
        0.000000000000000000000000000000
        0.000000000000000000000000000000
        0.000000000000000000000000000000
        0.000000000000000000000000000000
        0.000000000000000000000000000000
        0.000000000000000000000000000000
        0.000000000000000000000000000000
        0.000000000000000000000000000000
        0.000000000000000000000000000000
        0.000000000000000000000000000000
        0.000000000000000000000000000000
        0.000000000000000000000000000000
        0.000000000000000000000000000000
        0.000000000000000000000000000000
        0.000000000000000000000000000000
        0.000000000000000000000000000000
        0.000000000000000000000000000000
        0.000000000000000000000000000000
        0.000000000000000000000000000000
        0.000000000000000000000000000000
        0.000000000000000000000000000000
        0.000000000000000000000000000000
        0.000000000000000000000000000000
        0.000000000000000000000000000000
        0.000000000000000000000000000000
        0.000000000000000000000000000000
        0.000000000000000000000000000000
        0.000000000000000000000000000000
        0.000000000000000000000000000000
        0.000000000000000000000000000000
        0.000000000000000000000000000000
        0.000000000000000000000000000000
        0.000000000000000000000000000000
        0.000000000000000000000000000000
        0.000000000000000000000000000000
        0.000000000000000000000000000000
        0.000000000000000000000000000000
        0.000000000000000000000000000000
        0.000000000000000000000000000000
        0.000000000000000000000000000000
        0.000000000000000000000000000000
        0.000000000000000000000000000000
        0.000000000000000000000000000000
        0.000000000000000000000000000000
        0.000000000000000000000000000000
        0.000000000000000000000000000000
        0.000000000000000000000000000000
        0.000000000000000000000000000000
        0.000000000000000000000000000000
        0.000000000000000000000000000000
        0.000000000000000000000000000000
        0.000000000000000000000000000000
        0.000000000000000000000000000000
        0.000000000000000000000000000000
        0.000000000000000000000000000000
        0.000000000000000000000000000000
        0.000000000000000000000000000000
        0.000000000000000000000000000000
        0.000000000000000000000000000000
        0.000000000000000000000000000000
        0.000000000000000000000000000000
        0.000000000000000000000000000000
        0.000000000000000000000000000000
        0.000000000000000000000000000000
        0.000000000000000000000000000000
        0.000000000000000000000000000000
        0.000000000000000000000000000000
        0.000000000000000000000000000000
        0.000000000000000000000000000000
        0.000000000000000000000000000000
        0.000000000000000000000000000000
        0.000000000000000000000000000000
        0.000000000000000000000000000000
        0.000000000000000000000000000000
        0.000000000000000000000000000000
        0.000000000000000000000000000000
        0.000000000000000000000000000000
        0.000000000000000000000000000000
        0.000000000000000000000000000000
        0.000000000000000000000000000000
        0.000000000000000000000000000000
        0.000000000000000000000000000000
        0.000000000000000000000000000000
        0.000000000000000000000000000000
        0.000000000000000000000000000000
        0.000000000000000000000000000000
        0.000000000000000000000000000000
        0.000000000000000000000000000000
        0.000000000000000000000000000000
        0.000000000000000000000000000000
        0.000000000000000000000000000000
        0.000000000000000000000000000000
        0.000000000000000000000000000000
        0.000000000000000000000000000000
        0.000000000000000000000000000000
        0.000000000000000000000000000000
        0.000000000000000000000000000000
        0.000000000000000000000000000000
        0.000000000000000000000000000000
        0.000000000000000000000000000000
        0.000000000000000000000000000000
        0.000000000000000000000000000000
        0.000000000000000000000000000000
        0.000000000000000000000000000000
        0.000000000000000000000000000000
        0.000000000000000000000000000000
        0.000000000000000000000000000000
        0.000000000000000000000000000000
        0.000000000000000000000000000000
        0.000000000000000000000000000000
        0.000000000000000000000000000000
        0.000000000000000000000000000000
        0.000000000000000000000000000000
        0.000000000000000000000000000000
        0.000000000000000000000000000000
        0.000000000000000000000000000000
        0.000000000000000000000000000000
        0.000000000000000000000000000000
        0.000000000000000000000000000000
        0.000000000000000000000000000000
        0.000000000000000000000000000000
        0.000000000000000000000000000000
        0.000000000000000000000000000000
        0.000000000000000000000000000000
        0.000000000000000000000000000000
        0.000000000000000000000000000000
        0.000000000000000000000000000000
        0.000000000000000000000000000000
        0.000000000000000000000000000000
        0.000000000000000000000000000000
        0.000000000000000000000000000000
        0.000000000000000000000000000000
        0.000000000000000000000000000000
        0.000000000000000000000000000000
        0.000000000000000000000000000000
        0.000000000000000000000000000000
        0.000000000000000000000000000000
        0.000000000000000000000000000000
        0.000000000000000000000000000000
        0.000000000000000000000000000000
        0.000000000000000000000000000000
        0.000000000000000000000000000000
        0.000000000000000000000000000000
        0.000000000000000000000000000000
        0.000000000000000000000000000000
        0.000000000000000000000000000000
        0.000000000000000000000000000000
        0.000000000000000000000000000000
        0.000000000000000000000000000000
        0.000000000000000000000000000000
        0.000000000000000000000000000000
        0.000000000000000000000000000000
        0.000000000000000000000000000000
        0.000000000000000000000000000000
        0.000000000000000000000000000000
        0.000000000000000000000000000000
        0.000000000000000000000000000000
        0.000000000000000000000000000000
        0.000000000000000000000000000000
        0.000000000000000000000000000000
        0.000000000000000000000000000000
        0.000000000000000000000000000000
        0.000000000000000000000000000000
        0.000000000000000000000000000000
        0.000000000000000000000000000000
        0.000000000000000000000000000000
        0.000000000000000000000000000000
        0.000000000000000000000000000000
        0.000000000000000000000000000000
        0.000000000000000000000000000000
        0.000000000000000000000000000000
        0.000000000000000000000000000000
        0.000000000000000000000000000000
        0.000000000000000000000000000000
        0.000000000000000000000000000000
        0.000000000000000000000000000000
        0.000000000000000000000000000000
        0.000000000000000000000000000000
        0.000000000000000000000000000000
        0.000000000000000000000000000000
        0.000000000000000000000000000000
        0.000000000000000000000000000000
        0.000000000000000000000000000000
        0.000000000000000000000000000000
        0.000000000000000000000000000000
        0.000000000000000000000000000000
        0.000000000000000000000000000000
        0.000000000000000000000000000000
        0.000000000000000000000000000000
        0.000000000000000000000000000000
        0.000000000000000000000000000000
        0.000000000000000000000000000000
        0.000000000000000000000000000000
        0.000000000000000000000000000000
        0.000000000000000000000000000000
        0.000000000000000000000000000000
        0.000000000000000000000000000000
        0.000000000000000000000000000000
        0.000000000000000000000000000000
        0.000000000000000000000000000000
        0.000000000000000000000000000000
        0.000000000000000000000000000000
        0.000000000000000000000000000000
        0.000000000000000000000000000000
        0.000000000000000000000000000000
        0.000000000000000000000000000000
        0.000000000000000000000000000000
        0.000000000000000000000000000000
        0.000000000000000000000000000000
        0.000000000000000000000000000000
        0.000000000000000000000000000000
        0.000000000000000000000000000000
        0.000000000000000000000000000000
        0.000000000000000000000000000000
        0.000000000000000000000000000000
        0.000000000000000000000000000000
        0.000000000000000000000000000000
        0.000000000000000000000000000000
        0.000000000000000000000000000000
        0.000000000000000000000000000000
        0.000000000000000000000000000000
        0.000000000000000000000000000000
        0.000000000000000000000000000000
        0.000000000000000000000000000000
        0.000000000000000000000000000000
        0.000000000000000000000000000000
        0.000000000000000000000000000000
        0.000000000000000000000000000000
        0.000000000000000000000000000000
        0.000000000000000000000000000000
        0.000000000000000000000000000000
        0.000000000000000000000000000000
        0.000000000000000000000000000000
        0.000000000000000000000000000000
        0.000000000000000000000000000000
        0.000000000000000000000000000000
        0.000000000000000000000000000000
        0.000000000000000000000000000000
        0.000000000000000000000000000000
        0.000000000000000000000000000000
        0.000000000000000000000000000000
        0.000000000000000000000000000000
        0.000000000000000000000000000000
        0.000000000000000000000000000000
        0.000000000000000000000000000000
        0.000000000000000000000000000000
        0.000000000000000000000000000000
        0.000000000000000000000000000000
        0.000000000000000000000000000000
        0.000000000000000000000000000000
        0.000000000000000000000000000000
        0.000000000000000000000000000000
        0.000000000000000000000000000000
        0.000000000000000000000000000000
        0.000000000000000000000000000000
        0.000000000000000000000000000000
        0.000000000000000000000000000000
        0.000000000000000000000000000000
        0.000000000000000000000000000000
        0.000000000000000000000000000000
        0.000000000000000000000000000000
        0.000000000000000000000000000000
        0.000000000000000000000000000000
        0.000000000000000000000000000000
        0.000000000000000000000000000000
        0.000000000000000000000000000000
        0.000000000000000000000000000000
        0.000000000000000000000000000000
        0.000000000000000000000000000000
        0.000000000000000000000000000000
        0.000000000000000000000000000000
        0.000000000000000000000000000000
        0.000000000000000000000000000000
        0.000000000000000000000000000000
        0.000000000000000000000000000000
        0.000000000000000000000000000000
        0.000000000000000000000000000000
        0.000000000000000000000000000000
        0.000000000000000000000000000000
        0.000000000000000000000000000000
        0.000000000000000000000000000000
        0.000000000000000000000000000000
        0.000000000000000000000000000000
        0.000000000000000000000000000000
        0.000000000000000000000000000000
        0.000000000000000000000000000000
        0.000000000000000000000000000000
        0.000000000000000000000000000000
        0.000000000000000000000000000000
        0.000000000000000000000000000000
        0.000000000000000000000000000000
        0.000000000000000000000000000000
        0.000000000000000000000000000000
        0.000000000000000000000000000000
        0.000000000000000000000000000000
        0.000000000000000000000000000000
        0.000000000000000000000000000000
        0.000000000000000000000000000000
        0.000000000000000000000000000000
        0.000000000000000000000000000000
        0.000000000000000000000000000000
        0.000000000000000000000000000000
        0.000000000000000000000000000000
        0.000000000000000000000000000000
        0.000000000000000000000000000000
        0.000000000000000000000000000000
        0.000000000000000000000000000000
        0.000000000000000000000000000000
        0.000000000000000000000000000000
        0.000000000000000000000000000000
        0.000000000000000000000000000000
        0.000000000000000000000000000000
        0.000000000000000000000000000000
        0.000000000000000000000000000000
        0.000000000000000000000000000000
        0.000000000000000000000000000000
        0.000000000000000000000000000000
        0.000000000000000000000000000000
        0.000000000000000000000000000000
        0.000000000000000000000000000000
        0.000000000000000000000000000000
        0.000000000000000000000000000000
        0.000000000000000000000000000000
        0.000000000000000000000000000000
        0.000000000000000000000000000000
        0.000000000000000000000000000000
        0.000000000000000000000000000000
        0.000000000000000000000000000000
        0.000000000000000000000000000000
        0.000000000000000000000000000000
        0.000000000000000000000000000000
        0.000000000000000000000000000000
        0.000000000000000000000000000000
        0.000000000000000000000000000000
        0.000000000000000000000000000000
        0.000000000000000000000000000000
        0.000000000000000000000000000000
        0.000000000000000000000000000000
        0.000000000000000000000000000000
        0.000000000000000000000000000000
        0.000000000000000000000000000000
        0.000000000000000000000000000000
        0.000000000000000000000000000000
        0.000000000000000000000000000000
        0.000000000000000000000000000000
        0.000000000000000000000000000000
        0.000000000000000000000000000000
        0.000000000000000000000000000000
        0.000000000000000000000000000000
        0.000000000000000000000000000000
        0.000000000000000000000000000000
        0.000000000000000000000000000000
        0.000000000000000000000000000000
        0.000000000000000000000000000000
        0.000000000000000000000000000000
        0.000000000000000000000000000000
        0.000000000000000000000000000000
        0.000000000000000000000000000000
        0.000000000000000000000000000000
        0.000000000000000000000000000000
        0.000000000000000000000000000000
        0.000000000000000000000000000000
        0.000000000000000000000000000000
        0.000000000000000000000000000000
        0.000000000000000000000000000000
        0.000000000000000000000000000000
        0.000000000000000000000000000000
        0.000000000000000000000000000000
        0.000000000000000000000000000000
        0.000000000000000000000000000000
        0.000000000000000000000000000000
        0.000000000000000000000000000000
        0.000000000000000000000000000000
        0.000000000000000000000000000000
        0.000000000000000000000000000000
        0.000000000000000000000000000000
        0.000000000000000000000000000000
        0.000000000000000000000000000000
        0.000000000000000000000000000000
        0.000000000000000000000000000000
        0.000000000000000000000000000000
        0.000000000000000000000000000000
        0.000000000000000000000000000000
        0.000000000000000000000000000000
        0.000000000000000000000000000000
        0.000000000000000000000000000000
        0.000000000000000000000000000000
        0.000000000000000000000000000000
        0.000000000000000000000000000000
        0.000000000000000000000000000000
        0.000000000000000000000000000000
        0.000000000000000000000000000000
        0.000000000000000000000000000000
        0.000000000000000000000000000000
        0.000000000000000000000000000000
        0.000000000000000000000000000000
        0.000000000000000000000000000000
        0.000000000000000000000000000000
        0.000000000000000000000000000000
        0.000000000000000000000000000000
        0.000000000000000000000000000000
        0.000000000000000000000000000000
        0.000000000000000000000000000000
        0.000000000000000000000000000000
        0.000000000000000000000000000000
        0.000000000000000000000000000000
        0.000000000000000000000000000000
        0.000000000000000000000000000000
        0.000000000000000000000000000000
        0.000000000000000000000000000000
        0.000000000000000000000000000000
        0.000000000000000000000000000000
        0.000000000000000000000000000000
        0.000000000000000000000000000000
        0.000000000000000000000000000000
        0.000000000000000000000000000000
        0.000000000000000000000000000000
        0.000000000000000000000000000000
        0.000000000000000000000000000000
        0.000000000000000000000000000000
        0.000000000000000000000000000000
        0.000000000000000000000000000000
        0.000000000000000000000000000000
        0.000000000000000000000000000000
        0.000000000000000000000000000000
        0.000000000000000000000000000000
        0.000000000000000000000000000000
        0.000000000000000000000000000000
        0.000000000000000000000000000000
        0.000000000000000000000000000000
        0.000000000000000000000000000000
        0.000000000000000000000000000000
        0.000000000000000000000000000000
        0.000000000000000000000000000000
        0.000000000000000000000000000000
        0.000000000000000000000000000000
        0.000000000000000000000000000000
        0.000000000000000000000000000000
        0.000000000000000000000000000000
        0.000000000000000000000000000000
        0.000000000000000000000000000000
        0.000000000000000000000000000000
        0.000000000000000000000000000000
        0.000000000000000000000000000000
        0.000000000000000000000000000000
        0.000000000000000000000000000000
        0.000000000000000000000000000000
        0.000000000000000000000000000000
        0.000000000000000000000000000000
        0.000000000000000000000000000000
        0.000000000000000000000000000000
        0.000000000000000000000000000000
        0.000000000000000000000000000000
        0.000000000000000000000000000000
        0.000000000000000000000000000000
        0.000000000000000000000000000000
        0.000000000000000000000000000000
        0.000000000000000000000000000000
        0.000000000000000000000000000000
        0.000000000000000000000000000000
        0.000000000000000000000000000000
        0.000000000000000000000000000000
        0.000000000000000000000000000000
        0.000000000000000000000000000000
        0.000000000000000000000000000000
        0.000000000000000000000000000000
        0.000000000000000000000000000000
        0.000000000000000000000000000000
        0.000000000000000000000000000000
        0.000000000000000000000000000000
        0.000000000000000000000000000000
        0.000000000000000000000000000000
        0.000000000000000000000000000000
        0.000000000000000000000000000000
        0.000000000000000000000000000000
        0.000000000000000000000000000000
        0.000000000000000000000000000000
        0.000000000000000000000000000000
        0.000000000000000000000000000000
        0.000000000000000000000000000000
        0.000000000000000000000000000000
        0.000000000000000000000000000000
        0.000000000000000000000000000000
        0.000000000000000000000000000000
        0.000000000000000000000000000000
        0.000000000000000000000000000000
        0.000000000000000000000000000000
        0.000000000000000000000000000000
        0.000000000000000000000000000000
        0.000000000000000000000000000000
        0.000000000000000000000000000000
        0.000000000000000000000000000000
        0.000000000000000000000000000000
        0.000000000000000000000000000000
        0.000000000000000000000000000000
        0.000000000000000000000000000000
        0.000000000000000000000000000000
        0.000000000000000000000000000000
        0.000000000000000000000000000000
        0.000000000000000000000000000000
        0.000000000000000000000000000000
        0.000000000000000000000000000000
        0.000000000000000000000000000000
        0.000000000000000000000000000000
        0.000000000000000000000000000000
        0.000000000000000000000000000000
        0.000000000000000000000000000000
        0.000000000000000000000000000000
        0.000000000000000000000000000000
        0.000000000000000000000000000000
        0.000000000000000000000000000000
        0.000000000000000000000000000000
        0.000000000000000000000000000000
        0.000000000000000000000000000000
        0.000000000000000000000000000000
        0.000000000000000000000000000000
        0.000000000000000000000000000000
        0.000000000000000000000000000000
        0.000000000000000000000000000000
        0.000000000000000000000000000000
        0.000000000000000000000000000000
        0.000000000000000000000000000000
        0.000000000000000000000000000000
        0.000000000000000000000000000000
        0.000000000000000000000000000000
        0.000000000000000000000000000000
        0.000000000000000000000000000000
        0.000000000000000000000000000000
        0.000000000000000000000000000000
        0.000000000000000000000000000000
        0.000000000000000000000000000000
        0.000000000000000000000000000000
        0.000000000000000000000000000000
        0.000000000000000000000000000000
        0.000000000000000000000000000000
        0.000000000000000000000000000000
        0.000000000000000000000000000000
        0.000000000000000000000000000000
        0.000000000000000000000000000000
        0.000000000000000000000000000000
        0.000000000000000000000000000000
        0.000000000000000000000000000000
        0.000000000000000000000000000000
        0.000000000000000000000000000000
        0.000000000000000000000000000000
        0.000000000000000000000000000000
        0.000000000000000000000000000000
        0.000000000000000000000000000000
        0.000000000000000000000000000000
        0.000000000000000000000000000000
        0.000000000000000000000000000000
        0.000000000000000000000000000000
        0.000000000000000000000000000000
        0.000000000000000000000000000000
        0.000000000000000000000000000000
        0.000000000000000000000000000000
        0.000000000000000000000000000000
        0.000000000000000000000000000000
        0.000000000000000000000000000000
        0.000000000000000000000000000000
        0.000000000000000000000000000000
        0.000000000000000000000000000000
        0.000000000000000000000000000000
        0.000000000000000000000000000000
        0.000000000000000000000000000000
        0.000000000000000000000000000000
        0.000000000000000000000000000000
        0.000000000000000000000000000000
        0.000000000000000000000000000000
        0.000000000000000000000000000000
        0.000000000000000000000000000000
        0.000000000000000000000000000000
        0.000000000000000000000000000000
        0.000000000000000000000000000000
        0.000000000000000000000000000000
        0.000000000000000000000000000000
        0.000000000000000000000000000000
        0.000000000000000000000000000000
        0.000000000000000000000000000000
        0.000000000000000000000000000000
        0.000000000000000000000000000000
        0.000000000000000000000000000000
        0.000000000000000000000000000000
        0.000000000000000000000000000000
        0.000000000000000000000000000000
        0.000000000000000000000000000000
        0.000000000000000000000000000000
        0.000000000000000000000000000000
        0.000000000000000000000000000000
        0.000000000000000000000000000000
        0.000000000000000000000000000000
        0.000000000000000000000000000000
        0.000000000000000000000000000000
        0.000000000000000000000000000000
        0.000000000000000000000000000000
        0.000000000000000000000000000000
        0.000000000000000000000000000000
        0.000000000000000000000000000000
        0.000000000000000000000000000000
        0.000000000000000000000000000000
        0.000000000000000000000000000000
        0.000000000000000000000000000000
        0.000000000000000000000000000000
        0.000000000000000000000000000000
        0.000000000000000000000000000000
        0.000000000000000000000000000000
        0.000000000000000000000000000000
        0.000000000000000000000000000000
        0.000000000000000000000000000000
        0.000000000000000000000000000000
        0.000000000000000000000000000000
        0.000000000000000000000000000000
        0.000000000000000000000000000000
        0.000000000000000000000000000000
        0.000000000000000000000000000000
        0.000000000000000000000000000000
        0.000000000000000000000000000000
        0.000000000000000000000000000000
        0.000000000000000000000000000000
        0.000000000000000000000000000000
        0.000000000000000000000000000000
        0.000000000000000000000000000000
        0.000000000000000000000000000000
        0.000000000000000000000000000000
        0.000000000000000000000000000000
        0.000000000000000000000000000000
        0.000000000000000000000000000000
        0.000000000000000000000000000000
        0.000000000000000000000000000000
        0.000000000000000000000000000000
        0.000000000000000000000000000000
        0.000000000000000000000000000000
        0.000000000000000000000000000000
        0.000000000000000000000000000000
        0.000000000000000000000000000000
        0.000000000000000000000000000000
        0.000000000000000000000000000000
        0.000000000000000000000000000000
        0.000000000000000000000000000000
        0.000000000000000000000000000000
        0.000000000000000000000000000000
        0.000000000000000000000000000000
        0.000000000000000000000000000000
        0.000000000000000000000000000000
        0.000000000000000000000000000000
        0.000000000000000000000000000000
        0.000000000000000000000000000000
        0.000000000000000000000000000000
        0.000000000000000000000000000000
        0.000000000000000000000000000000
        0.000000000000000000000000000000
        0.000000000000000000000000000000
        0.000000000000000000000000000000
        0.000000000000000000000000000000
        0.000000000000000000000000000000
        0.000000000000000000000000000000
        0.000000000000000000000000000000
        0.000000000000000000000000000000
        0.000000000000000000000000000000
        0.000000000000000000000000000000
        0.000000000000000000000000000000
        0.000000000000000000000000000000
        0.000000000000000000000000000000
        0.000000000000000000000000000000
        0.000000000000000000000000000000
        0.000000000000000000000000000000
        0.000000000000000000000000000000
        0.000000000000000000000000000000
        0.000000000000000000000000000000
        0.000000000000000000000000000000
        0.000000000000000000000000000000
        0.000000000000000000000000000000
        0.000000000000000000000000000000
        0.000000000000000000000000000000
        0.000000000000000000000000000000
        0.000000000000000000000000000000
        0.000000000000000000000000000000
        0.000000000000000000000000000000
        0.000000000000000000000000000000
        0.000000000000000000000000000000
        0.000000000000000000000000000000
        0.000000000000000000000000000000
        0.000000000000000000000000000000
        0.000000000000000000000000000000
        0.000000000000000000000000000000
        0.000000000000000000000000000000
        0.000000000000000000000000000000
        0.000000000000000000000000000000
        0.000000000000000000000000000000
        0.000000000000000000000000000000
        0.000000000000000000000000000000
        0.000000000000000000000000000000
        0.000000000000000000000000000000
        0.000000000000000000000000000000
        0.000000000000000000000000000000
        0.000000000000000000000000000000
        0.000000000000000000000000000000
        0.000000000000000000000000000000
        0.000000000000000000000000000000
        0.000000000000000000000000000000
        0.000000000000000000000000000000
        0.000000000000000000000000000000
        0.000000000000000000000000000000
        0.000000000000000000000000000000
        0.000000000000000000000000000000
        0.000000000000000000000000000000
        0.000000000000000000000000000000
        0.000000000000000000000000000000
        0.000000000000000000000000000000
        0.000000000000000000000000000000
        0.000000000000000000000000000000
        0.000000000000000000000000000000
        0.000000000000000000000000000000
        0.000000000000000000000000000000
        0.000000000000000000000000000000
        0.000000000000000000000000000000
        0.000000000000000000000000000000
        0.000000000000000000000000000000
        0.000000000000000000000000000000
        0.000000000000000000000000000000
        0.000000000000000000000000000000
        0.000000000000000000000000000000
        0.000000000000000000000000000000
        0.000000000000000000000000000000
        0.000000000000000000000000000000
        0.000000000000000000000000000000
        0.000000000000000000000000000000
        0.000000000000000000000000000000
        0.000000000000000000000000000000
        0.000000000000000000000000000000
        0.000000000000000000000000000000
        0.000000000000000000000000000000
        0.000000000000000000000000000000
        0.000000000000000000000000000000
        0.000000000000000000000000000000
        0.000000000000000000000000000000
        0.000000000000000000000000000000
        0.000000000000000000000000000000
        0.000000000000000000000000000000
        0.000000000000000000000000000000
        0.000000000000000000000000000000
        0.000000000000000000000000000000
        0.000000000000000000000000000000
        0.000000000000000000000000000000
        0.000000000000000000000000000000
        0.000000000000000000000000000000
        0.000000000000000000000000000000
        0.000000000000000000000000000000
        0.000000000000000000000000000000
        0.000000000000000000000000000000
        0.000000000000000000000000000000
        0.000000000000000000000000000000
        0.000000000000000000000000000000
        0.000000000000000000000000000000
        0.000000000000000000000000000000
        0.000000000000000000000000000000
        0.000000000000000000000000000000
        0.000000000000000000000000000000
        0.000000000000000000000000000000
        0.000000000000000000000000000000
        0.000000000000000000000000000000
        0.000000000000000000000000000000
        0.000000000000000000000000000000
        0.000000000000000000000000000000
        0.000000000000000000000000000000
        0.000000000000000000000000000000
        0.000000000000000000000000000000
        0.000000000000000000000000000000
        0.000000000000000000000000000000
        0.000000000000000000000000000000
        0.000000000000000000000000000000
        0.000000000000000000000000000000
        0.000000000000000000000000000000
        0.000000000000000000000000000000
        0.000000000000000000000000000000
        0.000000000000000000000000000000
        0.000000000000000000000000000000
        0.000000000000000000000000000000
        0.000000000000000000000000000000
        0.000000000000000000000000000000
        0.000000000000000000000000000000
        0.000000000000000000000000000000
        0.000000000000000000000000000000
        0.000000000000000000000000000000
        0.000000000000000000000000000000
        0.000000000000000000000000000000
        0.000000000000000000000000000000
        0.000000000000000000000000000000
        0.000000000000000000000000000000
        0.000000000000000000000000000000
        0.000000000000000000000000000000
        0.000000000000000000000000000000
        0.000000000000000000000000000000
        0.000000000000000000000000000000
        0.000000000000000000000000000000
        0.000000000000000000000000000000
        0.000000000000000000000000000000
        0.000000000000000000000000000000
        0.000000000000000000000000000000
        0.000000000000000000000000000000
        0.000000000000000000000000000000
        0.000000000000000000000000000000
        0.000000000000000000000000000000
        0.000000000000000000000000000000
        0.000000000000000000000000000000
        0.000000000000000000000000000000
        0.000000000000000000000000000000
        0.000000000000000000000000000000
        0.000000000000000000000000000000
        0.000000000000000000000000000000
        0.000000000000000000000000000000
        0.000000000000000000000000000000
        0.000000000000000000000000000000
        0.000000000000000000000000000000
        0.000000000000000000000000000000
        0.000000000000000000000000000000
        0.000000000000000000000000000000
        0.000000000000000000000000000000
        0.000000000000000000000000000000
        0.000000000000000000000000000000
        0.000000000000000000000000000000
        0.000000000000000000000000000000
        0.000000000000000000000000000000
        0.000000000000000000000000000000
        0.000000000000000000000000000000
        0.000000000000000000000000000000
        0.000000000000000000000000000000
        0.000000000000000000000000000000
        0.000000000000000000000000000000
        0.000000000000000000000000000000
        0.000000000000000000000000000000
        0.000000000000000000000000000000
        0.000000000000000000000000000000
        0.000000000000000000000000000000
        0.000000000000000000000000000000
        0.000000000000000000000000000000
        0.000000000000000000000000000000
        0.000000000000000000000000000000
        0.000000000000000000000000000000
        0.000000000000000000000000000000
        0.000000000000000000000000000000
        0.000000000000000000000000000000
        0.000000000000000000000000000000
        0.000000000000000000000000000000
        0.000000000000000000000000000000
        0.000000000000000000000000000000
        0.000000000000000000000000000000
        0.000000000000000000000000000000
        0.000000000000000000000000000000
        0.000000000000000000000000000000
        0.000000000000000000000000000000
        0.000000000000000000000000000000
        0.000000000000000000000000000000
        0.000000000000000000000000000000
        0.000000000000000000000000000000
        0.000000000000000000000000000000
        0.000000000000000000000000000000
        0.000000000000000000000000000000
        0.000000000000000000000000000000
        0.000000000000000000000000000000
        0.000000000000000000000000000000
        0.000000000000000000000000000000
        0.000000000000000000000000000000
        0.000000000000000000000000000000
        0.000000000000000000000000000000
        0.000000000000000000000000000000
        0.000000000000000000000000000000
        0.000000000000000000000000000000
        0.000000000000000000000000000000
        0.000000000000000000000000000000
        0.000000000000000000000000000000
        0.000000000000000000000000000000
        0.000000000000000000000000000000
        0.000000000000000000000000000000
        0.000000000000000000000000000000
        0.000000000000000000000000000000
        0.000000000000000000000000000000
        0.000000000000000000000000000000
        0.000000000000000000000000000000
        0.000000000000000000000000000000
        0.000000000000000000000000000000
        0.000000000000000000000000000000
        0.000000000000000000000000000000
        0.000000000000000000000000000000
        0.000000000000000000000000000000
        0.000000000000000000000000000000
        0.000000000000000000000000000000
        0.000000000000000000000000000000
        0.000000000000000000000000000000
        0.000000000000000000000000000000
        0.000000000000000000000000000000
        0.000000000000000000000000000000
        0.000000000000000000000000000000
        0.000000000000000000000000000000
        0.000000000000000000000000000000
        0.000000000000000000000000000000
        0.000000000000000000000000000000
        0.000000000000000000000000000000
        0.000000000000000000000000000000
        0.000000000000000000000000000000
        0.000000000000000000000000000000
        0.000000000000000000000000000000
        0.000000000000000000000000000000
        0.000000000000000000000000000000
        0.000000000000000000000000000000
        0.000000000000000000000000000000
        0.000000000000000000000000000000
        0.000000000000000000000000000000
        0.000000000000000000000000000000
        0.000000000000000000000000000000
        0.000000000000000000000000000000
        0.000000000000000000000000000000
        0.000000000000000000000000000000
        0.000000000000000000000000000000
        0.000000000000000000000000000000
        0.000000000000000000000000000000
        0.000000000000000000000000000000
        0.000000000000000000000000000000
        0.000000000000000000000000000000
        0.000000000000000000000000000000
        0.000000000000000000000000000000
        0.000000000000000000000000000000
        0.000000000000000000000000000000
        0.000000000000000000000000000000
        0.000000000000000000000000000000
        0.000000000000000000000000000000
        0.000000000000000000000000000000
        0.000000000000000000000000000000
        0.000000000000000000000000000000
        0.000000000000000000000000000000
        0.000000000000000000000000000000
        0.000000000000000000000000000000
        0.000000000000000000000000000000
        0.000000000000000000000000000000
        0.000000000000000000000000000000
        0.000000000000000000000000000000
        0.000000000000000000000000000000
        0.000000000000000000000000000000
        0.000000000000000000000000000000
        0.000000000000000000000000000000
        0.000000000000000000000000000000
        0.000000000000000000000000000000
        0.000000000000000000000000000000
        0.000000000000000000000000000000
        0.000000000000000000000000000000
        0.000000000000000000000000000000
        0.000000000000000000000000000000
        0.000000000000000000000000000000
        0.000000000000000000000000000000
        0.000000000000000000000000000000
        0.000000000000000000000000000000
        0.000000000000000000000000000000
        0.000000000000000000000000000000
        0.000000000000000000000000000000
        0.000000000000000000000000000000
        0.000000000000000000000000000000
        0.000000000000000000000000000000
        0.000000000000000000000000000000
        0.000000000000000000000000000000
        0.000000000000000000000000000000
        0.000000000000000000000000000000
        0.000000000000000000000000000000
        0.000000000000000000000000000000
        0.000000000000000000000000000000
        0.000000000000000000000000000000
        0.000000000000000000000000000000
        0.000000000000000000000000000000
        0.000000000000000000000000000000
        0.000000000000000000000000000000
        0.000000000000000000000000000000
        0.000000000000000000000000000000
        0.000000000000000000000000000000
        0.000000000000000000000000000000
        0.000000000000000000000000000000
        0.000000000000000000000000000000
        0.000000000000000000000000000000
        0.000000000000000000000000000000
        0.000000000000000000000000000000
        0.000000000000000000000000000000
        0.000000000000000000000000000000
        0.000000000000000000000000000000
        0.000000000000000000000000000000
        0.000000000000000000000000000000
        0.000000000000000000000000000000
        0.000000000000000000000000000000
        0.000000000000000000000000000000
        0.000000000000000000000000000000
        0.000000000000000000000000000000
        0.000000000000000000000000000000
        0.000000000000000000000000000000
        0.000000000000000000000000000000
        0.000000000000000000000000000000
        0.000000000000000000000000000000
        0.000000000000000000000000000000
        0.000000000000000000000000000000
        0.000000000000000000000000000000
        0.000000000000000000000000000000
        0.000000000000000000000000000000
        0.000000000000000000000000000000
        0.000000000000000000000000000000
        0.000000000000000000000000000000
        0.000000000000000000000000000000
        0.000000000000000000000000000000
        0.000000000000000000000000000000
        0.000000000000000000000000000000
        0.000000000000000000000000000000
        0.000000000000000000000000000000
        0.000000000000000000000000000000
        0.000000000000000000000000000000
        0.000000000000000000000000000000
        0.000000000000000000000000000000
        0.000000000000000000000000000000
        0.000000000000000000000000000000
        0.000000000000000000000000000000
        0.000000000000000000000000000000
        0.000000000000000000000000000000
        0.000000000000000000000000000000
        0.000000000000000000000000000000
        0.000000000000000000000000000000
        0.000000000000000000000000000000
        0.000000000000000000000000000000
        0.000000000000000000000000000000
        0.000000000000000000000000000000
        0.000000000000000000000000000000
        0.000000000000000000000000000000
        0.000000000000000000000000000000
        0.000000000000000000000000000000
        0.000000000000000000000000000000
        0.000000000000000000000000000000
        0.000000000000000000000000000000
        0.000000000000000000000000000000
        0.000000000000000000000000000000
        0.000000000000000000000000000000
        0.000000000000000000000000000000
        0.000000000000000000000000000000
        0.000000000000000000000000000000
        0.000000000000000000000000000000
        0.000000000000000000000000000000
        0.000000000000000000000000000000
        0.000000000000000000000000000000
        0.000000000000000000000000000000
        0.000000000000000000000000000000
        0.000000000000000000000000000000
        0.000000000000000000000000000000
        0.000000000000000000000000000000
        0.000000000000000000000000000000
        0.000000000000000000000000000000
        0.000000000000000000000000000000
        0.000000000000000000000000000000
        0.000000000000000000000000000000
        0.000000000000000000000000000000
        0.000000000000000000000000000000
        0.000000000000000000000000000000
        0.000000000000000000000000000000
        0.000000000000000000000000000000
        0.000000000000000000000000000000
        0.000000000000000000000000000000
        0.000000000000000000000000000000
        0.000000000000000000000000000000
        0.000000000000000000000000000000
        0.000000000000000000000000000000
        0.000000000000000000000000000000
        0.000000000000000000000000000000
        0.000000000000000000000000000000
        0.000000000000000000000000000000
        0.000000000000000000000000000000
        0.000000000000000000000000000000
        0.000000000000000000000000000000
        0.000000000000000000000000000000
        0.000000000000000000000000000000
        0.000000000000000000000000000000
        0.000000000000000000000000000000
        0.000000000000000000000000000000
        0.000000000000000000000000000000
        0.000000000000000000000000000000
        0.000000000000000000000000000000
        0.000000000000000000000000000000
        0.000000000000000000000000000000
        0.000000000000000000000000000000
        0.000000000000000000000000000000
        0.000000000000000000000000000000
        0.000000000000000000000000000000
        0.000000000000000000000000000000
        0.000000000000000000000000000000
        0.000000000000000000000000000000
        0.000000000000000000000000000000
        0.000000000000000000000000000000
        0.000000000000000000000000000000
        0.000000000000000000000000000000
        0.000000000000000000000000000000
        0.000000000000000000000000000000
        0.000000000000000000000000000000
        0.000000000000000000000000000000
        0.000000000000000000000000000000
        0.000000000000000000000000000000
        0.000000000000000000000000000000
        0.000000000000000000000000000000
        0.000000000000000000000000000000
        0.000000000000000000000000000000
        0.000000000000000000000000000000
        0.000000000000000000000000000000
        0.000000000000000000000000000000
        0.000000000000000000000000000000
        0.000000000000000000000000000000
        0.000000000000000000000000000000
        0.000000000000000000000000000000
        0.000000000000000000000000000000
        0.000000000000000000000000000000
        0.000000000000000000000000000000
        0.000000000000000000000000000000
        0.000000000000000000000000000000
        0.000000000000000000000000000000
        0.000000000000000000000000000000
        0.000000000000000000000000000000
        0.000000000000000000000000000000
        0.000000000000000000000000000000
        0.000000000000000000000000000000
        0.000000000000000000000000000000
        0.000000000000000000000000000000
        0.000000000000000000000000000000
        0.000000000000000000000000000000
        0.000000000000000000000000000000
        0.000000000000000000000000000000
        0.000000000000000000000000000000
        0.000000000000000000000000000000
        0.000000000000000000000000000000
        0.000000000000000000000000000000
        0.000000000000000000000000000000
        0.000000000000000000000000000000
        0.000000000000000000000000000000
        0.000000000000000000000000000000
        0.000000000000000000000000000000
        0.000000000000000000000000000000
        0.000000000000000000000000000000
        0.000000000000000000000000000000
        0.000000000000000000000000000000
        0.000000000000000000000000000000
        0.000000000000000000000000000000
        0.000000000000000000000000000000
        0.000000000000000000000000000000
        0.000000000000000000000000000000
        0.000000000000000000000000000000
        0.000000000000000000000000000000
        0.000000000000000000000000000000
        0.000000000000000000000000000000
        0.000000000000000000000000000000
        0.000000000000000000000000000000
        0.000000000000000000000000000000
        0.000000000000000000000000000000
        0.000000000000000000000000000000
        0.000000000000000000000000000000
        0.000000000000000000000000000000
        0.000000000000000000000000000000
        0.000000000000000000000000000000
        0.000000000000000000000000000000
        0.000000000000000000000000000000
        0.000000000000000000000000000000
        0.000000000000000000000000000000
        0.000000000000000000000000000000
        0.000000000000000000000000000000
        0.000000000000000000000000000000
        0.000000000000000000000000000000
        0.000000000000000000000000000000
        0.000000000000000000000000000000
        0.000000000000000000000000000000
        0.000000000000000000000000000000
        0.000000000000000000000000000000
        0.000000000000000000000000000000
        0.000000000000000000000000000000
        0.000000000000000000000000000000
        0.000000000000000000000000000000
        0.000000000000000000000000000000
        0.000000000000000000000000000000
        0.000000000000000000000000000000
        0.000000000000000000000000000000
        0.000000000000000000000000000000
        0.000000000000000000000000000000
        0.000000000000000000000000000000
        0.000000000000000000000000000000
        0.000000000000000000000000000000
        0.000000000000000000000000000000
        0.000000000000000000000000000000
        0.000000000000000000000000000000
        0.000000000000000000000000000000
        0.000000000000000000000000000000
        0.000000000000000000000000000000
        0.000000000000000000000000000000
        0.000000000000000000000000000000
        0.000000000000000000000000000000
        0.000000000000000000000000000000
        0.000000000000000000000000000000
        0.000000000000000000000000000000
        0.000000000000000000000000000000
        0.000000000000000000000000000000
        0.000000000000000000000000000000
        0.000000000000000000000000000000
        0.000000000000000000000000000000
        0.000000000000000000000000000000
        0.000000000000000000000000000000
        0.000000000000000000000000000000
        0.000000000000000000000000000000
        0.000000000000000000000000000000
        0.000000000000000000000000000000
        0.000000000000000000000000000000
        0.000000000000000000000000000000
        0.000000000000000000000000000000
        0.000000000000000000000000000000
        0.000000000000000000000000000000
        0.000000000000000000000000000000
        0.000000000000000000000000000000
        0.000000000000000000000000000000
        0.000000000000000000000000000000
        0.000000000000000000000000000000
        0.000000000000000000000000000000
        0.000000000000000000000000000000
        0.000000000000000000000000000000
        0.000000000000000000000000000000
        0.000000000000000000000000000000
        0.000000000000000000000000000000
        0.000000000000000000000000000000
        0.000000000000000000000000000000
        0.000000000000000000000000000000
        0.000000000000000000000000000000
        0.000000000000000000000000000000
        0.000000000000000000000000000000
        0.000000000000000000000000000000
        0.000000000000000000000000000000
        0.000000000000000000000000000000
        0.000000000000000000000000000000
        0.000000000000000000000000000000
        0.000000000000000000000000000000
        0.000000000000000000000000000000
        0.000000000000000000000000000000
        0.000000000000000000000000000000
        0.000000000000000000000000000000
        0.000000000000000000000000000000
        0.000000000000000000000000000000
        0.000000000000000000000000000000
        0.000000000000000000000000000000
        0.000000000000000000000000000000
        0.000000000000000000000000000000
        0.000000000000000000000000000000
        0.000000000000000000000000000000
        0.000000000000000000000000000000
        0.000000000000000000000000000000
        0.000000000000000000000000000000
        0.000000000000000000000000000000
        0.000000000000000000000000000000
        0.000000000000000000000000000000
        0.000000000000000000000000000000
        0.000000000000000000000000000000
        0.000000000000000000000000000000
        0.000000000000000000000000000000
        0.000000000000000000000000000000
        0.000000000000000000000000000000
        0.000000000000000000000000000000
        0.000000000000000000000000000000
        0.000000000000000000000000000000
        0.000000000000000000000000000000
        0.000000000000000000000000000000
        0.000000000000000000000000000000
        0.000000000000000000000000000000
        0.000000000000000000000000000000
        0.000000000000000000000000000000
        0.000000000000000000000000000000
        0.000000000000000000000000000000
        0.000000000000000000000000000000
        0.000000000000000000000000000000
        0.000000000000000000000000000000
        0.000000000000000000000000000000
        0.000000000000000000000000000000
        0.000000000000000000000000000000
        0.000000000000000000000000000000
        0.000000000000000000000000000000
        0.000000000000000000000000000000
        0.000000000000000000000000000000
        0.000000000000000000000000000000
        0.000000000000000000000000000000
        0.000000000000000000000000000000
        0.000000000000000000000000000000
        0.000000000000000000000000000000
        0.000000000000000000000000000000
        0.000000000000000000000000000000
        0.000000000000000000000000000000
        0.000000000000000000000000000000
        0.000000000000000000000000000000
        0.000000000000000000000000000000
        0.000000000000000000000000000000
        0.000000000000000000000000000000
        0.000000000000000000000000000000
        0.000000000000000000000000000000
        0.000000000000000000000000000000
        0.000000000000000000000000000000
        0.000000000000000000000000000000
        0.000000000000000000000000000000
        0.000000000000000000000000000000
        0.000000000000000000000000000000
        0.000000000000000000000000000000
        0.000000000000000000000000000000
        0.000000000000000000000000000000
        0.000000000000000000000000000000
        0.000000000000000000000000000000
        0.000000000000000000000000000000
        0.000000000000000000000000000000
        0.000000000000000000000000000000
        0.000000000000000000000000000000
        0.000000000000000000000000000000
        0.000000000000000000000000000000
        0.000000000000000000000000000000
        0.000000000000000000000000000000
        0.000000000000000000000000000000
        0.000000000000000000000000000000
        0.000000000000000000000000000000
        0.000000000000000000000000000000
        0.000000000000000000000000000000
        0.000000000000000000000000000000
        0.000000000000000000000000000000
        0.000000000000000000000000000000
        0.000000000000000000000000000000
        0.000000000000000000000000000000
        0.000000000000000000000000000000
        0.000000000000000000000000000000
        0.000000000000000000000000000000
        0.000000000000000000000000000000
        0.000000000000000000000000000000
        0.000000000000000000000000000000
        0.000000000000000000000000000000
        0.000000000000000000000000000000
        0.000000000000000000000000000000
        0.000000000000000000000000000000
        0.000000000000000000000000000000
        0.000000000000000000000000000000
        0.000000000000000000000000000000
        0.000000000000000000000000000000
        0.000000000000000000000000000000
        0.000000000000000000000000000000
        0.000000000000000000000000000000
        0.000000000000000000000000000000
        0.000000000000000000000000000000
        0.000000000000000000000000000000
        0.000000000000000000000000000000
        0.000000000000000000000000000000
        0.000000000000000000000000000000
        0.000000000000000000000000000000
        0.000000000000000000000000000000
        0.000000000000000000000000000000
        0.000000000000000000000000000000
        0.000000000000000000000000000000
        0.000000000000000000000000000000
        0.000000000000000000000000000000
        0.000000000000000000000000000000
        0.000000000000000000000000000000
        0.000000000000000000000000000000
        0.000000000000000000000000000000
        0.000000000000000000000000000000
        0.000000000000000000000000000000
        0.000000000000000000000000000000
        0.000000000000000000000000000000
        0.000000000000000000000000000000
        0.000000000000000000000000000000
        0.000000000000000000000000000000
        0.000000000000000000000000000000
        0.000000000000000000000000000000
        0.000000000000000000000000000000
        0.000000000000000000000000000000
        0.000000000000000000000000000000
        0.000000000000000000000000000000
        0.000000000000000000000000000000
        0.000000000000000000000000000000
        0.000000000000000000000000000000
        0.000000000000000000000000000000
        0.000000000000000000000000000000
        0.000000000000000000000000000000
        0.000000000000000000000000000000
        0.000000000000000000000000000000
        0.000000000000000000000000000000
        0.000000000000000000000000000000
        0.000000000000000000000000000000
        0.000000000000000000000000000000
        0.000000000000000000000000000000
        0.000000000000000000000000000000
        0.000000000000000000000000000000
        0.000000000000000000000000000000
        0.000000000000000000000000000000
        0.000000000000000000000000000000
        0.000000000000000000000000000000
        0.000000000000000000000000000000
        0.000000000000000000000000000000
        0.000000000000000000000000000000
        0.000000000000000000000000000000
        0.000000000000000000000000000000
        0.000000000000000000000000000000
        0.000000000000000000000000000000
        0.000000000000000000000000000000
        0.000000000000000000000000000000
        0.000000000000000000000000000000
        0.000000000000000000000000000000
        0.000000000000000000000000000000
        0.000000000000000000000000000000
        0.000000000000000000000000000000
        0.000000000000000000000000000000
        0.000000000000000000000000000000
        0.000000000000000000000000000000
        0.000000000000000000000000000000
        0.000000000000000000000000000000
        0.000000000000000000000000000000
        0.000000000000000000000000000000
        0.000000000000000000000000000000
        0.000000000000000000000000000000
        0.000000000000000000000000000000
        0.000000000000000000000000000000
        0.000000000000000000000000000000
        0.000000000000000000000000000000
        0.000000000000000000000000000000
        0.000000000000000000000000000000
        0.000000000000000000000000000000
        0.000000000000000000000000000000
        0.000000000000000000000000000000
        0.000000000000000000000000000000
        0.000000000000000000000000000000
        0.000000000000000000000000000000
        0.000000000000000000000000000000
        0.000000000000000000000000000000
        0.000000000000000000000000000000
        0.000000000000000000000000000000
        0.000000000000000000000000000000
        0.000000000000000000000000000000
        0.000000000000000000000000000000
        0.000000000000000000000000000000
        0.000000000000000000000000000000
        0.000000000000000000000000000000
        0.000000000000000000000000000000
        0.000000000000000000000000000000
        0.000000000000000000000000000000
        0.000000000000000000000000000000
        0.000000000000000000000000000000
        0.000000000000000000000000000000
        0.000000000000000000000000000000
        0.000000000000000000000000000000
        0.000000000000000000000000000000
        0.000000000000000000000000000000
        0.000000000000000000000000000000
        0.000000000000000000000000000000
        0.000000000000000000000000000000
        0.000000000000000000000000000000
        0.000000000000000000000000000000
        0.000000000000000000000000000000
        0.000000000000000000000000000000
        0.000000000000000000000000000000
        0.000000000000000000000000000000
        0.000000000000000000000000000000
        0.000000000000000000000000000000
        0.000000000000000000000000000000
        0.000000000000000000000000000000
        0.000000000000000000000000000000
        0.000000000000000000000000000000
        0.000000000000000000000000000000
        0.000000000000000000000000000000
        0.000000000000000000000000000000
        0.000000000000000000000000000000
        0.000000000000000000000000000000
        0.000000000000000000000000000000
        0.000000000000000000000000000000
        0.000000000000000000000000000000
        0.000000000000000000000000000000
        0.000000000000000000000000000000
        0.000000000000000000000000000000
        0.000000000000000000000000000000
        0.000000000000000000000000000000
        0.000000000000000000000000000000
        0.000000000000000000000000000000
        0.000000000000000000000000000000
        0.000000000000000000000000000000
        0.000000000000000000000000000000
        0.000000000000000000000000000000
        0.000000000000000000000000000000
        0.000000000000000000000000000000
        0.000000000000000000000000000000
        0.000000000000000000000000000000
        0.000000000000000000000000000000
        0.000000000000000000000000000000
        0.000000000000000000000000000000
        0.000000000000000000000000000000
        0.000000000000000000000000000000
        0.000000000000000000000000000000
        0.000000000000000000000000000000
        0.000000000000000000000000000000
        0.000000000000000000000000000000
        0.000000000000000000000000000000
        0.000000000000000000000000000000
        0.000000000000000000000000000000
        0.000000000000000000000000000000
        0.000000000000000000000000000000
        0.000000000000000000000000000000
        0.000000000000000000000000000000
        0.000000000000000000000000000000
        0.000000000000000000000000000000
        0.000000000000000000000000000000
        0.000000000000000000000000000000
        0.000000000000000000000000000000
        0.000000000000000000000000000000
        0.000000000000000000000000000000
        0.000000000000000000000000000000
        0.000000000000000000000000000000
        0.000000000000000000000000000000
        0.000000000000000000000000000000
        0.000000000000000000000000000000
        0.000000000000000000000000000000
        0.000000000000000000000000000000
        0.000000000000000000000000000000
        0.000000000000000000000000000000
        0.000000000000000000000000000000
        0.000000000000000000000000000000
        0.000000000000000000000000000000
        0.000000000000000000000000000000
        0.000000000000000000000000000000
        0.000000000000000000000000000000
        0.000000000000000000000000000000
        0.000000000000000000000000000000
        0.000000000000000000000000000000
        0.000000000000000000000000000000
        0.000000000000000000000000000000
        0.000000000000000000000000000000
        0.000000000000000000000000000000
        0.000000000000000000000000000000
        0.000000000000000000000000000000
        0.000000000000000000000000000000
        0.000000000000000000000000000000
        0.000000000000000000000000000000
        0.000000000000000000000000000000
        0.000000000000000000000000000000
        0.000000000000000000000000000000
        0.000000000000000000000000000000
        0.000000000000000000000000000000
        0.000000000000000000000000000000
        0.000000000000000000000000000000
        0.000000000000000000000000000000
        0.000000000000000000000000000000
        0.000000000000000000000000000000
        0.000000000000000000000000000000
        0.000000000000000000000000000000
        0.000000000000000000000000000000
        0.000000000000000000000000000000
        0.000000000000000000000000000000
        0.000000000000000000000000000000
        0.000000000000000000000000000000
        0.000000000000000000000000000000
        0.000000000000000000000000000000
        0.000000000000000000000000000000
        0.000000000000000000000000000000
        0.000000000000000000000000000000
        0.000000000000000000000000000000
        0.000000000000000000000000000000
        0.000000000000000000000000000000
        0.000000000000000000000000000000
        0.000000000000000000000000000000
        0.000000000000000000000000000000
        0.000000000000000000000000000000
        0.000000000000000000000000000000
        0.000000000000000000000000000000
        0.000000000000000000000000000000
        0.000000000000000000000000000000
        0.000000000000000000000000000000
        0.000000000000000000000000000000
        0.000000000000000000000000000000
        0.000000000000000000000000000000
        0.000000000000000000000000000000
        0.000000000000000000000000000000
        0.000000000000000000000000000000
        0.000000000000000000000000000000
        0.000000000000000000000000000000
        0.000000000000000000000000000000
        0.000000000000000000000000000000
        0.000000000000000000000000000000
        0.000000000000000000000000000000
        0.000000000000000000000000000000
        0.000000000000000000000000000000
        0.000000000000000000000000000000
        0.000000000000000000000000000000
        0.000000000000000000000000000000
        0.000000000000000000000000000000
        0.000000000000000000000000000000
        0.000000000000000000000000000000
        0.000000000000000000000000000000
        0.000000000000000000000000000000
        0.000000000000000000000000000000
        0.000000000000000000000000000000
        0.000000000000000000000000000000
        0.000000000000000000000000000000
        0.000000000000000000000000000000
        0.000000000000000000000000000000
        0.000000000000000000000000000000
        0.000000000000000000000000000000
        0.000000000000000000000000000000
        0.000000000000000000000000000000
        0.000000000000000000000000000000
        0.000000000000000000000000000000
        0.000000000000000000000000000000
        0.000000000000000000000000000000
        0.000000000000000000000000000000
        0.000000000000000000000000000000
        0.000000000000000000000000000000
        0.000000000000000000000000000000
        0.000000000000000000000000000000
        0.000000000000000000000000000000
        0.000000000000000000000000000000
        0.000000000000000000000000000000
        0.000000000000000000000000000000
        0.000000000000000000000000000000
        0.000000000000000000000000000000
        0.000000000000000000000000000000
        0.000000000000000000000000000000
        0.000000000000000000000000000000
        0.000000000000000000000000000000
        0.000000000000000000000000000000
        0.000000000000000000000000000000
        0.000000000000000000000000000000
        0.000000000000000000000000000000
        0.000000000000000000000000000000
        0.000000000000000000000000000000
        0.000000000000000000000000000000
        0.000000000000000000000000000000
        0.000000000000000000000000000000
        0.000000000000000000000000000000
        0.000000000000000000000000000000
        0.000000000000000000000000000000
        0.000000000000000000000000000000
        0.000000000000000000000000000000
        0.000000000000000000000000000000
        0.000000000000000000000000000000
        0.000000000000000000000000000000
        0.000000000000000000000000000000
        0.000000000000000000000000000000
        0.000000000000000000000000000000
        0.000000000000000000000000000000
        0.000000000000000000000000000000
        0.000000000000000000000000000000
        0.000000000000000000000000000000
        0.000000000000000000000000000000
        0.000000000000000000000000000000
        0.000000000000000000000000000000
        0.000000000000000000000000000000
        0.000000000000000000000000000000
        0.000000000000000000000000000000
        0.000000000000000000000000000000
        0.000000000000000000000000000000
        0.000000000000000000000000000000
        0.000000000000000000000000000000
        0.000000000000000000000000000000
        0.000000000000000000000000000000
        0.000000000000000000000000000000
        0.000000000000000000000000000000
        0.000000000000000000000000000000
        0.000000000000000000000000000000
        0.000000000000000000000000000000
        0.000000000000000000000000000000
        0.000000000000000000000000000000
        0.000000000000000000000000000000
        0.000000000000000000000000000000
        0.000000000000000000000000000000
        0.000000000000000000000000000000
        0.000000000000000000000000000000
        0.000000000000000000000000000000
        0.000000000000000000000000000000
        0.000000000000000000000000000000
        0.000000000000000000000000000000
        0.000000000000000000000000000000
        0.000000000000000000000000000000
        0.000000000000000000000000000000
        0.000000000000000000000000000000
        0.000000000000000000000000000000
        0.000000000000000000000000000000
        0.000000000000000000000000000000
        0.000000000000000000000000000000
        0.000000000000000000000000000000
        0.000000000000000000000000000000
        0.000000000000000000000000000000
        0.000000000000000000000000000000
        0.000000000000000000000000000000
        0.000000000000000000000000000000
        0.000000000000000000000000000000
        0.000000000000000000000000000000
        0.000000000000000000000000000000
        0.000000000000000000000000000000
        0.000000000000000000000000000000
        0.000000000000000000000000000000
        0.000000000000000000000000000000
        0.000000000000000000000000000000
        0.000000000000000000000000000000
        0.000000000000000000000000000000
        0.000000000000000000000000000000
        0.000000000000000000000000000000
        0.000000000000000000000000000000
        0.000000000000000000000000000000
        0.000000000000000000000000000000
        0.000000000000000000000000000000
        0.000000000000000000000000000000
        0.000000000000000000000000000000
        0.000000000000000000000000000000
        0.000000000000000000000000000000
        0.000000000000000000000000000000
        0.000000000000000000000000000000
        0.000000000000000000000000000000
        0.000000000000000000000000000000
        0.000000000000000000000000000000
        0.000000000000000000000000000000
        0.000000000000000000000000000000
        0.000000000000000000000000000000
        0.000000000000000000000000000000
        0.000000000000000000000000000000
        0.000000000000000000000000000000
        0.000000000000000000000000000000
        0.000000000000000000000000000000
        0.000000000000000000000000000000
        0.000000000000000000000000000000
        0.000000000000000000000000000000
        0.000000000000000000000000000000
        0.000000000000000000000000000000
        0.000000000000000000000000000000
        0.000000000000000000000000000000
        0.000000000000000000000000000000
        0.000000000000000000000000000000
        0.000000000000000000000000000000
        0.000000000000000000000000000000
        0.000000000000000000000000000000
        0.000000000000000000000000000000
        0.000000000000000000000000000000
        0.000000000000000000000000000000
        0.000000000000000000000000000000
        0.000000000000000000000000000000
        0.000000000000000000000000000000
        0.000000000000000000000000000000
        0.000000000000000000000000000000
        0.000000000000000000000000000000
        0.000000000000000000000000000000
        0.000000000000000000000000000000
        0.000000000000000000000000000000
        0.000000000000000000000000000000
        0.000000000000000000000000000000
        0.000000000000000000000000000000
        0.000000000000000000000000000000
        0.000000000000000000000000000000
        0.000000000000000000000000000000
        0.000000000000000000000000000000
        0.000000000000000000000000000000
        0.000000000000000000000000000000
        0.000000000000000000000000000000
        0.000000000000000000000000000000
        0.000000000000000000000000000000
        0.000000000000000000000000000000
        0.000000000000000000000000000000
        0.000000000000000000000000000000
        0.000000000000000000000000000000
        0.000000000000000000000000000000
        0.000000000000000000000000000000
        0.000000000000000000000000000000
        0.000000000000000000000000000000
        0.000000000000000000000000000000
        0.000000000000000000000000000000
        0.000000000000000000000000000000
        0.000000000000000000000000000000
        0.000000000000000000000000000000
        0.000000000000000000000000000000
        0.000000000000000000000000000000
        0.000000000000000000000000000000
        0.000000000000000000000000000000
        0.000000000000000000000000000000
        0.000000000000000000000000000000
        0.000000000000000000000000000000
        0.000000000000000000000000000000
        0.000000000000000000000000000000
        0.000000000000000000000000000000
        0.000000000000000000000000000000
        0.000000000000000000000000000000
        0.000000000000000000000000000000
        0.000000000000000000000000000000
        0.000000000000000000000000000000
        0.000000000000000000000000000000
        0.000000000000000000000000000000
        0.000000000000000000000000000000
        0.000000000000000000000000000000
        0.000000000000000000000000000000
        0.000000000000000000000000000000
        0.000000000000000000000000000000
        0.000000000000000000000000000000
        0.000000000000000000000000000000
        0.000000000000000000000000000000
        0.000000000000000000000000000000
        0.000000000000000000000000000000
        0.000000000000000000000000000000
        0.000000000000000000000000000000
        0.000000000000000000000000000000
        0.000000000000000000000000000000
        0.000000000000000000000000000000
        0.000000000000000000000000000000
        0.000000000000000000000000000000
        0.000000000000000000000000000000
        0.000000000000000000000000000000
        0.000000000000000000000000000000
        0.000000000000000000000000000000
        0.000000000000000000000000000000
        0.000000000000000000000000000000
        0.000000000000000000000000000000
        0.000000000000000000000000000000
        0.000000000000000000000000000000
        0.000000000000000000000000000000
        0.000000000000000000000000000000
        0.000000000000000000000000000000
        0.000000000000000000000000000000
        0.000000000000000000000000000000
        0.000000000000000000000000000000
        0.000000000000000000000000000000
        0.000000000000000000000000000000
        0.000000000000000000000000000000
        0.000000000000000000000000000000
        0.000000000000000000000000000000
        0.000000000000000000000000000000
        0.000000000000000000000000000000
        0.000000000000000000000000000000
        0.000000000000000000000000000000
        0.000000000000000000000000000000
        0.000000000000000000000000000000
        0.000000000000000000000000000000
        0.000000000000000000000000000000
        0.000000000000000000000000000000
        0.000000000000000000000000000000
        0.000000000000000000000000000000
        0.000000000000000000000000000000
        0.000000000000000000000000000000
        0.000000000000000000000000000000
        0.000000000000000000000000000000
        0.000000000000000000000000000000
        0.000000000000000000000000000000
        0.000000000000000000000000000000
        0.000000000000000000000000000000
        0.000000000000000000000000000000
        0.000000000000000000000000000000
        0.000000000000000000000000000000
        0.000000000000000000000000000000
        0.000000000000000000000000000000
        0.000000000000000000000000000000
        0.000000000000000000000000000000
        0.000000000000000000000000000000
        0.000000000000000000000000000000
        0.000000000000000000000000000000
        0.000000000000000000000000000000
        0.000000000000000000000000000000
        0.000000000000000000000000000000
        0.000000000000000000000000000000
        0.000000000000000000000000000000
        0.000000000000000000000000000000
        0.000000000000000000000000000000
        0.000000000000000000000000000000
        0.000000000000000000000000000000
        0.000000000000000000000000000000
        0.000000000000000000000000000000
        0.000000000000000000000000000000
        0.000000000000000000000000000000
        0.000000000000000000000000000000
        0.000000000000000000000000000000
        0.000000000000000000000000000000
        0.000000000000000000000000000000
        0.000000000000000000000000000000
        0.000000000000000000000000000000
        0.000000000000000000000000000000
        0.000000000000000000000000000000
        0.000000000000000000000000000000
        0.000000000000000000000000000000
        0.000000000000000000000000000000
        0.000000000000000000000000000000
        0.000000000000000000000000000000
        0.000000000000000000000000000000
        0.000000000000000000000000000000
        0.000000000000000000000000000000
        0.000000000000000000000000000000
        0.000000000000000000000000000000
        0.000000000000000000000000000000
        0.000000000000000000000000000000
        0.000000000000000000000000000000
        0.000000000000000000000000000000
        0.000000000000000000000000000000
        0.000000000000000000000000000000
        0.000000000000000000000000000000
        0.000000000000000000000000000000
        0.000000000000000000000000000000
        0.000000000000000000000000000000
        0.000000000000000000000000000000
        0.000000000000000000000000000000
        0.000000000000000000000000000000
        0.000000000000000000000000000000
        0.000000000000000000000000000000
        0.000000000000000000000000000000
        0.000000000000000000000000000000
        0.000000000000000000000000000000
        0.000000000000000000000000000000
        0.000000000000000000000000000000
        0.000000000000000000000000000000
        0.000000000000000000000000000000
        0.000000000000000000000000000000
        0.000000000000000000000000000000
        0.000000000000000000000000000000
        0.000000000000000000000000000000
        0.000000000000000000000000000000
        0.000000000000000000000000000000
        0.000000000000000000000000000000
        0.000000000000000000000000000000
        0.000000000000000000000000000000
        0.000000000000000000000000000000
        0.000000000000000000000000000000
        0.000000000000000000000000000000
        0.000000000000000000000000000000
        0.000000000000000000000000000000
        0.000000000000000000000000000000
        0.000000000000000000000000000000
        0.000000000000000000000000000000
        0.000000000000000000000000000000
        0.000000000000000000000000000000
        0.000000000000000000000000000000
        0.000000000000000000000000000000
        0.000000000000000000000000000000
        0.000000000000000000000000000000
        0.000000000000000000000000000000
        0.000000000000000000000000000000
        0.000000000000000000000000000000
        0.000000000000000000000000000000
        0.000000000000000000000000000000
        0.000000000000000000000000000000
        0.000000000000000000000000000000
        0.000000000000000000000000000000
        0.000000000000000000000000000000
        0.000000000000000000000000000000
        0.000000000000000000000000000000
        0.000000000000000000000000000000
        0.000000000000000000000000000000
        0.000000000000000000000000000000
        0.000000000000000000000000000000
        0.000000000000000000000000000000
        0.000000000000000000000000000000
        0.000000000000000000000000000000
        0.000000000000000000000000000000
        0.000000000000000000000000000000
        0.000000000000000000000000000000
        0.000000000000000000000000000000
        0.000000000000000000000000000000
        0.000000000000000000000000000000
        0.000000000000000000000000000000
        0.000000000000000000000000000000
        0.000000000000000000000000000000
        0.000000000000000000000000000000
        0.000000000000000000000000000000
        0.000000000000000000000000000000
        0.000000000000000000000000000000
        0.000000000000000000000000000000
        0.000000000000000000000000000000
        0.000000000000000000000000000000
        0.000000000000000000000000000000
        0.000000000000000000000000000000
        0.000000000000000000000000000000
        0.000000000000000000000000000000
        0.000000000000000000000000000000
        0.000000000000000000000000000000
        0.000000000000000000000000000000
        0.000000000000000000000000000000
        0.000000000000000000000000000000
        0.000000000000000000000000000000
        0.000000000000000000000000000000
        0.000000000000000000000000000000
        0.000000000000000000000000000000
        0.000000000000000000000000000000
        0.000000000000000000000000000000
        0.000000000000000000000000000000
        0.000000000000000000000000000000
        0.000000000000000000000000000000
        0.000000000000000000000000000000
        0.000000000000000000000000000000
        0.000000000000000000000000000000
        0.000000000000000000000000000000
        0.000000000000000000000000000000
        0.000000000000000000000000000000
        0.000000000000000000000000000000
        0.000000000000000000000000000000
        0.000000000000000000000000000000
        0.000000000000000000000000000000
        0.000000000000000000000000000000
        0.000000000000000000000000000000
        0.000000000000000000000000000000
        0.000000000000000000000000000000
        0.000000000000000000000000000000
        0.000000000000000000000000000000
        0.000000000000000000000000000000
        0.000000000000000000000000000000
        0.000000000000000000000000000000
        0.000000000000000000000000000000
        0.000000000000000000000000000000
        0.000000000000000000000000000000
        0.000000000000000000000000000000
        0.000000000000000000000000000000
        0.000000000000000000000000000000
        0.000000000000000000000000000000
        0.000000000000000000000000000000
        0.000000000000000000000000000000
        0.000000000000000000000000000000
        0.000000000000000000000000000000
        0.000000000000000000000000000000
        0.000000000000000000000000000000
        0.000000000000000000000000000000
        0.000000000000000000000000000000
        0.000000000000000000000000000000
        0.000000000000000000000000000000
        0.000000000000000000000000000000
        0.000000000000000000000000000000
        0.000000000000000000000000000000
        0.000000000000000000000000000000
        0.000000000000000000000000000000
        0.000000000000000000000000000000
        0.000000000000000000000000000000
        0.000000000000000000000000000000
        0.000000000000000000000000000000
        0.000000000000000000000000000000
        0.000000000000000000000000000000
        0.000000000000000000000000000000
        0.000000000000000000000000000000
        0.000000000000000000000000000000
        0.000000000000000000000000000000
        0.000000000000000000000000000000
        0.000000000000000000000000000000
        0.000000000000000000000000000000
        0.000000000000000000000000000000
        0.000000000000000000000000000000
        0.000000000000000000000000000000
        0.000000000000000000000000000000
        0.000000000000000000000000000000
        0.000000000000000000000000000000
        0.000000000000000000000000000000
        0.000000000000000000000000000000
        0.000000000000000000000000000000
        0.000000000000000000000000000000
        0.000000000000000000000000000000
        0.000000000000000000000000000000
        0.000000000000000000000000000000
        0.000000000000000000000000000000
        0.000000000000000000000000000000
        0.000000000000000000000000000000
        0.000000000000000000000000000000
        0.000000000000000000000000000000
        0.000000000000000000000000000000
        0.000000000000000000000000000000
        0.000000000000000000000000000000
        0.000000000000000000000000000000
        0.000000000000000000000000000000
        0.000000000000000000000000000000
        0.000000000000000000000000000000
        0.000000000000000000000000000000
        0.000000000000000000000000000000
        0.000000000000000000000000000000
        0.000000000000000000000000000000
        0.000000000000000000000000000000
        0.000000000000000000000000000000
        0.000000000000000000000000000000
        0.000000000000000000000000000000
        0.000000000000000000000000000000
        0.000000000000000000000000000000
        0.000000000000000000000000000000
        0.000000000000000000000000000000
        0.000000000000000000000000000000
        0.000000000000000000000000000000
        0.000000000000000000000000000000
        0.000000000000000000000000000000
        0.000000000000000000000000000000
        0.000000000000000000000000000000
        0.000000000000000000000000000000
        0.000000000000000000000000000000
        0.000000000000000000000000000000
        0.000000000000000000000000000000
        0.000000000000000000000000000000
        0.000000000000000000000000000000
        0.000000000000000000000000000000
        0.000000000000000000000000000000
        0.000000000000000000000000000000
        0.000000000000000000000000000000
        0.000000000000000000000000000000
        0.000000000000000000000000000000
        0.000000000000000000000000000000
        0.000000000000000000000000000000
        0.000000000000000000000000000000
        0.000000000000000000000000000000
        0.000000000000000000000000000000
        0.000000000000000000000000000000
        0.000000000000000000000000000000
        0.000000000000000000000000000000
        0.000000000000000000000000000000
        0.000000000000000000000000000000
        0.000000000000000000000000000000
        0.000000000000000000000000000000
        0.000000000000000000000000000000
        0.000000000000000000000000000000
        0.000000000000000000000000000000
        0.000000000000000000000000000000
        0.000000000000000000000000000000
        0.000000000000000000000000000000
        0.000000000000000000000000000000
        0.000000000000000000000000000000
        0.000000000000000000000000000000
        0.000000000000000000000000000000
        0.000000000000000000000000000000
        0.000000000000000000000000000000
        0.000000000000000000000000000000
        0.000000000000000000000000000000
        0.000000000000000000000000000000
        0.000000000000000000000000000000
        0.000000000000000000000000000000
        0.000000000000000000000000000000
        0.000000000000000000000000000000
        0.000000000000000000000000000000
        0.000000000000000000000000000000
        0.000000000000000000000000000000
        0.000000000000000000000000000000
        0.000000000000000000000000000000
        0.000000000000000000000000000000
        0.000000000000000000000000000000
        0.000000000000000000000000000000
        0.000000000000000000000000000000
        0.000000000000000000000000000000
        0.000000000000000000000000000000
        0.000000000000000000000000000000
        0.000000000000000000000000000000
        0.000000000000000000000000000000
        0.000000000000000000000000000000
        0.000000000000000000000000000000
        0.000000000000000000000000000000
        0.000000000000000000000000000000
        0.000000000000000000000000000000
        0.000000000000000000000000000000
        0.000000000000000000000000000000
        0.000000000000000000000000000000
        0.000000000000000000000000000000
        0.000000000000000000000000000000
        0.000000000000000000000000000000
        0.000000000000000000000000000000
        0.000000000000000000000000000000
        0.000000000000000000000000000000
        0.000000000000000000000000000000
        0.000000000000000000000000000000
        0.000000000000000000000000000000
        0.000000000000000000000000000000
        0.000000000000000000000000000000
        0.000000000000000000000000000000
        0.000000000000000000000000000000
        0.000000000000000000000000000000
        0.000000000000000000000000000000
        0.000000000000000000000000000000
        0.000000000000000000000000000000
        0.000000000000000000000000000000
        0.000000000000000000000000000000
        0.000000000000000000000000000000
        0.000000000000000000000000000000
        0.000000000000000000000000000000
        0.000000000000000000000000000000
        0.000000000000000000000000000000
        0.000000000000000000000000000000
        0.000000000000000000000000000000
        0.000000000000000000000000000000
        0.000000000000000000000000000000
        0.000000000000000000000000000000
        0.000000000000000000000000000000
        0.000000000000000000000000000000
        0.000000000000000000000000000000
        0.000000000000000000000000000000
        0.000000000000000000000000000000
        0.000000000000000000000000000000
        0.000000000000000000000000000000
        0.000000000000000000000000000000
        0.000000000000000000000000000000
        0.000000000000000000000000000000
        0.000000000000000000000000000000
        0.000000000000000000000000000000
        0.000000000000000000000000000000
        0.000000000000000000000000000000
VECTORS Displacements float 
     0.00000000     0.00000000     0.00000000
     0.00000000     0.00000000     0.00000000
     0.00000000     0.00000000     0.00000000
     0.00000000     0.00000000     0.00000000
     0.00000000     0.00000000     0.00000000
     0.00000000     0.00000000     0.00000000
     0.00000000     0.00000000     0.00000000
     0.00000000     0.00000000     0.00000000
     0.00000000     0.00000000     0.00000000
     0.00000000     0.00000000     0.00000000
     0.00000000     0.00000000     0.00000000
     0.00000000     0.00000000     0.00000000
     0.00000000     0.00000000     0.00000000
     0.00000000     0.00000000     0.00000000
     0.00000000     0.00000000     0.00000000
     0.00000000     0.00000000     0.00000000
     0.00000000     0.00000000     0.00000000
     0.00000000     0.00000000     0.00000000
     0.00000000     0.00000000     0.00000000
     0.00000000     0.00000000     0.00000000
     0.00000000     0.00000000     0.00000000
     0.00000000     0.00000000     0.00000000
     0.00000000     0.00000000     0.00000000
     0.00000000     0.00000000     0.00000000
     0.00000000     0.00000000     0.00000000
     0.00000000     0.00000000     0.00000000
     0.00000000     0.00000000     0.00000000
     0.00000000     0.00000000     0.00000000
     0.00000000     0.00000000     0.00000000
     0.00000000     0.00000000     0.00000000
     0.00000000     0.00000000     0.00000000
     0.00000000     0.00000000     0.00000000
     0.00000000     0.00000000     0.00000000
     0.00000000     0.00000000     0.00000000
     0.00000000     0.00000000     0.00000000
     0.00000000     0.00000000     0.00000000
     0.00000000     0.00000000     0.00000000
     0.00000000     0.00000000     0.00000000
     0.00000000     0.00000000     0.00000000
     0.00000000     0.00000000     0.00000000
     0.00000000     0.00000000     0.00000000
     0.00000000     0.00000000     0.00000000
     0.00000000     0.00000000     0.00000000
     0.00000000     0.00000000     0.00000000
     0.00000000     0.00000000     0.00000000
     0.00000000     0.00000000     0.00000000
     0.00000000     0.00000000     0.00000000
     0.00000000     0.00000000     0.00000000
     0.00000000     0.00000000     0.00000000
     0.00000000     0.00000000     0.00000000
     0.00000000     0.00000000     0.00000000
     0.00000000     0.00000000     0.00000000
     0.00000000     0.00000000     0.00000000
     0.00000000     0.00000000     0.00000000
     0.00000000     0.00000000     0.00000000
     0.00000000     0.00000000     0.00000000
     0.00000000     0.00000000     0.00000000
     0.00000000     0.00000000     0.00000000
     0.00000000     0.00000000     0.00000000
     0.00000000     0.00000000     0.00000000
     0.00000000     0.00000000     0.00000000
     0.00000000     0.00000000     0.00000000
     0.00000000     0.00000000     0.00000000
     0.00000000     0.00000000     0.00000000
     0.00000000     0.00000000     0.00000000
     0.00000000     0.00000000     0.00000000
     0.00000000     0.00000000     0.00000000
     0.00000000     0.00000000     0.00000000
     0.00000000     0.00000000     0.00000000
     0.00000000     0.00000000     0.00000000
     0.00000000     0.00000000     0.00000000
     0.00000000     0.00000000     0.00000000
     0.00000000     0.00000000     0.00000000
     0.00000000     0.00000000     0.00000000
     0.00000000     0.00000000     0.00000000
     0.00000000     0.00000000     0.00000000
     0.00000000     0.00000000     0.00000000
     0.00000000     0.00000000     0.00000000
     0.00000000     0.00000000     0.00000000
     0.00000000     0.00000000     0.00000000
     0.00000000     0.00000000     0.00000000
     0.00000000     0.00000000     0.00000000
     0.00000000     0.00000000     0.00000000
     0.00000000     0.00000000     0.00000000
     0.00000000     0.00000000     0.00000000
     0.00000000     0.00000000     0.00000000
     0.00000000     0.00000000     0.00000000
     0.00000000     0.00000000     0.00000000
     0.00000000     0.00000000     0.00000000
     0.00000000     0.00000000     0.00000000
     0.00000000     0.00000000     0.00000000
     0.00000000     0.00000000     0.00000000
     0.00000000     0.00000000     0.00000000
     0.00000000     0.00000000     0.00000000
     0.00000000     0.00000000     0.00000000
     0.00000000     0.00000000     0.00000000
     0.00000000     0.00000000     0.00000000
     0.00000000     0.00000000     0.00000000
     0.00000000     0.00000000     0.00000000
     0.00000000     0.00000000     0.00000000
     0.00000000     0.00000000     0.00000000
     0.00000000     0.00000000     0.00000000
     0.00000000     0.00000000     0.00000000
     0.00000000     0.00000000     0.00000000
     0.00000000     0.00000000     0.00000000
     0.00000000     0.00000000     0.00000000
     0.00000000     0.00000000     0.00000000
     0.00000000     0.00000000     0.00000000
     0.00000000     0.00000000     0.00000000
     0.00000000     0.00000000     0.00000000
     0.00000000     0.00000000     0.00000000
     0.00000000     0.00000000     0.00000000
     0.00000000     0.00000000     0.00000000
     0.00000000     0.00000000     0.00000000
     0.00000000     0.00000000     0.00000000
     0.00000000     0.00000000     0.00000000
     0.00000000     0.00000000     0.00000000
     0.00000000     0.00000000     0.00000000
     0.00000000     0.00000000     0.00000000
     0.00000000     0.00000000     0.00000000
     0.00000000     0.00000000     0.00000000
     0.00000000     0.00000000     0.00000000
     0.00000000     0.00000000     0.00000000
     0.00000000     0.00000000     0.00000000
     0.00000000     0.00000000     0.00000000
     0.00000000     0.00000000     0.00000000
     0.00000000     0.00000000     0.00000000
     0.00000000     0.00000000     0.00000000
     0.00000000     0.00000000     0.00000000
     0.00000000     0.00000000     0.00000000
     0.00000000     0.00000000     0.00000000
     0.00000000     0.00000000     0.00000000
     0.00000000     0.00000000     0.00000000
     0.00000000     0.00000000     0.00000000
     0.00000000     0.00000000     0.00000000
     0.00000000     0.00000000     0.00000000
     0.00000000     0.00000000     0.00000000
     0.00000000     0.00000000     0.00000000
     0.00000000     0.00000000     0.00000000
     0.00000000     0.00000000     0.00000000
     0.00000000     0.00000000     0.00000000
     0.00000000     0.00000000     0.00000000
     0.00000000     0.00000000     0.00000000
     0.00000000     0.00000000     0.00000000
     0.00000000     0.00000000     0.00000000
     0.00000000     0.00000000     0.00000000
     0.00000000     0.00000000     0.00000000
     0.00000000     0.00000000     0.00000000
     0.00000000     0.00000000     0.00000000
     0.00000000     0.00000000     0.00000000
     0.00000000     0.00000000     0.00000000
     0.00000000     0.00000000     0.00000000
     0.00000000     0.00000000     0.00000000
     0.00000000     0.00000000     0.00000000
     0.00000000     0.00000000     0.00000000
     0.00000000     0.00000000     0.00000000
     0.00000000     0.00000000     0.00000000
     0.00000000     0.00000000     0.00000000
     0.00000000     0.00000000     0.00000000
     0.00000000     0.00000000     0.00000000
     0.00000000     0.00000000     0.00000000
     0.00000000     0.00000000     0.00000000
     0.00000000     0.00000000     0.00000000
     0.00000000     0.00000000     0.00000000
     0.00000000     0.00000000     0.00000000
     0.00000000     0.00000000     0.00000000
     0.00000000     0.00000000     0.00000000
     0.00000000     0.00000000     0.00000000
     0.00000000     0.00000000     0.00000000
     0.00000000     0.00000000     0.00000000
     0.00000000     0.00000000     0.00000000
     0.00000000     0.00000000     0.00000000
     0.00000000     0.00000000     0.00000000
     0.00000000     0.00000000     0.00000000
     0.00000000     0.00000000     0.00000000
     0.00000000     0.00000000     0.00000000
     0.00000000     0.00000000     0.00000000
     0.00000000     0.00000000     0.00000000
     0.00000000     0.00000000     0.00000000
     0.00000000     0.00000000     0.00000000
     0.00000000     0.00000000     0.00000000
     0.00000000     0.00000000     0.00000000
     0.00000000     0.00000000     0.00000000
     0.00000000     0.00000000     0.00000000
     0.00000000     0.00000000     0.00000000
     0.00000000     0.00000000     0.00000000
     0.00000000     0.00000000     0.00000000
     0.00000000     0.00000000     0.00000000
     0.00000000     0.00000000     0.00000000
     0.00000000     0.00000000     0.00000000
     0.00000000     0.00000000     0.00000000
     0.00000000     0.00000000     0.00000000
     0.00000000     0.00000000     0.00000000
     0.00000000     0.00000000     0.00000000
     0.00000000     0.00000000     0.00000000
     0.00000000     0.00000000     0.00000000
     0.00000000     0.00000000     0.00000000
     0.00000000     0.00000000     0.00000000
     0.00000000     0.00000000     0.00000000
     0.00000000     0.00000000     0.00000000
     0.00000000     0.00000000     0.00000000
     0.00000000     0.00000000     0.00000000
     0.00000000     0.00000000     0.00000000
     0.00000000     0.00000000     0.00000000
     0.00000000     0.00000000     0.00000000
     0.00000000     0.00000000     0.00000000
     0.00000000     0.00000000     0.00000000
     0.00000000     0.00000000     0.00000000
     0.00000000     0.00000000     0.00000000
     0.00000000     0.00000000     0.00000000
     0.00000000     0.00000000     0.00000000
     0.00000000     0.00000000     0.00000000
     0.00000000     0.00000000     0.00000000
     0.00000000     0.00000000     0.00000000
     0.00000000     0.00000000     0.00000000
     0.00000000     0.00000000     0.00000000
     0.00000000     0.00000000     0.00000000
     0.00000000     0.00000000     0.00000000
     0.00000000     0.00000000     0.00000000
     0.00000000     0.00000000     0.00000000
     0.00000000     0.00000000     0.00000000
     0.00000000     0.00000000     0.00000000
     0.00000000     0.00000000     0.00000000
     0.00000000     0.00000000     0.00000000
     0.00000000     0.00000000     0.00000000
     0.00000000     0.00000000     0.00000000
     0.00000000     0.00000000     0.00000000
     0.00000000     0.00000000     0.00000000
     0.00000000     0.00000000     0.00000000
     0.00000000     0.00000000     0.00000000
     0.00000000     0.00000000     0.00000000
     0.00000000     0.00000000     0.00000000
     0.00000000     0.00000000     0.00000000
     0.00000000     0.00000000     0.00000000
     0.00000000     0.00000000     0.00000000
     0.00000000     0.00000000     0.00000000
     0.00000000     0.00000000     0.00000000
     0.00000000     0.00000000     0.00000000
     0.00000000     0.00000000     0.00000000
     0.00000000     0.00000000     0.00000000
     0.00000000     0.00000000     0.00000000
     0.00000000     0.00000000     0.00000000
     0.00000000     0.00000000     0.00000000
     0.00000000     0.00000000     0.00000000
     0.00000000     0.00000000     0.00000000
     0.00000000     0.00000000     0.00000000
     0.00000000     0.00000000     0.00000000
     0.00000000     0.00000000     0.00000000
     0.00000000     0.00000000     0.00000000
     0.00000000     0.00000000     0.00000000
     0.00000000     0.00000000     0.00000000
     0.00000000     0.00000000     0.00000000
     0.00000000     0.00000000     0.00000000
     0.00000000     0.00000000     0.00000000
     0.00000000     0.00000000     0.00000000
     0.00000000     0.00000000     0.00000000
     0.00000000     0.00000000     0.00000000
     0.00000000     0.00000000     0.00000000
     0.00000000     0.00000000     0.00000000
     0.00000000     0.00000000     0.00000000
     0.00000000     0.00000000     0.00000000
     0.00000000     0.00000000     0.00000000
     0.00000000     0.00000000     0.00000000
     0.00000000     0.00000000     0.00000000
     0.00000000     0.00000000     0.00000000
     0.00000000     0.00000000     0.00000000
     0.00000000     0.00000000     0.00000000
     0.00000000     0.00000000     0.00000000
     0.00000000     0.00000000     0.00000000
     0.00000000     0.00000000     0.00000000
     0.00000000     0.00000000     0.00000000
     0.00000000     0.00000000     0.00000000
     0.00000000     0.00000000     0.00000000
     0.00000000     0.00000000     0.00000000
     0.00000000     0.00000000     0.00000000
     0.00000000     0.00000000     0.00000000
     0.00000000     0.00000000     0.00000000
     0.00000000     0.00000000     0.00000000
     0.00000000     0.00000000     0.00000000
     0.00000000     0.00000000     0.00000000
     0.00000000     0.00000000     0.00000000
     0.00000000     0.00000000     0.00000000
     0.00000000     0.00000000     0.00000000
     0.00000000     0.00000000     0.00000000
     0.00000000     0.00000000     0.00000000
     0.00000000     0.00000000     0.00000000
     0.00000000     0.00000000     0.00000000
     0.00000000     0.00000000     0.00000000
     0.00000000     0.00000000     0.00000000
     0.00000000     0.00000000     0.00000000
     0.00000000     0.00000000     0.00000000
     0.00000000     0.00000000     0.00000000
     0.00000000     0.00000000     0.00000000
     0.00000000     0.00000000     0.00000000
     0.00000000     0.00000000     0.00000000
     0.00000000     0.00000000     0.00000000
     0.00000000     0.00000000     0.00000000
     0.00000000     0.00000000     0.00000000
     0.00000000     0.00000000     0.00000000
     0.00000000     0.00000000     0.00000000
     0.00000000     0.00000000     0.00000000
     0.00000000     0.00000000     0.00000000
     0.00000000     0.00000000     0.00000000
     0.00000000     0.00000000     0.00000000
     0.00000000     0.00000000     0.00000000
     0.00000000     0.00000000     0.00000000
     0.00000000     0.00000000     0.00000000
     0.00000000     0.00000000     0.00000000
     0.00000000     0.00000000     0.00000000
     0.00000000     0.00000000     0.00000000
     0.00000000     0.00000000     0.00000000
     0.00000000     0.00000000     0.00000000
     0.00000000     0.00000000     0.00000000
     0.00000000     0.00000000     0.00000000
     0.00000000     0.00000000     0.00000000
     0.00000000     0.00000000     0.00000000
     0.00000000     0.00000000     0.00000000
     0.00000000     0.00000000     0.00000000
     0.00000000     0.00000000     0.00000000
     0.00000000     0.00000000     0.00000000
     0.00000000     0.00000000     0.00000000
     0.00000000     0.00000000     0.00000000
     0.00000000     0.00000000     0.00000000
     0.00000000     0.00000000     0.00000000
     0.00000000     0.00000000     0.00000000
     0.00000000     0.00000000     0.00000000
     0.00000000     0.00000000     0.00000000
     0.00000000     0.00000000     0.00000000
     0.00000000     0.00000000     0.00000000
     0.00000000     0.00000000     0.00000000
     0.00000000     0.00000000     0.00000000
     0.00000000     0.00000000     0.00000000
     0.00000000     0.00000000     0.00000000
     0.00000000     0.00000000     0.00000000
     0.00000000     0.00000000     0.00000000
     0.00000000     0.00000000     0.00000000
     0.00000000     0.00000000     0.00000000
     0.00000000     0.00000000     0.00000000
     0.00000000     0.00000000     0.00000000
     0.00000000     0.00000000     0.00000000
     0.00000000     0.00000000     0.00000000
     0.00000000     0.00000000     0.00000000
     0.00000000     0.00000000     0.00000000
     0.00000000     0.00000000     0.00000000
     0.00000000     0.00000000     0.00000000
     0.00000000     0.00000000     0.00000000
     0.00000000     0.00000000     0.00000000
     0.00000000     0.00000000     0.00000000
     0.00000000     0.00000000     0.00000000
     0.00000000     0.00000000     0.00000000
     0.00000000     0.00000000     0.00000000
     0.00000000     0.00000000     0.00000000
     0.00000000     0.00000000     0.00000000
     0.00000000     0.00000000     0.00000000
     0.00000000     0.00000000     0.00000000
     0.00000000     0.00000000     0.00000000
     0.00000000     0.00000000     0.00000000
     0.00000000     0.00000000     0.00000000
     0.00000000     0.00000000     0.00000000
     0.00000000     0.00000000     0.00000000
     0.00000000     0.00000000     0.00000000
     0.00000000     0.00000000     0.00000000
     0.00000000     0.00000000     0.00000000
     0.00000000     0.00000000     0.00000000
     0.00000000     0.00000000     0.00000000
     0.00000000     0.00000000     0.00000000
     0.00000000     0.00000000     0.00000000
     0.00000000     0.00000000     0.00000000
     0.00000000     0.00000000     0.00000000
     0.00000000     0.00000000     0.00000000
     0.00000000     0.00000000     0.00000000
     0.00000000     0.00000000     0.00000000
     0.00000000     0.00000000     0.00000000
     0.00000000     0.00000000     0.00000000
     0.00000000     0.00000000     0.00000000
     0.00000000     0.00000000     0.00000000
     0.00000000     0.00000000     0.00000000
     0.00000000     0.00000000     0.00000000
     0.00000000     0.00000000     0.00000000
     0.00000000     0.00000000     0.00000000
     0.00000000     0.00000000     0.00000000
     0.00000000     0.00000000     0.00000000
     0.00000000     0.00000000     0.00000000
     0.00000000     0.00000000     0.00000000
     0.00000000     0.00000000     0.00000000
     0.00000000     0.00000000     0.00000000
     0.00000000     0.00000000     0.00000000
     0.00000000     0.00000000     0.00000000
     0.00000000     0.00000000     0.00000000
     0.00000000     0.00000000     0.00000000
     0.00000000     0.00000000     0.00000000
     0.00000000     0.00000000     0.00000000
     0.00000000     0.00000000     0.00000000
     0.00000000     0.00000000     0.00000000
     0.00000000     0.00000000     0.00000000
     0.00000000     0.00000000     0.00000000
     0.00000000     0.00000000     0.00000000
     0.00000000     0.00000000     0.00000000
     0.00000000     0.00000000     0.00000000
     0.00000000     0.00000000     0.00000000
     0.00000000     0.00000000     0.00000000
     0.00000000     0.00000000     0.00000000
     0.00000000     0.00000000     0.00000000
     0.00000000     0.00000000     0.00000000
     0.00000000     0.00000000     0.00000000
     0.00000000     0.00000000     0.00000000
     0.00000000     0.00000000     0.00000000
     0.00000000     0.00000000     0.00000000
     0.00000000     0.00000000     0.00000000
     0.00000000     0.00000000     0.00000000
     0.00000000     0.00000000     0.00000000
     0.00000000     0.00000000     0.00000000
     0.00000000     0.00000000     0.00000000
     0.00000000     0.00000000     0.00000000
     0.00000000     0.00000000     0.00000000
     0.00000000     0.00000000     0.00000000
     0.00000000     0.00000000     0.00000000
     0.00000000     0.00000000     0.00000000
     0.00000000     0.00000000     0.00000000
     0.00000000     0.00000000     0.00000000
     0.00000000     0.00000000     0.00000000
     0.00000000     0.00000000     0.00000000
     0.00000000     0.00000000     0.00000000
     0.00000000     0.00000000     0.00000000
     0.00000000     0.00000000     0.00000000
     0.00000000     0.00000000     0.00000000
     0.00000000     0.00000000     0.00000000
     0.00000000     0.00000000     0.00000000
     0.00000000     0.00000000     0.00000000
     0.00000000     0.00000000     0.00000000
     0.00000000     0.00000000     0.00000000
     0.00000000     0.00000000     0.00000000
     0.00000000     0.00000000     0.00000000
     0.00000000     0.00000000     0.00000000
     0.00000000     0.00000000     0.00000000
     0.00000000     0.00000000     0.00000000
     0.00000000     0.00000000     0.00000000
     0.00000000     0.00000000     0.00000000
     0.00000000     0.00000000     0.00000000
     0.00000000     0.00000000     0.00000000
     0.00000000     0.00000000     0.00000000
     0.00000000     0.00000000     0.00000000
     0.00000000     0.00000000     0.00000000
     0.00000000     0.00000000     0.00000000
     0.00000000     0.00000000     0.00000000
     0.00000000     0.00000000     0.00000000
     0.00000000     0.00000000     0.00000000
     0.00000000     0.00000000     0.00000000
     0.00000000     0.00000000     0.00000000
     0.00000000     0.00000000     0.00000000
     0.00000000     0.00000000     0.00000000
     0.00000000     0.00000000     0.00000000
     0.00000000     0.00000000     0.00000000
     0.00000000     0.00000000     0.00000000
     0.00000000     0.00000000     0.00000000
     0.00000000     0.00000000     0.00000000
     0.00000000     0.00000000     0.00000000
     0.00000000     0.00000000     0.00000000
     0.00000000     0.00000000     0.00000000
     0.00000000     0.00000000     0.00000000
     0.00000000     0.00000000     0.00000000
     0.00000000     0.00000000     0.00000000
     0.00000000     0.00000000     0.00000000
     0.00000000     0.00000000     0.00000000
     0.00000000     0.00000000     0.00000000
     0.00000000     0.00000000     0.00000000
     0.00000000     0.00000000     0.00000000
     0.00000000     0.00000000     0.00000000
     0.00000000     0.00000000     0.00000000
     0.00000000     0.00000000     0.00000000
     0.00000000     0.00000000     0.00000000
     0.00000000     0.00000000     0.00000000
     0.00000000     0.00000000     0.00000000
     0.00000000     0.00000000     0.00000000
     0.00000000     0.00000000     0.00000000
     0.00000000     0.00000000     0.00000000
     0.00000000     0.00000000     0.00000000
     0.00000000     0.00000000     0.00000000
     0.00000000     0.00000000     0.00000000
     0.00000000     0.00000000     0.00000000
     0.00000000     0.00000000     0.00000000
     0.00000000     0.00000000     0.00000000
     0.00000000     0.00000000     0.00000000
     0.00000000     0.00000000     0.00000000
     0.00000000     0.00000000     0.00000000
     0.00000000     0.00000000     0.00000000
     0.00000000     0.00000000     0.00000000
     0.00000000     0.00000000     0.00000000
     0.00000000     0.00000000     0.00000000
     0.00000000     0.00000000     0.00000000
     0.00000000     0.00000000     0.00000000
     0.00000000     0.00000000     0.00000000
     0.00000000     0.00000000     0.00000000
     0.00000000     0.00000000     0.00000000
     0.00000000     0.00000000     0.00000000
     0.00000000     0.00000000     0.00000000
     0.00000000     0.00000000     0.00000000
     0.00000000     0.00000000     0.00000000
     0.00000000     0.00000000     0.00000000
     0.00000000     0.00000000     0.00000000
     0.00000000     0.00000000     0.00000000
     0.00000000     0.00000000     0.00000000
     0.00000000     0.00000000     0.00000000
     0.00000000     0.00000000     0.00000000
     0.00000000     0.00000000     0.00000000
     0.00000000     0.00000000     0.00000000
     0.00000000     0.00000000     0.00000000
     0.00000000     0.00000000     0.00000000
     0.00000000     0.00000000     0.00000000
     0.00000000     0.00000000     0.00000000
     0.00000000     0.00000000     0.00000000
     0.00000000     0.00000000     0.00000000
     0.00000000     0.00000000     0.00000000
     0.00000000     0.00000000     0.00000000
     0.00000000     0.00000000     0.00000000
     0.00000000     0.00000000     0.00000000
     0.00000000     0.00000000     0.00000000
     0.00000000     0.00000000     0.00000000
     0.00000000     0.00000000     0.00000000
     0.00000000     0.00000000     0.00000000
     0.00000000     0.00000000     0.00000000
     0.00000000     0.00000000     0.00000000
     0.00000000     0.00000000     0.00000000
     0.00000000     0.00000000     0.00000000
     0.00000000     0.00000000     0.00000000
     0.00000000     0.00000000     0.00000000
     0.00000000     0.00000000     0.00000000
     0.00000000     0.00000000     0.00000000
     0.00000000     0.00000000     0.00000000
     0.00000000     0.00000000     0.00000000
     0.00000000     0.00000000     0.00000000
     0.00000000     0.00000000     0.00000000
     0.00000000     0.00000000     0.00000000
     0.00000000     0.00000000     0.00000000
     0.00000000     0.00000000     0.00000000
     0.00000000     0.00000000     0.00000000
     0.00000000     0.00000000     0.00000000
     0.00000000     0.00000000     0.00000000
     0.00000000     0.00000000     0.00000000
     0.00000000     0.00000000     0.00000000
     0.00000000     0.00000000     0.00000000
     0.00000000     0.00000000     0.00000000
     0.00000000     0.00000000     0.00000000
     0.00000000     0.00000000     0.00000000
     0.00000000     0.00000000     0.00000000
     0.00000000     0.00000000     0.00000000
     0.00000000     0.00000000     0.00000000
     0.00000000     0.00000000     0.00000000
     0.00000000     0.00000000     0.00000000
     0.00000000     0.00000000     0.00000000
     0.00000000     0.00000000     0.00000000
     0.00000000     0.00000000     0.00000000
     0.00000000     0.00000000     0.00000000
     0.00000000     0.00000000     0.00000000
     0.00000000     0.00000000     0.00000000
     0.00000000     0.00000000     0.00000000
     0.00000000     0.00000000     0.00000000
     0.00000000     0.00000000     0.00000000
     0.00000000     0.00000000     0.00000000
     0.00000000     0.00000000     0.00000000
     0.00000000     0.00000000     0.00000000
     0.00000000     0.00000000     0.00000000
     0.00000000     0.00000000     0.00000000
     0.00000000     0.00000000     0.00000000
     0.00000000     0.00000000     0.00000000
     0.00000000     0.00000000     0.00000000
     0.00000000     0.00000000     0.00000000
     0.00000000     0.00000000     0.00000000
     0.00000000     0.00000000     0.00000000
     0.00000000     0.00000000     0.00000000
     0.00000000     0.00000000     0.00000000
     0.00000000     0.00000000     0.00000000
     0.00000000     0.00000000     0.00000000
     0.00000000     0.00000000     0.00000000
     0.00000000     0.00000000     0.00000000
     0.00000000     0.00000000     0.00000000
     0.00000000     0.00000000     0.00000000
     0.00000000     0.00000000     0.00000000
     0.00000000     0.00000000     0.00000000
     0.00000000     0.00000000     0.00000000
     0.00000000     0.00000000     0.00000000
     0.00000000     0.00000000     0.00000000
     0.00000000     0.00000000     0.00000000
     0.00000000     0.00000000     0.00000000
     0.00000000     0.00000000     0.00000000
     0.00000000     0.00000000     0.00000000
     0.00000000     0.00000000     0.00000000
     0.00000000     0.00000000     0.00000000
     0.00000000     0.00000000     0.00000000
     0.00000000     0.00000000     0.00000000
     0.00000000     0.00000000     0.00000000
     0.00000000     0.00000000     0.00000000
     0.00000000     0.00000000     0.00000000
     0.00000000     0.00000000     0.00000000
     0.00000000     0.00000000     0.00000000
     0.00000000     0.00000000     0.00000000
     0.00000000     0.00000000     0.00000000
     0.00000000     0.00000000     0.00000000
     0.00000000     0.00000000     0.00000000
     0.00000000     0.00000000     0.00000000
     0.00000000     0.00000000     0.00000000
     0.00000000     0.00000000     0.00000000
     0.00000000     0.00000000     0.00000000
     0.00000000     0.00000000     0.00000000
     0.00000000     0.00000000     0.00000000
     0.00000000     0.00000000     0.00000000
     0.00000000     0.00000000     0.00000000
     0.00000000     0.00000000     0.00000000
     0.00000000     0.00000000     0.00000000
     0.00000000     0.00000000     0.00000000
     0.00000000     0.00000000     0.00000000
     0.00000000     0.00000000     0.00000000
     0.00000000     0.00000000     0.00000000
     0.00000000     0.00000000     0.00000000
     0.00000000     0.00000000     0.00000000
     0.00000000     0.00000000     0.00000000
     0.00000000     0.00000000     0.00000000
     0.00000000     0.00000000     0.00000000
     0.00000000     0.00000000     0.00000000
     0.00000000     0.00000000     0.00000000
     0.00000000     0.00000000     0.00000000
     0.00000000     0.00000000     0.00000000
     0.00000000     0.00000000     0.00000000
     0.00000000     0.00000000     0.00000000
     0.00000000     0.00000000     0.00000000
     0.00000000     0.00000000     0.00000000
     0.00000000     0.00000000     0.00000000
     0.00000000     0.00000000     0.00000000
     0.00000000     0.00000000     0.00000000
     0.00000000     0.00000000     0.00000000
     0.00000000     0.00000000     0.00000000
     0.00000000     0.00000000     0.00000000
     0.00000000     0.00000000     0.00000000
     0.00000000     0.00000000     0.00000000
     0.00000000     0.00000000     0.00000000
     0.00000000     0.00000000     0.00000000
     0.00000000     0.00000000     0.00000000
     0.00000000     0.00000000     0.00000000
     0.00000000     0.00000000     0.00000000
     0.00000000     0.00000000     0.00000000
     0.00000000     0.00000000     0.00000000
     0.00000000     0.00000000     0.00000000
     0.00000000     0.00000000     0.00000000
     0.00000000     0.00000000     0.00000000
     0.00000000     0.00000000     0.00000000
     0.00000000     0.00000000     0.00000000
     0.00000000     0.00000000     0.00000000
     0.00000000     0.00000000     0.00000000
     0.00000000     0.00000000     0.00000000
     0.00000000     0.00000000     0.00000000
     0.00000000     0.00000000     0.00000000
     0.00000000     0.00000000     0.00000000
     0.00000000     0.00000000     0.00000000
     0.00000000     0.00000000     0.00000000
     0.00000000     0.00000000     0.00000000
     0.00000000     0.00000000     0.00000000
     0.00000000     0.00000000     0.00000000
     0.00000000     0.00000000     0.00000000
     0.00000000     0.00000000     0.00000000
     0.00000000     0.00000000     0.00000000
     0.00000000     0.00000000     0.00000000
     0.00000000     0.00000000     0.00000000
     0.00000000     0.00000000     0.00000000
     0.00000000     0.00000000     0.00000000
     0.00000000     0.00000000     0.00000000
     0.00000000     0.00000000     0.00000000
     0.00000000     0.00000000     0.00000000
     0.00000000     0.00000000     0.00000000
     0.00000000     0.00000000     0.00000000
     0.00000000     0.00000000     0.00000000
     0.00000000     0.00000000     0.00000000
     0.00000000     0.00000000     0.00000000
     0.00000000     0.00000000     0.00000000
     0.00000000     0.00000000     0.00000000
     0.00000000     0.00000000     0.00000000
     0.00000000     0.00000000     0.00000000
     0.00000000     0.00000000     0.00000000
     0.00000000     0.00000000     0.00000000
     0.00000000     0.00000000     0.00000000
     0.00000000     0.00000000     0.00000000
     0.00000000     0.00000000     0.00000000
     0.00000000     0.00000000     0.00000000
     0.00000000     0.00000000     0.00000000
     0.00000000     0.00000000     0.00000000
     0.00000000     0.00000000     0.00000000
     0.00000000     0.00000000     0.00000000
     0.00000000     0.00000000     0.00000000
     0.00000000     0.00000000     0.00000000
     0.00000000     0.00000000     0.00000000
     0.00000000     0.00000000     0.00000000
     0.00000000     0.00000000     0.00000000
     0.00000000     0.00000000     0.00000000
     0.00000000     0.00000000     0.00000000
     0.00000000     0.00000000     0.00000000
     0.00000000     0.00000000     0.00000000
     0.00000000     0.00000000     0.00000000
     0.00000000     0.00000000     0.00000000
     0.00000000     0.00000000     0.00000000
     0.00000000     0.00000000     0.00000000
     0.00000000     0.00000000     0.00000000
     0.00000000     0.00000000     0.00000000
     0.00000000     0.00000000     0.00000000
     0.00000000     0.00000000     0.00000000
     0.00000000     0.00000000     0.00000000
     0.00000000     0.00000000     0.00000000
     0.00000000     0.00000000     0.00000000
     0.00000000     0.00000000     0.00000000
     0.00000000     0.00000000     0.00000000
     0.00000000     0.00000000     0.00000000
     0.00000000     0.00000000     0.00000000
     0.00000000     0.00000000     0.00000000
     0.00000000     0.00000000     0.00000000
     0.00000000     0.00000000     0.00000000
     0.00000000     0.00000000     0.00000000
     0.00000000     0.00000000     0.00000000
     0.00000000     0.00000000     0.00000000
     0.00000000     0.00000000     0.00000000
     0.00000000     0.00000000     0.00000000
     0.00000000     0.00000000     0.00000000
     0.00000000     0.00000000     0.00000000
     0.00000000     0.00000000     0.00000000
     0.00000000     0.00000000     0.00000000
     0.00000000     0.00000000     0.00000000
     0.00000000     0.00000000     0.00000000
     0.00000000     0.00000000     0.00000000
     0.00000000     0.00000000     0.00000000
     0.00000000     0.00000000     0.00000000
     0.00000000     0.00000000     0.00000000
     0.00000000     0.00000000     0.00000000
     0.00000000     0.00000000     0.00000000
     0.00000000     0.00000000     0.00000000
     0.00000000     0.00000000     0.00000000
     0.00000000     0.00000000     0.00000000
     0.00000000     0.00000000     0.00000000
     0.00000000     0.00000000     0.00000000
     0.00000000     0.00000000     0.00000000
     0.00000000     0.00000000     0.00000000
     0.00000000     0.00000000     0.00000000
     0.00000000     0.00000000     0.00000000
     0.00000000     0.00000000     0.00000000
     0.00000000     0.00000000     0.00000000
     0.00000000     0.00000000     0.00000000
     0.00000000     0.00000000     0.00000000
     0.00000000     0.00000000     0.00000000
     0.00000000     0.00000000     0.00000000
     0.00000000     0.00000000     0.00000000
     0.00000000     0.00000000     0.00000000
     0.00000000     0.00000000     0.00000000
     0.00000000     0.00000000     0.00000000
     0.00000000     0.00000000     0.00000000
     0.00000000     0.00000000     0.00000000
     0.00000000     0.00000000     0.00000000
     0.00000000     0.00000000     0.00000000
     0.00000000     0.00000000     0.00000000
     0.00000000     0.00000000     0.00000000
     0.00000000     0.00000000     0.00000000
     0.00000000     0.00000000     0.00000000
     0.00000000     0.00000000     0.00000000
     0.00000000     0.00000000     0.00000000
     0.00000000     0.00000000     0.00000000
     0.00000000     0.00000000     0.00000000
     0.00000000     0.00000000     0.00000000
     0.00000000     0.00000000     0.00000000
     0.00000000     0.00000000     0.00000000
     0.00000000     0.00000000     0.00000000
     0.00000000     0.00000000     0.00000000
     0.00000000     0.00000000     0.00000000
     0.00000000     0.00000000     0.00000000
     0.00000000     0.00000000     0.00000000
     0.00000000     0.00000000     0.00000000
     0.00000000     0.00000000     0.00000000
     0.00000000     0.00000000     0.00000000
     0.00000000     0.00000000     0.00000000
     0.00000000     0.00000000     0.00000000
     0.00000000     0.00000000     0.00000000
     0.00000000     0.00000000     0.00000000
     0.00000000     0.00000000     0.00000000
     0.00000000     0.00000000     0.00000000
     0.00000000     0.00000000     0.00000000
     0.00000000     0.00000000     0.00000000
     0.00000000     0.00000000     0.00000000
     0.00000000     0.00000000     0.00000000
     0.00000000     0.00000000     0.00000000
     0.00000000     0.00000000     0.00000000
     0.00000000     0.00000000     0.00000000
     0.00000000     0.00000000     0.00000000
     0.00000000     0.00000000     0.00000000
     0.00000000     0.00000000     0.00000000
     0.00000000     0.00000000     0.00000000
     0.00000000     0.00000000     0.00000000
     0.00000000     0.00000000     0.00000000
     0.00000000     0.00000000     0.00000000
     0.00000000     0.00000000     0.00000000
     0.00000000     0.00000000     0.00000000
     0.00000000     0.00000000     0.00000000
     0.00000000     0.00000000     0.00000000
     0.00000000     0.00000000     0.00000000
     0.00000000     0.00000000     0.00000000
     0.00000000     0.00000000     0.00000000
     0.00000000     0.00000000     0.00000000
     0.00000000     0.00000000     0.00000000
     0.00000000     0.00000000     0.00000000
     0.00000000     0.00000000     0.00000000
     0.00000000     0.00000000     0.00000000
     0.00000000     0.00000000     0.00000000
     0.00000000     0.00000000     0.00000000
     0.00000000     0.00000000     0.00000000
     0.00000000     0.00000000     0.00000000
     0.00000000     0.00000000     0.00000000
     0.00000000     0.00000000     0.00000000
     0.00000000     0.00000000     0.00000000
     0.00000000     0.00000000     0.00000000
     0.00000000     0.00000000     0.00000000
     0.00000000     0.00000000     0.00000000
     0.00000000     0.00000000     0.00000000
     0.00000000     0.00000000     0.00000000
     0.00000000     0.00000000     0.00000000
     0.00000000     0.00000000     0.00000000
     0.00000000     0.00000000     0.00000000
     0.00000000     0.00000000     0.00000000
     0.00000000     0.00000000     0.00000000
     0.00000000     0.00000000     0.00000000
     0.00000000     0.00000000     0.00000000
     0.00000000     0.00000000     0.00000000
     0.00000000     0.00000000     0.00000000
     0.00000000     0.00000000     0.00000000
     0.00000000     0.00000000     0.00000000
     0.00000000     0.00000000     0.00000000
     0.00000000     0.00000000     0.00000000
     0.00000000     0.00000000     0.00000000
     0.00000000     0.00000000     0.00000000
     0.00000000     0.00000000     0.00000000
     0.00000000     0.00000000     0.00000000
     0.00000000     0.00000000     0.00000000
     0.00000000     0.00000000     0.00000000
     0.00000000     0.00000000     0.00000000
     0.00000000     0.00000000     0.00000000
     0.00000000     0.00000000     0.00000000
     0.00000000     0.00000000     0.00000000
     0.00000000     0.00000000     0.00000000
     0.00000000     0.00000000     0.00000000
     0.00000000     0.00000000     0.00000000
     0.00000000     0.00000000     0.00000000
     0.00000000     0.00000000     0.00000000
     0.00000000     0.00000000     0.00000000
     0.00000000     0.00000000     0.00000000
     0.00000000     0.00000000     0.00000000
     0.00000000     0.00000000     0.00000000
     0.00000000     0.00000000     0.00000000
     0.00000000     0.00000000     0.00000000
     0.00000000     0.00000000     0.00000000
     0.00000000     0.00000000     0.00000000
     0.00000000     0.00000000     0.00000000
     0.00000000     0.00000000     0.00000000
     0.00000000     0.00000000     0.00000000
     0.00000000     0.00000000     0.00000000
     0.00000000     0.00000000     0.00000000
     0.00000000     0.00000000     0.00000000
     0.00000000     0.00000000     0.00000000
     0.00000000     0.00000000     0.00000000
     0.00000000     0.00000000     0.00000000
     0.00000000     0.00000000     0.00000000
     0.00000000     0.00000000     0.00000000
     0.00000000     0.00000000     0.00000000
     0.00000000     0.00000000     0.00000000
     0.00000000     0.00000000     0.00000000
     0.00000000     0.00000000     0.00000000
     0.00000000     0.00000000     0.00000000
     0.00000000     0.00000000     0.00000000
     0.00000000     0.00000000     0.00000000
     0.00000000     0.00000000     0.00000000
     0.00000000     0.00000000     0.00000000
     0.00000000     0.00000000     0.00000000
     0.00000000     0.00000000     0.00000000
     0.00000000     0.00000000     0.00000000
     0.00000000     0.00000000     0.00000000
     0.00000000     0.00000000     0.00000000
     0.00000000     0.00000000     0.00000000
     0.00000000     0.00000000     0.00000000
     0.00000000     0.00000000     0.00000000
     0.00000000     0.00000000     0.00000000
     0.00000000     0.00000000     0.00000000
     0.00000000     0.00000000     0.00000000
     0.00000000     0.00000000     0.00000000
     0.00000000     0.00000000     0.00000000
     0.00000000     0.00000000     0.00000000
     0.00000000     0.00000000     0.00000000
     0.00000000     0.00000000     0.00000000
     0.00000000     0.00000000     0.00000000
     0.00000000     0.00000000     0.00000000
     0.00000000     0.00000000     0.00000000
     0.00000000     0.00000000     0.00000000
     0.00000000     0.00000000     0.00000000
     0.00000000     0.00000000     0.00000000
     0.00000000     0.00000000     0.00000000
     0.00000000     0.00000000     0.00000000
     0.00000000     0.00000000     0.00000000
     0.00000000     0.00000000     0.00000000
     0.00000000     0.00000000     0.00000000
     0.00000000     0.00000000     0.00000000
     0.00000000     0.00000000     0.00000000
     0.00000000     0.00000000     0.00000000
     0.00000000     0.00000000     0.00000000
     0.00000000     0.00000000     0.00000000
     0.00000000     0.00000000     0.00000000
     0.00000000     0.00000000     0.00000000
     0.00000000     0.00000000     0.00000000
     0.00000000     0.00000000     0.00000000
     0.00000000     0.00000000     0.00000000
     0.00000000     0.00000000     0.00000000
     0.00000000     0.00000000     0.00000000
     0.00000000     0.00000000     0.00000000
     0.00000000     0.00000000     0.00000000
     0.00000000     0.00000000     0.00000000
     0.00000000     0.00000000     0.00000000
     0.00000000     0.00000000     0.00000000
     0.00000000     0.00000000     0.00000000
     0.00000000     0.00000000     0.00000000
     0.00000000     0.00000000     0.00000000
     0.00000000     0.00000000     0.00000000
     0.00000000     0.00000000     0.00000000
     0.00000000     0.00000000     0.00000000
     0.00000000     0.00000000     0.00000000
     0.00000000     0.00000000     0.00000000
     0.00000000     0.00000000     0.00000000
     0.00000000     0.00000000     0.00000000
     0.00000000     0.00000000     0.00000000
     0.00000000     0.00000000     0.00000000
     0.00000000     0.00000000     0.00000000
     0.00000000     0.00000000     0.00000000
     0.00000000     0.00000000     0.00000000
     0.00000000     0.00000000     0.00000000
     0.00000000     0.00000000     0.00000000
     0.00000000     0.00000000     0.00000000
     0.00000000     0.00000000     0.00000000
     0.00000000     0.00000000     0.00000000
     0.00000000     0.00000000     0.00000000
     0.00000000     0.00000000     0.00000000
     0.00000000     0.00000000     0.00000000
     0.00000000     0.00000000     0.00000000
     0.00000000     0.00000000     0.00000000
     0.00000000     0.00000000     0.00000000
     0.00000000     0.00000000     0.00000000
     0.00000000     0.00000000     0.00000000
     0.00000000     0.00000000     0.00000000
     0.00000000     0.00000000     0.00000000
     0.00000000     0.00000000     0.00000000
     0.00000000     0.00000000     0.00000000
     0.00000000     0.00000000     0.00000000
     0.00000000     0.00000000     0.00000000
     0.00000000     0.00000000     0.00000000
     0.00000000     0.00000000     0.00000000
     0.00000000     0.00000000     0.00000000
     0.00000000     0.00000000     0.00000000
     0.00000000     0.00000000     0.00000000
     0.00000000     0.00000000     0.00000000
     0.00000000     0.00000000     0.00000000
     0.00000000     0.00000000     0.00000000
     0.00000000     0.00000000     0.00000000
     0.00000000     0.00000000     0.00000000
     0.00000000     0.00000000     0.00000000
     0.00000000     0.00000000     0.00000000
     0.00000000     0.00000000     0.00000000
     0.00000000     0.00000000     0.00000000
     0.00000000     0.00000000     0.00000000
     0.00000000     0.00000000     0.00000000
     0.00000000     0.00000000     0.00000000
     0.00000000     0.00000000     0.00000000
     0.00000000     0.00000000     0.00000000
     0.00000000     0.00000000     0.00000000
     0.00000000     0.00000000     0.00000000
     0.00000000     0.00000000     0.00000000
     0.00000000     0.00000000     0.00000000
     0.00000000     0.00000000     0.00000000
     0.00000000     0.00000000     0.00000000
     0.00000000     0.00000000     0.00000000
     0.00000000     0.00000000     0.00000000
     0.00000000     0.00000000     0.00000000
     0.00000000     0.00000000     0.00000000
     0.00000000     0.00000000     0.00000000
     0.00000000     0.00000000     0.00000000
     0.00000000     0.00000000     0.00000000
     0.00000000     0.00000000     0.00000000
     0.00000000     0.00000000     0.00000000
     0.00000000     0.00000000     0.00000000
     0.00000000     0.00000000     0.00000000
     0.00000000     0.00000000     0.00000000
     0.00000000     0.00000000     0.00000000
     0.00000000     0.00000000     0.00000000
     0.00000000     0.00000000     0.00000000
     0.00000000     0.00000000     0.00000000
     0.00000000     0.00000000     0.00000000
     0.00000000     0.00000000     0.00000000
     0.00000000     0.00000000     0.00000000
     0.00000000     0.00000000     0.00000000
     0.00000000     0.00000000     0.00000000
     0.00000000     0.00000000     0.00000000
     0.00000000     0.00000000     0.00000000
     0.00000000     0.00000000     0.00000000
     0.00000000     0.00000000     0.00000000
     0.00000000     0.00000000     0.00000000
     0.00000000     0.00000000     0.00000000
     0.00000000     0.00000000     0.00000000
     0.00000000     0.00000000     0.00000000
     0.00000000     0.00000000     0.00000000
     0.00000000     0.00000000     0.00000000
     0.00000000     0.00000000     0.00000000
     0.00000000     0.00000000     0.00000000
     0.00000000     0.00000000     0.00000000
     0.00000000     0.00000000     0.00000000
     0.00000000     0.00000000     0.00000000
     0.00000000     0.00000000     0.00000000
     0.00000000     0.00000000     0.00000000
     0.00000000     0.00000000     0.00000000
     0.00000000     0.00000000     0.00000000
     0.00000000     0.00000000     0.00000000
     0.00000000     0.00000000     0.00000000
     0.00000000     0.00000000     0.00000000
     0.00000000     0.00000000     0.00000000
     0.00000000     0.00000000     0.00000000
     0.00000000     0.00000000     0.00000000
     0.00000000     0.00000000     0.00000000
     0.00000000     0.00000000     0.00000000
     0.00000000     0.00000000     0.00000000
     0.00000000     0.00000000     0.00000000
     0.00000000     0.00000000     0.00000000
     0.00000000     0.00000000     0.00000000
     0.00000000     0.00000000     0.00000000
     0.00000000     0.00000000     0.00000000
     0.00000000     0.00000000     0.00000000
     0.00000000     0.00000000     0.00000000
     0.00000000     0.00000000     0.00000000
     0.00000000     0.00000000     0.00000000
     0.00000000     0.00000000     0.00000000
     0.00000000     0.00000000     0.00000000
     0.00000000     0.00000000     0.00000000
     0.00000000     0.00000000     0.00000000
     0.00000000     0.00000000     0.00000000
     0.00000000     0.00000000     0.00000000
     0.00000000     0.00000000     0.00000000
     0.00000000     0.00000000     0.00000000
     0.00000000     0.00000000     0.00000000
     0.00000000     0.00000000     0.00000000
     0.00000000     0.00000000     0.00000000
     0.00000000     0.00000000     0.00000000
     0.00000000     0.00000000     0.00000000
     0.00000000     0.00000000     0.00000000
     0.00000000     0.00000000     0.00000000
     0.00000000     0.00000000     0.00000000
     0.00000000     0.00000000     0.00000000
     0.00000000     0.00000000     0.00000000
     0.00000000     0.00000000     0.00000000
     0.00000000     0.00000000     0.00000000
     0.00000000     0.00000000     0.00000000
     0.00000000     0.00000000     0.00000000
     0.00000000     0.00000000     0.00000000
     0.00000000     0.00000000     0.00000000
     0.00000000     0.00000000     0.00000000
     0.00000000     0.00000000     0.00000000
     0.00000000     0.00000000     0.00000000
     0.00000000     0.00000000     0.00000000
     0.00000000     0.00000000     0.00000000
     0.00000000     0.00000000     0.00000000
     0.00000000     0.00000000     0.00000000
     0.00000000     0.00000000     0.00000000
     0.00000000     0.00000000     0.00000000
     0.00000000     0.00000000     0.00000000
     0.00000000     0.00000000     0.00000000
     0.00000000     0.00000000     0.00000000
     0.00000000     0.00000000     0.00000000
     0.00000000     0.00000000     0.00000000
     0.00000000     0.00000000     0.00000000
     0.00000000     0.00000000     0.00000000
     0.00000000     0.00000000     0.00000000
     0.00000000     0.00000000     0.00000000
     0.00000000     0.00000000     0.00000000
     0.00000000     0.00000000     0.00000000
     0.00000000     0.00000000     0.00000000
     0.00000000     0.00000000     0.00000000
     0.00000000     0.00000000     0.00000000
     0.00000000     0.00000000     0.00000000
     0.00000000     0.00000000     0.00000000
     0.00000000     0.00000000     0.00000000
     0.00000000     0.00000000     0.00000000
     0.00000000     0.00000000     0.00000000
     0.00000000     0.00000000     0.00000000
     0.00000000     0.00000000     0.00000000
     0.00000000     0.00000000     0.00000000
     0.00000000     0.00000000     0.00000000
     0.00000000     0.00000000     0.00000000
     0.00000000     0.00000000     0.00000000
     0.00000000     0.00000000     0.00000000
     0.00000000     0.00000000     0.00000000
     0.00000000     0.00000000     0.00000000
     0.00000000     0.00000000     0.00000000
     0.00000000     0.00000000     0.00000000
     0.00000000     0.00000000     0.00000000
     0.00000000     0.00000000     0.00000000
     0.00000000     0.00000000     0.00000000
     0.00000000     0.00000000     0.00000000
     0.00000000     0.00000000     0.00000000
     0.00000000     0.00000000     0.00000000
     0.00000000     0.00000000     0.00000000
     0.00000000     0.00000000     0.00000000
     0.00000000     0.00000000     0.00000000
     0.00000000     0.00000000     0.00000000
     0.00000000     0.00000000     0.00000000
     0.00000000     0.00000000     0.00000000
     0.00000000     0.00000000     0.00000000
     0.00000000     0.00000000     0.00000000
     0.00000000     0.00000000     0.00000000
     0.00000000     0.00000000     0.00000000
     0.00000000     0.00000000     0.00000000
     0.00000000     0.00000000     0.00000000
     0.00000000     0.00000000     0.00000000
     0.00000000     0.00000000     0.00000000
     0.00000000     0.00000000     0.00000000
     0.00000000     0.00000000     0.00000000
     0.00000000     0.00000000     0.00000000
     0.00000000     0.00000000     0.00000000
     0.00000000     0.00000000     0.00000000
     0.00000000     0.00000000     0.00000000
     0.00000000     0.00000000     0.00000000
     0.00000000     0.00000000     0.00000000
     0.00000000     0.00000000     0.00000000
     0.00000000     0.00000000     0.00000000
     0.00000000     0.00000000     0.00000000
     0.00000000     0.00000000     0.00000000
     0.00000000     0.00000000     0.00000000
     0.00000000     0.00000000     0.00000000
     0.00000000     0.00000000     0.00000000
     0.00000000     0.00000000     0.00000000
     0.00000000     0.00000000     0.00000000
     0.00000000     0.00000000     0.00000000
     0.00000000     0.00000000     0.00000000
     0.00000000     0.00000000     0.00000000
     0.00000000     0.00000000     0.00000000
     0.00000000     0.00000000     0.00000000
     0.00000000     0.00000000     0.00000000
     0.00000000     0.00000000     0.00000000
     0.00000000     0.00000000     0.00000000
     0.00000000     0.00000000     0.00000000
     0.00000000     0.00000000     0.00000000
     0.00000000     0.00000000     0.00000000
     0.00000000     0.00000000     0.00000000
     0.00000000     0.00000000     0.00000000
     0.00000000     0.00000000     0.00000000
     0.00000000     0.00000000     0.00000000
     0.00000000     0.00000000     0.00000000
     0.00000000     0.00000000     0.00000000
     0.00000000     0.00000000     0.00000000
     0.00000000     0.00000000     0.00000000
     0.00000000     0.00000000     0.00000000
     0.00000000     0.00000000     0.00000000
     0.00000000     0.00000000     0.00000000
     0.00000000     0.00000000     0.00000000
     0.00000000     0.00000000     0.00000000
     0.00000000     0.00000000     0.00000000
     0.00000000     0.00000000     0.00000000
     0.00000000     0.00000000     0.00000000
     0.00000000     0.00000000     0.00000000
     0.00000000     0.00000000     0.00000000
     0.00000000     0.00000000     0.00000000
     0.00000000     0.00000000     0.00000000
     0.00000000     0.00000000     0.00000000
     0.00000000     0.00000000     0.00000000
     0.00000000     0.00000000     0.00000000
     0.00000000     0.00000000     0.00000000
     0.00000000     0.00000000     0.00000000
     0.00000000     0.00000000     0.00000000
     0.00000000     0.00000000     0.00000000
     0.00000000     0.00000000     0.00000000
     0.00000000     0.00000000     0.00000000
     0.00000000     0.00000000     0.00000000
     0.00000000     0.00000000     0.00000000
     0.00000000     0.00000000     0.00000000
     0.00000000     0.00000000     0.00000000
     0.00000000     0.00000000     0.00000000
     0.00000000     0.00000000     0.00000000
     0.00000000     0.00000000     0.00000000
     0.00000000     0.00000000     0.00000000
     0.00000000     0.00000000     0.00000000
     0.00000000     0.00000000     0.00000000
     0.00000000     0.00000000     0.00000000
     0.00000000     0.00000000     0.00000000
     0.00000000     0.00000000     0.00000000
     0.00000000     0.00000000     0.00000000
     0.00000000     0.00000000     0.00000000
     0.00000000     0.00000000     0.00000000
     0.00000000     0.00000000     0.00000000
     0.00000000     0.00000000     0.00000000
     0.00000000     0.00000000     0.00000000
     0.00000000     0.00000000     0.00000000
     0.00000000     0.00000000     0.00000000
     0.00000000     0.00000000     0.00000000
     0.00000000     0.00000000     0.00000000
     0.00000000     0.00000000     0.00000000
     0.00000000     0.00000000     0.00000000
     0.00000000     0.00000000     0.00000000
     0.00000000     0.00000000     0.00000000
     0.00000000     0.00000000     0.00000000
     0.00000000     0.00000000     0.00000000
     0.00000000     0.00000000     0.00000000
     0.00000000     0.00000000     0.00000000
     0.00000000     0.00000000     0.00000000
     0.00000000     0.00000000     0.00000000
     0.00000000     0.00000000     0.00000000
     0.00000000     0.00000000     0.00000000
     0.00000000     0.00000000     0.00000000
     0.00000000     0.00000000     0.00000000
     0.00000000     0.00000000     0.00000000
     0.00000000     0.00000000     0.00000000
     0.00000000     0.00000000     0.00000000
     0.00000000     0.00000000     0.00000000
     0.00000000     0.00000000     0.00000000
     0.00000000     0.00000000     0.00000000
     0.00000000     0.00000000     0.00000000
     0.00000000     0.00000000     0.00000000
     0.00000000     0.00000000     0.00000000
     0.00000000     0.00000000     0.00000000
     0.00000000     0.00000000     0.00000000
     0.00000000     0.00000000     0.00000000
     0.00000000     0.00000000     0.00000000
     0.00000000     0.00000000     0.00000000
     0.00000000     0.00000000     0.00000000
     0.00000000     0.00000000     0.00000000
     0.00000000     0.00000000     0.00000000
     0.00000000     0.00000000     0.00000000
     0.00000000     0.00000000     0.00000000
     0.00000000     0.00000000     0.00000000
     0.00000000     0.00000000     0.00000000
     0.00000000     0.00000000     0.00000000
     0.00000000     0.00000000     0.00000000
     0.00000000     0.00000000     0.00000000
     0.00000000     0.00000000     0.00000000
     0.00000000     0.00000000     0.00000000
     0.00000000     0.00000000     0.00000000
     0.00000000     0.00000000     0.00000000
     0.00000000     0.00000000     0.00000000
     0.00000000     0.00000000     0.00000000
     0.00000000     0.00000000     0.00000000
     0.00000000     0.00000000     0.00000000
     0.00000000     0.00000000     0.00000000
     0.00000000     0.00000000     0.00000000
     0.00000000     0.00000000     0.00000000
     0.00000000     0.00000000     0.00000000
     0.00000000     0.00000000     0.00000000
     0.00000000     0.00000000     0.00000000
     0.00000000     0.00000000     0.00000000
     0.00000000     0.00000000     0.00000000
     0.00000000     0.00000000     0.00000000
     0.00000000     0.00000000     0.00000000
     0.00000000     0.00000000     0.00000000
     0.00000000     0.00000000     0.00000000
     0.00000000     0.00000000     0.00000000
     0.00000000     0.00000000     0.00000000
     0.00000000     0.00000000     0.00000000
     0.00000000     0.00000000     0.00000000
     0.00000000     0.00000000     0.00000000
     0.00000000     0.00000000     0.00000000
     0.00000000     0.00000000     0.00000000
     0.00000000     0.00000000     0.00000000
     0.00000000     0.00000000     0.00000000
     0.00000000     0.00000000     0.00000000
     0.00000000     0.00000000     0.00000000
     0.00000000     0.00000000     0.00000000
     0.00000000     0.00000000     0.00000000
     0.00000000     0.00000000     0.00000000
     0.00000000     0.00000000     0.00000000
     0.00000000     0.00000000     0.00000000
     0.00000000     0.00000000     0.00000000
     0.00000000     0.00000000     0.00000000
     0.00000000     0.00000000     0.00000000
     0.00000000     0.00000000     0.00000000
     0.00000000     0.00000000     0.00000000
     0.00000000     0.00000000     0.00000000
     0.00000000     0.00000000     0.00000000
     0.00000000     0.00000000     0.00000000
     0.00000000     0.00000000     0.00000000
     0.00000000     0.00000000     0.00000000
     0.00000000     0.00000000     0.00000000
     0.00000000     0.00000000     0.00000000
     0.00000000     0.00000000     0.00000000
     0.00000000     0.00000000     0.00000000
     0.00000000     0.00000000     0.00000000
     0.00000000     0.00000000     0.00000000
     0.00000000     0.00000000     0.00000000
     0.00000000     0.00000000     0.00000000
     0.00000000     0.00000000     0.00000000
     0.00000000     0.00000000     0.00000000
     0.00000000     0.00000000     0.00000000
     0.00000000     0.00000000     0.00000000
     0.00000000     0.00000000     0.00000000
     0.00000000     0.00000000     0.00000000
     0.00000000     0.00000000     0.00000000
     0.00000000     0.00000000     0.00000000
     0.00000000     0.00000000     0.00000000
     0.00000000     0.00000000     0.00000000
     0.00000000     0.00000000     0.00000000
     0.00000000     0.00000000     0.00000000
     0.00000000     0.00000000     0.00000000
     0.00000000     0.00000000     0.00000000
     0.00000000     0.00000000     0.00000000
     0.00000000     0.00000000     0.00000000
     0.00000000     0.00000000     0.00000000
     0.00000000     0.00000000     0.00000000
     0.00000000     0.00000000     0.00000000
     0.00000000     0.00000000     0.00000000
     0.00000000     0.00000000     0.00000000
     0.00000000     0.00000000     0.00000000
     0.00000000     0.00000000     0.00000000
     0.00000000     0.00000000     0.00000000
     0.00000000     0.00000000     0.00000000
     0.00000000     0.00000000     0.00000000
     0.00000000     0.00000000     0.00000000
     0.00000000     0.00000000     0.00000000
     0.00000000     0.00000000     0.00000000
     0.00000000     0.00000000     0.00000000
     0.00000000     0.00000000     0.00000000
     0.00000000     0.00000000     0.00000000
     0.00000000     0.00000000     0.00000000
     0.00000000     0.00000000     0.00000000
     0.00000000     0.00000000     0.00000000
     0.00000000     0.00000000     0.00000000
     0.00000000     0.00000000     0.00000000
     0.00000000     0.00000000     0.00000000
     0.00000000     0.00000000     0.00000000
     0.00000000     0.00000000     0.00000000
     0.00000000     0.00000000     0.00000000
     0.00000000     0.00000000     0.00000000
     0.00000000     0.00000000     0.00000000
     0.00000000     0.00000000     0.00000000
     0.00000000     0.00000000     0.00000000
     0.00000000     0.00000000     0.00000000
     0.00000000     0.00000000     0.00000000
     0.00000000     0.00000000     0.00000000
     0.00000000     0.00000000     0.00000000
     0.00000000     0.00000000     0.00000000
     0.00000000     0.00000000     0.00000000
     0.00000000     0.00000000     0.00000000
     0.00000000     0.00000000     0.00000000
     0.00000000     0.00000000     0.00000000
     0.00000000     0.00000000     0.00000000
     0.00000000     0.00000000     0.00000000
     0.00000000     0.00000000     0.00000000
     0.00000000     0.00000000     0.00000000
     0.00000000     0.00000000     0.00000000
     0.00000000     0.00000000     0.00000000
     0.00000000     0.00000000     0.00000000
     0.00000000     0.00000000     0.00000000
     0.00000000     0.00000000     0.00000000
     0.00000000     0.00000000     0.00000000
     0.00000000     0.00000000     0.00000000
     0.00000000     0.00000000     0.00000000
     0.00000000     0.00000000     0.00000000
     0.00000000     0.00000000     0.00000000
     0.00000000     0.00000000     0.00000000
     0.00000000     0.00000000     0.00000000
     0.00000000     0.00000000     0.00000000
     0.00000000     0.00000000     0.00000000
     0.00000000     0.00000000     0.00000000
     0.00000000     0.00000000     0.00000000
     0.00000000     0.00000000     0.00000000
     0.00000000     0.00000000     0.00000000
     0.00000000     0.00000000     0.00000000
     0.00000000     0.00000000     0.00000000
     0.00000000     0.00000000     0.00000000
     0.00000000     0.00000000     0.00000000
     0.00000000     0.00000000     0.00000000
     0.00000000     0.00000000     0.00000000
     0.00000000     0.00000000     0.00000000
     0.00000000     0.00000000     0.00000000
     0.00000000     0.00000000     0.00000000
     0.00000000     0.00000000     0.00000000
     0.00000000     0.00000000     0.00000000
     0.00000000     0.00000000     0.00000000
     0.00000000     0.00000000     0.00000000
     0.00000000     0.00000000     0.00000000
     0.00000000     0.00000000     0.00000000
     0.00000000     0.00000000     0.00000000
     0.00000000     0.00000000     0.00000000
     0.00000000     0.00000000     0.00000000
     0.00000000     0.00000000     0.00000000
     0.00000000     0.00000000     0.00000000
     0.00000000     0.00000000     0.00000000
     0.00000000     0.00000000     0.00000000
     0.00000000     0.00000000     0.00000000
     0.00000000     0.00000000     0.00000000
     0.00000000     0.00000000     0.00000000
     0.00000000     0.00000000     0.00000000
     0.00000000     0.00000000     0.00000000
     0.00000000     0.00000000     0.00000000
     0.00000000     0.00000000     0.00000000
     0.00000000     0.00000000     0.00000000
     0.00000000     0.00000000     0.00000000
     0.00000000     0.00000000     0.00000000
     0.00000000     0.00000000     0.00000000
     0.00000000     0.00000000     0.00000000
     0.00000000     0.00000000     0.00000000
     0.00000000     0.00000000     0.00000000
     0.00000000     0.00000000     0.00000000
     0.00000000     0.00000000     0.00000000
     0.00000000     0.00000000     0.00000000
     0.00000000     0.00000000     0.00000000
     0.00000000     0.00000000     0.00000000
     0.00000000     0.00000000     0.00000000
     0.00000000     0.00000000     0.00000000
     0.00000000     0.00000000     0.00000000
     0.00000000     0.00000000     0.00000000
     0.00000000     0.00000000     0.00000000
     0.00000000     0.00000000     0.00000000
     0.00000000     0.00000000     0.00000000
     0.00000000     0.00000000     0.00000000
     0.00000000     0.00000000     0.00000000
     0.00000000     0.00000000     0.00000000
     0.00000000     0.00000000     0.00000000
     0.00000000     0.00000000     0.00000000
     0.00000000     0.00000000     0.00000000
     0.00000000     0.00000000     0.00000000
     0.00000000     0.00000000     0.00000000
     0.00000000     0.00000000     0.00000000
     0.00000000     0.00000000     0.00000000
     0.00000000     0.00000000     0.00000000
     0.00000000     0.00000000     0.00000000
     0.00000000     0.00000000     0.00000000
     0.00000000     0.00000000     0.00000000
     0.00000000     0.00000000     0.00000000
     0.00000000     0.00000000     0.00000000
     0.00000000     0.00000000     0.00000000
     0.00000000     0.00000000     0.00000000
     0.00000000     0.00000000     0.00000000
     0.00000000     0.00000000     0.00000000
     0.00000000     0.00000000     0.00000000
     0.00000000     0.00000000     0.00000000
     0.00000000     0.00000000     0.00000000
     0.00000000     0.00000000     0.00000000
     0.00000000     0.00000000     0.00000000
     0.00000000     0.00000000     0.00000000
     0.00000000     0.00000000     0.00000000
     0.00000000     0.00000000     0.00000000
     0.00000000     0.00000000     0.00000000
     0.00000000     0.00000000     0.00000000
     0.00000000     0.00000000     0.00000000
     0.00000000     0.00000000     0.00000000
     0.00000000     0.00000000     0.00000000
     0.00000000     0.00000000     0.00000000
     0.00000000     0.00000000     0.00000000
     0.00000000     0.00000000     0.00000000
     0.00000000     0.00000000     0.00000000
     0.00000000     0.00000000     0.00000000
     0.00000000     0.00000000     0.00000000
     0.00000000     0.00000000     0.00000000
     0.00000000     0.00000000     0.00000000
     0.00000000     0.00000000     0.00000000
     0.00000000     0.00000000     0.00000000
     0.00000000     0.00000000     0.00000000
     0.00000000     0.00000000     0.00000000
     0.00000000     0.00000000     0.00000000
     0.00000000     0.00000000     0.00000000
     0.00000000     0.00000000     0.00000000
     0.00000000     0.00000000     0.00000000
     0.00000000     0.00000000     0.00000000
     0.00000000     0.00000000     0.00000000
     0.00000000     0.00000000     0.00000000
     0.00000000     0.00000000     0.00000000
     0.00000000     0.00000000     0.00000000
     0.00000000     0.00000000     0.00000000
     0.00000000     0.00000000     0.00000000
     0.00000000     0.00000000     0.00000000
     0.00000000     0.00000000     0.00000000
     0.00000000     0.00000000     0.00000000
     0.00000000     0.00000000     0.00000000
     0.00000000     0.00000000     0.00000000
     0.00000000     0.00000000     0.00000000
     0.00000000     0.00000000     0.00000000
     0.00000000     0.00000000     0.00000000
     0.00000000     0.00000000     0.00000000
     0.00000000     0.00000000     0.00000000
     0.00000000     0.00000000     0.00000000
     0.00000000     0.00000000     0.00000000
     0.00000000     0.00000000     0.00000000
     0.00000000     0.00000000     0.00000000
     0.00000000     0.00000000     0.00000000
     0.00000000     0.00000000     0.00000000
     0.00000000     0.00000000     0.00000000
     0.00000000     0.00000000     0.00000000
     0.00000000     0.00000000     0.00000000
     0.00000000     0.00000000     0.00000000
     0.00000000     0.00000000     0.00000000
     0.00000000     0.00000000     0.00000000
     0.00000000     0.00000000     0.00000000
     0.00000000     0.00000000     0.00000000
     0.00000000     0.00000000     0.00000000
     0.00000000     0.00000000     0.00000000
     0.00000000     0.00000000     0.00000000
     0.00000000     0.00000000     0.00000000
     0.00000000     0.00000000     0.00000000
     0.00000000     0.00000000     0.00000000
     0.00000000     0.00000000     0.00000000
     0.00000000     0.00000000     0.00000000
     0.00000000     0.00000000     0.00000000
     0.00000000     0.00000000     0.00000000
     0.00000000     0.00000000     0.00000000
     0.00000000     0.00000000     0.00000000
     0.00000000     0.00000000     0.00000000
     0.00000000     0.00000000     0.00000000
     0.00000000     0.00000000     0.00000000
     0.00000000     0.00000000     0.00000000
     0.00000000     0.00000000     0.00000000
     0.00000000     0.00000000     0.00000000
     0.00000000     0.00000000     0.00000000
     0.00000000     0.00000000     0.00000000
     0.00000000     0.00000000     0.00000000
     0.00000000     0.00000000     0.00000000
     0.00000000     0.00000000     0.00000000
     0.00000000     0.00000000     0.00000000
     0.00000000     0.00000000     0.00000000
     0.00000000     0.00000000     0.00000000
     0.00000000     0.00000000     0.00000000
     0.00000000     0.00000000     0.00000000
     0.00000000     0.00000000     0.00000000
     0.00000000     0.00000000     0.00000000
     0.00000000     0.00000000     0.00000000
     0.00000000     0.00000000     0.00000000
     0.00000000     0.00000000     0.00000000
     0.00000000     0.00000000     0.00000000
     0.00000000     0.00000000     0.00000000
     0.00000000     0.00000000     0.00000000
     0.00000000     0.00000000     0.00000000
     0.00000000     0.00000000     0.00000000
     0.00000000     0.00000000     0.00000000
     0.00000000     0.00000000     0.00000000
     0.00000000     0.00000000     0.00000000
     0.00000000     0.00000000     0.00000000
     0.00000000     0.00000000     0.00000000
     0.00000000     0.00000000     0.00000000
     0.00000000     0.00000000     0.00000000
     0.00000000     0.00000000     0.00000000
     0.00000000     0.00000000     0.00000000
     0.00000000     0.00000000     0.00000000
     0.00000000     0.00000000     0.00000000
     0.00000000     0.00000000     0.00000000
     0.00000000     0.00000000     0.00000000
     0.00000000     0.00000000     0.00000000
     0.00000000     0.00000000     0.00000000
     0.00000000     0.00000000     0.00000000
     0.00000000     0.00000000     0.00000000
     0.00000000     0.00000000     0.00000000
     0.00000000     0.00000000     0.00000000
     0.00000000     0.00000000     0.00000000
     0.00000000     0.00000000     0.00000000
     0.00000000     0.00000000     0.00000000
     0.00000000     0.00000000     0.00000000
     0.00000000     0.00000000     0.00000000
     0.00000000     0.00000000     0.00000000
     0.00000000     0.00000000     0.00000000
     0.00000000     0.00000000     0.00000000
     0.00000000     0.00000000     0.00000000
     0.00000000     0.00000000     0.00000000
     0.00000000     0.00000000     0.00000000
     0.00000000     0.00000000     0.00000000
     0.00000000     0.00000000     0.00000000
     0.00000000     0.00000000     0.00000000
     0.00000000     0.00000000     0.00000000
     0.00000000     0.00000000     0.00000000
     0.00000000     0.00000000     0.00000000
     0.00000000     0.00000000     0.00000000
     0.00000000     0.00000000     0.00000000
     0.00000000     0.00000000     0.00000000
     0.00000000     0.00000000     0.00000000
     0.00000000     0.00000000     0.00000000
     0.00000000     0.00000000     0.00000000
     0.00000000     0.00000000     0.00000000
     0.00000000     0.00000000     0.00000000
     0.00000000     0.00000000     0.00000000
     0.00000000     0.00000000     0.00000000
     0.00000000     0.00000000     0.00000000
     0.00000000     0.00000000     0.00000000
     0.00000000     0.00000000     0.00000000
     0.00000000     0.00000000     0.00000000
     0.00000000     0.00000000     0.00000000
     0.00000000     0.00000000     0.00000000
     0.00000000     0.00000000     0.00000000
     0.00000000     0.00000000     0.00000000
     0.00000000     0.00000000     0.00000000
     0.00000000     0.00000000     0.00000000
     0.00000000     0.00000000     0.00000000
     0.00000000     0.00000000     0.00000000
     0.00000000     0.00000000     0.00000000
     0.00000000     0.00000000     0.00000000
     0.00000000     0.00000000     0.00000000
     0.00000000     0.00000000     0.00000000
     0.00000000     0.00000000     0.00000000
     0.00000000     0.00000000     0.00000000
     0.00000000     0.00000000     0.00000000
     0.00000000     0.00000000     0.00000000
     0.00000000     0.00000000     0.00000000
     0.00000000     0.00000000     0.00000000
     0.00000000     0.00000000     0.00000000
     0.00000000     0.00000000     0.00000000
     0.00000000     0.00000000     0.00000000
     0.00000000     0.00000000     0.00000000
     0.00000000     0.00000000     0.00000000
     0.00000000     0.00000000     0.00000000
     0.00000000     0.00000000     0.00000000
     0.00000000     0.00000000     0.00000000
     0.00000000     0.00000000     0.00000000
     0.00000000     0.00000000     0.00000000
     0.00000000     0.00000000     0.00000000
     0.00000000     0.00000000     0.00000000
     0.00000000     0.00000000     0.00000000
     0.00000000     0.00000000     0.00000000
     0.00000000     0.00000000     0.00000000
     0.00000000     0.00000000     0.00000000
     0.00000000     0.00000000     0.00000000
     0.00000000     0.00000000     0.00000000
     0.00000000     0.00000000     0.00000000
     0.00000000     0.00000000     0.00000000
     0.00000000     0.00000000     0.00000000
     0.00000000     0.00000000     0.00000000
     0.00000000     0.00000000     0.00000000
     0.00000000     0.00000000     0.00000000
     0.00000000     0.00000000     0.00000000
     0.00000000     0.00000000     0.00000000
     0.00000000     0.00000000     0.00000000
     0.00000000     0.00000000     0.00000000
     0.00000000     0.00000000     0.00000000
     0.00000000     0.00000000     0.00000000
     0.00000000     0.00000000     0.00000000
     0.00000000     0.00000000     0.00000000
     0.00000000     0.00000000     0.00000000
     0.00000000     0.00000000     0.00000000
     0.00000000     0.00000000     0.00000000
     0.00000000     0.00000000     0.00000000
     0.00000000     0.00000000     0.00000000
     0.00000000     0.00000000     0.00000000
     0.00000000     0.00000000     0.00000000
     0.00000000     0.00000000     0.00000000
     0.00000000     0.00000000     0.00000000
     0.00000000     0.00000000     0.00000000
     0.00000000     0.00000000     0.00000000
     0.00000000     0.00000000     0.00000000
     0.00000000     0.00000000     0.00000000
     0.00000000     0.00000000     0.00000000
     0.00000000     0.00000000     0.00000000
     0.00000000     0.00000000     0.00000000
     0.00000000     0.00000000     0.00000000
     0.00000000     0.00000000     0.00000000
     0.00000000     0.00000000     0.00000000
     0.00000000     0.00000000     0.00000000
     0.00000000     0.00000000     0.00000000
     0.00000000     0.00000000     0.00000000
     0.00000000     0.00000000     0.00000000
     0.00000000     0.00000000     0.00000000
     0.00000000     0.00000000     0.00000000
     0.00000000     0.00000000     0.00000000
     0.00000000     0.00000000     0.00000000
     0.00000000     0.00000000     0.00000000
     0.00000000     0.00000000     0.00000000
     0.00000000     0.00000000     0.00000000
     0.00000000     0.00000000     0.00000000
     0.00000000     0.00000000     0.00000000
     0.00000000     0.00000000     0.00000000
     0.00000000     0.00000000     0.00000000
     0.00000000     0.00000000     0.00000000
     0.00000000     0.00000000     0.00000000
     0.00000000     0.00000000     0.00000000
     0.00000000     0.00000000     0.00000000
     0.00000000     0.00000000     0.00000000
     0.00000000     0.00000000     0.00000000
     0.00000000     0.00000000     0.00000000
     0.00000000     0.00000000     0.00000000
     0.00000000     0.00000000     0.00000000
     0.00000000     0.00000000     0.00000000
     0.00000000     0.00000000     0.00000000
     0.00000000     0.00000000     0.00000000
     0.00000000     0.00000000     0.00000000
     0.00000000     0.00000000     0.00000000
     0.00000000     0.00000000     0.00000000
     0.00000000     0.00000000     0.00000000
     0.00000000     0.00000000     0.00000000
     0.00000000     0.00000000     0.00000000
     0.00000000     0.00000000     0.00000000
     0.00000000     0.00000000     0.00000000
     0.00000000     0.00000000     0.00000000
     0.00000000     0.00000000     0.00000000
     0.00000000     0.00000000     0.00000000
     0.00000000     0.00000000     0.00000000
     0.00000000     0.00000000     0.00000000
     0.00000000     0.00000000     0.00000000
     0.00000000     0.00000000     0.00000000
     0.00000000     0.00000000     0.00000000
     0.00000000     0.00000000     0.00000000
     0.00000000     0.00000000     0.00000000
     0.00000000     0.00000000     0.00000000
     0.00000000     0.00000000     0.00000000
     0.00000000     0.00000000     0.00000000
     0.00000000     0.00000000     0.00000000
     0.00000000     0.00000000     0.00000000
     0.00000000     0.00000000     0.00000000
     0.00000000     0.00000000     0.00000000
     0.00000000     0.00000000     0.00000000
     0.00000000     0.00000000     0.00000000
     0.00000000     0.00000000     0.00000000
     0.00000000     0.00000000     0.00000000
     0.00000000     0.00000000     0.00000000
     0.00000000     0.00000000     0.00000000
     0.00000000     0.00000000     0.00000000
     0.00000000     0.00000000     0.00000000
     0.00000000     0.00000000     0.00000000
     0.00000000     0.00000000     0.00000000
     0.00000000     0.00000000     0.00000000
     0.00000000     0.00000000     0.00000000
     0.00000000     0.00000000     0.00000000
     0.00000000     0.00000000     0.00000000
     0.00000000     0.00000000     0.00000000
     0.00000000     0.00000000     0.00000000
     0.00000000     0.00000000     0.00000000
     0.00000000     0.00000000     0.00000000
     0.00000000     0.00000000     0.00000000
     0.00000000     0.00000000     0.00000000
     0.00000000     0.00000000     0.00000000
     0.00000000     0.00000000     0.00000000
     0.00000000     0.00000000     0.00000000
     0.00000000     0.00000000     0.00000000
     0.00000000     0.00000000     0.00000000
     0.00000000     0.00000000     0.00000000
     0.00000000     0.00000000     0.00000000
     0.00000000     0.00000000     0.00000000
     0.00000000     0.00000000     0.00000000
     0.00000000     0.00000000     0.00000000
     0.00000000     0.00000000     0.00000000
     0.00000000     0.00000000     0.00000000
     0.00000000     0.00000000     0.00000000
     0.00000000     0.00000000     0.00000000
     0.00000000     0.00000000     0.00000000
     0.00000000     0.00000000     0.00000000
     0.00000000     0.00000000     0.00000000
     0.00000000     0.00000000     0.00000000
     0.00000000     0.00000000     0.00000000
     0.00000000     0.00000000     0.00000000
     0.00000000     0.00000000     0.00000000
     0.00000000     0.00000000     0.00000000
     0.00000000     0.00000000     0.00000000
     0.00000000     0.00000000     0.00000000
     0.00000000     0.00000000     0.00000000
     0.00000000     0.00000000     0.00000000
     0.00000000     0.00000000     0.00000000
     0.00000000     0.00000000     0.00000000
     0.00000000     0.00000000     0.00000000
     0.00000000     0.00000000     0.00000000
     0.00000000     0.00000000     0.00000000
     0.00000000     0.00000000     0.00000000
     0.00000000     0.00000000     0.00000000
     0.00000000     0.00000000     0.00000000
     0.00000000     0.00000000     0.00000000
     0.00000000     0.00000000     0.00000000
     0.00000000     0.00000000     0.00000000
     0.00000000     0.00000000     0.00000000
     0.00000000     0.00000000     0.00000000
     0.00000000     0.00000000     0.00000000
     0.00000000     0.00000000     0.00000000
     0.00000000     0.00000000     0.00000000
     0.00000000     0.00000000     0.00000000
     0.00000000     0.00000000     0.00000000
     0.00000000     0.00000000     0.00000000
     0.00000000     0.00000000     0.00000000
     0.00000000     0.00000000     0.00000000
     0.00000000     0.00000000     0.00000000
     0.00000000     0.00000000     0.00000000
     0.00000000     0.00000000     0.00000000
     0.00000000     0.00000000     0.00000000
     0.00000000     0.00000000     0.00000000
     0.00000000     0.00000000     0.00000000
     0.00000000     0.00000000     0.00000000
     0.00000000     0.00000000     0.00000000
     0.00000000     0.00000000     0.00000000
     0.00000000     0.00000000     0.00000000
     0.00000000     0.00000000     0.00000000
     0.00000000     0.00000000     0.00000000
     0.00000000     0.00000000     0.00000000
     0.00000000     0.00000000     0.00000000
     0.00000000     0.00000000     0.00000000
     0.00000000     0.00000000     0.00000000
     0.00000000     0.00000000     0.00000000
     0.00000000     0.00000000     0.00000000
     0.00000000     0.00000000     0.00000000
     0.00000000     0.00000000     0.00000000
     0.00000000     0.00000000     0.00000000
     0.00000000     0.00000000     0.00000000
     0.00000000     0.00000000     0.00000000
     0.00000000     0.00000000     0.00000000
     0.00000000     0.00000000     0.00000000
     0.00000000     0.00000000     0.00000000
     0.00000000     0.00000000     0.00000000
     0.00000000     0.00000000     0.00000000
     0.00000000     0.00000000     0.00000000
     0.00000000     0.00000000     0.00000000
     0.00000000     0.00000000     0.00000000
     0.00000000     0.00000000     0.00000000
     0.00000000     0.00000000     0.00000000
     0.00000000     0.00000000     0.00000000
     0.00000000     0.00000000     0.00000000
     0.00000000     0.00000000     0.00000000
     0.00000000     0.00000000     0.00000000
     0.00000000     0.00000000     0.00000000
     0.00000000     0.00000000     0.00000000
     0.00000000     0.00000000     0.00000000
     0.00000000     0.00000000     0.00000000
     0.00000000     0.00000000     0.00000000
     0.00000000     0.00000000     0.00000000
     0.00000000     0.00000000     0.00000000
     0.00000000     0.00000000     0.00000000
     0.00000000     0.00000000     0.00000000
     0.00000000     0.00000000     0.00000000
     0.00000000     0.00000000     0.00000000
     0.00000000     0.00000000     0.00000000
     0.00000000     0.00000000     0.00000000
     0.00000000     0.00000000     0.00000000
     0.00000000     0.00000000     0.00000000
     0.00000000     0.00000000     0.00000000
     0.00000000     0.00000000     0.00000000
     0.00000000     0.00000000     0.00000000
     0.00000000     0.00000000     0.00000000
     0.00000000     0.00000000     0.00000000
     0.00000000     0.00000000     0.00000000
     0.00000000     0.00000000     0.00000000
     0.00000000     0.00000000     0.00000000
     0.00000000     0.00000000     0.00000000
     0.00000000     0.00000000     0.00000000
     0.00000000     0.00000000     0.00000000
     0.00000000     0.00000000     0.00000000
     0.00000000     0.00000000     0.00000000
     0.00000000     0.00000000     0.00000000
     0.00000000     0.00000000     0.00000000
     0.00000000     0.00000000     0.00000000
     0.00000000     0.00000000     0.00000000
     0.00000000     0.00000000     0.00000000
     0.00000000     0.00000000     0.00000000
     0.00000000     0.00000000     0.00000000
     0.00000000     0.00000000     0.00000000
     0.00000000     0.00000000     0.00000000
     0.00000000     0.00000000     0.00000000
     0.00000000     0.00000000     0.00000000
     0.00000000     0.00000000     0.00000000
     0.00000000     0.00000000     0.00000000
     0.00000000     0.00000000     0.00000000
     0.00000000     0.00000000     0.00000000
     0.00000000     0.00000000     0.00000000
     0.00000000     0.00000000     0.00000000
     0.00000000     0.00000000     0.00000000
     0.00000000     0.00000000     0.00000000
     0.00000000     0.00000000     0.00000000
     0.00000000     0.00000000     0.00000000
     0.00000000     0.00000000     0.00000000
     0.00000000     0.00000000     0.00000000
     0.00000000     0.00000000     0.00000000
     0.00000000     0.00000000     0.00000000
     0.00000000     0.00000000     0.00000000
     0.00000000     0.00000000     0.00000000
     0.00000000     0.00000000     0.00000000
     0.00000000     0.00000000     0.00000000
     0.00000000     0.00000000     0.00000000
     0.00000000     0.00000000     0.00000000
     0.00000000     0.00000000     0.00000000
     0.00000000     0.00000000     0.00000000
     0.00000000     0.00000000     0.00000000
     0.00000000     0.00000000     0.00000000
     0.00000000     0.00000000     0.00000000
     0.00000000     0.00000000     0.00000000
     0.00000000     0.00000000     0.00000000
     0.00000000     0.00000000     0.00000000
     0.00000000     0.00000000     0.00000000
     0.00000000     0.00000000     0.00000000
     0.00000000     0.00000000     0.00000000
     0.00000000     0.00000000     0.00000000
     0.00000000     0.00000000     0.00000000
     0.00000000     0.00000000     0.00000000
     0.00000000     0.00000000     0.00000000
     0.00000000     0.00000000     0.00000000
     0.00000000     0.00000000     0.00000000
     0.00000000     0.00000000     0.00000000
     0.00000000     0.00000000     0.00000000
     0.00000000     0.00000000     0.00000000
     0.00000000     0.00000000     0.00000000
     0.00000000     0.00000000     0.00000000
     0.00000000     0.00000000     0.00000000
     0.00000000     0.00000000     0.00000000
     0.00000000     0.00000000     0.00000000
     0.00000000     0.00000000     0.00000000
     0.00000000     0.00000000     0.00000000
     0.00000000     0.00000000     0.00000000
     0.00000000     0.00000000     0.00000000
     0.00000000     0.00000000     0.00000000
     0.00000000     0.00000000     0.00000000
     0.00000000     0.00000000     0.00000000
     0.00000000     0.00000000     0.00000000
     0.00000000     0.00000000     0.00000000
     0.00000000     0.00000000     0.00000000
     0.00000000     0.00000000     0.00000000
     0.00000000     0.00000000     0.00000000
     0.00000000     0.00000000     0.00000000
     0.00000000     0.00000000     0.00000000
     0.00000000     0.00000000     0.00000000
     0.00000000     0.00000000     0.00000000
     0.00000000     0.00000000     0.00000000
     0.00000000     0.00000000     0.00000000
     0.00000000     0.00000000     0.00000000
     0.00000000     0.00000000     0.00000000
     0.00000000     0.00000000     0.00000000
     0.00000000     0.00000000     0.00000000
     0.00000000     0.00000000     0.00000000
     0.00000000     0.00000000     0.00000000
     0.00000000     0.00000000     0.00000000
     0.00000000     0.00000000     0.00000000
     0.00000000     0.00000000     0.00000000
     0.00000000     0.00000000     0.00000000
     0.00000000     0.00000000     0.00000000
     0.00000000     0.00000000     0.00000000
     0.00000000     0.00000000     0.00000000
     0.00000000     0.00000000     0.00000000
     0.00000000     0.00000000     0.00000000
     0.00000000     0.00000000     0.00000000
     0.00000000     0.00000000     0.00000000
     0.00000000     0.00000000     0.00000000
     0.00000000     0.00000000     0.00000000
     0.00000000     0.00000000     0.00000000
     0.00000000     0.00000000     0.00000000
     0.00000000     0.00000000     0.00000000
     0.00000000     0.00000000     0.00000000
     0.00000000     0.00000000     0.00000000
     0.00000000     0.00000000     0.00000000
     0.00000000     0.00000000     0.00000000
     0.00000000     0.00000000     0.00000000
     0.00000000     0.00000000     0.00000000
     0.00000000     0.00000000     0.00000000
     0.00000000     0.00000000     0.00000000
     0.00000000     0.00000000     0.00000000
     0.00000000     0.00000000     0.00000000
     0.00000000     0.00000000     0.00000000
     0.00000000     0.00000000     0.00000000
     0.00000000     0.00000000     0.00000000
     0.00000000     0.00000000     0.00000000
     0.00000000     0.00000000     0.00000000
     0.00000000     0.00000000     0.00000000
     0.00000000     0.00000000     0.00000000
     0.00000000     0.00000000     0.00000000
     0.00000000     0.00000000     0.00000000
     0.00000000     0.00000000     0.00000000
     0.00000000     0.00000000     0.00000000
     0.00000000     0.00000000     0.00000000
     0.00000000     0.00000000     0.00000000
     0.00000000     0.00000000     0.00000000
     0.00000000     0.00000000     0.00000000
     0.00000000     0.00000000     0.00000000
     0.00000000     0.00000000     0.00000000
     0.00000000     0.00000000     0.00000000
     0.00000000     0.00000000     0.00000000
     0.00000000     0.00000000     0.00000000
     0.00000000     0.00000000     0.00000000
     0.00000000     0.00000000     0.00000000
     0.00000000     0.00000000     0.00000000
     0.00000000     0.00000000     0.00000000
     0.00000000     0.00000000     0.00000000
     0.00000000     0.00000000     0.00000000
     0.00000000     0.00000000     0.00000000
     0.00000000     0.00000000     0.00000000
     0.00000000     0.00000000     0.00000000
     0.00000000     0.00000000     0.00000000
     0.00000000     0.00000000     0.00000000
     0.00000000     0.00000000     0.00000000
     0.00000000     0.00000000     0.00000000
     0.00000000     0.00000000     0.00000000
     0.00000000     0.00000000     0.00000000
     0.00000000     0.00000000     0.00000000
     0.00000000     0.00000000     0.00000000
     0.00000000     0.00000000     0.00000000
     0.00000000     0.00000000     0.00000000
     0.00000000     0.00000000     0.00000000
     0.00000000     0.00000000     0.00000000
     0.00000000     0.00000000     0.00000000
     0.00000000     0.00000000     0.00000000
     0.00000000     0.00000000     0.00000000
     0.00000000     0.00000000     0.00000000
     0.00000000     0.00000000     0.00000000
     0.00000000     0.00000000     0.00000000
     0.00000000     0.00000000     0.00000000
     0.00000000     0.00000000     0.00000000
     0.00000000     0.00000000     0.00000000
     0.00000000     0.00000000     0.00000000
     0.00000000     0.00000000     0.00000000
     0.00000000     0.00000000     0.00000000
     0.00000000     0.00000000     0.00000000
     0.00000000     0.00000000     0.00000000
     0.00000000     0.00000000     0.00000000
     0.00000000     0.00000000     0.00000000
     0.00000000     0.00000000     0.00000000
     0.00000000     0.00000000     0.00000000
     0.00000000     0.00000000     0.00000000
     0.00000000     0.00000000     0.00000000
     0.00000000     0.00000000     0.00000000
     0.00000000     0.00000000     0.00000000
     0.00000000     0.00000000     0.00000000
     0.00000000     0.00000000     0.00000000
     0.00000000     0.00000000     0.00000000
     0.00000000     0.00000000     0.00000000
     0.00000000     0.00000000     0.00000000
     0.00000000     0.00000000     0.00000000
     0.00000000     0.00000000     0.00000000
     0.00000000     0.00000000     0.00000000
     0.00000000     0.00000000     0.00000000
     0.00000000     0.00000000     0.00000000
     0.00000000     0.00000000     0.00000000
     0.00000000     0.00000000     0.00000000
     0.00000000     0.00000000     0.00000000
     0.00000000     0.00000000     0.00000000
     0.00000000     0.00000000     0.00000000
     0.00000000     0.00000000     0.00000000
     0.00000000     0.00000000     0.00000000
     0.00000000     0.00000000     0.00000000
     0.00000000     0.00000000     0.00000000
     0.00000000     0.00000000     0.00000000
     0.00000000     0.00000000     0.00000000
     0.00000000     0.00000000     0.00000000
     0.00000000     0.00000000     0.00000000
     0.00000000     0.00000000     0.00000000
     0.00000000     0.00000000     0.00000000
     0.00000000     0.00000000     0.00000000
     0.00000000     0.00000000     0.00000000
     0.00000000     0.00000000     0.00000000
     0.00000000     0.00000000     0.00000000
     0.00000000     0.00000000     0.00000000
     0.00000000     0.00000000     0.00000000
     0.00000000     0.00000000     0.00000000
     0.00000000     0.00000000     0.00000000
     0.00000000     0.00000000     0.00000000
     0.00000000     0.00000000     0.00000000
     0.00000000     0.00000000     0.00000000
     0.00000000     0.00000000     0.00000000
     0.00000000     0.00000000     0.00000000
     0.00000000     0.00000000     0.00000000
     0.00000000     0.00000000     0.00000000
     0.00000000     0.00000000     0.00000000
     0.00000000     0.00000000     0.00000000
     0.00000000     0.00000000     0.00000000
     0.00000000     0.00000000     0.00000000
     0.00000000     0.00000000     0.00000000
     0.00000000     0.00000000     0.00000000
     0.00000000     0.00000000     0.00000000
     0.00000000     0.00000000     0.00000000
     0.00000000     0.00000000     0.00000000
     0.00000000     0.00000000     0.00000000
     0.00000000     0.00000000     0.00000000
     0.00000000     0.00000000     0.00000000
     0.00000000     0.00000000     0.00000000
     0.00000000     0.00000000     0.00000000
     0.00000000     0.00000000     0.00000000
     0.00000000     0.00000000     0.00000000
     0.00000000     0.00000000     0.00000000
     0.00000000     0.00000000     0.00000000
     0.00000000     0.00000000     0.00000000
     0.00000000     0.00000000     0.00000000
     0.00000000     0.00000000     0.00000000
     0.00000000     0.00000000     0.00000000
     0.00000000     0.00000000     0.00000000
     0.00000000     0.00000000     0.00000000
     0.00000000     0.00000000     0.00000000
     0.00000000     0.00000000     0.00000000
     0.00000000     0.00000000     0.00000000
     0.00000000     0.00000000     0.00000000
     0.00000000     0.00000000     0.00000000
     0.00000000     0.00000000     0.00000000
     0.00000000     0.00000000     0.00000000
     0.00000000     0.00000000     0.00000000
     0.00000000     0.00000000     0.00000000
     0.00000000     0.00000000     0.00000000
     0.00000000     0.00000000     0.00000000
     0.00000000     0.00000000     0.00000000
     0.00000000     0.00000000     0.00000000
     0.00000000     0.00000000     0.00000000
     0.00000000     0.00000000     0.00000000
     0.00000000     0.00000000     0.00000000
     0.00000000     0.00000000     0.00000000
     0.00000000     0.00000000     0.00000000
     0.00000000     0.00000000     0.00000000
     0.00000000     0.00000000     0.00000000
     0.00000000     0.00000000     0.00000000
     0.00000000     0.00000000     0.00000000
     0.00000000     0.00000000     0.00000000
     0.00000000     0.00000000     0.00000000
     0.00000000     0.00000000     0.00000000
     0.00000000     0.00000000     0.00000000
     0.00000000     0.00000000     0.00000000
     0.00000000     0.00000000     0.00000000
     0.00000000     0.00000000     0.00000000
     0.00000000     0.00000000     0.00000000
     0.00000000     0.00000000     0.00000000
     0.00000000     0.00000000     0.00000000
     0.00000000     0.00000000     0.00000000
     0.00000000     0.00000000     0.00000000
     0.00000000     0.00000000     0.00000000
     0.00000000     0.00000000     0.00000000
     0.00000000     0.00000000     0.00000000
     0.00000000     0.00000000     0.00000000
     0.00000000     0.00000000     0.00000000
     0.00000000     0.00000000     0.00000000
     0.00000000     0.00000000     0.00000000
     0.00000000     0.00000000     0.00000000
     0.00000000     0.00000000     0.00000000
     0.00000000     0.00000000     0.00000000
     0.00000000     0.00000000     0.00000000
     0.00000000     0.00000000     0.00000000
     0.00000000     0.00000000     0.00000000
     0.00000000     0.00000000     0.00000000
     0.00000000     0.00000000     0.00000000
     0.00000000     0.00000000     0.00000000
     0.00000000     0.00000000     0.00000000
     0.00000000     0.00000000     0.00000000
     0.00000000     0.00000000     0.00000000
     0.00000000     0.00000000     0.00000000
     0.00000000     0.00000000     0.00000000
     0.00000000     0.00000000     0.00000000
     0.00000000     0.00000000     0.00000000
     0.00000000     0.00000000     0.00000000
     0.00000000     0.00000000     0.00000000
     0.00000000     0.00000000     0.00000000
     0.00000000     0.00000000     0.00000000
     0.00000000     0.00000000     0.00000000
     0.00000000     0.00000000     0.00000000
     0.00000000     0.00000000     0.00000000
     0.00000000     0.00000000     0.00000000
     0.00000000     0.00000000     0.00000000
     0.00000000     0.00000000     0.00000000
     0.00000000     0.00000000     0.00000000
     0.00000000     0.00000000     0.00000000
     0.00000000     0.00000000     0.00000000
     0.00000000     0.00000000     0.00000000
     0.00000000     0.00000000     0.00000000
     0.00000000     0.00000000     0.00000000
     0.00000000     0.00000000     0.00000000
     0.00000000     0.00000000     0.00000000
     0.00000000     0.00000000     0.00000000
     0.00000000     0.00000000     0.00000000
     0.00000000     0.00000000     0.00000000
     0.00000000     0.00000000     0.00000000
     0.00000000     0.00000000     0.00000000
     0.00000000     0.00000000     0.00000000
     0.00000000     0.00000000     0.00000000
     0.00000000     0.00000000     0.00000000
     0.00000000     0.00000000     0.00000000
     0.00000000     0.00000000     0.00000000
     0.00000000     0.00000000     0.00000000
     0.00000000     0.00000000     0.00000000
     0.00000000     0.00000000     0.00000000
     0.00000000     0.00000000     0.00000000
     0.00000000     0.00000000     0.00000000
     0.00000000     0.00000000     0.00000000
     0.00000000     0.00000000     0.00000000
     0.00000000     0.00000000     0.00000000
     0.00000000     0.00000000     0.00000000
     0.00000000     0.00000000     0.00000000
     0.00000000     0.00000000     0.00000000
     0.00000000     0.00000000     0.00000000
     0.00000000     0.00000000     0.00000000
     0.00000000     0.00000000     0.00000000
     0.00000000     0.00000000     0.00000000
     0.00000000     0.00000000     0.00000000
     0.00000000     0.00000000     0.00000000
     0.00000000     0.00000000     0.00000000
     0.00000000     0.00000000     0.00000000
     0.00000000     0.00000000     0.00000000
     0.00000000     0.00000000     0.00000000
     0.00000000     0.00000000     0.00000000
     0.00000000     0.00000000     0.00000000
     0.00000000     0.00000000     0.00000000
     0.00000000     0.00000000     0.00000000
     0.00000000     0.00000000     0.00000000
     0.00000000     0.00000000     0.00000000
     0.00000000     0.00000000     0.00000000
     0.00000000     0.00000000     0.00000000
     0.00000000     0.00000000     0.00000000
     0.00000000     0.00000000     0.00000000
     0.00000000     0.00000000     0.00000000
     0.00000000     0.00000000     0.00000000
     0.00000000     0.00000000     0.00000000
     0.00000000     0.00000000     0.00000000
     0.00000000     0.00000000     0.00000000
     0.00000000     0.00000000     0.00000000
     0.00000000     0.00000000     0.00000000
     0.00000000     0.00000000     0.00000000
     0.00000000     0.00000000     0.00000000
     0.00000000     0.00000000     0.00000000
     0.00000000     0.00000000     0.00000000
     0.00000000     0.00000000     0.00000000
     0.00000000     0.00000000     0.00000000
     0.00000000     0.00000000     0.00000000
     0.00000000     0.00000000     0.00000000
     0.00000000     0.00000000     0.00000000
     0.00000000     0.00000000     0.00000000
     0.00000000     0.00000000     0.00000000
     0.00000000     0.00000000     0.00000000
     0.00000000     0.00000000     0.00000000
     0.00000000     0.00000000     0.00000000
     0.00000000     0.00000000     0.00000000
     0.00000000     0.00000000     0.00000000
     0.00000000     0.00000000     0.00000000
     0.00000000     0.00000000     0.00000000
     0.00000000     0.00000000     0.00000000
     0.00000000     0.00000000     0.00000000
     0.00000000     0.00000000     0.00000000
     0.00000000     0.00000000     0.00000000
     0.00000000     0.00000000     0.00000000
     0.00000000     0.00000000     0.00000000
     0.00000000     0.00000000     0.00000000
     0.00000000     0.00000000     0.00000000
     0.00000000     0.00000000     0.00000000
     0.00000000     0.00000000     0.00000000
     0.00000000     0.00000000     0.00000000
     0.00000000     0.00000000     0.00000000
     0.00000000     0.00000000     0.00000000
     0.00000000     0.00000000     0.00000000
     0.00000000     0.00000000     0.00000000
     0.00000000     0.00000000     0.00000000
     0.00000000     0.00000000     0.00000000
     0.00000000     0.00000000     0.00000000
     0.00000000     0.00000000     0.00000000
     0.00000000     0.00000000     0.00000000
     0.00000000     0.00000000     0.00000000
     0.00000000     0.00000000     0.00000000
     0.00000000     0.00000000     0.00000000
     0.00000000     0.00000000     0.00000000
     0.00000000     0.00000000     0.00000000
     0.00000000     0.00000000     0.00000000
     0.00000000     0.00000000     0.00000000
     0.00000000     0.00000000     0.00000000
     0.00000000     0.00000000     0.00000000
     0.00000000     0.00000000     0.00000000
     0.00000000     0.00000000     0.00000000
     0.00000000     0.00000000     0.00000000
     0.00000000     0.00000000     0.00000000
     0.00000000     0.00000000     0.00000000
     0.00000000     0.00000000     0.00000000
     0.00000000     0.00000000     0.00000000
     0.00000000     0.00000000     0.00000000
     0.00000000     0.00000000     0.00000000
     0.00000000     0.00000000     0.00000000
     0.00000000     0.00000000     0.00000000
     0.00000000     0.00000000     0.00000000
     0.00000000     0.00000000     0.00000000
     0.00000000     0.00000000     0.00000000
     0.00000000     0.00000000     0.00000000
     0.00000000     0.00000000     0.00000000
     0.00000000     0.00000000     0.00000000
     0.00000000     0.00000000     0.00000000
     0.00000000     0.00000000     0.00000000
     0.00000000     0.00000000     0.00000000
     0.00000000     0.00000000     0.00000000
     0.00000000     0.00000000     0.00000000
     0.00000000     0.00000000     0.00000000
     0.00000000     0.00000000     0.00000000
     0.00000000     0.00000000     0.00000000
     0.00000000     0.00000000     0.00000000
     0.00000000     0.00000000     0.00000000
     0.00000000     0.00000000     0.00000000
     0.00000000     0.00000000     0.00000000
     0.00000000     0.00000000     0.00000000
     0.00000000     0.00000000     0.00000000
     0.00000000     0.00000000     0.00000000
     0.00000000     0.00000000     0.00000000
     0.00000000     0.00000000     0.00000000
     0.00000000     0.00000000     0.00000000
     0.00000000     0.00000000     0.00000000
     0.00000000     0.00000000     0.00000000
     0.00000000     0.00000000     0.00000000
     0.00000000     0.00000000     0.00000000
     0.00000000     0.00000000     0.00000000
     0.00000000     0.00000000     0.00000000
     0.00000000     0.00000000     0.00000000
     0.00000000     0.00000000     0.00000000
     0.00000000     0.00000000     0.00000000
     0.00000000     0.00000000     0.00000000
     0.00000000     0.00000000     0.00000000
     0.00000000     0.00000000     0.00000000
     0.00000000     0.00000000     0.00000000
     0.00000000     0.00000000     0.00000000
     0.00000000     0.00000000     0.00000000
     0.00000000     0.00000000     0.00000000
     0.00000000     0.00000000     0.00000000
     0.00000000     0.00000000     0.00000000
     0.00000000     0.00000000     0.00000000
     0.00000000     0.00000000     0.00000000
     0.00000000     0.00000000     0.00000000
     0.00000000     0.00000000     0.00000000
     0.00000000     0.00000000     0.00000000
     0.00000000     0.00000000     0.00000000
     0.00000000     0.00000000     0.00000000
     0.00000000     0.00000000     0.00000000
     0.00000000     0.00000000     0.00000000
     0.00000000     0.00000000     0.00000000
     0.00000000     0.00000000     0.00000000
     0.00000000     0.00000000     0.00000000
     0.00000000     0.00000000     0.00000000
     0.00000000     0.00000000     0.00000000
     0.00000000     0.00000000     0.00000000
     0.00000000     0.00000000     0.00000000
     0.00000000     0.00000000     0.00000000
     0.00000000     0.00000000     0.00000000
     0.00000000     0.00000000     0.00000000
     0.00000000     0.00000000     0.00000000
     0.00000000     0.00000000     0.00000000
     0.00000000     0.00000000     0.00000000
     0.00000000     0.00000000     0.00000000
     0.00000000     0.00000000     0.00000000
     0.00000000     0.00000000     0.00000000
     0.00000000     0.00000000     0.00000000
     0.00000000     0.00000000     0.00000000
     0.00000000     0.00000000     0.00000000
     0.00000000     0.00000000     0.00000000
     0.00000000     0.00000000     0.00000000
     0.00000000     0.00000000     0.00000000
     0.00000000     0.00000000     0.00000000
     0.00000000     0.00000000     0.00000000
     0.00000000     0.00000000     0.00000000
     0.00000000     0.00000000     0.00000000
     0.00000000     0.00000000     0.00000000
     0.00000000     0.00000000     0.00000000
     0.00000000     0.00000000     0.00000000
     0.00000000     0.00000000     0.00000000
     0.00000000     0.00000000     0.00000000
     0.00000000     0.00000000     0.00000000
     0.00000000     0.00000000     0.00000000
     0.00000000     0.00000000     0.00000000
     0.00000000     0.00000000     0.00000000
     0.00000000     0.00000000     0.00000000
     0.00000000     0.00000000     0.00000000
     0.00000000     0.00000000     0.00000000
     0.00000000     0.00000000     0.00000000
     0.00000000     0.00000000     0.00000000
     0.00000000     0.00000000     0.00000000
     0.00000000     0.00000000     0.00000000
     0.00000000     0.00000000     0.00000000
     0.00000000     0.00000000     0.00000000
     0.00000000     0.00000000     0.00000000
     0.00000000     0.00000000     0.00000000
     0.00000000     0.00000000     0.00000000
     0.00000000     0.00000000     0.00000000
     0.00000000     0.00000000     0.00000000
     0.00000000     0.00000000     0.00000000
     0.00000000     0.00000000     0.00000000
     0.00000000     0.00000000     0.00000000
     0.00000000     0.00000000     0.00000000
     0.00000000     0.00000000     0.00000000
     0.00000000     0.00000000     0.00000000
     0.00000000     0.00000000     0.00000000
     0.00000000     0.00000000     0.00000000
     0.00000000     0.00000000     0.00000000
     0.00000000     0.00000000     0.00000000
     0.00000000     0.00000000     0.00000000
     0.00000000     0.00000000     0.00000000
     0.00000000     0.00000000     0.00000000
     0.00000000     0.00000000     0.00000000
     0.00000000     0.00000000     0.00000000
     0.00000000     0.00000000     0.00000000
     0.00000000     0.00000000     0.00000000
     0.00000000     0.00000000     0.00000000
     0.00000000     0.00000000     0.00000000
     0.00000000     0.00000000     0.00000000
     0.00000000     0.00000000     0.00000000
     0.00000000     0.00000000     0.00000000
     0.00000000     0.00000000     0.00000000
     0.00000000     0.00000000     0.00000000
     0.00000000     0.00000000     0.00000000
     0.00000000     0.00000000     0.00000000
     0.00000000     0.00000000     0.00000000
     0.00000000     0.00000000     0.00000000
     0.00000000     0.00000000     0.00000000
     0.00000000     0.00000000     0.00000000
     0.00000000     0.00000000     0.00000000
     0.00000000     0.00000000     0.00000000
     0.00000000     0.00000000     0.00000000
     0.00000000     0.00000000     0.00000000
     0.00000000     0.00000000     0.00000000
     0.00000000     0.00000000     0.00000000
     0.00000000     0.00000000     0.00000000
     0.00000000     0.00000000     0.00000000
     0.00000000     0.00000000     0.00000000
     0.00000000     0.00000000     0.00000000
     0.00000000     0.00000000     0.00000000
     0.00000000     0.00000000     0.00000000
     0.00000000     0.00000000     0.00000000
     0.00000000     0.00000000     0.00000000
     0.00000000     0.00000000     0.00000000
     0.00000000     0.00000000     0.00000000
     0.00000000     0.00000000     0.00000000
     0.00000000     0.00000000     0.00000000
     0.00000000     0.00000000     0.00000000
     0.00000000     0.00000000     0.00000000
     0.00000000     0.00000000     0.00000000
     0.00000000     0.00000000     0.00000000
     0.00000000     0.00000000     0.00000000
     0.00000000     0.00000000     0.00000000
     0.00000000     0.00000000     0.00000000
     0.00000000     0.00000000     0.00000000
     0.00000000     0.00000000     0.00000000
     0.00000000     0.00000000     0.00000000
     0.00000000     0.00000000     0.00000000
     0.00000000     0.00000000     0.00000000
     0.00000000     0.00000000     0.00000000
     0.00000000     0.00000000     0.00000000
     0.00000000     0.00000000     0.00000000
     0.00000000     0.00000000     0.00000000
     0.00000000     0.00000000     0.00000000
     0.00000000     0.00000000     0.00000000
     0.00000000     0.00000000     0.00000000
     0.00000000     0.00000000     0.00000000
     0.00000000     0.00000000     0.00000000
     0.00000000     0.00000000     0.00000000
     0.00000000     0.00000000     0.00000000
     0.00000000     0.00000000     0.00000000
     0.00000000     0.00000000     0.00000000
     0.00000000     0.00000000     0.00000000
     0.00000000     0.00000000     0.00000000
     0.00000000     0.00000000     0.00000000
     0.00000000     0.00000000     0.00000000
     0.00000000     0.00000000     0.00000000
     0.00000000     0.00000000     0.00000000
     0.00000000     0.00000000     0.00000000
     0.00000000     0.00000000     0.00000000
     0.00000000     0.00000000     0.00000000
     0.00000000     0.00000000     0.00000000
     0.00000000     0.00000000     0.00000000
     0.00000000     0.00000000     0.00000000
     0.00000000     0.00000000     0.00000000
     0.00000000     0.00000000     0.00000000
     0.00000000     0.00000000     0.00000000
     0.00000000     0.00000000     0.00000000
     0.00000000     0.00000000     0.00000000
     0.00000000     0.00000000     0.00000000
     0.00000000     0.00000000     0.00000000
     0.00000000     0.00000000     0.00000000
     0.00000000     0.00000000     0.00000000
     0.00000000     0.00000000     0.00000000
     0.00000000     0.00000000     0.00000000
     0.00000000     0.00000000     0.00000000
     0.00000000     0.00000000     0.00000000
     0.00000000     0.00000000     0.00000000
     0.00000000     0.00000000     0.00000000
     0.00000000     0.00000000     0.00000000
     0.00000000     0.00000000     0.00000000
     0.00000000     0.00000000     0.00000000
     0.00000000     0.00000000     0.00000000
     0.00000000     0.00000000     0.00000000
     0.00000000     0.00000000     0.00000000
     0.00000000     0.00000000     0.00000000
     0.00000000     0.00000000     0.00000000
     0.00000000     0.00000000     0.00000000
     0.00000000     0.00000000     0.00000000
     0.00000000     0.00000000     0.00000000
     0.00000000     0.00000000     0.00000000
     0.00000000     0.00000000     0.00000000
     0.00000000     0.00000000     0.00000000
     0.00000000     0.00000000     0.00000000
     0.00000000     0.00000000     0.00000000
     0.00000000     0.00000000     0.00000000
     0.00000000     0.00000000     0.00000000
     0.00000000     0.00000000     0.00000000
     0.00000000     0.00000000     0.00000000
     0.00000000     0.00000000     0.00000000
     0.00000000     0.00000000     0.00000000
     0.00000000     0.00000000     0.00000000
     0.00000000     0.00000000     0.00000000
     0.00000000     0.00000000     0.00000000
     0.00000000     0.00000000     0.00000000
     0.00000000     0.00000000     0.00000000
     0.00000000     0.00000000     0.00000000
     0.00000000     0.00000000     0.00000000
     0.00000000     0.00000000     0.00000000
     0.00000000     0.00000000     0.00000000
     0.00000000     0.00000000     0.00000000
     0.00000000     0.00000000     0.00000000
     0.00000000     0.00000000     0.00000000
     0.00000000     0.00000000     0.00000000
     0.00000000     0.00000000     0.00000000
     0.00000000     0.00000000     0.00000000
     0.00000000     0.00000000     0.00000000
     0.00000000     0.00000000     0.00000000
     0.00000000     0.00000000     0.00000000
     0.00000000     0.00000000     0.00000000
     0.00000000     0.00000000     0.00000000
     0.00000000     0.00000000     0.00000000
     0.00000000     0.00000000     0.00000000
     0.00000000     0.00000000     0.00000000
     0.00000000     0.00000000     0.00000000
     0.00000000     0.00000000     0.00000000
     0.00000000     0.00000000     0.00000000
     0.00000000     0.00000000     0.00000000
     0.00000000     0.00000000     0.00000000
     0.00000000     0.00000000     0.00000000
     0.00000000     0.00000000     0.00000000
     0.00000000     0.00000000     0.00000000
     0.00000000     0.00000000     0.00000000
     0.00000000     0.00000000     0.00000000
     0.00000000     0.00000000     0.00000000
     0.00000000     0.00000000     0.00000000
     0.00000000     0.00000000     0.00000000
     0.00000000     0.00000000     0.00000000
     0.00000000     0.00000000     0.00000000
     0.00000000     0.00000000     0.00000000
     0.00000000     0.00000000     0.00000000
     0.00000000     0.00000000     0.00000000
     0.00000000     0.00000000     0.00000000
     0.00000000     0.00000000     0.00000000
     0.00000000     0.00000000     0.00000000
     0.00000000     0.00000000     0.00000000
     0.00000000     0.00000000     0.00000000
     0.00000000     0.00000000     0.00000000
     0.00000000     0.00000000     0.00000000
     0.00000000     0.00000000     0.00000000
     0.00000000     0.00000000     0.00000000
     0.00000000     0.00000000     0.00000000
     0.00000000     0.00000000     0.00000000
     0.00000000     0.00000000     0.00000000
     0.00000000     0.00000000     0.00000000
     0.00000000     0.00000000     0.00000000
     0.00000000     0.00000000     0.00000000
     0.00000000     0.00000000     0.00000000
     0.00000000     0.00000000     0.00000000
     0.00000000     0.00000000     0.00000000
     0.00000000     0.00000000     0.00000000
     0.00000000     0.00000000     0.00000000
     0.00000000     0.00000000     0.00000000
     0.00000000     0.00000000     0.00000000
     0.00000000     0.00000000     0.00000000
     0.00000000     0.00000000     0.00000000
     0.00000000     0.00000000     0.00000000
     0.00000000     0.00000000     0.00000000
     0.00000000     0.00000000     0.00000000
     0.00000000     0.00000000     0.00000000
     0.00000000     0.00000000     0.00000000
     0.00000000     0.00000000     0.00000000
     0.00000000     0.00000000     0.00000000
     0.00000000     0.00000000     0.00000000
     0.00000000     0.00000000     0.00000000
     0.00000000     0.00000000     0.00000000
     0.00000000     0.00000000     0.00000000
     0.00000000     0.00000000     0.00000000
     0.00000000     0.00000000     0.00000000
     0.00000000     0.00000000     0.00000000
     0.00000000     0.00000000     0.00000000
     0.00000000     0.00000000     0.00000000
     0.00000000     0.00000000     0.00000000
     0.00000000     0.00000000     0.00000000
     0.00000000     0.00000000     0.00000000
     0.00000000     0.00000000     0.00000000
     0.00000000     0.00000000     0.00000000
     0.00000000     0.00000000     0.00000000
     0.00000000     0.00000000     0.00000000
     0.00000000     0.00000000     0.00000000
     0.00000000     0.00000000     0.00000000
     0.00000000     0.00000000     0.00000000
     0.00000000     0.00000000     0.00000000
     0.00000000     0.00000000     0.00000000
     0.00000000     0.00000000     0.00000000
     0.00000000     0.00000000     0.00000000
     0.00000000     0.00000000     0.00000000
     0.00000000     0.00000000     0.00000000
     0.00000000     0.00000000     0.00000000
     0.00000000     0.00000000     0.00000000
     0.00000000     0.00000000     0.00000000
     0.00000000     0.00000000     0.00000000
     0.00000000     0.00000000     0.00000000
     0.00000000     0.00000000     0.00000000
     0.00000000     0.00000000     0.00000000
     0.00000000     0.00000000     0.00000000
     0.00000000     0.00000000     0.00000000
     0.00000000     0.00000000     0.00000000
     0.00000000     0.00000000     0.00000000
     0.00000000     0.00000000     0.00000000
     0.00000000     0.00000000     0.00000000
     0.00000000     0.00000000     0.00000000
     0.00000000     0.00000000     0.00000000
     0.00000000     0.00000000     0.00000000
     0.00000000     0.00000000     0.00000000
     0.00000000     0.00000000     0.00000000
     0.00000000     0.00000000     0.00000000
     0.00000000     0.00000000     0.00000000
     0.00000000     0.00000000     0.00000000
     0.00000000     0.00000000     0.00000000
     0.00000000     0.00000000     0.00000000
     0.00000000     0.00000000     0.00000000
     0.00000000     0.00000000     0.00000000
     0.00000000     0.00000000     0.00000000
     0.00000000     0.00000000     0.00000000
     0.00000000     0.00000000     0.00000000
     0.00000000     0.00000000     0.00000000
     0.00000000     0.00000000     0.00000000
     0.00000000     0.00000000     0.00000000
     0.00000000     0.00000000     0.00000000
     0.00000000     0.00000000     0.00000000
     0.00000000     0.00000000     0.00000000
     0.00000000     0.00000000     0.00000000
     0.00000000     0.00000000     0.00000000
     0.00000000     0.00000000     0.00000000
     0.00000000     0.00000000     0.00000000
     0.00000000     0.00000000     0.00000000
     0.00000000     0.00000000     0.00000000
     0.00000000     0.00000000     0.00000000
     0.00000000     0.00000000     0.00000000
     0.00000000     0.00000000     0.00000000
     0.00000000     0.00000000     0.00000000
     0.00000000     0.00000000     0.00000000
     0.00000000     0.00000000     0.00000000
     0.00000000     0.00000000     0.00000000
     0.00000000     0.00000000     0.00000000
     0.00000000     0.00000000     0.00000000
     0.00000000     0.00000000     0.00000000
     0.00000000     0.00000000     0.00000000
     0.00000000     0.00000000     0.00000000
     0.00000000     0.00000000     0.00000000
     0.00000000     0.00000000     0.00000000
     0.00000000     0.00000000     0.00000000
     0.00000000     0.00000000     0.00000000
     0.00000000     0.00000000     0.00000000
     0.00000000     0.00000000     0.00000000
     0.00000000     0.00000000     0.00000000
     0.00000000     0.00000000     0.00000000
     0.00000000     0.00000000     0.00000000
     0.00000000     0.00000000     0.00000000
     0.00000000     0.00000000     0.00000000
     0.00000000     0.00000000     0.00000000
     0.00000000     0.00000000     0.00000000
     0.00000000     0.00000000     0.00000000
     0.00000000     0.00000000     0.00000000
     0.00000000     0.00000000     0.00000000
     0.00000000     0.00000000     0.00000000
     0.00000000     0.00000000     0.00000000
     0.00000000     0.00000000     0.00000000
     0.00000000     0.00000000     0.00000000
     0.00000000     0.00000000     0.00000000
     0.00000000     0.00000000     0.00000000
     0.00000000     0.00000000     0.00000000
     0.00000000     0.00000000     0.00000000
     0.00000000     0.00000000     0.00000000
     0.00000000     0.00000000     0.00000000
     0.00000000     0.00000000     0.00000000
     0.00000000     0.00000000     0.00000000
     0.00000000     0.00000000     0.00000000
     0.00000000     0.00000000     0.00000000
     0.00000000     0.00000000     0.00000000
     0.00000000     0.00000000     0.00000000
     0.00000000     0.00000000     0.00000000
     0.00000000     0.00000000     0.00000000
     0.00000000     0.00000000     0.00000000
     0.00000000     0.00000000     0.00000000
     0.00000000     0.00000000     0.00000000
     0.00000000     0.00000000     0.00000000
     0.00000000     0.00000000     0.00000000
     0.00000000     0.00000000     0.00000000
     0.00000000     0.00000000     0.00000000
     0.00000000     0.00000000     0.00000000
     0.00000000     0.00000000     0.00000000
     0.00000000     0.00000000     0.00000000
     0.00000000     0.00000000     0.00000000
     0.00000000     0.00000000     0.00000000
     0.00000000     0.00000000     0.00000000
     0.00000000     0.00000000     0.00000000
     0.00000000     0.00000000     0.00000000
     0.00000000     0.00000000     0.00000000
     0.00000000     0.00000000     0.00000000
     0.00000000     0.00000000     0.00000000
     0.00000000     0.00000000     0.00000000
     0.00000000     0.00000000     0.00000000
     0.00000000     0.00000000     0.00000000
     0.00000000     0.00000000     0.00000000
     0.00000000     0.00000000     0.00000000
     0.00000000     0.00000000     0.00000000
     0.00000000     0.00000000     0.00000000
     0.00000000     0.00000000     0.00000000
     0.00000000     0.00000000     0.00000000
     0.00000000     0.00000000     0.00000000
     0.00000000     0.00000000     0.00000000
     0.00000000     0.00000000     0.00000000
     0.00000000     0.00000000     0.00000000
     0.00000000     0.00000000     0.00000000
     0.00000000     0.00000000     0.00000000
     0.00000000     0.00000000     0.00000000
     0.00000000     0.00000000     0.00000000
     0.00000000     0.00000000     0.00000000
     0.00000000     0.00000000     0.00000000
     0.00000000     0.00000000     0.00000000
     0.00000000     0.00000000     0.00000000
     0.00000000     0.00000000     0.00000000
     0.00000000     0.00000000     0.00000000
     0.00000000     0.00000000     0.00000000
     0.00000000     0.00000000     0.00000000
     0.00000000     0.00000000     0.00000000
     0.00000000     0.00000000     0.00000000
     0.00000000     0.00000000     0.00000000
     0.00000000     0.00000000     0.00000000
     0.00000000     0.00000000     0.00000000
     0.00000000     0.00000000     0.00000000
     0.00000000     0.00000000     0.00000000
     0.00000000     0.00000000     0.00000000
     0.00000000     0.00000000     0.00000000
     0.00000000     0.00000000     0.00000000
     0.00000000     0.00000000     0.00000000
     0.00000000     0.00000000     0.00000000
     0.00000000     0.00000000     0.00000000
     0.00000000     0.00000000     0.00000000
     0.00000000     0.00000000     0.00000000
     0.00000000     0.00000000     0.00000000
     0.00000000     0.00000000     0.00000000
     0.00000000     0.00000000     0.00000000
     0.00000000     0.00000000     0.00000000
     0.00000000     0.00000000     0.00000000
     0.00000000     0.00000000     0.00000000
     0.00000000     0.00000000     0.00000000
     0.00000000     0.00000000     0.00000000
     0.00000000     0.00000000     0.00000000
     0.00000000     0.00000000     0.00000000
     0.00000000     0.00000000     0.00000000
     0.00000000     0.00000000     0.00000000
     0.00000000     0.00000000     0.00000000
     0.00000000     0.00000000     0.00000000
     0.00000000     0.00000000     0.00000000
     0.00000000     0.00000000     0.00000000
     0.00000000     0.00000000     0.00000000
     0.00000000     0.00000000     0.00000000
     0.00000000     0.00000000     0.00000000
     0.00000000     0.00000000     0.00000000
     0.00000000     0.00000000     0.00000000
     0.00000000     0.00000000     0.00000000
     0.00000000     0.00000000     0.00000000
     0.00000000     0.00000000     0.00000000
     0.00000000     0.00000000     0.00000000
     0.00000000     0.00000000     0.00000000
     0.00000000     0.00000000     0.00000000
     0.00000000     0.00000000     0.00000000
     0.00000000     0.00000000     0.00000000
     0.00000000     0.00000000     0.00000000
     0.00000000     0.00000000     0.00000000
     0.00000000     0.00000000     0.00000000
     0.00000000     0.00000000     0.00000000
     0.00000000     0.00000000     0.00000000
     0.00000000     0.00000000     0.00000000
     0.00000000     0.00000000     0.00000000
     0.00000000     0.00000000     0.00000000
     0.00000000     0.00000000     0.00000000
     0.00000000     0.00000000     0.00000000
     0.00000000     0.00000000     0.00000000
     0.00000000     0.00000000     0.00000000
     0.00000000     0.00000000     0.00000000
     0.00000000     0.00000000     0.00000000
     0.00000000     0.00000000     0.00000000
     0.00000000     0.00000000     0.00000000
     0.00000000     0.00000000     0.00000000
     0.00000000     0.00000000     0.00000000
     0.00000000     0.00000000     0.00000000
     0.00000000     0.00000000     0.00000000
     0.00000000     0.00000000     0.00000000
     0.00000000     0.00000000     0.00000000
     0.00000000     0.00000000     0.00000000
     0.00000000     0.00000000     0.00000000
     0.00000000     0.00000000     0.00000000
     0.00000000     0.00000000     0.00000000
     0.00000000     0.00000000     0.00000000
     0.00000000     0.00000000     0.00000000
     0.00000000     0.00000000     0.00000000
     0.00000000     0.00000000     0.00000000
     0.00000000     0.00000000     0.00000000
     0.00000000     0.00000000     0.00000000
     0.00000000     0.00000000     0.00000000
     0.00000000     0.00000000     0.00000000
     0.00000000     0.00000000     0.00000000
     0.00000000     0.00000000     0.00000000
     0.00000000     0.00000000     0.00000000
     0.00000000     0.00000000     0.00000000
     0.00000000     0.00000000     0.00000000
     0.00000000     0.00000000     0.00000000
     0.00000000     0.00000000     0.00000000
     0.00000000     0.00000000     0.00000000
     0.00000000     0.00000000     0.00000000
     0.00000000     0.00000000     0.00000000
     0.00000000     0.00000000     0.00000000
     0.00000000     0.00000000     0.00000000
     0.00000000     0.00000000     0.00000000
     0.00000000     0.00000000     0.00000000
     0.00000000     0.00000000     0.00000000
     0.00000000     0.00000000     0.00000000
     0.00000000     0.00000000     0.00000000
     0.00000000     0.00000000     0.00000000
     0.00000000     0.00000000     0.00000000
     0.00000000     0.00000000     0.00000000
     0.00000000     0.00000000     0.00000000
     0.00000000     0.00000000     0.00000000
     0.00000000     0.00000000     0.00000000
     0.00000000     0.00000000     0.00000000
     0.00000000     0.00000000     0.00000000
     0.00000000     0.00000000     0.00000000
     0.00000000     0.00000000     0.00000000
     0.00000000     0.00000000     0.00000000
     0.00000000     0.00000000     0.00000000
     0.00000000     0.00000000     0.00000000
     0.00000000     0.00000000     0.00000000
     0.00000000     0.00000000     0.00000000
     0.00000000     0.00000000     0.00000000
     0.00000000     0.00000000     0.00000000
     0.00000000     0.00000000     0.00000000
     0.00000000     0.00000000     0.00000000
     0.00000000     0.00000000     0.00000000
     0.00000000     0.00000000     0.00000000
     0.00000000     0.00000000     0.00000000
     0.00000000     0.00000000     0.00000000
     0.00000000     0.00000000     0.00000000
     0.00000000     0.00000000     0.00000000
     0.00000000     0.00000000     0.00000000
     0.00000000     0.00000000     0.00000000
     0.00000000     0.00000000     0.00000000
     0.00000000     0.00000000     0.00000000
     0.00000000     0.00000000     0.00000000
     0.00000000     0.00000000     0.00000000
     0.00000000     0.00000000     0.00000000
     0.00000000     0.00000000     0.00000000
     0.00000000     0.00000000     0.00000000
     0.00000000     0.00000000     0.00000000
     0.00000000     0.00000000     0.00000000
     0.00000000     0.00000000     0.00000000
     0.00000000     0.00000000     0.00000000
     0.00000000     0.00000000     0.00000000
     0.00000000     0.00000000     0.00000000
     0.00000000     0.00000000     0.00000000
     0.00000000     0.00000000     0.00000000
     0.00000000     0.00000000     0.00000000
     0.00000000     0.00000000     0.00000000
     0.00000000     0.00000000     0.00000000
     0.00000000     0.00000000     0.00000000
     0.00000000     0.00000000     0.00000000
     0.00000000     0.00000000     0.00000000
     0.00000000     0.00000000     0.00000000
     0.00000000     0.00000000     0.00000000
     0.00000000     0.00000000     0.00000000
     0.00000000     0.00000000     0.00000000
     0.00000000     0.00000000     0.00000000
     0.00000000     0.00000000     0.00000000
     0.00000000     0.00000000     0.00000000
     0.00000000     0.00000000     0.00000000
     0.00000000     0.00000000     0.00000000
     0.00000000     0.00000000     0.00000000
     0.00000000     0.00000000     0.00000000
     0.00000000     0.00000000     0.00000000
     0.00000000     0.00000000     0.00000000
     0.00000000     0.00000000     0.00000000
     0.00000000     0.00000000     0.00000000
     0.00000000     0.00000000     0.00000000
     0.00000000     0.00000000     0.00000000
     0.00000000     0.00000000     0.00000000
     0.00000000     0.00000000     0.00000000
     0.00000000     0.00000000     0.00000000
     0.00000000     0.00000000     0.00000000
     0.00000000     0.00000000     0.00000000
     0.00000000     0.00000000     0.00000000
     0.00000000     0.00000000     0.00000000
     0.00000000     0.00000000     0.00000000
     0.00000000     0.00000000     0.00000000
     0.00000000     0.00000000     0.00000000
     0.00000000     0.00000000     0.00000000
     0.00000000     0.00000000     0.00000000
     0.00000000     0.00000000     0.00000000
     0.00000000     0.00000000     0.00000000
     0.00000000     0.00000000     0.00000000
     0.00000000     0.00000000     0.00000000
     0.00000000     0.00000000     0.00000000
     0.00000000     0.00000000     0.00000000
     0.00000000     0.00000000     0.00000000
     0.00000000     0.00000000     0.00000000
     0.00000000     0.00000000     0.00000000
     0.00000000     0.00000000     0.00000000
     0.00000000     0.00000000     0.00000000
     0.00000000     0.00000000     0.00000000
     0.00000000     0.00000000     0.00000000
     0.00000000     0.00000000     0.00000000
     0.00000000     0.00000000     0.00000000
     0.00000000     0.00000000     0.00000000
     0.00000000     0.00000000     0.00000000
     0.00000000     0.00000000     0.00000000
     0.00000000     0.00000000     0.00000000
     0.00000000     0.00000000     0.00000000
     0.00000000     0.00000000     0.00000000
     0.00000000     0.00000000     0.00000000
     0.00000000     0.00000000     0.00000000
     0.00000000     0.00000000     0.00000000
     0.00000000     0.00000000     0.00000000
     0.00000000     0.00000000     0.00000000
     0.00000000     0.00000000     0.00000000
     0.00000000     0.00000000     0.00000000
     0.00000000     0.00000000     0.00000000
     0.00000000     0.00000000     0.00000000
     0.00000000     0.00000000     0.00000000
     0.00000000     0.00000000     0.00000000
     0.00000000     0.00000000     0.00000000
     0.00000000     0.00000000     0.00000000
     0.00000000     0.00000000     0.00000000
     0.00000000     0.00000000     0.00000000
     0.00000000     0.00000000     0.00000000
     0.00000000     0.00000000     0.00000000
     0.00000000     0.00000000     0.00000000
     0.00000000     0.00000000     0.00000000
     0.00000000     0.00000000     0.00000000
     0.00000000     0.00000000     0.00000000
     0.00000000     0.00000000     0.00000000
     0.00000000     0.00000000     0.00000000
     0.00000000     0.00000000     0.00000000
     0.00000000     0.00000000     0.00000000
     0.00000000     0.00000000     0.00000000
     0.00000000     0.00000000     0.00000000
     0.00000000     0.00000000     0.00000000
     0.00000000     0.00000000     0.00000000
     0.00000000     0.00000000     0.00000000
     0.00000000     0.00000000     0.00000000
     0.00000000     0.00000000     0.00000000
     0.00000000     0.00000000     0.00000000
     0.00000000     0.00000000     0.00000000
     0.00000000     0.00000000     0.00000000
     0.00000000     0.00000000     0.00000000
     0.00000000     0.00000000     0.00000000
     0.00000000     0.00000000     0.00000000
     0.00000000     0.00000000     0.00000000
     0.00000000     0.00000000     0.00000000
     0.00000000     0.00000000     0.00000000
     0.00000000     0.00000000     0.00000000
     0.00000000     0.00000000     0.00000000
     0.00000000     0.00000000     0.00000000
     0.00000000     0.00000000     0.00000000
     0.00000000     0.00000000     0.00000000
     0.00000000     0.00000000     0.00000000
     0.00000000     0.00000000     0.00000000
     0.00000000     0.00000000     0.00000000
     0.00000000     0.00000000     0.00000000
     0.00000000     0.00000000     0.00000000
     0.00000000     0.00000000     0.00000000
     0.00000000     0.00000000     0.00000000
     0.00000000     0.00000000     0.00000000
     0.00000000     0.00000000     0.00000000
     0.00000000     0.00000000     0.00000000
     0.00000000     0.00000000     0.00000000
     0.00000000     0.00000000     0.00000000
     0.00000000     0.00000000     0.00000000
     0.00000000     0.00000000     0.00000000
     0.00000000     0.00000000     0.00000000
     0.00000000     0.00000000     0.00000000
     0.00000000     0.00000000     0.00000000
     0.00000000     0.00000000     0.00000000
     0.00000000     0.00000000     0.00000000
     0.00000000     0.00000000     0.00000000
     0.00000000     0.00000000     0.00000000
     0.00000000     0.00000000     0.00000000
     0.00000000     0.00000000     0.00000000
     0.00000000     0.00000000     0.00000000
     0.00000000     0.00000000     0.00000000
     0.00000000     0.00000000     0.00000000
     0.00000000     0.00000000     0.00000000
     0.00000000     0.00000000     0.00000000
     0.00000000     0.00000000     0.00000000
     0.00000000     0.00000000     0.00000000
     0.00000000     0.00000000     0.00000000
     0.00000000     0.00000000     0.00000000
     0.00000000     0.00000000     0.00000000
     0.00000000     0.00000000     0.00000000
     0.00000000     0.00000000     0.00000000
     0.00000000     0.00000000     0.00000000
     0.00000000     0.00000000     0.00000000
     0.00000000     0.00000000     0.00000000
     0.00000000     0.00000000     0.00000000
     0.00000000     0.00000000     0.00000000
     0.00000000     0.00000000     0.00000000
     0.00000000     0.00000000     0.00000000
     0.00000000     0.00000000     0.00000000
     0.00000000     0.00000000     0.00000000
     0.00000000     0.00000000     0.00000000
     0.00000000     0.00000000     0.00000000
     0.00000000     0.00000000     0.00000000
     0.00000000     0.00000000     0.00000000
     0.00000000     0.00000000     0.00000000
     0.00000000     0.00000000     0.00000000
     0.00000000     0.00000000     0.00000000
     0.00000000     0.00000000     0.00000000
     0.00000000     0.00000000     0.00000000
     0.00000000     0.00000000     0.00000000
     0.00000000     0.00000000     0.00000000
     0.00000000     0.00000000     0.00000000
     0.00000000     0.00000000     0.00000000
     0.00000000     0.00000000     0.00000000
     0.00000000     0.00000000     0.00000000
     0.00000000     0.00000000     0.00000000
     0.00000000     0.00000000     0.00000000
     0.00000000     0.00000000     0.00000000
     0.00000000     0.00000000     0.00000000
     0.00000000     0.00000000     0.00000000
     0.00000000     0.00000000     0.00000000
     0.00000000     0.00000000     0.00000000
     0.00000000     0.00000000     0.00000000
     0.00000000     0.00000000     0.00000000
     0.00000000     0.00000000     0.00000000
     0.00000000     0.00000000     0.00000000
     0.00000000     0.00000000     0.00000000
     0.00000000     0.00000000     0.00000000
     0.00000000     0.00000000     0.00000000
     0.00000000     0.00000000     0.00000000
     0.00000000     0.00000000     0.00000000
     0.00000000     0.00000000     0.00000000
     0.00000000     0.00000000     0.00000000
     0.00000000     0.00000000     0.00000000
     0.00000000     0.00000000     0.00000000
     0.00000000     0.00000000     0.00000000
     0.00000000     0.00000000     0.00000000
     0.00000000     0.00000000     0.00000000
     0.00000000     0.00000000     0.00000000
     0.00000000     0.00000000     0.00000000
     0.00000000     0.00000000     0.00000000
     0.00000000     0.00000000     0.00000000
     0.00000000     0.00000000     0.00000000
     0.00000000     0.00000000     0.00000000
     0.00000000     0.00000000     0.00000000
     0.00000000     0.00000000     0.00000000
     0.00000000     0.00000000     0.00000000
     0.00000000     0.00000000     0.00000000
     0.00000000     0.00000000     0.00000000
     0.00000000     0.00000000     0.00000000
     0.00000000     0.00000000     0.00000000
     0.00000000     0.00000000     0.00000000
     0.00000000     0.00000000     0.00000000
     0.00000000     0.00000000     0.00000000
     0.00000000     0.00000000     0.00000000
     0.00000000     0.00000000     0.00000000
     0.00000000     0.00000000     0.00000000
     0.00000000     0.00000000     0.00000000
     0.00000000     0.00000000     0.00000000
     0.00000000     0.00000000     0.00000000
     0.00000000     0.00000000     0.00000000
     0.00000000     0.00000000     0.00000000
     0.00000000     0.00000000     0.00000000
     0.00000000     0.00000000     0.00000000
     0.00000000     0.00000000     0.00000000
     0.00000000     0.00000000     0.00000000
     0.00000000     0.00000000     0.00000000
     0.00000000     0.00000000     0.00000000
     0.00000000     0.00000000     0.00000000
     0.00000000     0.00000000     0.00000000
     0.00000000     0.00000000     0.00000000
     0.00000000     0.00000000     0.00000000
     0.00000000     0.00000000     0.00000000
     0.00000000     0.00000000     0.00000000
     0.00000000     0.00000000     0.00000000
     0.00000000     0.00000000     0.00000000
     0.00000000     0.00000000     0.00000000
     0.00000000     0.00000000     0.00000000
     0.00000000     0.00000000     0.00000000
     0.00000000     0.00000000     0.00000000
     0.00000000     0.00000000     0.00000000
     0.00000000     0.00000000     0.00000000
     0.00000000     0.00000000     0.00000000
     0.00000000     0.00000000     0.00000000
     0.00000000     0.00000000     0.00000000
     0.00000000     0.00000000     0.00000000
     0.00000000     0.00000000     0.00000000
     0.00000000     0.00000000     0.00000000
     0.00000000     0.00000000     0.00000000
     0.00000000     0.00000000     0.00000000
     0.00000000     0.00000000     0.00000000
     0.00000000     0.00000000     0.00000000
     0.00000000     0.00000000     0.00000000
     0.00000000     0.00000000     0.00000000
     0.00000000     0.00000000     0.00000000
     0.00000000     0.00000000     0.00000000
     0.00000000     0.00000000     0.00000000
     0.00000000     0.00000000     0.00000000
     0.00000000     0.00000000     0.00000000
     0.00000000     0.00000000     0.00000000
     0.00000000     0.00000000     0.00000000
     0.00000000     0.00000000     0.00000000
     0.00000000     0.00000000     0.00000000
     0.00000000     0.00000000     0.00000000
     0.00000000     0.00000000     0.00000000
     0.00000000     0.00000000     0.00000000
     0.00000000     0.00000000     0.00000000
     0.00000000     0.00000000     0.00000000
     0.00000000     0.00000000     0.00000000
     0.00000000     0.00000000     0.00000000
     0.00000000     0.00000000     0.00000000
     0.00000000     0.00000000     0.00000000
     0.00000000     0.00000000     0.00000000
     0.00000000     0.00000000     0.00000000
     0.00000000     0.00000000     0.00000000
     0.00000000     0.00000000     0.00000000
     0.00000000     0.00000000     0.00000000
     0.00000000     0.00000000     0.00000000
     0.00000000     0.00000000     0.00000000
     0.00000000     0.00000000     0.00000000
     0.00000000     0.00000000     0.00000000
     0.00000000     0.00000000     0.00000000
     0.00000000     0.00000000     0.00000000
     0.00000000     0.00000000     0.00000000
     0.00000000     0.00000000     0.00000000
     0.00000000     0.00000000     0.00000000
     0.00000000     0.00000000     0.00000000
     0.00000000     0.00000000     0.00000000
     0.00000000     0.00000000     0.00000000
     0.00000000     0.00000000     0.00000000
     0.00000000     0.00000000     0.00000000
     0.00000000     0.00000000     0.00000000
     0.00000000     0.00000000     0.00000000
     0.00000000     0.00000000     0.00000000
     0.00000000     0.00000000     0.00000000
     0.00000000     0.00000000     0.00000000
     0.00000000     0.00000000     0.00000000
     0.00000000     0.00000000     0.00000000
     0.00000000     0.00000000     0.00000000
     0.00000000     0.00000000     0.00000000
     0.00000000     0.00000000     0.00000000
     0.00000000     0.00000000     0.00000000
     0.00000000     0.00000000     0.00000000
     0.00000000     0.00000000     0.00000000
     0.00000000     0.00000000     0.00000000
     0.00000000     0.00000000     0.00000000
     0.00000000     0.00000000     0.00000000
     0.00000000     0.00000000     0.00000000
     0.00000000     0.00000000     0.00000000
     0.00000000     0.00000000     0.00000000
     0.00000000     0.00000000     0.00000000
     0.00000000     0.00000000     0.00000000
     0.00000000     0.00000000     0.00000000
     0.00000000     0.00000000     0.00000000
     0.00000000     0.00000000     0.00000000
     0.00000000     0.00000000     0.00000000
     0.00000000     0.00000000     0.00000000
     0.00000000     0.00000000     0.00000000
     0.00000000     0.00000000     0.00000000
     0.00000000     0.00000000     0.00000000
     0.00000000     0.00000000     0.00000000
     0.00000000     0.00000000     0.00000000
     0.00000000     0.00000000     0.00000000
     0.00000000     0.00000000     0.00000000
     0.00000000     0.00000000     0.00000000
     0.00000000     0.00000000     0.00000000
     0.00000000     0.00000000     0.00000000
     0.00000000     0.00000000     0.00000000
     0.00000000     0.00000000     0.00000000
     0.00000000     0.00000000     0.00000000
     0.00000000     0.00000000     0.00000000
     0.00000000     0.00000000     0.00000000
     0.00000000     0.00000000     0.00000000
     0.00000000     0.00000000     0.00000000
     0.00000000     0.00000000     0.00000000
     0.00000000     0.00000000     0.00000000
     0.00000000     0.00000000     0.00000000
     0.00000000     0.00000000     0.00000000
     0.00000000     0.00000000     0.00000000
     0.00000000     0.00000000     0.00000000
     0.00000000     0.00000000     0.00000000
     0.00000000     0.00000000     0.00000000
     0.00000000     0.00000000     0.00000000
     0.00000000     0.00000000     0.00000000
     0.00000000     0.00000000     0.00000000
     0.00000000     0.00000000     0.00000000
     0.00000000     0.00000000     0.00000000
     0.00000000     0.00000000     0.00000000
     0.00000000     0.00000000     0.00000000
     0.00000000     0.00000000     0.00000000
     0.00000000     0.00000000     0.00000000
     0.00000000     0.00000000     0.00000000
     0.00000000     0.00000000     0.00000000
     0.00000000     0.00000000     0.00000000
     0.00000000     0.00000000     0.00000000
     0.00000000     0.00000000     0.00000000
     0.00000000     0.00000000     0.00000000
     0.00000000     0.00000000     0.00000000
     0.00000000     0.00000000     0.00000000
     0.00000000     0.00000000     0.00000000
     0.00000000     0.00000000     0.00000000
     0.00000000     0.00000000     0.00000000
     0.00000000     0.00000000     0.00000000
     0.00000000     0.00000000     0.00000000
     0.00000000     0.00000000     0.00000000
     0.00000000     0.00000000     0.00000000
     0.00000000     0.00000000     0.00000000
     0.00000000     0.00000000     0.00000000
     0.00000000     0.00000000     0.00000000
     0.00000000     0.00000000     0.00000000
     0.00000000     0.00000000     0.00000000
     0.00000000     0.00000000     0.00000000
     0.00000000     0.00000000     0.00000000
     0.00000000     0.00000000     0.00000000
     0.00000000     0.00000000     0.00000000
     0.00000000     0.00000000     0.00000000
     0.00000000     0.00000000     0.00000000
     0.00000000     0.00000000     0.00000000
     0.00000000     0.00000000     0.00000000
     0.00000000     0.00000000     0.00000000
     0.00000000     0.00000000     0.00000000
     0.00000000     0.00000000     0.00000000
     0.00000000     0.00000000     0.00000000
     0.00000000     0.00000000     0.00000000
     0.00000000     0.00000000     0.00000000
     0.00000000     0.00000000     0.00000000
     0.00000000     0.00000000     0.00000000
     0.00000000     0.00000000     0.00000000
     0.00000000     0.00000000     0.00000000
     0.00000000     0.00000000     0.00000000
     0.00000000     0.00000000     0.00000000
     0.00000000     0.00000000     0.00000000
     0.00000000     0.00000000     0.00000000
     0.00000000     0.00000000     0.00000000
     0.00000000     0.00000000     0.00000000
     0.00000000     0.00000000     0.00000000
     0.00000000     0.00000000     0.00000000
     0.00000000     0.00000000     0.00000000
     0.00000000     0.00000000     0.00000000
     0.00000000     0.00000000     0.00000000
     0.00000000     0.00000000     0.00000000
     0.00000000     0.00000000     0.00000000
     0.00000000     0.00000000     0.00000000
     0.00000000     0.00000000     0.00000000
     0.00000000     0.00000000     0.00000000
     0.00000000     0.00000000     0.00000000
     0.00000000     0.00000000     0.00000000
     0.00000000     0.00000000     0.00000000
     0.00000000     0.00000000     0.00000000
     0.00000000     0.00000000     0.00000000
     0.00000000     0.00000000     0.00000000
     0.00000000     0.00000000     0.00000000
     0.00000000     0.00000000     0.00000000
     0.00000000     0.00000000     0.00000000
     0.00000000     0.00000000     0.00000000
     0.00000000     0.00000000     0.00000000
     0.00000000     0.00000000     0.00000000
     0.00000000     0.00000000     0.00000000
     0.00000000     0.00000000     0.00000000
     0.00000000     0.00000000     0.00000000
     0.00000000     0.00000000     0.00000000
     0.00000000     0.00000000     0.00000000
     0.00000000     0.00000000     0.00000000
     0.00000000     0.00000000     0.00000000
     0.00000000     0.00000000     0.00000000
     0.00000000     0.00000000     0.00000000
     0.00000000     0.00000000     0.00000000
     0.00000000     0.00000000     0.00000000
     0.00000000     0.00000000     0.00000000
     0.00000000     0.00000000     0.00000000
     0.00000000     0.00000000     0.00000000
     0.00000000     0.00000000     0.00000000
     0.00000000     0.00000000     0.00000000
     0.00000000     0.00000000     0.00000000
     0.00000000     0.00000000     0.00000000
     0.00000000     0.00000000     0.00000000
     0.00000000     0.00000000     0.00000000
     0.00000000     0.00000000     0.00000000
     0.00000000     0.00000000     0.00000000
     0.00000000     0.00000000     0.00000000
     0.00000000     0.00000000     0.00000000
     0.00000000     0.00000000     0.00000000
     0.00000000     0.00000000     0.00000000
     0.00000000     0.00000000     0.00000000
     0.00000000     0.00000000     0.00000000
     0.00000000     0.00000000     0.00000000
     0.00000000     0.00000000     0.00000000
     0.00000000     0.00000000     0.00000000
     0.00000000     0.00000000     0.00000000
     0.00000000     0.00000000     0.00000000
     0.00000000     0.00000000     0.00000000
     0.00000000     0.00000000     0.00000000
     0.00000000     0.00000000     0.00000000
     0.00000000     0.00000000     0.00000000
     0.00000000     0.00000000     0.00000000
     0.00000000     0.00000000     0.00000000
     0.00000000     0.00000000     0.00000000
     0.00000000     0.00000000     0.00000000
     0.00000000     0.00000000     0.00000000
     0.00000000     0.00000000     0.00000000
     0.00000000     0.00000000     0.00000000
     0.00000000     0.00000000     0.00000000
     0.00000000     0.00000000     0.00000000
     0.00000000     0.00000000     0.00000000
     0.00000000     0.00000000     0.00000000
     0.00000000     0.00000000     0.00000000
     0.00000000     0.00000000     0.00000000
     0.00000000     0.00000000     0.00000000
     0.00000000     0.00000000     0.00000000
     0.00000000     0.00000000     0.00000000
     0.00000000     0.00000000     0.00000000
     0.00000000     0.00000000     0.00000000
     0.00000000     0.00000000     0.00000000
     0.00000000     0.00000000     0.00000000
     0.00000000     0.00000000     0.00000000
     0.00000000     0.00000000     0.00000000
     0.00000000     0.00000000     0.00000000
     0.00000000     0.00000000     0.00000000
     0.00000000     0.00000000     0.00000000
     0.00000000     0.00000000     0.00000000
     0.00000000     0.00000000     0.00000000
     0.00000000     0.00000000     0.00000000
     0.00000000     0.00000000     0.00000000
     0.00000000     0.00000000     0.00000000
     0.00000000     0.00000000     0.00000000
     0.00000000     0.00000000     0.00000000
     0.00000000     0.00000000     0.00000000
     0.00000000     0.00000000     0.00000000
     0.00000000     0.00000000     0.00000000
     0.00000000     0.00000000     0.00000000
     0.00000000     0.00000000     0.00000000
     0.00000000     0.00000000     0.00000000
     0.00000000     0.00000000     0.00000000
     0.00000000     0.00000000     0.00000000
     0.00000000     0.00000000     0.00000000
     0.00000000     0.00000000     0.00000000
     0.00000000     0.00000000     0.00000000
     0.00000000     0.00000000     0.00000000
     0.00000000     0.00000000     0.00000000
     0.00000000     0.00000000     0.00000000
     0.00000000     0.00000000     0.00000000
     0.00000000     0.00000000     0.00000000
     0.00000000     0.00000000     0.00000000
     0.00000000     0.00000000     0.00000000
     0.00000000     0.00000000     0.00000000
     0.00000000     0.00000000     0.00000000
     0.00000000     0.00000000     0.00000000
     0.00000000     0.00000000     0.00000000
     0.00000000     0.00000000     0.00000000
     0.00000000     0.00000000     0.00000000
     0.00000000     0.00000000     0.00000000
     0.00000000     0.00000000     0.00000000
     0.00000000     0.00000000     0.00000000
     0.00000000     0.00000000     0.00000000
     0.00000000     0.00000000     0.00000000
     0.00000000     0.00000000     0.00000000
     0.00000000     0.00000000     0.00000000
     0.00000000     0.00000000     0.00000000
     0.00000000     0.00000000     0.00000000
     0.00000000     0.00000000     0.00000000
     0.00000000     0.00000000     0.00000000
     0.00000000     0.00000000     0.00000000
     0.00000000     0.00000000     0.00000000
     0.00000000     0.00000000     0.00000000
     0.00000000     0.00000000     0.00000000
     0.00000000     0.00000000     0.00000000
     0.00000000     0.00000000     0.00000000
     0.00000000     0.00000000     0.00000000
     0.00000000     0.00000000     0.00000000
     0.00000000     0.00000000     0.00000000
     0.00000000     0.00000000     0.00000000
     0.00000000     0.00000000     0.00000000
     0.00000000     0.00000000     0.00000000
     0.00000000     0.00000000     0.00000000
     0.00000000     0.00000000     0.00000000
     0.00000000     0.00000000     0.00000000
     0.00000000     0.00000000     0.00000000
     0.00000000     0.00000000     0.00000000
     0.00000000     0.00000000     0.00000000
     0.00000000     0.00000000     0.00000000
     0.00000000     0.00000000     0.00000000
     0.00000000     0.00000000     0.00000000
     0.00000000     0.00000000     0.00000000
     0.00000000     0.00000000     0.00000000
     0.00000000     0.00000000     0.00000000
     0.00000000     0.00000000     0.00000000
     0.00000000     0.00000000     0.00000000
     0.00000000     0.00000000     0.00000000
     0.00000000     0.00000000     0.00000000
     0.00000000     0.00000000     0.00000000
     0.00000000     0.00000000     0.00000000
     0.00000000     0.00000000     0.00000000
     0.00000000     0.00000000     0.00000000
     0.00000000     0.00000000     0.00000000
     0.00000000     0.00000000     0.00000000
     0.00000000     0.00000000     0.00000000
     0.00000000     0.00000000     0.00000000
     0.00000000     0.00000000     0.00000000
     0.00000000     0.00000000     0.00000000
     0.00000000     0.00000000     0.00000000
     0.00000000     0.00000000     0.00000000
     0.00000000     0.00000000     0.00000000
     0.00000000     0.00000000     0.00000000
     0.00000000     0.00000000     0.00000000
     0.00000000     0.00000000     0.00000000
     0.00000000     0.00000000     0.00000000
     0.00000000     0.00000000     0.00000000
     0.00000000     0.00000000     0.00000000
     0.00000000     0.00000000     0.00000000
     0.00000000     0.00000000     0.00000000
     0.00000000     0.00000000     0.00000000
     0.00000000     0.00000000     0.00000000
     0.00000000     0.00000000     0.00000000
     0.00000000     0.00000000     0.00000000
     0.00000000     0.00000000     0.00000000
     0.00000000     0.00000000     0.00000000
     0.00000000     0.00000000     0.00000000
     0.00000000     0.00000000     0.00000000
     0.00000000     0.00000000     0.00000000
     0.00000000     0.00000000     0.00000000
     0.00000000     0.00000000     0.00000000
     0.00000000     0.00000000     0.00000000
     0.00000000     0.00000000     0.00000000
     0.00000000     0.00000000     0.00000000
     0.00000000     0.00000000     0.00000000
     0.00000000     0.00000000     0.00000000
     0.00000000     0.00000000     0.00000000
     0.00000000     0.00000000     0.00000000
     0.00000000     0.00000000     0.00000000
     0.00000000     0.00000000     0.00000000
     0.00000000     0.00000000     0.00000000
     0.00000000     0.00000000     0.00000000
     0.00000000     0.00000000     0.00000000
     0.00000000     0.00000000     0.00000000
     0.00000000     0.00000000     0.00000000
     0.00000000     0.00000000     0.00000000
     0.00000000     0.00000000     0.00000000
     0.00000000     0.00000000     0.00000000
     0.00000000     0.00000000     0.00000000
     0.00000000     0.00000000     0.00000000
     0.00000000     0.00000000     0.00000000
     0.00000000     0.00000000     0.00000000
     0.00000000     0.00000000     0.00000000
     0.00000000     0.00000000     0.00000000
     0.00000000     0.00000000     0.00000000
     0.00000000     0.00000000     0.00000000
     0.00000000     0.00000000     0.00000000
     0.00000000     0.00000000     0.00000000
     0.00000000     0.00000000     0.00000000
     0.00000000     0.00000000     0.00000000
     0.00000000     0.00000000     0.00000000
     0.00000000     0.00000000     0.00000000
     0.00000000     0.00000000     0.00000000
     0.00000000     0.00000000     0.00000000
     0.00000000     0.00000000     0.00000000
     0.00000000     0.00000000     0.00000000
     0.00000000     0.00000000     0.00000000
     0.00000000     0.00000000     0.00000000
     0.00000000     0.00000000     0.00000000
     0.00000000     0.00000000     0.00000000
     0.00000000     0.00000000     0.00000000
     0.00000000     0.00000000     0.00000000
     0.00000000     0.00000000     0.00000000
     0.00000000     0.00000000     0.00000000
     0.00000000     0.00000000     0.00000000
     0.00000000     0.00000000     0.00000000
     0.00000000     0.00000000     0.00000000
     0.00000000     0.00000000     0.00000000
     0.00000000     0.00000000     0.00000000
     0.00000000     0.00000000     0.00000000
     0.00000000     0.00000000     0.00000000
     0.00000000     0.00000000     0.00000000
     0.00000000     0.00000000     0.00000000
     0.00000000     0.00000000     0.00000000
     0.00000000     0.00000000     0.00000000
     0.00000000     0.00000000     0.00000000
     0.00000000     0.00000000     0.00000000
     0.00000000     0.00000000     0.00000000
     0.00000000     0.00000000     0.00000000
     0.00000000     0.00000000     0.00000000
     0.00000000     0.00000000     0.00000000
     0.00000000     0.00000000     0.00000000
     0.00000000     0.00000000     0.00000000
     0.00000000     0.00000000     0.00000000
     0.00000000     0.00000000     0.00000000
     0.00000000     0.00000000     0.00000000
     0.00000000     0.00000000     0.00000000
     0.00000000     0.00000000     0.00000000
     0.00000000     0.00000000     0.00000000
     0.00000000     0.00000000     0.00000000
     0.00000000     0.00000000     0.00000000
     0.00000000     0.00000000     0.00000000
     0.00000000     0.00000000     0.00000000
     0.00000000     0.00000000     0.00000000
     0.00000000     0.00000000     0.00000000
     0.00000000     0.00000000     0.00000000
     0.00000000     0.00000000     0.00000000
     0.00000000     0.00000000     0.00000000
     0.00000000     0.00000000     0.00000000
     0.00000000     0.00000000     0.00000000
     0.00000000     0.00000000     0.00000000
     0.00000000     0.00000000     0.00000000
     0.00000000     0.00000000     0.00000000
     0.00000000     0.00000000     0.00000000
     0.00000000     0.00000000     0.00000000
     0.00000000     0.00000000     0.00000000
     0.00000000     0.00000000     0.00000000
     0.00000000     0.00000000     0.00000000
     0.00000000     0.00000000     0.00000000
     0.00000000     0.00000000     0.00000000
     0.00000000     0.00000000     0.00000000
     0.00000000     0.00000000     0.00000000
     0.00000000     0.00000000     0.00000000
     0.00000000     0.00000000     0.00000000
     0.00000000     0.00000000     0.00000000
     0.00000000     0.00000000     0.00000000
     0.00000000     0.00000000     0.00000000
     0.00000000     0.00000000     0.00000000
     0.00000000     0.00000000     0.00000000
     0.00000000     0.00000000     0.00000000
     0.00000000     0.00000000     0.00000000
     0.00000000     0.00000000     0.00000000
     0.00000000     0.00000000     0.00000000
     0.00000000     0.00000000     0.00000000
     0.00000000     0.00000000     0.00000000
     0.00000000     0.00000000     0.00000000
     0.00000000     0.00000000     0.00000000
     0.00000000     0.00000000     0.00000000
     0.00000000     0.00000000     0.00000000
     0.00000000     0.00000000     0.00000000
     0.00000000     0.00000000     0.00000000
     0.00000000     0.00000000     0.00000000
     0.00000000     0.00000000     0.00000000
     0.00000000     0.00000000     0.00000000
     0.00000000     0.00000000     0.00000000
     0.00000000     0.00000000     0.00000000
     0.00000000     0.00000000     0.00000000
     0.00000000     0.00000000     0.00000000
     0.00000000     0.00000000     0.00000000
     0.00000000     0.00000000     0.00000000
     0.00000000     0.00000000     0.00000000
     0.00000000     0.00000000     0.00000000
     0.00000000     0.00000000     0.00000000
     0.00000000     0.00000000     0.00000000
     0.00000000     0.00000000     0.00000000
     0.00000000     0.00000000     0.00000000
     0.00000000     0.00000000     0.00000000
     0.00000000     0.00000000     0.00000000
     0.00000000     0.00000000     0.00000000
     0.00000000     0.00000000     0.00000000
     0.00000000     0.00000000     0.00000000
     0.00000000     0.00000000     0.00000000
     0.00000000     0.00000000     0.00000000
     0.00000000     0.00000000     0.00000000
     0.00000000     0.00000000     0.00000000
     0.00000000     0.00000000     0.00000000
     0.00000000     0.00000000     0.00000000
     0.00000000     0.00000000     0.00000000
     0.00000000     0.00000000     0.00000000
     0.00000000     0.00000000     0.00000000
     0.00000000     0.00000000     0.00000000
     0.00000000     0.00000000     0.00000000
     0.00000000     0.00000000     0.00000000
     0.00000000     0.00000000     0.00000000
     0.00000000     0.00000000     0.00000000
     0.00000000     0.00000000     0.00000000
     0.00000000     0.00000000     0.00000000
     0.00000000     0.00000000     0.00000000
     0.00000000     0.00000000     0.00000000
     0.00000000     0.00000000     0.00000000
     0.00000000     0.00000000     0.00000000
     0.00000000     0.00000000     0.00000000
     0.00000000     0.00000000     0.00000000
     0.00000000     0.00000000     0.00000000
     0.00000000     0.00000000     0.00000000
     0.00000000     0.00000000     0.00000000
     0.00000000     0.00000000     0.00000000
     0.00000000     0.00000000     0.00000000
     0.00000000     0.00000000     0.00000000
     0.00000000     0.00000000     0.00000000
     0.00000000     0.00000000     0.00000000
     0.00000000     0.00000000     0.00000000
     0.00000000     0.00000000     0.00000000
     0.00000000     0.00000000     0.00000000
     0.00000000     0.00000000     0.00000000
     0.00000000     0.00000000     0.00000000
     0.00000000     0.00000000     0.00000000
     0.00000000     0.00000000     0.00000000
     0.00000000     0.00000000     0.00000000
     0.00000000     0.00000000     0.00000000
     0.00000000     0.00000000     0.00000000
     0.00000000     0.00000000     0.00000000
     0.00000000     0.00000000     0.00000000
     0.00000000     0.00000000     0.00000000
     0.00000000     0.00000000     0.00000000
     0.00000000     0.00000000     0.00000000
     0.00000000     0.00000000     0.00000000
     0.00000000     0.00000000     0.00000000
     0.00000000     0.00000000     0.00000000
     0.00000000     0.00000000     0.00000000
     0.00000000     0.00000000     0.00000000
     0.00000000     0.00000000     0.00000000
     0.00000000     0.00000000     0.00000000
     0.00000000     0.00000000     0.00000000
     0.00000000     0.00000000     0.00000000
     0.00000000     0.00000000     0.00000000
     0.00000000     0.00000000     0.00000000
     0.00000000     0.00000000     0.00000000
     0.00000000     0.00000000     0.00000000
     0.00000000     0.00000000     0.00000000
     0.00000000     0.00000000     0.00000000
     0.00000000     0.00000000     0.00000000
     0.00000000     0.00000000     0.00000000
     0.00000000     0.00000000     0.00000000
     0.00000000     0.00000000     0.00000000
     0.00000000     0.00000000     0.00000000
     0.00000000     0.00000000     0.00000000
     0.00000000     0.00000000     0.00000000
     0.00000000     0.00000000     0.00000000
     0.00000000     0.00000000     0.00000000
     0.00000000     0.00000000     0.00000000
     0.00000000     0.00000000     0.00000000
     0.00000000     0.00000000     0.00000000
     0.00000000     0.00000000     0.00000000
     0.00000000     0.00000000     0.00000000
     0.00000000     0.00000000     0.00000000
     0.00000000     0.00000000     0.00000000
     0.00000000     0.00000000     0.00000000
     0.00000000     0.00000000     0.00000000
     0.00000000     0.00000000     0.00000000
     0.00000000     0.00000000     0.00000000
     0.00000000     0.00000000     0.00000000
     0.00000000     0.00000000     0.00000000
     0.00000000     0.00000000     0.00000000
     0.00000000     0.00000000     0.00000000
     0.00000000     0.00000000     0.00000000
     0.00000000     0.00000000     0.00000000
     0.00000000     0.00000000     0.00000000
     0.00000000     0.00000000     0.00000000
     0.00000000     0.00000000     0.00000000
     0.00000000     0.00000000     0.00000000
     0.00000000     0.00000000     0.00000000
     0.00000000     0.00000000     0.00000000
     0.00000000     0.00000000     0.00000000
     0.00000000     0.00000000     0.00000000
     0.00000000     0.00000000     0.00000000
     0.00000000     0.00000000     0.00000000
     0.00000000     0.00000000     0.00000000
     0.00000000     0.00000000     0.00000000
     0.00000000     0.00000000     0.00000000
     0.00000000     0.00000000     0.00000000
     0.00000000     0.00000000     0.00000000
     0.00000000     0.00000000     0.00000000
     0.00000000     0.00000000     0.00000000
     0.00000000     0.00000000     0.00000000
     0.00000000     0.00000000     0.00000000
     0.00000000     0.00000000     0.00000000
     0.00000000     0.00000000     0.00000000
     0.00000000     0.00000000     0.00000000
     0.00000000     0.00000000     0.00000000
     0.00000000     0.00000000     0.00000000
     0.00000000     0.00000000     0.00000000
     0.00000000     0.00000000     0.00000000
     0.00000000     0.00000000     0.00000000
     0.00000000     0.00000000     0.00000000
     0.00000000     0.00000000     0.00000000
     0.00000000     0.00000000     0.00000000
     0.00000000     0.00000000     0.00000000
     0.00000000     0.00000000     0.00000000
     0.00000000     0.00000000     0.00000000
     0.00000000     0.00000000     0.00000000
     0.00000000     0.00000000     0.00000000
     0.00000000     0.00000000     0.00000000
     0.00000000     0.00000000     0.00000000
     0.00000000     0.00000000     0.00000000
     0.00000000     0.00000000     0.00000000
     0.00000000     0.00000000     0.00000000
     0.00000000     0.00000000     0.00000000
     0.00000000     0.00000000     0.00000000
     0.00000000     0.00000000     0.00000000
     0.00000000     0.00000000     0.00000000
     0.00000000     0.00000000     0.00000000
     0.00000000     0.00000000     0.00000000
     0.00000000     0.00000000     0.00000000
     0.00000000     0.00000000     0.00000000
     0.00000000     0.00000000     0.00000000
     0.00000000     0.00000000     0.00000000
     0.00000000     0.00000000     0.00000000
     0.00000000     0.00000000     0.00000000
     0.00000000     0.00000000     0.00000000
     0.00000000     0.00000000     0.00000000
     0.00000000     0.00000000     0.00000000
     0.00000000     0.00000000     0.00000000
     0.00000000     0.00000000     0.00000000
     0.00000000     0.00000000     0.00000000
     0.00000000     0.00000000     0.00000000
     0.00000000     0.00000000     0.00000000
     0.00000000     0.00000000     0.00000000
     0.00000000     0.00000000     0.00000000
     0.00000000     0.00000000     0.00000000
     0.00000000     0.00000000     0.00000000
     0.00000000     0.00000000     0.00000000
     0.00000000     0.00000000     0.00000000
     0.00000000     0.00000000     0.00000000
     0.00000000     0.00000000     0.00000000
     0.00000000     0.00000000     0.00000000
     0.00000000     0.00000000     0.00000000
     0.00000000     0.00000000     0.00000000
     0.00000000     0.00000000     0.00000000
     0.00000000     0.00000000     0.00000000
     0.00000000     0.00000000     0.00000000
     0.00000000     0.00000000     0.00000000
     0.00000000     0.00000000     0.00000000
     0.00000000     0.00000000     0.00000000
     0.00000000     0.00000000     0.00000000
     0.00000000     0.00000000     0.00000000
     0.00000000     0.00000000     0.00000000
     0.00000000     0.00000000     0.00000000
     0.00000000     0.00000000     0.00000000
     0.00000000     0.00000000     0.00000000
     0.00000000     0.00000000     0.00000000
     0.00000000     0.00000000     0.00000000
     0.00000000     0.00000000     0.00000000
     0.00000000     0.00000000     0.00000000
     0.00000000     0.00000000     0.00000000
     0.00000000     0.00000000     0.00000000
     0.00000000     0.00000000     0.00000000
     0.00000000     0.00000000     0.00000000
     0.00000000     0.00000000     0.00000000
     0.00000000     0.00000000     0.00000000
     0.00000000     0.00000000     0.00000000
     0.00000000     0.00000000     0.00000000
     0.00000000     0.00000000     0.00000000
     0.00000000     0.00000000     0.00000000
     0.00000000     0.00000000     0.00000000
     0.00000000     0.00000000     0.00000000
     0.00000000     0.00000000     0.00000000
     0.00000000     0.00000000     0.00000000
     0.00000000     0.00000000     0.00000000
     0.00000000     0.00000000     0.00000000
     0.00000000     0.00000000     0.00000000
     0.00000000     0.00000000     0.00000000
     0.00000000     0.00000000     0.00000000
     0.00000000     0.00000000     0.00000000
     0.00000000     0.00000000     0.00000000
     0.00000000     0.00000000     0.00000000
     0.00000000     0.00000000     0.00000000
     0.00000000     0.00000000     0.00000000
     0.00000000     0.00000000     0.00000000
     0.00000000     0.00000000     0.00000000
     0.00000000     0.00000000     0.00000000
     0.00000000     0.00000000     0.00000000
     0.00000000     0.00000000     0.00000000
     0.00000000     0.00000000     0.00000000
     0.00000000     0.00000000     0.00000000
     0.00000000     0.00000000     0.00000000
     0.00000000     0.00000000     0.00000000
     0.00000000     0.00000000     0.00000000
     0.00000000     0.00000000     0.00000000
     0.00000000     0.00000000     0.00000000
     0.00000000     0.00000000     0.00000000
     0.00000000     0.00000000     0.00000000
     0.00000000     0.00000000     0.00000000
     0.00000000     0.00000000     0.00000000
     0.00000000     0.00000000     0.00000000
     0.00000000     0.00000000     0.00000000
     0.00000000     0.00000000     0.00000000
     0.00000000     0.00000000     0.00000000
     0.00000000     0.00000000     0.00000000
     0.00000000     0.00000000     0.00000000
     0.00000000     0.00000000     0.00000000
     0.00000000     0.00000000     0.00000000
     0.00000000     0.00000000     0.00000000
     0.00000000     0.00000000     0.00000000
     0.00000000     0.00000000     0.00000000
     0.00000000     0.00000000     0.00000000
     0.00000000     0.00000000     0.00000000
     0.00000000     0.00000000     0.00000000
     0.00000000     0.00000000     0.00000000
     0.00000000     0.00000000     0.00000000
     0.00000000     0.00000000     0.00000000
     0.00000000     0.00000000     0.00000000
     0.00000000     0.00000000     0.00000000
     0.00000000     0.00000000     0.00000000
     0.00000000     0.00000000     0.00000000
     0.00000000     0.00000000     0.00000000
     0.00000000     0.00000000     0.00000000
     0.00000000     0.00000000     0.00000000
     0.00000000     0.00000000     0.00000000
     0.00000000     0.00000000     0.00000000
     0.00000000     0.00000000     0.00000000
     0.00000000     0.00000000     0.00000000
     0.00000000     0.00000000     0.00000000
     0.00000000     0.00000000     0.00000000
     0.00000000     0.00000000     0.00000000
     0.00000000     0.00000000     0.00000000
     0.00000000     0.00000000     0.00000000
     0.00000000     0.00000000     0.00000000
     0.00000000     0.00000000     0.00000000
     0.00000000     0.00000000     0.00000000
     0.00000000     0.00000000     0.00000000
     0.00000000     0.00000000     0.00000000
     0.00000000     0.00000000     0.00000000
     0.00000000     0.00000000     0.00000000
     0.00000000     0.00000000     0.00000000
     0.00000000     0.00000000     0.00000000
     0.00000000     0.00000000     0.00000000
     0.00000000     0.00000000     0.00000000
     0.00000000     0.00000000     0.00000000
     0.00000000     0.00000000     0.00000000
     0.00000000     0.00000000     0.00000000
     0.00000000     0.00000000     0.00000000
     0.00000000     0.00000000     0.00000000
     0.00000000     0.00000000     0.00000000
     0.00000000     0.00000000     0.00000000
     0.00000000     0.00000000     0.00000000
     0.00000000     0.00000000     0.00000000
     0.00000000     0.00000000     0.00000000
     0.00000000     0.00000000     0.00000000
     0.00000000     0.00000000     0.00000000
     0.00000000     0.00000000     0.00000000
     0.00000000     0.00000000     0.00000000
     0.00000000     0.00000000     0.00000000
     0.00000000     0.00000000     0.00000000
     0.00000000     0.00000000     0.00000000
     0.00000000     0.00000000     0.00000000
     0.00000000     0.00000000     0.00000000
     0.00000000     0.00000000     0.00000000
     0.00000000     0.00000000     0.00000000
     0.00000000     0.00000000     0.00000000
     0.00000000     0.00000000     0.00000000
     0.00000000     0.00000000     0.00000000
     0.00000000     0.00000000     0.00000000
     0.00000000     0.00000000     0.00000000
     0.00000000     0.00000000     0.00000000
     0.00000000     0.00000000     0.00000000
     0.00000000     0.00000000     0.00000000
     0.00000000     0.00000000     0.00000000
     0.00000000     0.00000000     0.00000000
     0.00000000     0.00000000     0.00000000
     0.00000000     0.00000000     0.00000000
     0.00000000     0.00000000     0.00000000
     0.00000000     0.00000000     0.00000000
     0.00000000     0.00000000     0.00000000
     0.00000000     0.00000000     0.00000000
     0.00000000     0.00000000     0.00000000
     0.00000000     0.00000000     0.00000000
     0.00000000     0.00000000     0.00000000
     0.00000000     0.00000000     0.00000000
     0.00000000     0.00000000     0.00000000
     0.00000000     0.00000000     0.00000000
     0.00000000     0.00000000     0.00000000
     0.00000000     0.00000000     0.00000000
     0.00000000     0.00000000     0.00000000
     0.00000000     0.00000000     0.00000000
     0.00000000     0.00000000     0.00000000
     0.00000000     0.00000000     0.00000000
     0.00000000     0.00000000     0.00000000
     0.00000000     0.00000000     0.00000000
     0.00000000     0.00000000     0.00000000
     0.00000000     0.00000000     0.00000000
     0.00000000     0.00000000     0.00000000
     0.00000000     0.00000000     0.00000000
     0.00000000     0.00000000     0.00000000
     0.00000000     0.00000000     0.00000000
     0.00000000     0.00000000     0.00000000
     0.00000000     0.00000000     0.00000000
     0.00000000     0.00000000     0.00000000
     0.00000000     0.00000000     0.00000000
     0.00000000     0.00000000     0.00000000
     0.00000000     0.00000000     0.00000000
     0.00000000     0.00000000     0.00000000
     0.00000000     0.00000000     0.00000000
     0.00000000     0.00000000     0.00000000
     0.00000000     0.00000000     0.00000000
     0.00000000     0.00000000     0.00000000
     0.00000000     0.00000000     0.00000000
     0.00000000     0.00000000     0.00000000
     0.00000000     0.00000000     0.00000000
     0.00000000     0.00000000     0.00000000
     0.00000000     0.00000000     0.00000000
     0.00000000     0.00000000     0.00000000
     0.00000000     0.00000000     0.00000000
     0.00000000     0.00000000     0.00000000
     0.00000000     0.00000000     0.00000000
     0.00000000     0.00000000     0.00000000
     0.00000000     0.00000000     0.00000000
     0.00000000     0.00000000     0.00000000
     0.00000000     0.00000000     0.00000000
     0.00000000     0.00000000     0.00000000
     0.00000000     0.00000000     0.00000000
     0.00000000     0.00000000     0.00000000
     0.00000000     0.00000000     0.00000000
     0.00000000     0.00000000     0.00000000
     0.00000000     0.00000000     0.00000000
     0.00000000     0.00000000     0.00000000
     0.00000000     0.00000000     0.00000000
     0.00000000     0.00000000     0.00000000
     0.00000000     0.00000000     0.00000000
     0.00000000     0.00000000     0.00000000
     0.00000000     0.00000000     0.00000000
     0.00000000     0.00000000     0.00000000
     0.00000000     0.00000000     0.00000000
     0.00000000     0.00000000     0.00000000
     0.00000000     0.00000000     0.00000000
     0.00000000     0.00000000     0.00000000
     0.00000000     0.00000000     0.00000000
     0.00000000     0.00000000     0.00000000
     0.00000000     0.00000000     0.00000000
     0.00000000     0.00000000     0.00000000
     0.00000000     0.00000000     0.00000000
     0.00000000     0.00000000     0.00000000
     0.00000000     0.00000000     0.00000000
     0.00000000     0.00000000     0.00000000
     0.00000000     0.00000000     0.00000000
     0.00000000     0.00000000     0.00000000
     0.00000000     0.00000000     0.00000000
     0.00000000     0.00000000     0.00000000
     0.00000000     0.00000000     0.00000000
     0.00000000     0.00000000     0.00000000
     0.00000000     0.00000000     0.00000000
     0.00000000     0.00000000     0.00000000
     0.00000000     0.00000000     0.00000000
     0.00000000     0.00000000     0.00000000
     0.00000000     0.00000000     0.00000000
     0.00000000     0.00000000     0.00000000
     0.00000000     0.00000000     0.00000000
     0.00000000     0.00000000     0.00000000
     0.00000000     0.00000000     0.00000000
     0.00000000     0.00000000     0.00000000
     0.00000000     0.00000000     0.00000000
     0.00000000     0.00000000     0.00000000
     0.00000000     0.00000000     0.00000000
     0.00000000     0.00000000     0.00000000
     0.00000000     0.00000000     0.00000000
     0.00000000     0.00000000     0.00000000
     0.00000000     0.00000000     0.00000000
     0.00000000     0.00000000     0.00000000
     0.00000000     0.00000000     0.00000000
     0.00000000     0.00000000     0.00000000
     0.00000000     0.00000000     0.00000000
     0.00000000     0.00000000     0.00000000
     0.00000000     0.00000000     0.00000000
     0.00000000     0.00000000     0.00000000
     0.00000000     0.00000000     0.00000000
     0.00000000     0.00000000     0.00000000
     0.00000000     0.00000000     0.00000000
     0.00000000     0.00000000     0.00000000
     0.00000000     0.00000000     0.00000000
     0.00000000     0.00000000     0.00000000
     0.00000000     0.00000000     0.00000000
     0.00000000     0.00000000     0.00000000
     0.00000000     0.00000000     0.00000000
     0.00000000     0.00000000     0.00000000
     0.00000000     0.00000000     0.00000000
     0.00000000     0.00000000     0.00000000
     0.00000000     0.00000000     0.00000000
     0.00000000     0.00000000     0.00000000
     0.00000000     0.00000000     0.00000000
     0.00000000     0.00000000     0.00000000
     0.00000000     0.00000000     0.00000000
     0.00000000     0.00000000     0.00000000
     0.00000000     0.00000000     0.00000000
     0.00000000     0.00000000     0.00000000
     0.00000000     0.00000000     0.00000000
     0.00000000     0.00000000     0.00000000
     0.00000000     0.00000000     0.00000000
     0.00000000     0.00000000     0.00000000
     0.00000000     0.00000000     0.00000000
     0.00000000     0.00000000     0.00000000
     0.00000000     0.00000000     0.00000000
     0.00000000     0.00000000     0.00000000
     0.00000000     0.00000000     0.00000000
     0.00000000     0.00000000     0.00000000
     0.00000000     0.00000000     0.00000000
     0.00000000     0.00000000     0.00000000
     0.00000000     0.00000000     0.00000000
     0.00000000     0.00000000     0.00000000
     0.00000000     0.00000000     0.00000000
     0.00000000     0.00000000     0.00000000
     0.00000000     0.00000000     0.00000000
     0.00000000     0.00000000     0.00000000
     0.00000000     0.00000000     0.00000000
     0.00000000     0.00000000     0.00000000
     0.00000000     0.00000000     0.00000000
     0.00000000     0.00000000     0.00000000
     0.00000000     0.00000000     0.00000000
     0.00000000     0.00000000     0.00000000
     0.00000000     0.00000000     0.00000000
     0.00000000     0.00000000     0.00000000
     0.00000000     0.00000000     0.00000000
     0.00000000     0.00000000     0.00000000
     0.00000000     0.00000000     0.00000000
     0.00000000     0.00000000     0.00000000
     0.00000000     0.00000000     0.00000000
     0.00000000     0.00000000     0.00000000
     0.00000000     0.00000000     0.00000000
     0.00000000     0.00000000     0.00000000
     0.00000000     0.00000000     0.00000000
     0.00000000     0.00000000     0.00000000
     0.00000000     0.00000000     0.00000000
     0.00000000     0.00000000     0.00000000
     0.00000000     0.00000000     0.00000000
     0.00000000     0.00000000     0.00000000
     0.00000000     0.00000000     0.00000000
     0.00000000     0.00000000     0.00000000
     0.00000000     0.00000000     0.00000000
     0.00000000     0.00000000     0.00000000
     0.00000000     0.00000000     0.00000000
     0.00000000     0.00000000     0.00000000
     0.00000000     0.00000000     0.00000000
     0.00000000     0.00000000     0.00000000
     0.00000000     0.00000000     0.00000000
     0.00000000     0.00000000     0.00000000
     0.00000000     0.00000000     0.00000000
     0.00000000     0.00000000     0.00000000
     0.00000000     0.00000000     0.00000000
     0.00000000     0.00000000     0.00000000
     0.00000000     0.00000000     0.00000000
     0.00000000     0.00000000     0.00000000
     0.00000000     0.00000000     0.00000000
     0.00000000     0.00000000     0.00000000
     0.00000000     0.00000000     0.00000000
     0.00000000     0.00000000     0.00000000
     0.00000000     0.00000000     0.00000000
     0.00000000     0.00000000     0.00000000
     0.00000000     0.00000000     0.00000000
     0.00000000     0.00000000     0.00000000
     0.00000000     0.00000000     0.00000000
     0.00000000     0.00000000     0.00000000
     0.00000000     0.00000000     0.00000000
     0.00000000     0.00000000     0.00000000
     0.00000000     0.00000000     0.00000000
     0.00000000     0.00000000     0.00000000
     0.00000000     0.00000000     0.00000000
     0.00000000     0.00000000     0.00000000
     0.00000000     0.00000000     0.00000000
     0.00000000     0.00000000     0.00000000
     0.00000000     0.00000000     0.00000000
     0.00000000     0.00000000     0.00000000
     0.00000000     0.00000000     0.00000000
     0.00000000     0.00000000     0.00000000
     0.00000000     0.00000000     0.00000000
     0.00000000     0.00000000     0.00000000
     0.00000000     0.00000000     0.00000000
     0.00000000     0.00000000     0.00000000
     0.00000000     0.00000000     0.00000000
     0.00000000     0.00000000     0.00000000
     0.00000000     0.00000000     0.00000000
     0.00000000     0.00000000     0.00000000
     0.00000000     0.00000000     0.00000000
     0.00000000     0.00000000     0.00000000
     0.00000000     0.00000000     0.00000000
     0.00000000     0.00000000     0.00000000
     0.00000000     0.00000000     0.00000000
     0.00000000     0.00000000     0.00000000
     0.00000000     0.00000000     0.00000000
     0.00000000     0.00000000     0.00000000
     0.00000000     0.00000000     0.00000000
     0.00000000     0.00000000     0.00000000
     0.00000000     0.00000000     0.00000000
     0.00000000     0.00000000     0.00000000
     0.00000000     0.00000000     0.00000000
     0.00000000     0.00000000     0.00000000
     0.00000000     0.00000000     0.00000000
     0.00000000     0.00000000     0.00000000
     0.00000000     0.00000000     0.00000000
     0.00000000     0.00000000     0.00000000
     0.00000000     0.00000000     0.00000000
     0.00000000     0.00000000     0.00000000
     0.00000000     0.00000000     0.00000000
     0.00000000     0.00000000     0.00000000
     0.00000000     0.00000000     0.00000000
     0.00000000     0.00000000     0.00000000
     0.00000000     0.00000000     0.00000000
     0.00000000     0.00000000     0.00000000
     0.00000000     0.00000000     0.00000000
     0.00000000     0.00000000     0.00000000
     0.00000000     0.00000000     0.00000000
     0.00000000     0.00000000     0.00000000
     0.00000000     0.00000000     0.00000000
     0.00000000     0.00000000     0.00000000
     0.00000000     0.00000000     0.00000000
     0.00000000     0.00000000     0.00000000
     0.00000000     0.00000000     0.00000000
     0.00000000     0.00000000     0.00000000
     0.00000000     0.00000000     0.00000000
     0.00000000     0.00000000     0.00000000
     0.00000000     0.00000000     0.00000000
     0.00000000     0.00000000     0.00000000
     0.00000000     0.00000000     0.00000000
     0.00000000     0.00000000     0.00000000
     0.00000000     0.00000000     0.00000000
     0.00000000     0.00000000     0.00000000
     0.00000000     0.00000000     0.00000000
     0.00000000     0.00000000     0.00000000
     0.00000000     0.00000000     0.00000000
     0.00000000     0.00000000     0.00000000
     0.00000000     0.00000000     0.00000000
     0.00000000     0.00000000     0.00000000
     0.00000000     0.00000000     0.00000000
     0.00000000     0.00000000     0.00000000
     0.00000000     0.00000000     0.00000000
     0.00000000     0.00000000     0.00000000
     0.00000000     0.00000000     0.00000000
     0.00000000     0.00000000     0.00000000
     0.00000000     0.00000000     0.00000000
     0.00000000     0.00000000     0.00000000
     0.00000000     0.00000000     0.00000000
     0.00000000     0.00000000     0.00000000
     0.00000000     0.00000000     0.00000000
     0.00000000     0.00000000     0.00000000
     0.00000000     0.00000000     0.00000000
     0.00000000     0.00000000     0.00000000
     0.00000000     0.00000000     0.00000000
     0.00000000     0.00000000     0.00000000
     0.00000000     0.00000000     0.00000000
     0.00000000     0.00000000     0.00000000
     0.00000000     0.00000000     0.00000000
     0.00000000     0.00000000     0.00000000
     0.00000000     0.00000000     0.00000000
     0.00000000     0.00000000     0.00000000
     0.00000000     0.00000000     0.00000000
     0.00000000     0.00000000     0.00000000
     0.00000000     0.00000000     0.00000000
     0.00000000     0.00000000     0.00000000
     0.00000000     0.00000000     0.00000000
     0.00000000     0.00000000     0.00000000
     0.00000000     0.00000000     0.00000000
     0.00000000     0.00000000     0.00000000
     0.00000000     0.00000000     0.00000000
     0.00000000     0.00000000     0.00000000
     0.00000000     0.00000000     0.00000000
     0.00000000     0.00000000     0.00000000
     0.00000000     0.00000000     0.00000000
     0.00000000     0.00000000     0.00000000
     0.00000000     0.00000000     0.00000000
     0.00000000     0.00000000     0.00000000
     0.00000000     0.00000000     0.00000000
     0.00000000     0.00000000     0.00000000
     0.00000000     0.00000000     0.00000000
     0.00000000     0.00000000     0.00000000
     0.00000000     0.00000000     0.00000000
     0.00000000     0.00000000     0.00000000
     0.00000000     0.00000000     0.00000000
     0.00000000     0.00000000     0.00000000
     0.00000000     0.00000000     0.00000000
     0.00000000     0.00000000     0.00000000
     0.00000000     0.00000000     0.00000000
     0.00000000     0.00000000     0.00000000
     0.00000000     0.00000000     0.00000000
     0.00000000     0.00000000     0.00000000
     0.00000000     0.00000000     0.00000000
     0.00000000     0.00000000     0.00000000
     0.00000000     0.00000000     0.00000000
     0.00000000     0.00000000     0.00000000
     0.00000000     0.00000000     0.00000000
     0.00000000     0.00000000     0.00000000
     0.00000000     0.00000000     0.00000000
     0.00000000     0.00000000     0.00000000
     0.00000000     0.00000000     0.00000000
     0.00000000     0.00000000     0.00000000
     0.00000000     0.00000000     0.00000000
     0.00000000     0.00000000     0.00000000
     0.00000000     0.00000000     0.00000000
     0.00000000     0.00000000     0.00000000
     0.00000000     0.00000000     0.00000000
     0.00000000     0.00000000     0.00000000
     0.00000000     0.00000000     0.00000000
     0.00000000     0.00000000     0.00000000
     0.00000000     0.00000000     0.00000000
     0.00000000     0.00000000     0.00000000
     0.00000000     0.00000000     0.00000000
     0.00000000     0.00000000     0.00000000
     0.00000000     0.00000000     0.00000000
     0.00000000     0.00000000     0.00000000
     0.00000000     0.00000000     0.00000000
     0.00000000     0.00000000     0.00000000
     0.00000000     0.00000000     0.00000000
     0.00000000     0.00000000     0.00000000
     0.00000000     0.00000000     0.00000000
     0.00000000     0.00000000     0.00000000
     0.00000000     0.00000000     0.00000000
     0.00000000     0.00000000     0.00000000
     0.00000000     0.00000000     0.00000000
     0.00000000     0.00000000     0.00000000
     0.00000000     0.00000000     0.00000000
     0.00000000     0.00000000     0.00000000
     0.00000000     0.00000000     0.00000000
     0.00000000     0.00000000     0.00000000
     0.00000000     0.00000000     0.00000000
     0.00000000     0.00000000     0.00000000
     0.00000000     0.00000000     0.00000000
     0.00000000     0.00000000     0.00000000
     0.00000000     0.00000000     0.00000000
     0.00000000     0.00000000     0.00000000
     0.00000000     0.00000000     0.00000000
     0.00000000     0.00000000     0.00000000
     0.00000000     0.00000000     0.00000000
     0.00000000     0.00000000     0.00000000
     0.00000000     0.00000000     0.00000000
     0.00000000     0.00000000     0.00000000
     0.00000000     0.00000000     0.00000000
     0.00000000     0.00000000     0.00000000
     0.00000000     0.00000000     0.00000000
     0.00000000     0.00000000     0.00000000
     0.00000000     0.00000000     0.00000000
     0.00000000     0.00000000     0.00000000
     0.00000000     0.00000000     0.00000000
     0.00000000     0.00000000     0.00000000
     0.00000000     0.00000000     0.00000000
     0.00000000     0.00000000     0.00000000
     0.00000000     0.00000000     0.00000000
     0.00000000     0.00000000     0.00000000
     0.00000000     0.00000000     0.00000000
     0.00000000     0.00000000     0.00000000
     0.00000000     0.00000000     0.00000000
     0.00000000     0.00000000     0.00000000
     0.00000000     0.00000000     0.00000000
     0.00000000     0.00000000     0.00000000
     0.00000000     0.00000000     0.00000000
     0.00000000     0.00000000     0.00000000
     0.00000000     0.00000000     0.00000000
     0.00000000     0.00000000     0.00000000
     0.00000000     0.00000000     0.00000000
     0.00000000     0.00000000     0.00000000
     0.00000000     0.00000000     0.00000000
     0.00000000     0.00000000     0.00000000
     0.00000000     0.00000000     0.00000000
     0.00000000     0.00000000     0.00000000
     0.00000000     0.00000000     0.00000000
     0.00000000     0.00000000     0.00000000
     0.00000000     0.00000000     0.00000000
     0.00000000     0.00000000     0.00000000
     0.00000000     0.00000000     0.00000000
     0.00000000     0.00000000     0.00000000
     0.00000000     0.00000000     0.00000000
     0.00000000     0.00000000     0.00000000
     0.00000000     0.00000000     0.00000000
     0.00000000     0.00000000     0.00000000
     0.00000000     0.00000000     0.00000000
     0.00000000     0.00000000     0.00000000
     0.00000000     0.00000000     0.00000000
     0.00000000     0.00000000     0.00000000
     0.00000000     0.00000000     0.00000000
     0.00000000     0.00000000     0.00000000
     0.00000000     0.00000000     0.00000000
     0.00000000     0.00000000     0.00000000
     0.00000000     0.00000000     0.00000000
     0.00000000     0.00000000     0.00000000
     0.00000000     0.00000000     0.00000000
     0.00000000     0.00000000     0.00000000
     0.00000000     0.00000000     0.00000000
     0.00000000     0.00000000     0.00000000
     0.00000000     0.00000000     0.00000000
     0.00000000     0.00000000     0.00000000
     0.00000000     0.00000000     0.00000000
     0.00000000     0.00000000     0.00000000
     0.00000000     0.00000000     0.00000000
     0.00000000     0.00000000     0.00000000
     0.00000000     0.00000000     0.00000000
     0.00000000     0.00000000     0.00000000
     0.00000000     0.00000000     0.00000000
     0.00000000     0.00000000     0.00000000
     0.00000000     0.00000000     0.00000000
     0.00000000     0.00000000     0.00000000
     0.00000000     0.00000000     0.00000000
     0.00000000     0.00000000     0.00000000
     0.00000000     0.00000000     0.00000000
     0.00000000     0.00000000     0.00000000
     0.00000000     0.00000000     0.00000000
     0.00000000     0.00000000     0.00000000
     0.00000000     0.00000000     0.00000000
     0.00000000     0.00000000     0.00000000
     0.00000000     0.00000000     0.00000000
     0.00000000     0.00000000     0.00000000
     0.00000000     0.00000000     0.00000000
     0.00000000     0.00000000     0.00000000
     0.00000000     0.00000000     0.00000000
     0.00000000     0.00000000     0.00000000
     0.00000000     0.00000000     0.00000000
     0.00000000     0.00000000     0.00000000
     0.00000000     0.00000000     0.00000000
     0.00000000     0.00000000     0.00000000
     0.00000000     0.00000000     0.00000000
     0.00000000     0.00000000     0.00000000
     0.00000000     0.00000000     0.00000000
     0.00000000     0.00000000     0.00000000
     0.00000000     0.00000000     0.00000000
     0.00000000     0.00000000     0.00000000
     0.00000000     0.00000000     0.00000000
     0.00000000     0.00000000     0.00000000
     0.00000000     0.00000000     0.00000000
     0.00000000     0.00000000     0.00000000
     0.00000000     0.00000000     0.00000000
     0.00000000     0.00000000     0.00000000
     0.00000000     0.00000000     0.00000000
     0.00000000     0.00000000     0.00000000
     0.00000000     0.00000000     0.00000000
     0.00000000     0.00000000     0.00000000
     0.00000000     0.00000000     0.00000000
     0.00000000     0.00000000     0.00000000
     0.00000000     0.00000000     0.00000000
     0.00000000     0.00000000     0.00000000
     0.00000000     0.00000000     0.00000000
     0.00000000     0.00000000     0.00000000
     0.00000000     0.00000000     0.00000000
     0.00000000     0.00000000     0.00000000
     0.00000000     0.00000000     0.00000000
     0.00000000     0.00000000     0.00000000
     0.00000000     0.00000000     0.00000000
     0.00000000     0.00000000     0.00000000
     0.00000000     0.00000000     0.00000000
     0.00000000     0.00000000     0.00000000
     0.00000000     0.00000000     0.00000000
     0.00000000     0.00000000     0.00000000
     0.00000000     0.00000000     0.00000000
     0.00000000     0.00000000     0.00000000
     0.00000000     0.00000000     0.00000000
     0.00000000     0.00000000     0.00000000
     0.00000000     0.00000000     0.00000000
     0.00000000     0.00000000     0.00000000
     0.00000000     0.00000000     0.00000000
     0.00000000     0.00000000     0.00000000
     0.00000000     0.00000000     0.00000000
     0.00000000     0.00000000     0.00000000
     0.00000000     0.00000000     0.00000000
     0.00000000     0.00000000     0.00000000
     0.00000000     0.00000000     0.00000000
     0.00000000     0.00000000     0.00000000
     0.00000000     0.00000000     0.00000000
     0.00000000     0.00000000     0.00000000
     0.00000000     0.00000000     0.00000000
     0.00000000     0.00000000     0.00000000
     0.00000000     0.00000000     0.00000000
     0.00000000     0.00000000     0.00000000
     0.00000000     0.00000000     0.00000000
     0.00000000     0.00000000     0.00000000
     0.00000000     0.00000000     0.00000000
     0.00000000     0.00000000     0.00000000
     0.00000000     0.00000000     0.00000000
     0.00000000     0.00000000     0.00000000
     0.00000000     0.00000000     0.00000000
     0.00000000     0.00000000     0.00000000
     0.00000000     0.00000000     0.00000000
     0.00000000     0.00000000     0.00000000
     0.00000000     0.00000000     0.00000000
     0.00000000     0.00000000     0.00000000
     0.00000000     0.00000000     0.00000000
     0.00000000     0.00000000     0.00000000
     0.00000000     0.00000000     0.00000000
     0.00000000     0.00000000     0.00000000
     0.00000000     0.00000000     0.00000000
     0.00000000     0.00000000     0.00000000
     0.00000000     0.00000000     0.00000000
     0.00000000     0.00000000     0.00000000
     0.00000000     0.00000000     0.00000000
     0.00000000     0.00000000     0.00000000
     0.00000000     0.00000000     0.00000000
     0.00000000     0.00000000     0.00000000
     0.00000000     0.00000000     0.00000000
     0.00000000     0.00000000     0.00000000
     0.00000000     0.00000000     0.00000000
     0.00000000     0.00000000     0.00000000
     0.00000000     0.00000000     0.00000000
     0.00000000     0.00000000     0.00000000
     0.00000000     0.00000000     0.00000000
     0.00000000     0.00000000     0.00000000
     0.00000000     0.00000000     0.00000000
     0.00000000     0.00000000     0.00000000
     0.00000000     0.00000000     0.00000000
     0.00000000     0.00000000     0.00000000
     0.00000000     0.00000000     0.00000000
     0.00000000     0.00000000     0.00000000
     0.00000000     0.00000000     0.00000000
     0.00000000     0.00000000     0.00000000
     0.00000000     0.00000000     0.00000000
     0.00000000     0.00000000     0.00000000
     0.00000000     0.00000000     0.00000000
     0.00000000     0.00000000     0.00000000
     0.00000000     0.00000000     0.00000000
     0.00000000     0.00000000     0.00000000
     0.00000000     0.00000000     0.00000000
     0.00000000     0.00000000     0.00000000
     0.00000000     0.00000000     0.00000000
     0.00000000     0.00000000     0.00000000
     0.00000000     0.00000000     0.00000000
     0.00000000     0.00000000     0.00000000
     0.00000000     0.00000000     0.00000000
     0.00000000     0.00000000     0.00000000
     0.00000000     0.00000000     0.00000000
     0.00000000     0.00000000     0.00000000
     0.00000000     0.00000000     0.00000000
     0.00000000     0.00000000     0.00000000
     0.00000000     0.00000000     0.00000000
     0.00000000     0.00000000     0.00000000
     0.00000000     0.00000000     0.00000000
     0.00000000     0.00000000     0.00000000
     0.00000000     0.00000000     0.00000000
     0.00000000     0.00000000     0.00000000
     0.00000000     0.00000000     0.00000000
     0.00000000     0.00000000     0.00000000
     0.00000000     0.00000000     0.00000000
     0.00000000     0.00000000     0.00000000
     0.00000000     0.00000000     0.00000000
     0.00000000     0.00000000     0.00000000
     0.00000000     0.00000000     0.00000000
     0.00000000     0.00000000     0.00000000
     0.00000000     0.00000000     0.00000000
     0.00000000     0.00000000     0.00000000
     0.00000000     0.00000000     0.00000000
     0.00000000     0.00000000     0.00000000
     0.00000000     0.00000000     0.00000000
     0.00000000     0.00000000     0.00000000
     0.00000000     0.00000000     0.00000000
     0.00000000     0.00000000     0.00000000
     0.00000000     0.00000000     0.00000000
     0.00000000     0.00000000     0.00000000
     0.00000000     0.00000000     0.00000000
     0.00000000     0.00000000     0.00000000
     0.00000000     0.00000000     0.00000000
     0.00000000     0.00000000     0.00000000
     0.00000000     0.00000000     0.00000000
     0.00000000     0.00000000     0.00000000
     0.00000000     0.00000000     0.00000000
     0.00000000     0.00000000     0.00000000
     0.00000000     0.00000000     0.00000000
     0.00000000     0.00000000     0.00000000
     0.00000000     0.00000000     0.00000000
     0.00000000     0.00000000     0.00000000
     0.00000000     0.00000000     0.00000000
     0.00000000     0.00000000     0.00000000
     0.00000000     0.00000000     0.00000000
     0.00000000     0.00000000     0.00000000
     0.00000000     0.00000000     0.00000000
     0.00000000     0.00000000     0.00000000
     0.00000000     0.00000000     0.00000000
     0.00000000     0.00000000     0.00000000
     0.00000000     0.00000000     0.00000000
     0.00000000     0.00000000     0.00000000
     0.00000000     0.00000000     0.00000000
     0.00000000     0.00000000     0.00000000
     0.00000000     0.00000000     0.00000000
     0.00000000     0.00000000     0.00000000
     0.00000000     0.00000000     0.00000000
     0.00000000     0.00000000     0.00000000
     0.00000000     0.00000000     0.00000000
     0.00000000     0.00000000     0.00000000
     0.00000000     0.00000000     0.00000000
     0.00000000     0.00000000     0.00000000
     0.00000000     0.00000000     0.00000000
     0.00000000     0.00000000     0.00000000
     0.00000000     0.00000000     0.00000000
     0.00000000     0.00000000     0.00000000
     0.00000000     0.00000000     0.00000000
     0.00000000     0.00000000     0.00000000
     0.00000000     0.00000000     0.00000000
     0.00000000     0.00000000     0.00000000
     0.00000000     0.00000000     0.00000000
     0.00000000     0.00000000     0.00000000
     0.00000000     0.00000000     0.00000000
     0.00000000     0.00000000     0.00000000
     0.00000000     0.00000000     0.00000000
     0.00000000     0.00000000     0.00000000
     0.00000000     0.00000000     0.00000000
     0.00000000     0.00000000     0.00000000
     0.00000000     0.00000000     0.00000000
     0.00000000     0.00000000     0.00000000
     0.00000000     0.00000000     0.00000000
     0.00000000     0.00000000     0.00000000
     0.00000000     0.00000000     0.00000000
     0.00000000     0.00000000     0.00000000
     0.00000000     0.00000000     0.00000000
     0.00000000     0.00000000     0.00000000
     0.00000000     0.00000000     0.00000000
     0.00000000     0.00000000     0.00000000
     0.00000000     0.00000000     0.00000000
     0.00000000     0.00000000     0.00000000
     0.00000000     0.00000000     0.00000000
     0.00000000     0.00000000     0.00000000
     0.00000000     0.00000000     0.00000000
     0.00000000     0.00000000     0.00000000
     0.00000000     0.00000000     0.00000000
     0.00000000     0.00000000     0.00000000
     0.00000000     0.00000000     0.00000000
     0.00000000     0.00000000     0.00000000
     0.00000000     0.00000000     0.00000000
     0.00000000     0.00000000     0.00000000
     0.00000000     0.00000000     0.00000000
     0.00000000     0.00000000     0.00000000
     0.00000000     0.00000000     0.00000000
     0.00000000     0.00000000     0.00000000
     0.00000000     0.00000000     0.00000000
     0.00000000     0.00000000     0.00000000
     0.00000000     0.00000000     0.00000000
     0.00000000     0.00000000     0.00000000
     0.00000000     0.00000000     0.00000000
     0.00000000     0.00000000     0.00000000
     0.00000000     0.00000000     0.00000000
     0.00000000     0.00000000     0.00000000
     0.00000000     0.00000000     0.00000000
     0.00000000     0.00000000     0.00000000
     0.00000000     0.00000000     0.00000000
     0.00000000     0.00000000     0.00000000
     0.00000000     0.00000000     0.00000000
     0.00000000     0.00000000     0.00000000
     0.00000000     0.00000000     0.00000000
     0.00000000     0.00000000     0.00000000
     0.00000000     0.00000000     0.00000000
     0.00000000     0.00000000     0.00000000
     0.00000000     0.00000000     0.00000000
     0.00000000     0.00000000     0.00000000
     0.00000000     0.00000000     0.00000000
     0.00000000     0.00000000     0.00000000
     0.00000000     0.00000000     0.00000000
     0.00000000     0.00000000     0.00000000
     0.00000000     0.00000000     0.00000000
     0.00000000     0.00000000     0.00000000
     0.00000000     0.00000000     0.00000000
     0.00000000     0.00000000     0.00000000
     0.00000000     0.00000000     0.00000000
     0.00000000     0.00000000     0.00000000
     0.00000000     0.00000000     0.00000000
     0.00000000     0.00000000     0.00000000
     0.00000000     0.00000000     0.00000000
     0.00000000     0.00000000     0.00000000
     0.00000000     0.00000000     0.00000000
     0.00000000     0.00000000     0.00000000
     0.00000000     0.00000000     0.00000000
     0.00000000     0.00000000     0.00000000
     0.00000000     0.00000000     0.00000000
     0.00000000     0.00000000     0.00000000
     0.00000000     0.00000000     0.00000000
     0.00000000     0.00000000     0.00000000
     0.00000000     0.00000000     0.00000000
     0.00000000     0.00000000     0.00000000
     0.00000000     0.00000000     0.00000000
     0.00000000     0.00000000     0.00000000
     0.00000000     0.00000000     0.00000000
     0.00000000     0.00000000     0.00000000
     0.00000000     0.00000000     0.00000000
     0.00000000     0.00000000     0.00000000
     0.00000000     0.00000000     0.00000000
     0.00000000     0.00000000     0.00000000
     0.00000000     0.00000000     0.00000000
     0.00000000     0.00000000     0.00000000
     0.00000000     0.00000000     0.00000000
     0.00000000     0.00000000     0.00000000
     0.00000000     0.00000000     0.00000000
     0.00000000     0.00000000     0.00000000
     0.00000000     0.00000000     0.00000000
     0.00000000     0.00000000     0.00000000
     0.00000000     0.00000000     0.00000000
     0.00000000     0.00000000     0.00000000
     0.00000000     0.00000000     0.00000000
     0.00000000     0.00000000     0.00000000
     0.00000000     0.00000000     0.00000000
     0.00000000     0.00000000     0.00000000
     0.00000000     0.00000000     0.00000000
     0.00000000     0.00000000     0.00000000
     0.00000000     0.00000000     0.00000000
     0.00000000     0.00000000     0.00000000
     0.00000000     0.00000000     0.00000000
     0.00000000     0.00000000     0.00000000
     0.00000000     0.00000000     0.00000000
     0.00000000     0.00000000     0.00000000
     0.00000000     0.00000000     0.00000000
     0.00000000     0.00000000     0.00000000
     0.00000000     0.00000000     0.00000000
     0.00000000     0.00000000     0.00000000
     0.00000000     0.00000000     0.00000000
     0.00000000     0.00000000     0.00000000
     0.00000000     0.00000000     0.00000000
     0.00000000     0.00000000     0.00000000
     0.00000000     0.00000000     0.00000000
     0.00000000     0.00000000     0.00000000
     0.00000000     0.00000000     0.00000000
     0.00000000     0.00000000     0.00000000
     0.00000000     0.00000000     0.00000000
     0.00000000     0.00000000     0.00000000
     0.00000000     0.00000000     0.00000000
     0.00000000     0.00000000     0.00000000
     0.00000000     0.00000000     0.00000000
     0.00000000     0.00000000     0.00000000
     0.00000000     0.00000000     0.00000000
     0.00000000     0.00000000     0.00000000
     0.00000000     0.00000000     0.00000000
     0.00000000     0.00000000     0.00000000
     0.00000000     0.00000000     0.00000000
     0.00000000     0.00000000     0.00000000
     0.00000000     0.00000000     0.00000000
     0.00000000     0.00000000     0.00000000
     0.00000000     0.00000000     0.00000000
     0.00000000     0.00000000     0.00000000
     0.00000000     0.00000000     0.00000000
     0.00000000     0.00000000     0.00000000
     0.00000000     0.00000000     0.00000000
     0.00000000     0.00000000     0.00000000
     0.00000000     0.00000000     0.00000000
     0.00000000     0.00000000     0.00000000
     0.00000000     0.00000000     0.00000000
     0.00000000     0.00000000     0.00000000
     0.00000000     0.00000000     0.00000000
     0.00000000     0.00000000     0.00000000
     0.00000000     0.00000000     0.00000000
     0.00000000     0.00000000     0.00000000
     0.00000000     0.00000000     0.00000000
     0.00000000     0.00000000     0.00000000
     0.00000000     0.00000000     0.00000000
     0.00000000     0.00000000     0.00000000
     0.00000000     0.00000000     0.00000000
     0.00000000     0.00000000     0.00000000
     0.00000000     0.00000000     0.00000000
     0.00000000     0.00000000     0.00000000
     0.00000000     0.00000000     0.00000000
     0.00000000     0.00000000     0.00000000
     0.00000000     0.00000000     0.00000000
     0.00000000     0.00000000     0.00000000
     0.00000000     0.00000000     0.00000000
     0.00000000     0.00000000     0.00000000
     0.00000000     0.00000000     0.00000000
     0.00000000     0.00000000     0.00000000
     0.00000000     0.00000000     0.00000000
     0.00000000     0.00000000     0.00000000
     0.00000000     0.00000000     0.00000000
     0.00000000     0.00000000     0.00000000
     0.00000000     0.00000000     0.00000000
     0.00000000     0.00000000     0.00000000
     0.00000000     0.00000000     0.00000000
     0.00000000     0.00000000     0.00000000
     0.00000000     0.00000000     0.00000000
     0.00000000     0.00000000     0.00000000
     0.00000000     0.00000000     0.00000000
     0.00000000     0.00000000     0.00000000
     0.00000000     0.00000000     0.00000000
     0.00000000     0.00000000     0.00000000
     0.00000000     0.00000000     0.00000000
     0.00000000     0.00000000     0.00000000
     0.00000000     0.00000000     0.00000000
     0.00000000     0.00000000     0.00000000
     0.00000000     0.00000000     0.00000000
     0.00000000     0.00000000     0.00000000
     0.00000000     0.00000000     0.00000000
     0.00000000     0.00000000     0.00000000
     0.00000000     0.00000000     0.00000000
     0.00000000     0.00000000     0.00000000
     0.00000000     0.00000000     0.00000000
     0.00000000     0.00000000     0.00000000
     0.00000000     0.00000000     0.00000000
     0.00000000     0.00000000     0.00000000
     0.00000000     0.00000000     0.00000000
     0.00000000     0.00000000     0.00000000
     0.00000000     0.00000000     0.00000000
     0.00000000     0.00000000     0.00000000
     0.00000000     0.00000000     0.00000000
     0.00000000     0.00000000     0.00000000
     0.00000000     0.00000000     0.00000000
     0.00000000     0.00000000     0.00000000
     0.00000000     0.00000000     0.00000000
     0.00000000     0.00000000     0.00000000
     0.00000000     0.00000000     0.00000000
     0.00000000     0.00000000     0.00000000
     0.00000000     0.00000000     0.00000000
     0.00000000     0.00000000     0.00000000
     0.00000000     0.00000000     0.00000000
     0.00000000     0.00000000     0.00000000
     0.00000000     0.00000000     0.00000000
     0.00000000     0.00000000     0.00000000
     0.00000000     0.00000000     0.00000000
     0.00000000     0.00000000     0.00000000
     0.00000000     0.00000000     0.00000000
     0.00000000     0.00000000     0.00000000
     0.00000000     0.00000000     0.00000000
     0.00000000     0.00000000     0.00000000
     0.00000000     0.00000000     0.00000000
     0.00000000     0.00000000     0.00000000
     0.00000000     0.00000000     0.00000000
     0.00000000     0.00000000     0.00000000
     0.00000000     0.00000000     0.00000000
     0.00000000     0.00000000     0.00000000
     0.00000000     0.00000000     0.00000000
     0.00000000     0.00000000     0.00000000
     0.00000000     0.00000000     0.00000000
     0.00000000     0.00000000     0.00000000
     0.00000000     0.00000000     0.00000000
     0.00000000     0.00000000     0.00000000
     0.00000000     0.00000000     0.00000000
     0.00000000     0.00000000     0.00000000
     0.00000000     0.00000000     0.00000000
     0.00000000     0.00000000     0.00000000
     0.00000000     0.00000000     0.00000000
     0.00000000     0.00000000     0.00000000
     0.00000000     0.00000000     0.00000000
     0.00000000     0.00000000     0.00000000
     0.00000000     0.00000000     0.00000000
     0.00000000     0.00000000     0.00000000
     0.00000000     0.00000000     0.00000000
     0.00000000     0.00000000     0.00000000
     0.00000000     0.00000000     0.00000000
     0.00000000     0.00000000     0.00000000
     0.00000000     0.00000000     0.00000000
     0.00000000     0.00000000     0.00000000
     0.00000000     0.00000000     0.00000000
     0.00000000     0.00000000     0.00000000
     0.00000000     0.00000000     0.00000000
     0.00000000     0.00000000     0.00000000
     0.00000000     0.00000000     0.00000000
     0.00000000     0.00000000     0.00000000
     0.00000000     0.00000000     0.00000000
     0.00000000     0.00000000     0.00000000
     0.00000000     0.00000000     0.00000000
     0.00000000     0.00000000     0.00000000
     0.00000000     0.00000000     0.00000000
     0.00000000     0.00000000     0.00000000
     0.00000000     0.00000000     0.00000000
     0.00000000     0.00000000     0.00000000
     0.00000000     0.00000000     0.00000000
     0.00000000     0.00000000     0.00000000
     0.00000000     0.00000000     0.00000000
     0.00000000     0.00000000     0.00000000
     0.00000000     0.00000000     0.00000000
     0.00000000     0.00000000     0.00000000
     0.00000000     0.00000000     0.00000000
     0.00000000     0.00000000     0.00000000
     0.00000000     0.00000000     0.00000000
     0.00000000     0.00000000     0.00000000
     0.00000000     0.00000000     0.00000000
     0.00000000     0.00000000     0.00000000
     0.00000000     0.00000000     0.00000000
     0.00000000     0.00000000     0.00000000
     0.00000000     0.00000000     0.00000000
     0.00000000     0.00000000     0.00000000
     0.00000000     0.00000000     0.00000000
     0.00000000     0.00000000     0.00000000
     0.00000000     0.00000000     0.00000000
     0.00000000     0.00000000     0.00000000
     0.00000000     0.00000000     0.00000000
     0.00000000     0.00000000     0.00000000
     0.00000000     0.00000000     0.00000000
     0.00000000     0.00000000     0.00000000
     0.00000000     0.00000000     0.00000000
     0.00000000     0.00000000     0.00000000
     0.00000000     0.00000000     0.00000000
     0.00000000     0.00000000     0.00000000
     0.00000000     0.00000000     0.00000000
     0.00000000     0.00000000     0.00000000
     0.00000000     0.00000000     0.00000000
     0.00000000     0.00000000     0.00000000
     0.00000000     0.00000000     0.00000000
     0.00000000     0.00000000     0.00000000
     0.00000000     0.00000000     0.00000000
     0.00000000     0.00000000     0.00000000
     0.00000000     0.00000000     0.00000000
     0.00000000     0.00000000     0.00000000
     0.00000000     0.00000000     0.00000000
     0.00000000     0.00000000     0.00000000
     0.00000000     0.00000000     0.00000000
     0.00000000     0.00000000     0.00000000
     0.00000000     0.00000000     0.00000000
     0.00000000     0.00000000     0.00000000
     0.00000000     0.00000000     0.00000000
     0.00000000     0.00000000     0.00000000
     0.00000000     0.00000000     0.00000000
     0.00000000     0.00000000     0.00000000
     0.00000000     0.00000000     0.00000000
     0.00000000     0.00000000     0.00000000
     0.00000000     0.00000000     0.00000000
     0.00000000     0.00000000     0.00000000
     0.00000000     0.00000000     0.00000000
     0.00000000     0.00000000     0.00000000
     0.00000000     0.00000000     0.00000000
     0.00000000     0.00000000     0.00000000
     0.00000000     0.00000000     0.00000000
     0.00000000     0.00000000     0.00000000
     0.00000000     0.00000000     0.00000000
     0.00000000     0.00000000     0.00000000
     0.00000000     0.00000000     0.00000000
     0.00000000     0.00000000     0.00000000
     0.00000000     0.00000000     0.00000000
     0.00000000     0.00000000     0.00000000
     0.00000000     0.00000000     0.00000000
     0.00000000     0.00000000     0.00000000
     0.00000000     0.00000000     0.00000000
     0.00000000     0.00000000     0.00000000
     0.00000000     0.00000000     0.00000000
     0.00000000     0.00000000     0.00000000
     0.00000000     0.00000000     0.00000000
     0.00000000     0.00000000     0.00000000
     0.00000000     0.00000000     0.00000000
     0.00000000     0.00000000     0.00000000
     0.00000000     0.00000000     0.00000000
     0.00000000     0.00000000     0.00000000
     0.00000000     0.00000000     0.00000000
     0.00000000     0.00000000     0.00000000
     0.00000000     0.00000000     0.00000000
     0.00000000     0.00000000     0.00000000
     0.00000000     0.00000000     0.00000000
     0.00000000     0.00000000     0.00000000
     0.00000000     0.00000000     0.00000000
     0.00000000     0.00000000     0.00000000
     0.00000000     0.00000000     0.00000000
     0.00000000     0.00000000     0.00000000
     0.00000000     0.00000000     0.00000000
     0.00000000     0.00000000     0.00000000
     0.00000000     0.00000000     0.00000000
     0.00000000     0.00000000     0.00000000
     0.00000000     0.00000000     0.00000000
     0.00000000     0.00000000     0.00000000
     0.00000000     0.00000000     0.00000000
     0.00000000     0.00000000     0.00000000
     0.00000000     0.00000000     0.00000000
     0.00000000     0.00000000     0.00000000
     0.00000000     0.00000000     0.00000000
     0.00000000     0.00000000     0.00000000
     0.00000000     0.00000000     0.00000000
     0.00000000     0.00000000     0.00000000
     0.00000000     0.00000000     0.00000000
     0.00000000     0.00000000     0.00000000
     0.00000000     0.00000000     0.00000000
     0.00000000     0.00000000     0.00000000
     0.00000000     0.00000000     0.00000000
     0.00000000     0.00000000     0.00000000
     0.00000000     0.00000000     0.00000000
     0.00000000     0.00000000     0.00000000
     0.00000000     0.00000000     0.00000000
     0.00000000     0.00000000     0.00000000
     0.00000000     0.00000000     0.00000000
     0.00000000     0.00000000     0.00000000
     0.00000000     0.00000000     0.00000000
     0.00000000     0.00000000     0.00000000
     0.00000000     0.00000000     0.00000000
     0.00000000     0.00000000     0.00000000
     0.00000000     0.00000000     0.00000000
     0.00000000     0.00000000     0.00000000
     0.00000000     0.00000000     0.00000000
     0.00000000     0.00000000     0.00000000
     0.00000000     0.00000000     0.00000000
     0.00000000     0.00000000     0.00000000
     0.00000000     0.00000000     0.00000000
     0.00000000     0.00000000     0.00000000
     0.00000000     0.00000000     0.00000000
     0.00000000     0.00000000     0.00000000
     0.00000000     0.00000000     0.00000000
     0.00000000     0.00000000     0.00000000
     0.00000000     0.00000000     0.00000000
     0.00000000     0.00000000     0.00000000
     0.00000000     0.00000000     0.00000000
     0.00000000     0.00000000     0.00000000
     0.00000000     0.00000000     0.00000000
     0.00000000     0.00000000     0.00000000
     0.00000000     0.00000000     0.00000000
     0.00000000     0.00000000     0.00000000
     0.00000000     0.00000000     0.00000000
     0.00000000     0.00000000     0.00000000
     0.00000000     0.00000000     0.00000000
     0.00000000     0.00000000     0.00000000
     0.00000000     0.00000000     0.00000000
     0.00000000     0.00000000     0.00000000
     0.00000000     0.00000000     0.00000000
     0.00000000     0.00000000     0.00000000
     0.00000000     0.00000000     0.00000000
     0.00000000     0.00000000     0.00000000
     0.00000000     0.00000000     0.00000000
     0.00000000     0.00000000     0.00000000
     0.00000000     0.00000000     0.00000000
     0.00000000     0.00000000     0.00000000
     0.00000000     0.00000000     0.00000000
     0.00000000     0.00000000     0.00000000
     0.00000000     0.00000000     0.00000000
     0.00000000     0.00000000     0.00000000
     0.00000000     0.00000000     0.00000000
     0.00000000     0.00000000     0.00000000
     0.00000000     0.00000000     0.00000000
     0.00000000     0.00000000     0.00000000
     0.00000000     0.00000000     0.00000000
     0.00000000     0.00000000     0.00000000
     0.00000000     0.00000000     0.00000000
     0.00000000     0.00000000     0.00000000
     0.00000000     0.00000000     0.00000000
     0.00000000     0.00000000     0.00000000
     0.00000000     0.00000000     0.00000000
     0.00000000     0.00000000     0.00000000
     0.00000000     0.00000000     0.00000000
     0.00000000     0.00000000     0.00000000
     0.00000000     0.00000000     0.00000000
     0.00000000     0.00000000     0.00000000
     0.00000000     0.00000000     0.00000000
     0.00000000     0.00000000     0.00000000
     0.00000000     0.00000000     0.00000000
     0.00000000     0.00000000     0.00000000
     0.00000000     0.00000000     0.00000000
     0.00000000     0.00000000     0.00000000
     0.00000000     0.00000000     0.00000000
     0.00000000     0.00000000     0.00000000
     0.00000000     0.00000000     0.00000000
     0.00000000     0.00000000     0.00000000
     0.00000000     0.00000000     0.00000000
     0.00000000     0.00000000     0.00000000
     0.00000000     0.00000000     0.00000000
     0.00000000     0.00000000     0.00000000
     0.00000000     0.00000000     0.00000000
     0.00000000     0.00000000     0.00000000
     0.00000000     0.00000000     0.00000000
     0.00000000     0.00000000     0.00000000
     0.00000000     0.00000000     0.00000000
     0.00000000     0.00000000     0.00000000
     0.00000000     0.00000000     0.00000000
     0.00000000     0.00000000     0.00000000
     0.00000000     0.00000000     0.00000000
     0.00000000     0.00000000     0.00000000
     0.00000000     0.00000000     0.00000000
     0.00000000     0.00000000     0.00000000
     0.00000000     0.00000000     0.00000000
     0.00000000     0.00000000     0.00000000
     0.00000000     0.00000000     0.00000000
     0.00000000     0.00000000     0.00000000
     0.00000000     0.00000000     0.00000000
     0.00000000     0.00000000     0.00000000
     0.00000000     0.00000000     0.00000000
     0.00000000     0.00000000     0.00000000
     0.00000000     0.00000000     0.00000000
     0.00000000     0.00000000     0.00000000
     0.00000000     0.00000000     0.00000000
     0.00000000     0.00000000     0.00000000
     0.00000000     0.00000000     0.00000000
     0.00000000     0.00000000     0.00000000
     0.00000000     0.00000000     0.00000000
     0.00000000     0.00000000     0.00000000
     0.00000000     0.00000000     0.00000000
     0.00000000     0.00000000     0.00000000
     0.00000000     0.00000000     0.00000000
     0.00000000     0.00000000     0.00000000
     0.00000000     0.00000000     0.00000000
     0.00000000     0.00000000     0.00000000
     0.00000000     0.00000000     0.00000000
     0.00000000     0.00000000     0.00000000
     0.00000000     0.00000000     0.00000000
     0.00000000     0.00000000     0.00000000
     0.00000000     0.00000000     0.00000000
     0.00000000     0.00000000     0.00000000
     0.00000000     0.00000000     0.00000000
     0.00000000     0.00000000     0.00000000
     0.00000000     0.00000000     0.00000000
     0.00000000     0.00000000     0.00000000
     0.00000000     0.00000000     0.00000000
     0.00000000     0.00000000     0.00000000
     0.00000000     0.00000000     0.00000000
     0.00000000     0.00000000     0.00000000
     0.00000000     0.00000000     0.00000000
     0.00000000     0.00000000     0.00000000
     0.00000000     0.00000000     0.00000000
     0.00000000     0.00000000     0.00000000
     0.00000000     0.00000000     0.00000000
     0.00000000     0.00000000     0.00000000
     0.00000000     0.00000000     0.00000000
     0.00000000     0.00000000     0.00000000
     0.00000000     0.00000000     0.00000000
     0.00000000     0.00000000     0.00000000
     0.00000000     0.00000000     0.00000000
     0.00000000     0.00000000     0.00000000
     0.00000000     0.00000000     0.00000000
     0.00000000     0.00000000     0.00000000
     0.00000000     0.00000000     0.00000000
     0.00000000     0.00000000     0.00000000
     0.00000000     0.00000000     0.00000000
     0.00000000     0.00000000     0.00000000
     0.00000000     0.00000000     0.00000000
     0.00000000     0.00000000     0.00000000
     0.00000000     0.00000000     0.00000000
     0.00000000     0.00000000     0.00000000
     0.00000000     0.00000000     0.00000000
     0.00000000     0.00000000     0.00000000
     0.00000000     0.00000000     0.00000000
     0.00000000     0.00000000     0.00000000
     0.00000000     0.00000000     0.00000000
     0.00000000     0.00000000     0.00000000
     0.00000000     0.00000000     0.00000000
     0.00000000     0.00000000     0.00000000
     0.00000000     0.00000000     0.00000000
     0.00000000     0.00000000     0.00000000
     0.00000000     0.00000000     0.00000000
     0.00000000     0.00000000     0.00000000
     0.00000000     0.00000000     0.00000000
     0.00000000     0.00000000     0.00000000
     0.00000000     0.00000000     0.00000000
     0.00000000     0.00000000     0.00000000
     0.00000000     0.00000000     0.00000000
     0.00000000     0.00000000     0.00000000
     0.00000000     0.00000000     0.00000000
     0.00000000     0.00000000     0.00000000
     0.00000000     0.00000000     0.00000000
     0.00000000     0.00000000     0.00000000
     0.00000000     0.00000000     0.00000000
     0.00000000     0.00000000     0.00000000
     0.00000000     0.00000000     0.00000000
     0.00000000     0.00000000     0.00000000
     0.00000000     0.00000000     0.00000000
     0.00000000     0.00000000     0.00000000
     0.00000000     0.00000000     0.00000000
     0.00000000     0.00000000     0.00000000
     0.00000000     0.00000000     0.00000000
     0.00000000     0.00000000     0.00000000
     0.00000000     0.00000000     0.00000000
     0.00000000     0.00000000     0.00000000
     0.00000000     0.00000000     0.00000000
     0.00000000     0.00000000     0.00000000
     0.00000000     0.00000000     0.00000000
     0.00000000     0.00000000     0.00000000
     0.00000000     0.00000000     0.00000000
     0.00000000     0.00000000     0.00000000
     0.00000000     0.00000000     0.00000000
     0.00000000     0.00000000     0.00000000
     0.00000000     0.00000000     0.00000000
     0.00000000     0.00000000     0.00000000
     0.00000000     0.00000000     0.00000000
     0.00000000     0.00000000     0.00000000
     0.00000000     0.00000000     0.00000000
     0.00000000     0.00000000     0.00000000
     0.00000000     0.00000000     0.00000000
     0.00000000     0.00000000     0.00000000
     0.00000000     0.00000000     0.00000000
     0.00000000     0.00000000     0.00000000
     0.00000000     0.00000000     0.00000000
     0.00000000     0.00000000     0.00000000
     0.00000000     0.00000000     0.00000000
     0.00000000     0.00000000     0.00000000
     0.00000000     0.00000000     0.00000000
     0.00000000     0.00000000     0.00000000
     0.00000000     0.00000000     0.00000000
     0.00000000     0.00000000     0.00000000
     0.00000000     0.00000000     0.00000000
     0.00000000     0.00000000     0.00000000
     0.00000000     0.00000000     0.00000000
     0.00000000     0.00000000     0.00000000
     0.00000000     0.00000000     0.00000000
     0.00000000     0.00000000     0.00000000
     0.00000000     0.00000000     0.00000000
     0.00000000     0.00000000     0.00000000
     0.00000000     0.00000000     0.00000000
     0.00000000     0.00000000     0.00000000
     0.00000000     0.00000000     0.00000000
     0.00000000     0.00000000     0.00000000
     0.00000000     0.00000000     0.00000000
     0.00000000     0.00000000     0.00000000
     0.00000000     0.00000000     0.00000000
     0.00000000     0.00000000     0.00000000
     0.00000000     0.00000000     0.00000000
     0.00000000     0.00000000     0.00000000
     0.00000000     0.00000000     0.00000000
     0.00000000     0.00000000     0.00000000
     0.00000000     0.00000000     0.00000000
     0.00000000     0.00000000     0.00000000
     0.00000000     0.00000000     0.00000000
     0.00000000     0.00000000     0.00000000
     0.00000000     0.00000000     0.00000000
     0.00000000     0.00000000     0.00000000
     0.00000000     0.00000000     0.00000000
     0.00000000     0.00000000     0.00000000
     0.00000000     0.00000000     0.00000000
     0.00000000     0.00000000     0.00000000
     0.00000000     0.00000000     0.00000000
     0.00000000     0.00000000     0.00000000
     0.00000000     0.00000000     0.00000000
     0.00000000     0.00000000     0.00000000
     0.00000000     0.00000000     0.00000000
     0.00000000     0.00000000     0.00000000
     0.00000000     0.00000000     0.00000000
     0.00000000     0.00000000     0.00000000
     0.00000000     0.00000000     0.00000000
     0.00000000     0.00000000     0.00000000
     0.00000000     0.00000000     0.00000000
     0.00000000     0.00000000     0.00000000
     0.00000000     0.00000000     0.00000000
     0.00000000     0.00000000     0.00000000
     0.00000000     0.00000000     0.00000000
     0.00000000     0.00000000     0.00000000
     0.00000000     0.00000000     0.00000000
     0.00000000     0.00000000     0.00000000
     0.00000000     0.00000000     0.00000000
     0.00000000     0.00000000     0.00000000
     0.00000000     0.00000000     0.00000000
     0.00000000     0.00000000     0.00000000
     0.00000000     0.00000000     0.00000000
     0.00000000     0.00000000     0.00000000
     0.00000000     0.00000000     0.00000000
     0.00000000     0.00000000     0.00000000
     0.00000000     0.00000000     0.00000000
     0.00000000     0.00000000     0.00000000
     0.00000000     0.00000000     0.00000000
     0.00000000     0.00000000     0.00000000
     0.00000000     0.00000000     0.00000000
     0.00000000     0.00000000     0.00000000
     0.00000000     0.00000000     0.00000000
     0.00000000     0.00000000     0.00000000
     0.00000000     0.00000000     0.00000000
     0.00000000     0.00000000     0.00000000
     0.00000000     0.00000000     0.00000000
     0.00000000     0.00000000     0.00000000
     0.00000000     0.00000000     0.00000000
     0.00000000     0.00000000     0.00000000
     0.00000000     0.00000000     0.00000000
     0.00000000     0.00000000     0.00000000
     0.00000000     0.00000000     0.00000000
     0.00000000     0.00000000     0.00000000
     0.00000000     0.00000000     0.00000000
     0.00000000     0.00000000     0.00000000
     0.00000000     0.00000000     0.00000000
     0.00000000     0.00000000     0.00000000
     0.00000000     0.00000000     0.00000000
     0.00000000     0.00000000     0.00000000
     0.00000000     0.00000000     0.00000000
     0.00000000     0.00000000     0.00000000
     0.00000000     0.00000000     0.00000000
     0.00000000     0.00000000     0.00000000
     0.00000000     0.00000000     0.00000000
     0.00000000     0.00000000     0.00000000
     0.00000000     0.00000000     0.00000000
     0.00000000     0.00000000     0.00000000
     0.00000000     0.00000000     0.00000000
     0.00000000     0.00000000     0.00000000
     0.00000000     0.00000000     0.00000000
     0.00000000     0.00000000     0.00000000
     0.00000000     0.00000000     0.00000000
     0.00000000     0.00000000     0.00000000
     0.00000000     0.00000000     0.00000000
     0.00000000     0.00000000     0.00000000
     0.00000000     0.00000000     0.00000000
     0.00000000     0.00000000     0.00000000
     0.00000000     0.00000000     0.00000000
     0.00000000     0.00000000     0.00000000
     0.00000000     0.00000000     0.00000000
     0.00000000     0.00000000     0.00000000
     0.00000000     0.00000000     0.00000000
     0.00000000     0.00000000     0.00000000
     0.00000000     0.00000000     0.00000000
     0.00000000     0.00000000     0.00000000
     0.00000000     0.00000000     0.00000000
     0.00000000     0.00000000     0.00000000
     0.00000000     0.00000000     0.00000000
     0.00000000     0.00000000     0.00000000
     0.00000000     0.00000000     0.00000000
     0.00000000     0.00000000     0.00000000
     0.00000000     0.00000000     0.00000000
     0.00000000     0.00000000     0.00000000
     0.00000000     0.00000000     0.00000000
     0.00000000     0.00000000     0.00000000
     0.00000000     0.00000000     0.00000000
     0.00000000     0.00000000     0.00000000
     0.00000000     0.00000000     0.00000000
     0.00000000     0.00000000     0.00000000
     0.00000000     0.00000000     0.00000000
     0.00000000     0.00000000     0.00000000
     0.00000000     0.00000000     0.00000000
     0.00000000     0.00000000     0.00000000
     0.00000000     0.00000000     0.00000000
     0.00000000     0.00000000     0.00000000
     0.00000000     0.00000000     0.00000000
     0.00000000     0.00000000     0.00000000
     0.00000000     0.00000000     0.00000000
     0.00000000     0.00000000     0.00000000
     0.00000000     0.00000000     0.00000000
     0.00000000     0.00000000     0.00000000
     0.00000000     0.00000000     0.00000000
     0.00000000     0.00000000     0.00000000
     0.00000000     0.00000000     0.00000000
     0.00000000     0.00000000     0.00000000
     0.00000000     0.00000000     0.00000000
     0.00000000     0.00000000     0.00000000
     0.00000000     0.00000000     0.00000000
     0.00000000     0.00000000     0.00000000
     0.00000000     0.00000000     0.00000000
     0.00000000     0.00000000     0.00000000
     0.00000000     0.00000000     0.00000000
     0.00000000     0.00000000     0.00000000
     0.00000000     0.00000000     0.00000000
     0.00000000     0.00000000     0.00000000
     0.00000000     0.00000000     0.00000000
     0.00000000     0.00000000     0.00000000
     0.00000000     0.00000000     0.00000000
     0.00000000     0.00000000     0.00000000
     0.00000000     0.00000000     0.00000000
     0.00000000     0.00000000     0.00000000
     0.00000000     0.00000000     0.00000000
     0.00000000     0.00000000     0.00000000
     0.00000000     0.00000000     0.00000000
     0.00000000     0.00000000     0.00000000
     0.00000000     0.00000000     0.00000000
     0.00000000     0.00000000     0.00000000
     0.00000000     0.00000000     0.00000000
     0.00000000     0.00000000     0.00000000
     0.00000000     0.00000000     0.00000000
     0.00000000     0.00000000     0.00000000
     0.00000000     0.00000000     0.00000000
     0.00000000     0.00000000     0.00000000
     0.00000000     0.00000000     0.00000000
     0.00000000     0.00000000     0.00000000
     0.00000000     0.00000000     0.00000000
     0.00000000     0.00000000     0.00000000
     0.00000000     0.00000000     0.00000000
     0.00000000     0.00000000     0.00000000
     0.00000000     0.00000000     0.00000000
     0.00000000     0.00000000     0.00000000
     0.00000000     0.00000000     0.00000000
     0.00000000     0.00000000     0.00000000
     0.00000000     0.00000000     0.00000000
     0.00000000     0.00000000     0.00000000
     0.00000000     0.00000000     0.00000000
     0.00000000     0.00000000     0.00000000
     0.00000000     0.00000000     0.00000000
     0.00000000     0.00000000     0.00000000
     0.00000000     0.00000000     0.00000000
     0.00000000     0.00000000     0.00000000
     0.00000000     0.00000000     0.00000000
     0.00000000     0.00000000     0.00000000
     0.00000000     0.00000000     0.00000000
     0.00000000     0.00000000     0.00000000
     0.00000000     0.00000000     0.00000000
     0.00000000     0.00000000     0.00000000
     0.00000000     0.00000000     0.00000000
     0.00000000     0.00000000     0.00000000
     0.00000000     0.00000000     0.00000000
     0.00000000     0.00000000     0.00000000
     0.00000000     0.00000000     0.00000000
     0.00000000     0.00000000     0.00000000
     0.00000000     0.00000000     0.00000000
     0.00000000     0.00000000     0.00000000
     0.00000000     0.00000000     0.00000000
     0.00000000     0.00000000     0.00000000
     0.00000000     0.00000000     0.00000000
     0.00000000     0.00000000     0.00000000
     0.00000000     0.00000000     0.00000000
     0.00000000     0.00000000     0.00000000
     0.00000000     0.00000000     0.00000000
     0.00000000     0.00000000     0.00000000
     0.00000000     0.00000000     0.00000000
     0.00000000     0.00000000     0.00000000
     0.00000000     0.00000000     0.00000000
     0.00000000     0.00000000     0.00000000
     0.00000000     0.00000000     0.00000000
     0.00000000     0.00000000     0.00000000
     0.00000000     0.00000000     0.00000000
     0.00000000     0.00000000     0.00000000
     0.00000000     0.00000000     0.00000000
     0.00000000     0.00000000     0.00000000
     0.00000000     0.00000000     0.00000000
     0.00000000     0.00000000     0.00000000
     0.00000000     0.00000000     0.00000000
     0.00000000     0.00000000     0.00000000
     0.00000000     0.00000000     0.00000000
     0.00000000     0.00000000     0.00000000
     0.00000000     0.00000000     0.00000000
     0.00000000     0.00000000     0.00000000
     0.00000000     0.00000000     0.00000000
     0.00000000     0.00000000     0.00000000
     0.00000000     0.00000000     0.00000000
     0.00000000     0.00000000     0.00000000
     0.00000000     0.00000000     0.00000000
     0.00000000     0.00000000     0.00000000
     0.00000000     0.00000000     0.00000000
     0.00000000     0.00000000     0.00000000
     0.00000000     0.00000000     0.00000000
     0.00000000     0.00000000     0.00000000
     0.00000000     0.00000000     0.00000000
     0.00000000     0.00000000     0.00000000
     0.00000000     0.00000000     0.00000000
     0.00000000     0.00000000     0.00000000
     0.00000000     0.00000000     0.00000000
     0.00000000     0.00000000     0.00000000
     0.00000000     0.00000000     0.00000000
     0.00000000     0.00000000     0.00000000
     0.00000000     0.00000000     0.00000000
     0.00000000     0.00000000     0.00000000
     0.00000000     0.00000000     0.00000000
     0.00000000     0.00000000     0.00000000
     0.00000000     0.00000000     0.00000000
     0.00000000     0.00000000     0.00000000
     0.00000000     0.00000000     0.00000000
     0.00000000     0.00000000     0.00000000
     0.00000000     0.00000000     0.00000000
     0.00000000     0.00000000     0.00000000
     0.00000000     0.00000000     0.00000000
     0.00000000     0.00000000     0.00000000
     0.00000000     0.00000000     0.00000000
     0.00000000     0.00000000     0.00000000
     0.00000000     0.00000000     0.00000000
     0.00000000     0.00000000     0.00000000
     0.00000000     0.00000000     0.00000000
     0.00000000     0.00000000     0.00000000
     0.00000000     0.00000000     0.00000000
     0.00000000     0.00000000     0.00000000
     0.00000000     0.00000000     0.00000000
     0.00000000     0.00000000     0.00000000
     0.00000000     0.00000000     0.00000000
     0.00000000     0.00000000     0.00000000
     0.00000000     0.00000000     0.00000000
     0.00000000     0.00000000     0.00000000
     0.00000000     0.00000000     0.00000000
     0.00000000     0.00000000     0.00000000
     0.00000000     0.00000000     0.00000000
     0.00000000     0.00000000     0.00000000
     0.00000000     0.00000000     0.00000000
     0.00000000     0.00000000     0.00000000
     0.00000000     0.00000000     0.00000000
     0.00000000     0.00000000     0.00000000
     0.00000000     0.00000000     0.00000000
     0.00000000     0.00000000     0.00000000
     0.00000000     0.00000000     0.00000000
     0.00000000     0.00000000     0.00000000
     0.00000000     0.00000000     0.00000000
     0.00000000     0.00000000     0.00000000
     0.00000000     0.00000000     0.00000000
     0.00000000     0.00000000     0.00000000
     0.00000000     0.00000000     0.00000000
     0.00000000     0.00000000     0.00000000
     0.00000000     0.00000000     0.00000000
     0.00000000     0.00000000     0.00000000
     0.00000000     0.00000000     0.00000000
     0.00000000     0.00000000     0.00000000
     0.00000000     0.00000000     0.00000000
     0.00000000     0.00000000     0.00000000
     0.00000000     0.00000000     0.00000000
     0.00000000     0.00000000     0.00000000
     0.00000000     0.00000000     0.00000000
     0.00000000     0.00000000     0.00000000
     0.00000000     0.00000000     0.00000000
     0.00000000     0.00000000     0.00000000
     0.00000000     0.00000000     0.00000000
     0.00000000     0.00000000     0.00000000
     0.00000000     0.00000000     0.00000000
     0.00000000     0.00000000     0.00000000
     0.00000000     0.00000000     0.00000000
     0.00000000     0.00000000     0.00000000
     0.00000000     0.00000000     0.00000000
     0.00000000     0.00000000     0.00000000
     0.00000000     0.00000000     0.00000000
     0.00000000     0.00000000     0.00000000
     0.00000000     0.00000000     0.00000000
     0.00000000     0.00000000     0.00000000
     0.00000000     0.00000000     0.00000000
     0.00000000     0.00000000     0.00000000
     0.00000000     0.00000000     0.00000000
     0.00000000     0.00000000     0.00000000
     0.00000000     0.00000000     0.00000000
     0.00000000     0.00000000     0.00000000
     0.00000000     0.00000000     0.00000000
     0.00000000     0.00000000     0.00000000
     0.00000000     0.00000000     0.00000000
     0.00000000     0.00000000     0.00000000
     0.00000000     0.00000000     0.00000000
     0.00000000     0.00000000     0.00000000
     0.00000000     0.00000000     0.00000000
     0.00000000     0.00000000     0.00000000
     0.00000000     0.00000000     0.00000000
     0.00000000     0.00000000     0.00000000
     0.00000000     0.00000000     0.00000000
     0.00000000     0.00000000     0.00000000
     0.00000000     0.00000000     0.00000000
     0.00000000     0.00000000     0.00000000
     0.00000000     0.00000000     0.00000000
     0.00000000     0.00000000     0.00000000
     0.00000000     0.00000000     0.00000000
     0.00000000     0.00000000     0.00000000
     0.00000000     0.00000000     0.00000000
     0.00000000     0.00000000     0.00000000
     0.00000000     0.00000000     0.00000000
     0.00000000     0.00000000     0.00000000
     0.00000000     0.00000000     0.00000000
     0.00000000     0.00000000     0.00000000
     0.00000000     0.00000000     0.00000000
     0.00000000     0.00000000     0.00000000
     0.00000000     0.00000000     0.00000000
     0.00000000     0.00000000     0.00000000
     0.00000000     0.00000000     0.00000000
     0.00000000     0.00000000     0.00000000
     0.00000000     0.00000000     0.00000000
     0.00000000     0.00000000     0.00000000
     0.00000000     0.00000000     0.00000000
     0.00000000     0.00000000     0.00000000
     0.00000000     0.00000000     0.00000000
     0.00000000     0.00000000     0.00000000
     0.00000000     0.00000000     0.00000000
     0.00000000     0.00000000     0.00000000
     0.00000000     0.00000000     0.00000000
     0.00000000     0.00000000     0.00000000
     0.00000000     0.00000000     0.00000000
     0.00000000     0.00000000     0.00000000
     0.00000000     0.00000000     0.00000000
     0.00000000     0.00000000     0.00000000
     0.00000000     0.00000000     0.00000000
     0.00000000     0.00000000     0.00000000
     0.00000000     0.00000000     0.00000000
     0.00000000     0.00000000     0.00000000
     0.00000000     0.00000000     0.00000000
     0.00000000     0.00000000     0.00000000
     0.00000000     0.00000000     0.00000000
     0.00000000     0.00000000     0.00000000
     0.00000000     0.00000000     0.00000000
     0.00000000     0.00000000     0.00000000
     0.00000000     0.00000000     0.00000000
     0.00000000     0.00000000     0.00000000
     0.00000000     0.00000000     0.00000000
     0.00000000     0.00000000     0.00000000
     0.00000000     0.00000000     0.00000000
     0.00000000     0.00000000     0.00000000
     0.00000000     0.00000000     0.00000000
     0.00000000     0.00000000     0.00000000
     0.00000000     0.00000000     0.00000000
     0.00000000     0.00000000     0.00000000
     0.00000000     0.00000000     0.00000000
     0.00000000     0.00000000     0.00000000
     0.00000000     0.00000000     0.00000000
     0.00000000     0.00000000     0.00000000
     0.00000000     0.00000000     0.00000000
     0.00000000     0.00000000     0.00000000
     0.00000000     0.00000000     0.00000000
     0.00000000     0.00000000     0.00000000
     0.00000000     0.00000000     0.00000000
     0.00000000     0.00000000     0.00000000
     0.00000000     0.00000000     0.00000000
     0.00000000     0.00000000     0.00000000
     0.00000000     0.00000000     0.00000000
     0.00000000     0.00000000     0.00000000
     0.00000000     0.00000000     0.00000000
     0.00000000     0.00000000     0.00000000
     0.00000000     0.00000000     0.00000000
     0.00000000     0.00000000     0.00000000
     0.00000000     0.00000000     0.00000000
     0.00000000     0.00000000     0.00000000
     0.00000000     0.00000000     0.00000000
     0.00000000     0.00000000     0.00000000
     0.00000000     0.00000000     0.00000000
     0.00000000     0.00000000     0.00000000
     0.00000000     0.00000000     0.00000000
     0.00000000     0.00000000     0.00000000
     0.00000000     0.00000000     0.00000000
     0.00000000     0.00000000     0.00000000
     0.00000000     0.00000000     0.00000000
     0.00000000     0.00000000     0.00000000
     0.00000000     0.00000000     0.00000000
     0.00000000     0.00000000     0.00000000
     0.00000000     0.00000000     0.00000000
     0.00000000     0.00000000     0.00000000
     0.00000000     0.00000000     0.00000000
     0.00000000     0.00000000     0.00000000
     0.00000000     0.00000000     0.00000000
     0.00000000     0.00000000     0.00000000
     0.00000000     0.00000000     0.00000000
     0.00000000     0.00000000     0.00000000
     0.00000000     0.00000000     0.00000000
     0.00000000     0.00000000     0.00000000
     0.00000000     0.00000000     0.00000000
     0.00000000     0.00000000     0.00000000
     0.00000000     0.00000000     0.00000000
     0.00000000     0.00000000     0.00000000
     0.00000000     0.00000000     0.00000000
     0.00000000     0.00000000     0.00000000
     0.00000000     0.00000000     0.00000000
     0.00000000     0.00000000     0.00000000
     0.00000000     0.00000000     0.00000000
     0.00000000     0.00000000     0.00000000
     0.00000000     0.00000000     0.00000000
     0.00000000     0.00000000     0.00000000
     0.00000000     0.00000000     0.00000000
     0.00000000     0.00000000     0.00000000
     0.00000000     0.00000000     0.00000000
     0.00000000     0.00000000     0.00000000
     0.00000000     0.00000000     0.00000000
     0.00000000     0.00000000     0.00000000
     0.00000000     0.00000000     0.00000000
     0.00000000     0.00000000     0.00000000
     0.00000000     0.00000000     0.00000000
     0.00000000     0.00000000     0.00000000
     0.00000000     0.00000000     0.00000000
     0.00000000     0.00000000     0.00000000
     0.00000000     0.00000000     0.00000000
     0.00000000     0.00000000     0.00000000
     0.00000000     0.00000000     0.00000000
     0.00000000     0.00000000     0.00000000
     0.00000000     0.00000000     0.00000000
     0.00000000     0.00000000     0.00000000
     0.00000000     0.00000000     0.00000000
     0.00000000     0.00000000     0.00000000
     0.00000000     0.00000000     0.00000000
     0.00000000     0.00000000     0.00000000
     0.00000000     0.00000000     0.00000000
     0.00000000     0.00000000     0.00000000
     0.00000000     0.00000000     0.00000000
     0.00000000     0.00000000     0.00000000
     0.00000000     0.00000000     0.00000000
     0.00000000     0.00000000     0.00000000
     0.00000000     0.00000000     0.00000000
     0.00000000     0.00000000     0.00000000
     0.00000000     0.00000000     0.00000000
     0.00000000     0.00000000     0.00000000
     0.00000000     0.00000000     0.00000000
     0.00000000     0.00000000     0.00000000
     0.00000000     0.00000000     0.00000000
     0.00000000     0.00000000     0.00000000
     0.00000000     0.00000000     0.00000000
     0.00000000     0.00000000     0.00000000
     0.00000000     0.00000000     0.00000000
     0.00000000     0.00000000     0.00000000
     0.00000000     0.00000000     0.00000000
     0.00000000     0.00000000     0.00000000
     0.00000000     0.00000000     0.00000000
     0.00000000     0.00000000     0.00000000
     0.00000000     0.00000000     0.00000000
     0.00000000     0.00000000     0.00000000
     0.00000000     0.00000000     0.00000000
     0.00000000     0.00000000     0.00000000
     0.00000000     0.00000000     0.00000000
     0.00000000     0.00000000     0.00000000
     0.00000000     0.00000000     0.00000000
     0.00000000     0.00000000     0.00000000
     0.00000000     0.00000000     0.00000000
     0.00000000     0.00000000     0.00000000
     0.00000000     0.00000000     0.00000000
     0.00000000     0.00000000     0.00000000
     0.00000000     0.00000000     0.00000000
     0.00000000     0.00000000     0.00000000
     0.00000000     0.00000000     0.00000000
     0.00000000     0.00000000     0.00000000
     0.00000000     0.00000000     0.00000000
     0.00000000     0.00000000     0.00000000
     0.00000000     0.00000000     0.00000000
     0.00000000     0.00000000     0.00000000
     0.00000000     0.00000000     0.00000000
     0.00000000     0.00000000     0.00000000
     0.00000000     0.00000000     0.00000000
     0.00000000     0.00000000     0.00000000
     0.00000000     0.00000000     0.00000000
     0.00000000     0.00000000     0.00000000
     0.00000000     0.00000000     0.00000000
     0.00000000     0.00000000     0.00000000
     0.00000000     0.00000000     0.00000000
     0.00000000     0.00000000     0.00000000
     0.00000000     0.00000000     0.00000000
     0.00000000     0.00000000     0.00000000
     0.00000000     0.00000000     0.00000000
     0.00000000     0.00000000     0.00000000
     0.00000000     0.00000000     0.00000000
     0.00000000     0.00000000     0.00000000
     0.00000000     0.00000000     0.00000000
     0.00000000     0.00000000     0.00000000
     0.00000000     0.00000000     0.00000000
     0.00000000     0.00000000     0.00000000
     0.00000000     0.00000000     0.00000000
     0.00000000     0.00000000     0.00000000
     0.00000000     0.00000000     0.00000000
     0.00000000     0.00000000     0.00000000
     0.00000000     0.00000000     0.00000000
     0.00000000     0.00000000     0.00000000
     0.00000000     0.00000000     0.00000000
     0.00000000     0.00000000     0.00000000
     0.00000000     0.00000000     0.00000000
     0.00000000     0.00000000     0.00000000
     0.00000000     0.00000000     0.00000000
     0.00000000     0.00000000     0.00000000
     0.00000000     0.00000000     0.00000000
     0.00000000     0.00000000     0.00000000
     0.00000000     0.00000000     0.00000000
     0.00000000     0.00000000     0.00000000
     0.00000000     0.00000000     0.00000000
     0.00000000     0.00000000     0.00000000
     0.00000000     0.00000000     0.00000000
     0.00000000     0.00000000     0.00000000
     0.00000000     0.00000000     0.00000000
     0.00000000     0.00000000     0.00000000
     0.00000000     0.00000000     0.00000000
     0.00000000     0.00000000     0.00000000
     0.00000000     0.00000000     0.00000000
     0.00000000     0.00000000     0.00000000
     0.00000000     0.00000000     0.00000000
     0.00000000     0.00000000     0.00000000
     0.00000000     0.00000000     0.00000000
     0.00000000     0.00000000     0.00000000
     0.00000000     0.00000000     0.00000000
     0.00000000     0.00000000     0.00000000
     0.00000000     0.00000000     0.00000000
     0.00000000     0.00000000     0.00000000
     0.00000000     0.00000000     0.00000000
     0.00000000     0.00000000     0.00000000
     0.00000000     0.00000000     0.00000000
     0.00000000     0.00000000     0.00000000
     0.00000000     0.00000000     0.00000000
     0.00000000     0.00000000     0.00000000
     0.00000000     0.00000000     0.00000000
     0.00000000     0.00000000     0.00000000
     0.00000000     0.00000000     0.00000000
     0.00000000     0.00000000     0.00000000
     0.00000000     0.00000000     0.00000000
     0.00000000     0.00000000     0.00000000
     0.00000000     0.00000000     0.00000000
     0.00000000     0.00000000     0.00000000
     0.00000000     0.00000000     0.00000000
     0.00000000     0.00000000     0.00000000
     0.00000000     0.00000000     0.00000000
     0.00000000     0.00000000     0.00000000
     0.00000000     0.00000000     0.00000000
     0.00000000     0.00000000     0.00000000
     0.00000000     0.00000000     0.00000000
     0.00000000     0.00000000     0.00000000
     0.00000000     0.00000000     0.00000000
     0.00000000     0.00000000     0.00000000
     0.00000000     0.00000000     0.00000000
     0.00000000     0.00000000     0.00000000
     0.00000000     0.00000000     0.00000000
     0.00000000     0.00000000     0.00000000
     0.00000000     0.00000000     0.00000000
     0.00000000     0.00000000     0.00000000
     0.00000000     0.00000000     0.00000000
     0.00000000     0.00000000     0.00000000
     0.00000000     0.00000000     0.00000000
     0.00000000     0.00000000     0.00000000
     0.00000000     0.00000000     0.00000000
     0.00000000     0.00000000     0.00000000
     0.00000000     0.00000000     0.00000000
     0.00000000     0.00000000     0.00000000
     0.00000000     0.00000000     0.00000000
     0.00000000     0.00000000     0.00000000
     0.00000000     0.00000000     0.00000000
     0.00000000     0.00000000     0.00000000
     0.00000000     0.00000000     0.00000000
     0.00000000     0.00000000     0.00000000
     0.00000000     0.00000000     0.00000000
     0.00000000     0.00000000     0.00000000
     0.00000000     0.00000000     0.00000000
     0.00000000     0.00000000     0.00000000
     0.00000000     0.00000000     0.00000000
     0.00000000     0.00000000     0.00000000
     0.00000000     0.00000000     0.00000000
     0.00000000     0.00000000     0.00000000
     0.00000000     0.00000000     0.00000000
     0.00000000     0.00000000     0.00000000
     0.00000000     0.00000000     0.00000000
     0.00000000     0.00000000     0.00000000
     0.00000000     0.00000000     0.00000000
     0.00000000     0.00000000     0.00000000
     0.00000000     0.00000000     0.00000000
     0.00000000     0.00000000     0.00000000
     0.00000000     0.00000000     0.00000000
     0.00000000     0.00000000     0.00000000
     0.00000000     0.00000000     0.00000000
     0.00000000     0.00000000     0.00000000
     0.00000000     0.00000000     0.00000000
     0.00000000     0.00000000     0.00000000
     0.00000000     0.00000000     0.00000000
     0.00000000     0.00000000     0.00000000
     0.00000000     0.00000000     0.00000000
     0.00000000     0.00000000     0.00000000
     0.00000000     0.00000000     0.00000000
     0.00000000     0.00000000     0.00000000
     0.00000000     0.00000000     0.00000000
     0.00000000     0.00000000     0.00000000
     0.00000000     0.00000000     0.00000000
     0.00000000     0.00000000     0.00000000
     0.00000000     0.00000000     0.00000000
     0.00000000     0.00000000     0.00000000
     0.00000000     0.00000000     0.00000000
     0.00000000     0.00000000     0.00000000
     0.00000000     0.00000000     0.00000000
     0.00000000     0.00000000     0.00000000
     0.00000000     0.00000000     0.00000000
     0.00000000     0.00000000     0.00000000
     0.00000000     0.00000000     0.00000000
     0.00000000     0.00000000     0.00000000
     0.00000000     0.00000000     0.00000000
     0.00000000     0.00000000     0.00000000
     0.00000000     0.00000000     0.00000000
     0.00000000     0.00000000     0.00000000
     0.00000000     0.00000000     0.00000000
     0.00000000     0.00000000     0.00000000
     0.00000000     0.00000000     0.00000000
     0.00000000     0.00000000     0.00000000
     0.00000000     0.00000000     0.00000000
     0.00000000     0.00000000     0.00000000
     0.00000000     0.00000000     0.00000000
     0.00000000     0.00000000     0.00000000
     0.00000000     0.00000000     0.00000000
     0.00000000     0.00000000     0.00000000
     0.00000000     0.00000000     0.00000000
     0.00000000     0.00000000     0.00000000
     0.00000000     0.00000000     0.00000000
     0.00000000     0.00000000     0.00000000
     0.00000000     0.00000000     0.00000000
     0.00000000     0.00000000     0.00000000
