# vtk DataFile Version 3.0
Example VTK
ASCII
DATASET UNSTRUCTURED_GRID
POINTS  6894 float
  0.115859000000E+03  0.153855000000E+03 -0.170422000000E+03
  0.876564000000E+02  0.159900000000E+03 -0.174217000000E+03
  0.955602000000E+02  0.159587000000E+03 -0.181361000000E+03
  0.976852000000E+02  0.146439000000E+03 -0.177978000000E+03
  0.936505000000E+02  0.144671000000E+03 -0.180677000000E+03
  0.103735000000E+03  0.168288000000E+03 -0.170708000000E+03
  0.104229000000E+03  0.152258000000E+03 -0.174942000000E+03
  0.835702000000E+02  0.130285000000E+03 -0.164327000000E+03
  0.940464000000E+02  0.157485000000E+03 -0.161738000000E+03
  0.100913000000E+03  0.172925000000E+03 -0.179297000000E+03
  0.901616000000E+02  0.173131000000E+03 -0.185535000000E+03
  0.745253000000E+02  0.148218000000E+03 -0.192576000000E+03
  0.804689000000E+02  0.141330000000E+03 -0.190040000000E+03
  0.841070000000E+02  0.143542000000E+03 -0.193833000000E+03
  0.856427000000E+02  0.162670000000E+03 -0.188935000000E+03
  0.803600000000E+02  0.178014000000E+03 -0.167718000000E+03
  0.736565000000E+02  0.165502000000E+03 -0.162366000000E+03
  0.727981000000E+02  0.140483000000E+03 -0.161379000000E+03
  0.725705000000E+02  0.143236000000E+03 -0.154047000000E+03
  0.814257000000E+02  0.150889000000E+03 -0.149257000000E+03
  0.798196000000E+02  0.136858000000E+03 -0.154929000000E+03
  0.813069000000E+02  0.174651000000E+03 -0.181832000000E+03
  0.832323000000E+02  0.178073000000E+03 -0.175918000000E+03
  0.757242000000E+02  0.175462000000E+03 -0.176832000000E+03
  0.868363000000E+02  0.175649000000E+03 -0.182277000000E+03
  0.738834000000E+02  0.158221000000E+03 -0.177477000000E+03
  0.821445000000E+02  0.169434000000E+03 -0.187608000000E+03
  0.100066000000E+03  0.148385000000E+03 -0.174769000000E+03
  0.876292000000E+02  0.139037000000E+03 -0.159993000000E+03
  0.966672000000E+02  0.143846000000E+03 -0.162349000000E+03
  0.866929000000E+02  0.143519000000E+03 -0.149899000000E+03
  0.767155000000E+02  0.138688000000E+03 -0.184966000000E+03
  0.812932000000E+02  0.139070000000E+03 -0.178541000000E+03
  0.751411000000E+02  0.164021000000E+03 -0.148620000000E+03
  0.972847000000E+02  0.151289000000E+03 -0.193854000000E+03
  0.103053000000E+03  0.149838000000E+03 -0.188695000000E+03
  0.840798000000E+02  0.133287000000E+03 -0.192802000000E+03
  0.883194000000E+02  0.137000000000E+03 -0.167511000000E+03
  0.764100000000E+02  0.137080000000E+03 -0.167388000000E+03
  0.106085000000E+03  0.167124000000E+03 -0.155931000000E+03
  0.107066000000E+03  0.149361000000E+03 -0.163314000000E+03
  0.103090000000E+03  0.168592000000E+03 -0.163677000000E+03
  0.787890000000E+02  0.131327000000E+03 -0.168141000000E+03
  0.103658000000E+03  0.147297000000E+03 -0.160620000000E+03
  0.984768000000E+02  0.164250000000E+03 -0.150630000000E+03
  0.986541000000E+02  0.155822000000E+03 -0.145897000000E+03
  0.928349000000E+02  0.142329000000E+03 -0.166094000000E+03
  0.591887000000E+02  0.158010000000E+03 -0.149662000000E+03
  0.609703000000E+02  0.172540000000E+03 -0.149829000000E+03
  0.650658000000E+02  0.162474000000E+03 -0.147617000000E+03
  0.757735000000E+02  0.165417000000E+03 -0.189899000000E+03
  0.695031000000E+02  0.168621000000E+03 -0.186359000000E+03
  0.761375000000E+02  0.170262000000E+03 -0.184472000000E+03
  0.708010000000E+02  0.142131000000E+03 -0.180147000000E+03
  0.695751000000E+02  0.141395000000E+03 -0.174464000000E+03
  0.631444000000E+02  0.144827000000E+03 -0.162964000000E+03
  0.605204000000E+02  0.161007000000E+03 -0.171334000000E+03
  0.498053000000E+02  0.150230000000E+03 -0.171793000000E+03
  0.566769000000E+02  0.145975000000E+03 -0.170761000000E+03
  0.534822000000E+02  0.150570000000E+03 -0.164075000000E+03
  0.955461000000E+02  0.165535000000E+03 -0.191377000000E+03
  0.116407000000E+03  0.157375000000E+03 -0.166287000000E+03
  0.954466000000E+02  0.172159000000E+03 -0.186437000000E+03
  0.989865000000E+02  0.144331000000E+03 -0.153486000000E+03
  0.948873000000E+02  0.140635000000E+03 -0.156036000000E+03
  0.102485000000E+03  0.149062000000E+03 -0.149130000000E+03
  0.117422000000E+03  0.155239000000E+03 -0.158176000000E+03
  0.852679000000E+02  0.132736000000E+03 -0.185291000000E+03
  0.806698000000E+02  0.134299000000E+03 -0.182529000000E+03
  0.877867000000E+02  0.135635000000E+03 -0.179386000000E+03
  0.810851000000E+02  0.136002000000E+03 -0.188179000000E+03
  0.941364000000E+02  0.172381000000E+03 -0.150964000000E+03
  0.967383000000E+02  0.174556000000E+03 -0.158768000000E+03
  0.968668000000E+02  0.180713000000E+03 -0.147490000000E+03
  0.951214000000E+02  0.159635000000E+03 -0.193281000000E+03
  0.102543000000E+03  0.161954000000E+03 -0.190796000000E+03
  0.102257000000E+03  0.167861000000E+03 -0.186431000000E+03
  0.948086000000E+02  0.143275000000E+03 -0.171957000000E+03
  0.535865000000E+02  0.169486000000E+03 -0.184434000000E+03
  0.513655000000E+02  0.176623000000E+03 -0.178699000000E+03
  0.597810000000E+02  0.175176000000E+03 -0.177417000000E+03
  0.588274000000E+02  0.152082000000E+03 -0.189788000000E+03
  0.544194000000E+02  0.150214000000E+03 -0.183858000000E+03
  0.610301000000E+02  0.163283000000E+03 -0.189972000000E+03
  0.642287000000E+02  0.169868000000E+03 -0.183364000000E+03
  0.709446000000E+02  0.176258000000E+03 -0.174599000000E+03
  0.656406000000E+02  0.174601000000E+03 -0.178437000000E+03
  0.562676000000E+02  0.178029000000E+03 -0.167530000000E+03
  0.644683000000E+02  0.177218000000E+03 -0.172081000000E+03
  0.862760000000E+02  0.148798000000E+03 -0.196763000000E+03
  0.487172000000E+02  0.178574000000E+03 -0.168758000000E+03
  0.481226000000E+02  0.161280000000E+03 -0.183786000000E+03
  0.582390000000E+02  0.165413000000E+03 -0.185500000000E+03
  0.510026000000E+02  0.151756000000E+03 -0.178005000000E+03
  0.962513000000E+02  0.144067000000E+03 -0.184951000000E+03
  0.959922000000E+02  0.141646000000E+03 -0.192416000000E+03
  0.997571000000E+02  0.149067000000E+03 -0.183238000000E+03
  0.904925000000E+02  0.153866000000E+03 -0.195287000000E+03
  0.791199000000E+02  0.133916000000E+03 -0.162424000000E+03
  0.809255000000E+02  0.180892000000E+03 -0.160861000000E+03
  0.715998000000E+02  0.180321000000E+03 -0.160596000000E+03
  0.735409000000E+02  0.178768000000E+03 -0.152549000000E+03
  0.657598000000E+02  0.153104000000E+03 -0.148213000000E+03
  0.706046000000E+02  0.158755000000E+03 -0.150051000000E+03
  0.107853000000E+03  0.156241000000E+03 -0.184117000000E+03
  0.649824000000E+02  0.179664000000E+03 -0.160128000000E+03
  0.682447000000E+02  0.176789000000E+03 -0.165247000000E+03
  0.890850000000E+02  0.183363000000E+03 -0.164626000000E+03
  0.860689000000E+02  0.181886000000E+03 -0.171048000000E+03
  0.717867000000E+02  0.177892000000E+03 -0.169487000000E+03
  0.667490000000E+02  0.177045000000E+03 -0.150439000000E+03
  0.109572000000E+03  0.157249000000E+03 -0.176323000000E+03
  0.103394000000E+03  0.149610000000E+03 -0.167395000000E+03
  0.808674000000E+02  0.161493000000E+03 -0.145530000000E+03
  0.876305000000E+02  0.161043000000E+03 -0.142979000000E+03
  0.668142000000E+02  0.170941000000E+03 -0.146325000000E+03
  0.805670000000E+02  0.168347000000E+03 -0.142496000000E+03
  0.926265000000E+02  0.140129000000E+03 -0.187653000000E+03
  0.864407000000E+02  0.136788000000E+03 -0.192052000000E+03
  0.916621000000E+02  0.139273000000E+03 -0.179468000000E+03
  0.907324000000E+02  0.136130000000E+03 -0.184072000000E+03
  0.957743000000E+02  0.178759000000E+03 -0.155022000000E+03
  0.801864000000E+02  0.129820000000E+03 -0.183567000000E+03
  0.939852000000E+02  0.184117000000E+03 -0.154353000000E+03
  0.698291000000E+02  0.150922000000E+03 -0.193605000000E+03
  0.831828000000E+02  0.126333000000E+03 -0.171544000000E+03
  0.807243000000E+02  0.127515000000E+03 -0.173967000000E+03
  0.655946000000E+02  0.147220000000E+03 -0.185518000000E+03
  0.708523000000E+02  0.159976000000E+03 -0.195465000000E+03
  0.822953000000E+02  0.127329000000E+03 -0.183057000000E+03
  0.643968000000E+02  0.158232000000E+03 -0.195536000000E+03
  0.507899000000E+02  0.161089000000E+03 -0.187468000000E+03
  0.677185000000E+02  0.164407000000E+03 -0.191986000000E+03
  0.809466000000E+02  0.158747000000E+03 -0.196970000000E+03
  0.915683000000E+02  0.171517000000E+03 -0.143988000000E+03
  0.810272000000E+02  0.181829000000E+03 -0.153396000000E+03
  0.766267000000E+02  0.179524000000E+03 -0.148023000000E+03
  0.889591000000E+02  0.184389000000E+03 -0.148977000000E+03
  0.912279000000E+02  0.181816000000E+03 -0.140197000000E+03
  0.531639000000E+02  0.147531000000E+03 -0.183548000000E+03
  0.418771000000E+02  0.171036000000E+03 -0.175443000000E+03
  0.855021000000E+02  0.183299000000E+03 -0.156664000000E+03
  0.823974000000E+02  0.132112000000E+03 -0.174553000000E+03
  0.853401000000E+02  0.125312000000E+03 -0.182088000000E+03
  0.835354000000E+02  0.133488000000E+03 -0.167831000000E+03
  0.409570000000E+02  0.169476000000E+03 -0.149542000000E+03
  0.365673000000E+02  0.163382000000E+03 -0.155961000000E+03
  0.863486000000E+02  0.173823000000E+03 -0.138250000000E+03
  0.810481000000E+02  0.180293000000E+03 -0.143147000000E+03
  0.935448000000E+02  0.174665000000E+03 -0.139247000000E+03
  0.988512000000E+02  0.180599000000E+03 -0.141314000000E+03
  0.109493000000E+03  0.167246000000E+03 -0.163024000000E+03
  0.455286000000E+02  0.171778000000E+03 -0.162468000000E+03
  0.962684000000E+02  0.181849000000E+03 -0.170691000000E+03
  0.112621000000E+03  0.158386000000E+03 -0.160029000000E+03
  0.110470000000E+03  0.167513000000E+03 -0.171218000000E+03
  0.106451000000E+03  0.169405000000E+03 -0.178738000000E+03
  0.850689000000E+02  0.137993000000E+03 -0.151590000000E+03
  0.373129000000E+02  0.163034000000E+03 -0.162465000000E+03
  0.486249000000E+02  0.159267000000E+03 -0.147904000000E+03
  0.906387000000E+02  0.135018000000E+03 -0.196065000000E+03
  0.527296000000E+02  0.165515000000E+03 -0.146471000000E+03
  0.391181000000E+02  0.153990000000E+03 -0.160077000000E+03
  0.417021000000E+02  0.154745000000E+03 -0.169148000000E+03
  0.443367000000E+02  0.158457000000E+03 -0.176854000000E+03
  0.814068000000E+02  0.150646000000E+03 -0.199718000000E+03
  0.423342000000E+02  0.159405000000E+03 -0.143870000000E+03
  0.480552000000E+02  0.172024000000E+03 -0.151145000000E+03
  0.991227000000E+02  0.175822000000E+03 -0.167058000000E+03
  0.103576000000E+03  0.150939000000E+03 -0.181350000000E+03
  0.580749000000E+02  0.157779000000E+03 -0.193297000000E+03
  0.616771000000E+02  0.145634000000E+03 -0.173362000000E+03
  0.591009000000E+02  0.149430000000E+03 -0.179955000000E+03
  0.543362000000E+02  0.173736000000E+03 -0.155484000000E+03
  0.683949000000E+02  0.155578000000E+03 -0.199316000000E+03
  0.568738000000E+02  0.178092000000E+03 -0.160163000000E+03
  0.592773000000E+02  0.147006000000E+03 -0.157328000000E+03
  0.100534000000E+03  0.186900000000E+03 -0.157382000000E+03
  0.952059000000E+02  0.185163000000E+03 -0.159443000000E+03
  0.922211000000E+02  0.176696000000E+03 -0.176929000000E+03
  0.816494000000E+02  0.162166000000E+03 -0.199150000000E+03
  0.420827000000E+02  0.169924000000E+03 -0.157001000000E+03
  0.404475000000E+02  0.164905000000E+03 -0.173237000000E+03
  0.650270000000E+02  0.144601000000E+03 -0.178135000000E+03
  0.449854000000E+02  0.150606000000E+03 -0.159926000000E+03
  0.893085000000E+02  0.151385000000E+03 -0.145399000000E+03
  0.713969000000E+02  0.172127000000E+03 -0.182431000000E+03
  0.112230000000E+03  0.154843000000E+03 -0.166921000000E+03
  0.530211000000E+02  0.149434000000E+03 -0.156832000000E+03
  0.365035000000E+02  0.165278000000E+03 -0.145992000000E+03
  0.115084000000E+03  0.160264000000E+03 -0.155433000000E+03
  0.108939000000E+03  0.153864000000E+03 -0.151102000000E+03
  0.106045000000E+03  0.161646000000E+03 -0.148264000000E+03
  0.102627000000E+03  0.185411000000E+03 -0.163222000000E+03
  0.858770000000E+02  0.130507000000E+03 -0.180550000000E+03
  0.728905000000E+02  0.159921000000E+03 -0.199430000000E+03
  0.716795000000E+02  0.169907000000E+03 -0.144802000000E+03
  0.118360000000E+03  0.168998000000E+03 -0.153894000000E+03
  0.121323000000E+03  0.162881000000E+03 -0.154284000000E+03
  0.113742000000E+03  0.165351000000E+03 -0.149447000000E+03
  0.380727000000E+02  0.154662000000E+03 -0.150577000000E+03
  0.111461000000E+03  0.169296000000E+03 -0.157513000000E+03
  0.343819000000E+02  0.158738000000E+03 -0.153057000000E+03
  0.690422000000E+02  0.160143000000E+03 -0.198852000000E+03
  0.757136000000E+02  0.173551000000E+03 -0.142310000000E+03
  0.910529000000E+02  0.153508000000E+03 -0.199272000000E+03
  0.697052000000E+02  0.163559000000E+03 -0.197397000000E+03
  0.649541000000E+02  0.154481000000E+03 -0.198365000000E+03
  0.888036000000E+02  0.150871000000E+03 -0.199562000000E+03
  0.904517000000E+02  0.159749000000E+03 -0.198316000000E+03
  0.836219000000E+02  0.153424000000E+03 -0.200077000000E+03
  0.838330000000E+02  0.139602000000E+03 -0.196043000000E+03
  0.712755000000E+02  0.152800000000E+03 -0.199234000000E+03
  0.760789000000E+02  0.146648000000E+03 -0.197144000000E+03
  0.871040000000E+02  0.142503000000E+03 -0.198060000000E+03
  0.558533000000E+02  0.169297000000E+03 -0.188795000000E+03
  0.945168000000E+02  0.182834000000E+03 -0.174262000000E+03
  0.867578000000E+02  0.130143000000E+03 -0.192587000000E+03
  0.637318000000E+02  0.148072000000E+03 -0.193854000000E+03
  0.784677000000E+02  0.134599000000E+03 -0.187601000000E+03
  0.777811000000E+02  0.136959000000E+03 -0.189627000000E+03
  0.927486000000E+02  0.163001000000E+03 -0.196647000000E+03
  0.715148000000E+02  0.139472000000E+03 -0.184388000000E+03
  0.793106000000E+02  0.132055000000E+03 -0.185526000000E+03
  0.886441000000E+02  0.172882000000E+03 -0.189181000000E+03
  0.753644000000E+02  0.138940000000E+03 -0.189172000000E+03
  0.443734000000E+02  0.170199000000E+03 -0.184456000000E+03
  0.827136000000E+02  0.177834000000E+03 -0.182892000000E+03
  0.699877000000E+02  0.167583000000E+03 -0.193467000000E+03
  0.851896000000E+02  0.176644000000E+03 -0.184923000000E+03
  0.682652000000E+02  0.173792000000E+03 -0.185473000000E+03
  0.500358000000E+02  0.178830000000E+03 -0.181925000000E+03
  0.821402000000E+02  0.169483000000E+03 -0.191891000000E+03
  0.839406000000E+02  0.179657000000E+03 -0.180068000000E+03
  0.803931000000E+02  0.178928000000E+03 -0.180556000000E+03
  0.664089000000E+02  0.169341000000E+03 -0.191018000000E+03
  0.661915000000E+02  0.166315000000E+03 -0.194475000000E+03
  0.857180000000E+02  0.181570000000E+03 -0.176706000000E+03
  0.714912000000E+02  0.173182000000E+03 -0.186838000000E+03
  0.730128000000E+02  0.146724000000E+03 -0.196215000000E+03
  0.721093000000E+02  0.144415000000E+03 -0.193546000000E+03
  0.815250000000E+02  0.175460000000E+03 -0.185747000000E+03
  0.652789000000E+02  0.172092000000E+03 -0.187449000000E+03
  0.773149000000E+02  0.139285000000E+03 -0.191736000000E+03
  0.542781000000E+02  0.181517000000E+03 -0.165475000000E+03
  0.505536000000E+02  0.181997000000E+03 -0.166865000000E+03
  0.780551000000E+02  0.152004000000E+03 -0.199712000000E+03
  0.911821000000E+02  0.178861000000E+03 -0.182137000000E+03
  0.717273000000E+02  0.179425000000E+03 -0.176297000000E+03
  0.753327000000E+02  0.165029000000E+03 -0.196714000000E+03
  0.795914000000E+02  0.137363000000E+03 -0.192000000000E+03
  0.697972000000E+02  0.146610000000E+03 -0.194816000000E+03
  0.496865000000E+02  0.169027000000E+03 -0.187465000000E+03
  0.561441000000E+02  0.144895000000E+03 -0.178840000000E+03
  0.704852000000E+02  0.149261000000E+03 -0.197382000000E+03
  0.744097000000E+02  0.141640000000E+03 -0.191828000000E+03
  0.708732000000E+02  0.142921000000E+03 -0.190593000000E+03
  0.776449000000E+02  0.141577000000E+03 -0.194141000000E+03
  0.924410000000E+02  0.138228000000E+03 -0.197619000000E+03
  0.958244000000E+02  0.140897000000E+03 -0.198782000000E+03
  0.654912000000E+02  0.178896000000E+03 -0.176456000000E+03
  0.868673000000E+02  0.159783000000E+03 -0.199161000000E+03
  0.806953000000E+02  0.132406000000E+03 -0.188630000000E+03
  0.674086000000E+02  0.177795000000E+03 -0.178640000000E+03
  0.756826000000E+02  0.161612000000E+03 -0.199106000000E+03
  0.944099000000E+02  0.180482000000E+03 -0.176992000000E+03
  0.523729000000E+02  0.180585000000E+03 -0.179399000000E+03
  0.820363000000E+02  0.164756000000E+03 -0.197468000000E+03
  0.295803000000E+02  0.167928000000E+03 -0.149066000000E+03
  0.108011000000E+03  0.172984000000E+03 -0.174211000000E+03
  0.916515000000E+02  0.183923000000E+03 -0.173310000000E+03
  0.740510000000E+02  0.138543000000E+03 -0.186567000000E+03
  0.946622000000E+02  0.151605000000E+03 -0.199106000000E+03
  0.470544000000E+02  0.148957000000E+03 -0.175497000000E+03
  0.446734000000E+02  0.159684000000E+03 -0.184869000000E+03
  0.419304000000E+02  0.151114000000E+03 -0.171152000000E+03
  0.688117000000E+02  0.179141000000E+03 -0.176212000000E+03
  0.379892000000E+02  0.156632000000E+03 -0.171104000000E+03
  0.489470000000E+02  0.163297000000E+03 -0.189384000000E+03
  0.385857000000E+02  0.159039000000E+03 -0.173495000000E+03
  0.434722000000E+02  0.158576000000E+03 -0.181630000000E+03
  0.510913000000E+02  0.166517000000E+03 -0.189319000000E+03
  0.123937000000E+03  0.169345000000E+03 -0.157676000000E+03
  0.607308000000E+02  0.141949000000E+03 -0.165509000000E+03
  0.764883000000E+02  0.167595000000E+03 -0.193666000000E+03
  0.376121000000E+02  0.154148000000E+03 -0.168338000000E+03
  0.402599000000E+02  0.155970000000E+03 -0.173734000000E+03
  0.115010000000E+03  0.153468000000E+03 -0.151243000000E+03
  0.398747000000E+02  0.153540000000E+03 -0.171201000000E+03
  0.531982000000E+02  0.177603000000E+03 -0.182253000000E+03
  0.375758000000E+02  0.150998000000E+03 -0.159451000000E+03
  0.562675000000E+02  0.181208000000E+03 -0.174681000000E+03
  0.774638000000E+02  0.143539000000E+03 -0.146720000000E+03
  0.405217000000E+02  0.167844000000E+03 -0.179919000000E+03
  0.405443000000E+02  0.170365000000E+03 -0.180323000000E+03
  0.470679000000E+02  0.147395000000E+03 -0.171665000000E+03
  0.809556000000E+02  0.138565000000E+03 -0.151293000000E+03
  0.745756000000E+02  0.149872000000E+03 -0.198577000000E+03
  0.477814000000E+02  0.171603000000E+03 -0.185696000000E+03
  0.382599000000E+02  0.168097000000E+03 -0.175058000000E+03
  0.113622000000E+03  0.154079000000E+03 -0.148056000000E+03
  0.122829000000E+03  0.157278000000E+03 -0.154875000000E+03
  0.572162000000E+02  0.162327000000E+03 -0.194180000000E+03
  0.117097000000E+03  0.163003000000E+03 -0.168629000000E+03
  0.784170000000E+02  0.129742000000E+03 -0.174501000000E+03
  0.324480000000E+02  0.164921000000E+03 -0.159734000000E+03
  0.125100000000E+03  0.165280000000E+03 -0.158961000000E+03
  0.613524000000E+02  0.145560000000E+03 -0.187660000000E+03
  0.451713000000E+02  0.156101000000E+03 -0.183969000000E+03
  0.550785000000E+02  0.171680000000E+03 -0.186943000000E+03
  0.119786000000E+03  0.171975000000E+03 -0.153821000000E+03
  0.772847000000E+02  0.138471000000E+03 -0.152890000000E+03
  0.745049000000E+02  0.138272000000E+03 -0.154892000000E+03
  0.109885000000E+03  0.172601000000E+03 -0.159465000000E+03
  0.318682000000E+02  0.157852000000E+03 -0.158888000000E+03
  0.772717000000E+02  0.182373000000E+03 -0.170897000000E+03
  0.120591000000E+03  0.171759000000E+03 -0.156708000000E+03
  0.682246000000E+02  0.182453000000E+03 -0.162123000000E+03
  0.691903000000E+02  0.181330000000E+03 -0.149336000000E+03
  0.120333000000E+03  0.156362000000E+03 -0.156060000000E+03
  0.606536000000E+02  0.181129000000E+03 -0.155535000000E+03
  0.759054000000E+02  0.183461000000E+03 -0.161586000000E+03
  0.263176000000E+02  0.160267000000E+03 -0.147556000000E+03
  0.122433000000E+03  0.170734000000E+03 -0.154259000000E+03
  0.123956000000E+03  0.158204000000E+03 -0.152038000000E+03
  0.724909000000E+02  0.176820000000E+03 -0.181719000000E+03
  0.811264000000E+02  0.184765000000E+03 -0.157509000000E+03
  0.843232000000E+02  0.185806000000E+03 -0.156613000000E+03
  0.544618000000E+02  0.166905000000E+03 -0.190206000000E+03
  0.106538000000E+03  0.183203000000E+03 -0.155774000000E+03
  0.310591000000E+02  0.155809000000E+03 -0.152475000000E+03
  0.499029000000E+02  0.174231000000E+03 -0.148404000000E+03
  0.107593000000E+03  0.154761000000E+03 -0.143626000000E+03
  0.584130000000E+02  0.177851000000E+03 -0.150874000000E+03
  0.669300000000E+02  0.181526000000E+03 -0.151384000000E+03
  0.898628000000E+02  0.145054000000E+03 -0.144554000000E+03
  0.112405000000E+03  0.150282000000E+03 -0.152657000000E+03
  0.663837000000E+02  0.182540000000E+03 -0.159331000000E+03
  0.559667000000E+02  0.175940000000E+03 -0.149491000000E+03
  0.594817000000E+02  0.173427000000E+03 -0.146170000000E+03
  0.103406000000E+03  0.186911000000E+03 -0.151805000000E+03
  0.613757000000E+02  0.142699000000E+03 -0.158307000000E+03
  0.696895000000E+02  0.182051000000E+03 -0.166039000000E+03
  0.723986000000E+02  0.180220000000E+03 -0.144891000000E+03
  0.793726000000E+02  0.184438000000E+03 -0.154689000000E+03
  0.104350000000E+03  0.182779000000E+03 -0.152309000000E+03
  0.701489000000E+02  0.166125000000E+03 -0.142422000000E+03
  0.640731000000E+02  0.180019000000E+03 -0.150266000000E+03
  0.429335000000E+02  0.172409000000E+03 -0.147563000000E+03
  0.116164000000E+03  0.169494000000E+03 -0.148529000000E+03
  0.928249000000E+02  0.186896000000E+03 -0.167326000000E+03
  0.941515000000E+02  0.184867000000E+03 -0.172116000000E+03
  0.351321000000E+02  0.152766000000E+03 -0.146969000000E+03
  0.538343000000E+02  0.180511000000E+03 -0.159160000000E+03
  0.943527000000E+02  0.188203000000E+03 -0.155651000000E+03
  0.610071000000E+02  0.179828000000E+03 -0.152144000000E+03
  0.391723000000E+02  0.171083000000E+03 -0.146508000000E+03
  0.490781000000E+02  0.175772000000E+03 -0.151833000000E+03
  0.426004000000E+02  0.157705000000E+03 -0.178654000000E+03
  0.518160000000E+02  0.177349000000E+03 -0.153847000000E+03
  0.447061000000E+02  0.146734000000E+03 -0.164723000000E+03
  0.979763000000E+02  0.189082000000E+03 -0.154365000000E+03
  0.791398000000E+02  0.181679000000E+03 -0.174296000000E+03
  0.914244000000E+02  0.187446000000E+03 -0.150008000000E+03
  0.107457000000E+03  0.158199000000E+03 -0.141951000000E+03
  0.511921000000E+02  0.144640000000E+03 -0.166439000000E+03
  0.604436000000E+02  0.181840000000E+03 -0.159197000000E+03
  0.521109000000E+02  0.163273000000E+03 -0.143690000000E+03
  0.857150000000E+02  0.185758000000E+03 -0.162005000000E+03
  0.100560000000E+03  0.167270000000E+03 -0.147546000000E+03
  0.628000000000E+02  0.180658000000E+03 -0.170212000000E+03
  0.658424000000E+02  0.181333000000E+03 -0.168107000000E+03
  0.445122000000E+02  0.148177000000E+03 -0.158067000000E+03
  0.494287000000E+02  0.163323000000E+03 -0.143090000000E+03
  0.919041000000E+02  0.185753000000E+03 -0.170571000000E+03
  0.568243000000E+02  0.174217000000E+03 -0.147325000000E+03
  0.951654000000E+02  0.186412000000E+03 -0.169740000000E+03
  0.390406000000E+02  0.149842000000E+03 -0.161956000000E+03
  0.454163000000E+02  0.150518000000E+03 -0.148355000000E+03
  0.541092000000E+02  0.148019000000E+03 -0.149879000000E+03
  0.590800000000E+02  0.175871000000E+03 -0.148280000000E+03
  0.982965000000E+02  0.186342000000E+03 -0.148830000000E+03
  0.975016000000E+02  0.184516000000E+03 -0.172020000000E+03
  0.392632000000E+02  0.151056000000E+03 -0.152100000000E+03
  0.103764000000E+03  0.174552000000E+03 -0.137161000000E+03
  0.747852000000E+02  0.180663000000E+03 -0.174448000000E+03
  0.672782000000E+02  0.178554000000E+03 -0.146236000000E+03
  0.382769000000E+02  0.151510000000E+03 -0.149566000000E+03
  0.424990000000E+02  0.147882000000E+03 -0.161457000000E+03
  0.478173000000E+02  0.177711000000E+03 -0.158960000000E+03
  0.105106000000E+03  0.189164000000E+03 -0.153010000000E+03
  0.635971000000E+02  0.181977000000E+03 -0.163256000000E+03
  0.457290000000E+02  0.175214000000E+03 -0.153429000000E+03
  0.944521000000E+02  0.148000000000E+03 -0.143332000000E+03
  0.674817000000E+02  0.141989000000E+03 -0.152392000000E+03
  0.290841000000E+02  0.165982000000E+03 -0.152897000000E+03
  0.316973000000E+02  0.168888000000E+03 -0.152321000000E+03
  0.928340000000E+02  0.144804000000E+03 -0.144784000000E+03
  0.940794000000E+02  0.141749000000E+03 -0.147018000000E+03
  0.363202000000E+02  0.152457000000E+03 -0.161950000000E+03
  0.104403000000E+03  0.146570000000E+03 -0.146147000000E+03
  0.103776000000E+03  0.166044000000E+03 -0.146154000000E+03
  0.433354000000E+02  0.149451000000E+03 -0.154878000000E+03
  0.873333000000E+02  0.154753000000E+03 -0.141646000000E+03
  0.418857000000E+02  0.151508000000E+03 -0.147261000000E+03
  0.979072000000E+02  0.140547000000E+03 -0.147852000000E+03
  0.896883000000E+02  0.156805000000E+03 -0.140537000000E+03
  0.707675000000E+02  0.144236000000E+03 -0.147012000000E+03
  0.888374000000E+02  0.182869000000E+03 -0.174728000000E+03
  0.121231000000E+03  0.155629000000E+03 -0.152669000000E+03
  0.544891000000E+02  0.179147000000E+03 -0.155662000000E+03
  0.410466000000E+02  0.148869000000E+03 -0.165254000000E+03
  0.568749000000E+02  0.176296000000E+03 -0.182455000000E+03
  0.110023000000E+03  0.160304000000E+03 -0.141939000000E+03
  0.679549000000E+02  0.150181000000E+03 -0.145572000000E+03
  0.650734000000E+02  0.152394000000E+03 -0.145724000000E+03
  0.101107000000E+03  0.142642000000E+03 -0.146833000000E+03
  0.474420000000E+02  0.145958000000E+03 -0.167722000000E+03
  0.451429000000E+02  0.152695000000E+03 -0.145296000000E+03
  0.110481000000E+03  0.147976000000E+03 -0.150433000000E+03
  0.111150000000E+03  0.146402000000E+03 -0.153354000000E+03
  0.584395000000E+02  0.170872000000E+03 -0.187879000000E+03
  0.108286000000E+03  0.146068000000E+03 -0.148732000000E+03
  0.877068000000E+02  0.160062000000E+03 -0.139936000000E+03
  0.443809000000E+02  0.170417000000E+03 -0.144741000000E+03
  0.939143000000E+02  0.162018000000E+03 -0.142045000000E+03
  0.100613000000E+03  0.160736000000E+03 -0.142524000000E+03
  0.553025000000E+02  0.151766000000E+03 -0.145776000000E+03
  0.389989000000E+02  0.152167000000E+03 -0.146064000000E+03
  0.707062000000E+02  0.141866000000E+03 -0.150357000000E+03
  0.570324000000E+02  0.159621000000E+03 -0.144720000000E+03
  0.940723000000E+02  0.166364000000E+03 -0.143524000000E+03
  0.662043000000E+02  0.175533000000E+03 -0.144607000000E+03
  0.365498000000E+02  0.169376000000E+03 -0.160752000000E+03
  0.636676000000E+02  0.145170000000E+03 -0.148385000000E+03
  0.806094000000E+02  0.172932000000E+03 -0.136700000000E+03
  0.740801000000E+02  0.142479000000E+03 -0.148316000000E+03
  0.767435000000E+02  0.166934000000E+03 -0.139818000000E+03
  0.987684000000E+02  0.153117000000E+03 -0.142579000000E+03
  0.313688000000E+02  0.160961000000E+03 -0.159203000000E+03
  0.101515000000E+03  0.146731000000E+03 -0.145130000000E+03
  0.574182000000E+02  0.147706000000E+03 -0.148705000000E+03
  0.607538000000E+02  0.147866000000E+03 -0.147289000000E+03
  0.748552000000E+02  0.153913000000E+03 -0.144973000000E+03
  0.806253000000E+02  0.141459000000E+03 -0.147761000000E+03
  0.615801000000E+02  0.151164000000E+03 -0.146023000000E+03
  0.485634000000E+02  0.151498000000E+03 -0.146284000000E+03
  0.655817000000E+02  0.171988000000E+03 -0.143643000000E+03
  0.110557000000E+03  0.153590000000E+03 -0.146200000000E+03
  0.772848000000E+02  0.172363000000E+03 -0.137964000000E+03
  0.783866000000E+02  0.159511000000E+03 -0.143131000000E+03
  0.339563000000E+02  0.153663000000E+03 -0.153823000000E+03
  0.447780000000E+02  0.158808000000E+03 -0.141555000000E+03
  0.710862000000E+02  0.147963000000E+03 -0.145538000000E+03
  0.609977000000E+02  0.166714000000E+03 -0.144348000000E+03
  0.814375000000E+02  0.160060000000E+03 -0.141929000000E+03
  0.968217000000E+02  0.159452000000E+03 -0.141997000000E+03
  0.468083000000E+02  0.163422000000E+03 -0.142423000000E+03
  0.104686000000E+03  0.156174000000E+03 -0.142334000000E+03
  0.671875000000E+02  0.169360000000E+03 -0.142831000000E+03
  0.104276000000E+03  0.159678000000E+03 -0.141928000000E+03
  0.643714000000E+02  0.148767000000E+03 -0.146210000000E+03
  0.898637000000E+02  0.173729000000E+03 -0.133849000000E+03
  0.688823000000E+02  0.139404000000E+03 -0.158933000000E+03
  0.104580000000E+03  0.152770000000E+03 -0.143620000000E+03
  0.446579000000E+02  0.164800000000E+03 -0.142160000000E+03
  0.539189000000E+02  0.158845000000E+03 -0.144101000000E+03
  0.554777000000E+02  0.155757000000E+03 -0.144726000000E+03
  0.919931000000E+02  0.150708000000E+03 -0.142286000000E+03
  0.839273000000E+02  0.184167000000E+03 -0.170951000000E+03
  0.808104000000E+02  0.183257000000E+03 -0.171142000000E+03
  0.834583000000E+02  0.173955000000E+03 -0.135857000000E+03
  0.871852000000E+02  0.169815000000E+03 -0.137124000000E+03
  0.908226000000E+02  0.182891000000E+03 -0.136553000000E+03
  0.902839000000E+02  0.184591000000E+03 -0.140037000000E+03
  0.428982000000E+02  0.173749000000E+03 -0.151529000000E+03
  0.404258000000E+02  0.173040000000E+03 -0.153314000000E+03
  0.954001000000E+02  0.151764000000E+03 -0.142283000000E+03
  0.902343000000E+02  0.185793000000E+03 -0.143359000000E+03
  0.125841000000E+03  0.164389000000E+03 -0.153559000000E+03
  0.757549000000E+02  0.183645000000E+03 -0.154928000000E+03
  0.116098000000E+03  0.166541000000E+03 -0.169383000000E+03
  0.102728000000E+03  0.179153000000E+03 -0.154111000000E+03
  0.102867000000E+03  0.171118000000E+03 -0.139472000000E+03
  0.427229000000E+02  0.174114000000E+03 -0.155167000000E+03
  0.107650000000E+03  0.169454000000E+03 -0.150580000000E+03
  0.607117000000E+02  0.175244000000E+03 -0.182860000000E+03
  0.419187000000E+02  0.168652000000E+03 -0.182289000000E+03
  0.577675000000E+02  0.173621000000E+03 -0.185204000000E+03
  0.377946000000E+02  0.169850000000E+03 -0.172400000000E+03
  0.337744000000E+02  0.155658000000E+03 -0.161013000000E+03
  0.559484000000E+02  0.178905000000E+03 -0.179812000000E+03
  0.618106000000E+02  0.179066000000E+03 -0.176711000000E+03
  0.637870000000E+02  0.179980000000E+03 -0.173556000000E+03
  0.595776000000E+02  0.177715000000E+03 -0.179797000000E+03
  0.386353000000E+02  0.170280000000E+03 -0.163388000000E+03
  0.341735000000E+02  0.168365000000E+03 -0.158435000000E+03
  0.341834000000E+02  0.169743000000E+03 -0.154914000000E+03
  0.300007000000E+02  0.163451000000E+03 -0.156351000000E+03
  0.451399000000E+02  0.179810000000E+03 -0.165245000000E+03
  0.425521000000E+02  0.176483000000E+03 -0.181211000000E+03
  0.112254000000E+03  0.171841000000E+03 -0.162317000000E+03
  0.357203000000E+02  0.158119000000E+03 -0.168004000000E+03
  0.338732000000E+02  0.158443000000E+03 -0.164043000000E+03
  0.411698000000E+02  0.172634000000E+03 -0.162778000000E+03
  0.392854000000E+02  0.171462000000E+03 -0.159966000000E+03
  0.397741000000E+02  0.172551000000E+03 -0.156404000000E+03
  0.367404000000E+02  0.170736000000E+03 -0.157357000000E+03
  0.507936000000E+02  0.157900000000E+03 -0.191799000000E+03
  0.876140000000E+02  0.186964000000E+03 -0.155336000000E+03
  0.105154000000E+03  0.181397000000E+03 -0.158898000000E+03
  0.108481000000E+03  0.183654000000E+03 -0.159126000000E+03
  0.923664000000E+02  0.187482000000E+03 -0.161234000000E+03
  0.123018000000E+03  0.168754000000E+03 -0.151983000000E+03
  0.102610000000E+03  0.192996000000E+03 -0.159918000000E+03
  0.639104000000E+02  0.181481000000E+03 -0.153551000000E+03
  0.962496000000E+02  0.187861000000E+03 -0.166669000000E+03
  0.993600000000E+02  0.189529000000E+03 -0.166324000000E+03
  0.104811000000E+03  0.186690000000E+03 -0.169007000000E+03
  0.101213000000E+03  0.185467000000E+03 -0.170254000000E+03
  0.116398000000E+03  0.166801000000E+03 -0.146564000000E+03
  0.124340000000E+03  0.164191000000E+03 -0.151281000000E+03
  0.115545000000E+03  0.163113000000E+03 -0.175303000000E+03
  0.978215000000E+02  0.180869000000E+03 -0.174850000000E+03
  0.100551000000E+03  0.181888000000E+03 -0.171660000000E+03
  0.100861000000E+03  0.178693000000E+03 -0.173715000000E+03
  0.107727000000E+03  0.170636000000E+03 -0.182973000000E+03
  0.105369000000E+03  0.174603000000E+03 -0.175259000000E+03
  0.968810000000E+02  0.161177000000E+03 -0.196451000000E+03
  0.105660000000E+03  0.172110000000E+03 -0.183850000000E+03
  0.558023000000E+02  0.145977000000E+03 -0.182517000000E+03
  0.105748000000E+03  0.173383000000E+03 -0.181893000000E+03
  0.103437000000E+03  0.173587000000E+03 -0.184601000000E+03
  0.105658000000E+03  0.162076000000E+03 -0.191780000000E+03
  0.112283000000E+03  0.160243000000E+03 -0.184408000000E+03
  0.115246000000E+03  0.166357000000E+03 -0.173311000000E+03
  0.110329000000E+03  0.171333000000E+03 -0.177031000000E+03
  0.110007000000E+03  0.170078000000E+03 -0.180441000000E+03
  0.107517000000E+03  0.173321000000E+03 -0.176977000000E+03
  0.112464000000E+03  0.163930000000E+03 -0.182003000000E+03
  0.107894000000E+03  0.167477000000E+03 -0.185725000000E+03
  0.419953000000E+02  0.172337000000E+03 -0.182231000000E+03
  0.110286000000E+03  0.164007000000E+03 -0.185281000000E+03
  0.105159000000E+03  0.167760000000E+03 -0.188309000000E+03
  0.102738000000E+03  0.167897000000E+03 -0.190174000000E+03
  0.998374000000E+02  0.174158000000E+03 -0.186678000000E+03
  0.982957000000E+02  0.166881000000E+03 -0.193197000000E+03
  0.999873000000E+02  0.169039000000E+03 -0.190926000000E+03
  0.102304000000E+03  0.170881000000E+03 -0.188169000000E+03
  0.965576000000E+02  0.174227000000E+03 -0.187797000000E+03
  0.984626000000E+02  0.171902000000E+03 -0.189291000000E+03
  0.955619000000E+02  0.172398000000E+03 -0.189591000000E+03
  0.974989000000E+02  0.157336000000E+03 -0.197603000000E+03
  0.940054000000E+02  0.158949000000E+03 -0.197860000000E+03
  0.856974000000E+02  0.168395000000E+03 -0.193520000000E+03
  0.973344000000E+02  0.178147000000E+03 -0.182000000000E+03
  0.501010000000E+02  0.145973000000E+03 -0.160189000000E+03
  0.741899000000E+02  0.136541000000E+03 -0.160230000000E+03
  0.283078000000E+02  0.162106000000E+03 -0.152994000000E+03
  0.729880000000E+02  0.136950000000E+03 -0.180440000000E+03
  0.674806000000E+02  0.139977000000E+03 -0.177442000000E+03
  0.637401000000E+02  0.142128000000E+03 -0.156888000000E+03
  0.688437000000E+02  0.165373000000E+03 -0.195808000000E+03
  0.624960000000E+02  0.142099000000E+03 -0.176061000000E+03
  0.623757000000E+02  0.141679000000E+03 -0.172516000000E+03
  0.654626000000E+02  0.140176000000E+03 -0.169855000000E+03
  0.540366000000E+02  0.174575000000E+03 -0.184719000000E+03
  0.515174000000E+02  0.172034000000E+03 -0.186363000000E+03
  0.621732000000E+02  0.141733000000E+03 -0.161697000000E+03
  0.692628000000E+02  0.138237000000E+03 -0.169393000000E+03
  0.662284000000E+02  0.140106000000E+03 -0.162353000000E+03
  0.639520000000E+02  0.140800000000E+03 -0.165703000000E+03
  0.709460000000E+02  0.137268000000E+03 -0.173037000000E+03
  0.742127000000E+02  0.135522000000E+03 -0.165878000000E+03
  0.710254000000E+02  0.137436000000E+03 -0.166049000000E+03
  0.734458000000E+02  0.135609000000E+03 -0.176167000000E+03
  0.761117000000E+02  0.132695000000E+03 -0.175264000000E+03
  0.684925000000E+02  0.138989000000E+03 -0.174832000000E+03
  0.648665000000E+02  0.141332000000E+03 -0.177622000000E+03
  0.757293000000E+02  0.133822000000E+03 -0.168759000000E+03
  0.626512000000E+02  0.142760000000E+03 -0.179941000000E+03
  0.577831000000E+02  0.142899000000E+03 -0.167810000000E+03
  0.588078000000E+02  0.143206000000E+03 -0.160150000000E+03
  0.548389000000E+02  0.143710000000E+03 -0.165183000000E+03
  0.647115000000E+02  0.142637000000E+03 -0.182881000000E+03
  0.445140000000E+02  0.152042000000E+03 -0.176371000000E+03
  0.469655000000E+02  0.152672000000E+03 -0.183118000000E+03
  0.500263000000E+02  0.149256000000E+03 -0.182516000000E+03
  0.494167000000E+02  0.151968000000E+03 -0.186127000000E+03
  0.595060000000E+02  0.143470000000E+03 -0.177540000000E+03
  0.659247000000E+02  0.157644000000E+03 -0.198814000000E+03
  0.640160000000E+02  0.151009000000E+03 -0.196727000000E+03
  0.111872000000E+03  0.151520000000E+03 -0.149386000000E+03
  0.581821000000E+02  0.159866000000E+03 -0.195687000000E+03
  0.612174000000E+02  0.160217000000E+03 -0.196827000000E+03
  0.568986000000E+02  0.151812000000E+03 -0.193761000000E+03
  0.628344000000E+02  0.163729000000E+03 -0.195702000000E+03
  0.545188000000E+02  0.151660000000E+03 -0.191779000000E+03
  0.527264000000E+02  0.160419000000E+03 -0.192966000000E+03
  0.625026000000E+02  0.167141000000E+03 -0.192639000000E+03
  0.614347000000E+02  0.153927000000E+03 -0.197152000000E+03
  0.594244000000E+02  0.164701000000E+03 -0.193568000000E+03
  0.106561000000E+03  0.181957000000E+03 -0.162692000000E+03
  0.109090000000E+03  0.185714000000E+03 -0.162958000000E+03
  0.107541000000E+03  0.172056000000E+03 -0.167793000000E+03
  0.103143000000E+03  0.178777000000E+03 -0.162120000000E+03
  0.103600000000E+03  0.175208000000E+03 -0.169579000000E+03
  0.104173000000E+03  0.180501000000E+03 -0.166091000000E+03
  0.104432000000E+03  0.173523000000E+03 -0.166868000000E+03
  0.102680000000E+03  0.176798000000E+03 -0.166252000000E+03
  0.120231000000E+03  0.167263000000E+03 -0.163597000000E+03
  0.122717000000E+03  0.163943000000E+03 -0.161565000000E+03
  0.117877000000E+03  0.154651000000E+03 -0.154073000000E+03
  0.119111000000E+03  0.159786000000E+03 -0.163186000000E+03
  0.110816000000E+03  0.171315000000E+03 -0.173012000000E+03
  0.108066000000E+03  0.172484000000E+03 -0.170992000000E+03
  0.101669000000E+03  0.139015000000E+03 -0.149066000000E+03
  0.110430000000E+03  0.171120000000E+03 -0.165505000000E+03
  0.117850000000E+03  0.160781000000E+03 -0.165957000000E+03
  0.118228000000E+03  0.164828000000E+03 -0.166370000000E+03
  0.113583000000E+03  0.169589000000E+03 -0.167741000000E+03
  0.965726000000E+02  0.184845000000E+03 -0.141811000000E+03
  0.102993000000E+03  0.181072000000E+03 -0.139330000000E+03
  0.101249000000E+03  0.151452000000E+03 -0.197676000000E+03
  0.106566000000E+03  0.172236000000E+03 -0.164335000000E+03
  0.113492000000E+03  0.169215000000E+03 -0.171356000000E+03
  0.116603000000E+03  0.168477000000E+03 -0.165845000000E+03
  0.925352000000E+02  0.171839000000E+03 -0.190354000000E+03
  0.551164000000E+02  0.154262000000E+03 -0.193985000000E+03
  0.972172000000E+02  0.183431000000E+03 -0.138657000000E+03
  0.974036000000E+02  0.185639000000E+03 -0.145526000000E+03
  0.939286000000E+02  0.184161000000E+03 -0.138904000000E+03
  0.994920000000E+02  0.181288000000E+03 -0.137441000000E+03
  0.915251000000E+02  0.168175000000E+03 -0.140983000000E+03
  0.919492000000E+02  0.172625000000E+03 -0.134292000000E+03
  0.931874000000E+02  0.170828000000E+03 -0.139527000000E+03
  0.926406000000E+02  0.171500000000E+03 -0.136606000000E+03
  0.962530000000E+02  0.170439000000E+03 -0.144386000000E+03
  0.937843000000E+02  0.169917000000E+03 -0.142242000000E+03
  0.972393000000E+02  0.163236000000E+03 -0.143586000000E+03
  0.889879000000E+02  0.162893000000E+03 -0.139612000000E+03
  0.699658000000E+02  0.182906000000E+03 -0.158718000000E+03
  0.976247000000E+02  0.166793000000E+03 -0.145594000000E+03
  0.982421000000E+02  0.169939000000E+03 -0.147577000000E+03
  0.113662000000E+03  0.165243000000E+03 -0.144524000000E+03
  0.107002000000E+03  0.165189000000E+03 -0.144165000000E+03
  0.107100000000E+03  0.161956000000E+03 -0.141891000000E+03
  0.120805000000E+03  0.167762000000E+03 -0.149683000000E+03
  0.750888000000E+02  0.177756000000E+03 -0.140252000000E+03
  0.106132000000E+03  0.175219000000E+03 -0.144828000000E+03
  0.120838000000E+03  0.157486000000E+03 -0.148736000000E+03
  0.113218000000E+03  0.170384000000E+03 -0.149749000000E+03
  0.675402000000E+02  0.182598000000E+03 -0.155274000000E+03
  0.777318000000E+02  0.179830000000E+03 -0.139768000000E+03
  0.118300000000E+03  0.167931000000E+03 -0.148291000000E+03
  0.870150000000E+02  0.183185000000E+03 -0.138468000000E+03
  0.636227000000E+02  0.169459000000E+03 -0.144022000000E+03
  0.908692000000E+02  0.186750000000E+03 -0.146641000000E+03
  0.881083000000E+02  0.187224000000E+03 -0.151765000000E+03
  0.791901000000E+02  0.182737000000E+03 -0.142633000000E+03
  0.834461000000E+02  0.183381000000E+03 -0.140363000000E+03
  0.103627000000E+03  0.182216000000E+03 -0.148234000000E+03
  0.771277000000E+02  0.137065000000E+03 -0.155469000000E+03
  0.993416000000E+02  0.172837000000E+03 -0.145580000000E+03
  0.994679000000E+02  0.173396000000E+03 -0.149926000000E+03
  0.124770000000E+03  0.159575000000E+03 -0.155511000000E+03
  0.866541000000E+02  0.152117000000E+03 -0.142598000000E+03
  0.101257000000E+03  0.176497000000E+03 -0.152275000000E+03
  0.124844000000E+03  0.166641000000E+03 -0.152760000000E+03
  0.102179000000E+03  0.176433000000E+03 -0.149398000000E+03
  0.927242000000E+02  0.168734000000E+03 -0.193055000000E+03
  0.933611000000E+02  0.166159000000E+03 -0.194821000000E+03
  0.106812000000E+03  0.173605000000E+03 -0.140514000000E+03
  0.329727000000E+02  0.161667000000E+03 -0.162359000000E+03
  0.103042000000E+03  0.172639000000E+03 -0.143469000000E+03
  0.484602000000E+02  0.176798000000E+03 -0.155394000000E+03
  0.777518000000E+02  0.183971000000E+03 -0.151624000000E+03
  0.834541000000E+02  0.142945000000E+03 -0.197453000000E+03
  0.104374000000E+03  0.165307000000E+03 -0.190758000000E+03
  0.107068000000E+03  0.167602000000E+03 -0.147340000000E+03
  0.105843000000E+03  0.172849000000E+03 -0.160294000000E+03
  0.889653000000E+02  0.184665000000E+03 -0.171840000000E+03
  0.381329000000E+02  0.171082000000E+03 -0.169449000000E+03
  0.927611000000E+02  0.175416000000E+03 -0.132743000000E+03
  0.999588000000E+02  0.144420000000E+03 -0.198570000000E+03
  0.100329000000E+03  0.175157000000E+03 -0.135273000000E+03
  0.676985000000E+02  0.141464000000E+03 -0.183649000000E+03
  0.980091000000E+02  0.149606000000E+03 -0.198764000000E+03
  0.792930000000E+02  0.159661000000E+03 -0.200002000000E+03
  0.788327000000E+02  0.163465000000E+03 -0.198408000000E+03
  0.755074000000E+02  0.157982000000E+03 -0.199958000000E+03
  0.670244000000E+02  0.148668000000E+03 -0.195850000000E+03
  0.661349000000E+02  0.141313000000E+03 -0.180335000000E+03
  0.746196000000E+02  0.175007000000E+03 -0.185071000000E+03
  0.739677000000E+02  0.178784000000E+03 -0.178505000000E+03
  0.767007000000E+02  0.177642000000E+03 -0.181732000000E+03
  0.777469000000E+02  0.179831000000E+03 -0.177841000000E+03
  0.688602000000E+02  0.171617000000E+03 -0.188469000000E+03
  0.944967000000E+02  0.155319000000E+03 -0.198611000000E+03
  0.378985000000E+02  0.164941000000E+03 -0.174197000000E+03
  0.719654000000E+02  0.182855000000E+03 -0.162030000000E+03
  0.110526000000E+03  0.170435000000E+03 -0.150939000000E+03
  0.822588000000E+02  0.185298000000E+03 -0.154673000000E+03
  0.816603000000E+02  0.185228000000E+03 -0.151393000000E+03
  0.780545000000E+02  0.183657000000E+03 -0.164715000000E+03
  0.888580000000E+02  0.186630000000E+03 -0.161554000000E+03
  0.516656000000E+02  0.146614000000E+03 -0.156799000000E+03
  0.851723000000E+02  0.185167000000E+03 -0.167980000000E+03
  0.889387000000E+02  0.186004000000E+03 -0.168280000000E+03
  0.865836000000E+02  0.184882000000E+03 -0.170502000000E+03
  0.817144000000E+02  0.172314000000E+03 -0.188947000000E+03
  0.854080000000E+02  0.171157000000E+03 -0.190515000000E+03
  0.101872000000E+03  0.154532000000E+03 -0.142593000000E+03
  0.103547000000E+03  0.144324000000E+03 -0.146674000000E+03
  0.888534000000E+02  0.149916000000E+03 -0.142709000000E+03
  0.927293000000E+02  0.154285000000E+03 -0.141285000000E+03
  0.424219000000E+02  0.168745000000E+03 -0.143542000000E+03
  0.961471000000E+02  0.155574000000E+03 -0.141593000000E+03
  0.735099000000E+02  0.168281000000E+03 -0.140376000000E+03
  0.781726000000E+02  0.156036000000E+03 -0.144253000000E+03
  0.792479000000E+02  0.162393000000E+03 -0.141439000000E+03
  0.713396000000E+02  0.155635000000E+03 -0.145147000000E+03
  0.419498000000E+02  0.166299000000E+03 -0.142181000000E+03
  0.103358000000E+03  0.160759000000E+03 -0.194097000000E+03
  0.103754000000E+03  0.157163000000E+03 -0.195261000000E+03
  0.854975000000E+02  0.165616000000E+03 -0.196411000000E+03
  0.940462000000E+02  0.173831000000E+03 -0.188494000000E+03
  0.676037000000E+02  0.139220000000E+03 -0.166016000000E+03
  0.749368000000E+02  0.154145000000E+03 -0.199838000000E+03
  0.715906000000E+02  0.165356000000E+03 -0.196120000000E+03
  0.780082000000E+02  0.170308000000E+03 -0.190669000000E+03
  0.551855000000E+02  0.177624000000E+03 -0.152394000000E+03
  0.788112000000E+02  0.151607000000E+03 -0.144684000000E+03
  0.907225000000E+02  0.187402000000E+03 -0.157851000000E+03
  0.328024000000E+02  0.155208000000E+03 -0.156709000000E+03
  0.616505000000E+02  0.143427000000E+03 -0.155302000000E+03
  0.985037000000E+02  0.137163000000E+03 -0.150481000000E+03
  0.480947000000E+02  0.157748000000E+03 -0.142775000000E+03
  0.896804000000E+02  0.166603000000E+03 -0.195119000000E+03
  0.914580000000E+02  0.174581000000E+03 -0.187834000000E+03
  0.533621000000E+02  0.168363000000E+03 -0.144205000000E+03
  0.838672000000E+02  0.166608000000E+03 -0.138003000000E+03
  0.685052000000E+02  0.156651000000E+03 -0.145290000000E+03
  0.125516000000E+03  0.161585000000E+03 -0.152740000000E+03
  0.903074000000E+02  0.131539000000E+03 -0.194482000000E+03
  0.979013000000E+02  0.146089000000E+03 -0.198973000000E+03
  0.114803000000E+03  0.150895000000E+03 -0.164605000000E+03
  0.120007000000E+03  0.157485000000E+03 -0.158814000000E+03
  0.116056000000E+03  0.154672000000E+03 -0.162611000000E+03
  0.115025000000E+03  0.152883000000E+03 -0.159050000000E+03
  0.947888000000E+02  0.172334000000E+03 -0.134094000000E+03
  0.832664000000E+02  0.136557000000E+03 -0.154907000000E+03
  0.556319000000E+02  0.145562000000E+03 -0.155837000000E+03
  0.118601000000E+03  0.169750000000E+03 -0.149742000000E+03
  0.868919000000E+02  0.180408000000E+03 -0.135161000000E+03
  0.382767000000E+02  0.173012000000E+03 -0.172018000000E+03
  0.389871000000E+02  0.175336000000E+03 -0.174668000000E+03
  0.983477000000E+02  0.178466000000E+03 -0.135214000000E+03
  0.100608000000E+03  0.164537000000E+03 -0.144796000000E+03
  0.668805000000E+02  0.180102000000E+03 -0.148498000000E+03
  0.968395000000E+02  0.175339000000E+03 -0.133759000000E+03
  0.482844000000E+02  0.180593000000E+03 -0.179624000000E+03
  0.383903000000E+02  0.171586000000E+03 -0.175232000000E+03
  0.412338000000E+02  0.177822000000E+03 -0.177129000000E+03
  0.446073000000E+02  0.179661000000E+03 -0.178895000000E+03
  0.112502000000E+03  0.149080000000E+03 -0.155618000000E+03
  0.512699000000E+02  0.182738000000E+03 -0.173281000000E+03
  0.456079000000E+02  0.181578000000E+03 -0.171045000000E+03
  0.465169000000E+02  0.178110000000E+03 -0.182269000000E+03
  0.103319000000E+03  0.192302000000E+03 -0.163370000000E+03
  0.533186000000E+02  0.182042000000E+03 -0.175873000000E+03
  0.926081000000E+02  0.132781000000E+03 -0.195290000000E+03
  0.107969000000E+03  0.189297000000E+03 -0.155190000000E+03
  0.105280000000E+03  0.191656000000E+03 -0.161888000000E+03
  0.106600000000E+03  0.191088000000E+03 -0.158958000000E+03
  0.104626000000E+03  0.189639000000E+03 -0.167352000000E+03
  0.261761000000E+02  0.164444000000E+03 -0.145731000000E+03
  0.326542000000E+02  0.153260000000E+03 -0.146451000000E+03
  0.332181000000E+02  0.167557000000E+03 -0.142068000000E+03
  0.331483000000E+02  0.166150000000E+03 -0.140186000000E+03
  0.360781000000E+02  0.166723000000E+03 -0.141565000000E+03
  0.872217000000E+02  0.124247000000E+03 -0.183894000000E+03
  0.852153000000E+02  0.126082000000E+03 -0.185356000000E+03
  0.888107000000E+02  0.127044000000E+03 -0.190462000000E+03
  0.901448000000E+02  0.129103000000E+03 -0.192863000000E+03
  0.108577000000E+03  0.151258000000E+03 -0.192750000000E+03
  0.106716000000E+03  0.152073000000E+03 -0.194417000000E+03
  0.115493000000E+03  0.159424000000E+03 -0.177696000000E+03
  0.115931000000E+03  0.156358000000E+03 -0.177623000000E+03
  0.116241000000E+03  0.154993000000E+03 -0.175472000000E+03
  0.116350000000E+03  0.155040000000E+03 -0.174087000000E+03
  0.115508000000E+03  0.151695000000E+03 -0.170385000000E+03
  0.110380000000E+03  0.143801000000E+03 -0.152807000000E+03
  0.109653000000E+03  0.142776000000E+03 -0.151803000000E+03
  0.109490000000E+03  0.144132000000E+03 -0.151064000000E+03
  0.107447000000E+03  0.142332000000E+03 -0.149563000000E+03
  0.105739000000E+03  0.139191000000E+03 -0.149913000000E+03
  0.991355000000E+02  0.136292000000E+03 -0.151381000000E+03
  0.835183000000E+02  0.132783000000E+03 -0.161527000000E+03
  0.844077000000E+02  0.125874000000E+03 -0.170764000000E+03
  0.100595000000E+03  0.142313000000E+03 -0.198299000000E+03
  0.857796000000E+02  0.128640000000E+03 -0.171300000000E+03
  0.919819000000E+02  0.134233000000E+03 -0.183360000000E+03
  0.943378000000E+02  0.135564000000E+03 -0.190138000000E+03
  0.957552000000E+02  0.136947000000E+03 -0.192904000000E+03
  0.935325000000E+02  0.135631000000E+03 -0.186375000000E+03
  0.915032000000E+02  0.132798000000E+03 -0.184607000000E+03
  0.888808000000E+02  0.131436000000E+03 -0.177330000000E+03
  0.872512000000E+02  0.128649000000E+03 -0.176311000000E+03
  0.858339000000E+02  0.127267000000E+03 -0.173545000000E+03
  0.879244000000E+02  0.134130000000E+03 -0.162474000000E+03
  0.889915000000E+02  0.134975000000E+03 -0.160833000000E+03
  0.106846000000E+03  0.149823000000E+03 -0.190209000000E+03
  0.101686000000E+03  0.145543000000E+03 -0.182645000000E+03
  0.101110000000E+03  0.145413000000E+03 -0.178481000000E+03
  0.999657000000E+02  0.144116000000E+03 -0.180124000000E+03
  0.973859000000E+02  0.139088000000E+03 -0.158391000000E+03
  0.112454000000E+03  0.152621000000E+03 -0.173053000000E+03
  0.104354000000E+03  0.146476000000E+03 -0.167277000000E+03
  0.955409000000E+02  0.135929000000E+03 -0.195105000000E+03
  0.916540000000E+02  0.128760000000E+03 -0.192728000000E+03
  0.872726000000E+02  0.127001000000E+03 -0.179365000000E+03
  0.900858000000E+02  0.131415000000E+03 -0.181842000000E+03
  0.898515000000E+02  0.127682000000E+03 -0.187298000000E+03
  0.901282000000E+02  0.126439000000E+03 -0.190383000000E+03
  0.942896000000E+02  0.134082000000E+03 -0.193781000000E+03
  0.911907000000E+02  0.130599000000E+03 -0.187315000000E+03
  0.951372000000E+02  0.138126000000E+03 -0.183721000000E+03
  0.100228000000E+03  0.142075000000E+03 -0.196166000000E+03
  0.932092000000E+02  0.135945000000E+03 -0.182919000000E+03
  0.918469000000E+02  0.134814000000E+03 -0.179946000000E+03
  0.908079000000E+02  0.135347000000E+03 -0.171348000000E+03
  0.981842000000E+02  0.139825000000E+03 -0.195420000000E+03
  0.859420000000E+02  0.129772000000E+03 -0.168527000000E+03
  0.100920000000E+03  0.144119000000E+03 -0.186253000000E+03
  0.966336000000E+02  0.138427000000E+03 -0.192405000000E+03
  0.104579000000E+03  0.147410000000E+03 -0.190350000000E+03
  0.105126000000E+03  0.148396000000E+03 -0.187688000000E+03
  0.103406000000E+03  0.146969000000E+03 -0.185166000000E+03
  0.973296000000E+02  0.139664000000E+03 -0.189288000000E+03
  0.106291000000E+03  0.148898000000E+03 -0.192629000000E+03
  0.948051000000E+02  0.139836000000E+03 -0.172559000000E+03
  0.957528000000E+02  0.138230000000E+03 -0.186927000000E+03
  0.873326000000E+02  0.132124000000E+03 -0.166999000000E+03
  0.894281000000E+02  0.134388000000E+03 -0.168303000000E+03
  0.965253000000E+02  0.141263000000E+03 -0.175081000000E+03
  0.104153000000E+03  0.146588000000E+03 -0.193310000000E+03
  0.991332000000E+02  0.142745000000E+03 -0.182965000000E+03
  0.943782000000E+02  0.138655000000E+03 -0.176202000000E+03
  0.110810000000E+03  0.154388000000E+03 -0.189240000000E+03
  0.109169000000E+03  0.152195000000E+03 -0.176852000000E+03
  0.105764000000E+03  0.149502000000E+03 -0.180242000000E+03
  0.108279000000E+03  0.151965000000E+03 -0.181809000000E+03
  0.110427000000E+03  0.153703000000E+03 -0.179640000000E+03
  0.110710000000E+03  0.154481000000E+03 -0.183723000000E+03
  0.108344000000E+03  0.152034000000E+03 -0.185056000000E+03
  0.907227000000E+02  0.136466000000E+03 -0.163354000000E+03
  0.925900000000E+02  0.136047000000E+03 -0.157482000000E+03
  0.938884000000E+02  0.135381000000E+03 -0.153935000000E+03
  0.872390000000E+02  0.133466000000E+03 -0.158277000000E+03
  0.941851000000E+02  0.139449000000E+03 -0.168396000000E+03
  0.106612000000E+03  0.149803000000E+03 -0.175681000000E+03
  0.110240000000E+03  0.153980000000E+03 -0.186845000000E+03
  0.924539000000E+02  0.137958000000E+03 -0.165875000000E+03
  0.985689000000E+02  0.142791000000E+03 -0.170637000000E+03
  0.914294000000E+02  0.134837000000E+03 -0.155146000000E+03
  0.976475000000E+02  0.142431000000E+03 -0.173439000000E+03
  0.102841000000E+03  0.146904000000E+03 -0.181002000000E+03
  0.103583000000E+03  0.147419000000E+03 -0.177525000000E+03
  0.103601000000E+03  0.147105000000E+03 -0.174091000000E+03
  0.106629000000E+03  0.150380000000E+03 -0.183336000000E+03
  0.108014000000E+03  0.151470000000E+03 -0.178843000000E+03
  0.949767000000E+02  0.138930000000E+03 -0.162952000000E+03
  0.106043000000E+03  0.140982000000E+03 -0.153237000000E+03
  0.104226000000E+03  0.138988000000E+03 -0.151278000000E+03
  0.110749000000E+03  0.146801000000E+03 -0.161341000000E+03
  0.985472000000E+02  0.137670000000E+03 -0.154762000000E+03
  0.108970000000E+03  0.142913000000E+03 -0.153252000000E+03
  0.109772000000E+03  0.145270000000E+03 -0.158104000000E+03
  0.107525000000E+03  0.145111000000E+03 -0.161404000000E+03
  0.112106000000E+03  0.149250000000E+03 -0.166905000000E+03
  0.908115000000E+02  0.135927000000E+03 -0.153812000000E+03
  0.953521000000E+02  0.136649000000E+03 -0.151629000000E+03
  0.930894000000E+02  0.136305000000E+03 -0.152737000000E+03
  0.361884000000E+02  0.154987000000E+03 -0.143243000000E+03
  0.280946000000E+02  0.162694000000E+03 -0.145226000000E+03
  0.309241000000E+02  0.154283000000E+03 -0.147161000000E+03
  0.390484000000E+02  0.154049000000E+03 -0.141722000000E+03
  0.372957000000E+02  0.160638000000E+03 -0.139889000000E+03
  0.401732000000E+02  0.159183000000E+03 -0.138593000000E+03
  0.338499000000E+02  0.162475000000E+03 -0.141397000000E+03
  0.326599000000E+02  0.159409000000E+03 -0.143619000000E+03
  0.299045000000E+02  0.158443000000E+03 -0.145945000000E+03
  0.331159000000E+02  0.155970000000E+03 -0.144889000000E+03
  0.309902000000E+02  0.161586000000E+03 -0.143758000000E+03
  0.302992000000E+02  0.164831000000E+03 -0.142738000000E+03
  0.384094000000E+02  0.157280000000E+03 -0.140672000000E+03
  0.352781000000E+02  0.158476000000E+03 -0.142260000000E+03
  0.313399000000E+02  0.168837000000E+03 -0.145392000000E+03
  0.944214000000E+02  0.132658000000E+03 -0.162678000000E+03
  0.992613000000E+02  0.135798000000E+03 -0.153690000000E+03
  0.971725000000E+02  0.138330000000E+03 -0.195669000000E+03
  0.873302000000E+02  0.130038000000E+03 -0.174315000000E+03
  0.904313000000E+02  0.132835000000E+03 -0.180345000000E+03
  0.950831000000E+02  0.137029000000E+03 -0.189390000000E+03
  0.929205000000E+02  0.134181000000E+03 -0.187373000000E+03
  0.886685000000E+02  0.130032000000E+03 -0.179076000000E+03
  0.896445000000E+02  0.135556000000E+03 -0.164995000000E+03
  0.913647000000E+02  0.136983000000E+03 -0.167517000000E+03
  0.993787000000E+02  0.143922000000E+03 -0.175960000000E+03
  0.106303000000E+03  0.149886000000E+03 -0.186044000000E+03
  0.104572000000E+03  0.148395000000E+03 -0.183523000000E+03
  0.930849000000E+02  0.138410000000E+03 -0.170038000000E+03
  0.883969000000E+02  0.124628000000E+03 -0.186918000000E+03
  0.105701000000E+03  0.144898000000E+03 -0.195844000000E+03
  0.100285000000E+03  0.139539000000E+03 -0.157048000000E+03
  0.103762000000E+03  0.143277000000E+03 -0.161621000000E+03
  0.107239000000E+03  0.147015000000E+03 -0.166194000000E+03
  0.107838000000E+03  0.150171000000E+03 -0.171720000000E+03
  0.109580000000E+03  0.152018000000E+03 -0.173941000000E+03
  0.102612000000E+03  0.144629000000E+03 -0.165055000000E+03
  0.100870000000E+03  0.142782000000E+03 -0.162834000000E+03
  0.955729000000E+02  0.135654000000E+03 -0.196870000000E+03
  0.878507000000E+02  0.131254000000E+03 -0.160701000000E+03
  0.962910000000E+02  0.133803000000E+03 -0.195474000000E+03
  0.936314000000E+02  0.132431000000E+03 -0.195049000000E+03
  0.886493000000E+02  0.126504000000E+03 -0.184981000000E+03
  0.897295000000E+02  0.129232000000E+03 -0.184281000000E+03
  0.860372000000E+02  0.126074000000E+03 -0.176147000000E+03
  0.932809000000E+02  0.133112000000E+03 -0.191148000000E+03
  0.927178000000E+02  0.130712000000E+03 -0.194039000000E+03
  0.880100000000E+02  0.126709000000E+03 -0.182526000000E+03
  0.887583000000E+02  0.128880000000E+03 -0.181417000000E+03
  0.909617000000E+02  0.128648000000E+03 -0.189932000000E+03
  0.949128000000E+02  0.134628000000E+03 -0.196305000000E+03
  0.106217000000E+03  0.148490000000E+03 -0.195228000000E+03
  0.953086000000E+02  0.139036000000E+03 -0.180097000000E+03
  0.107394000000E+03  0.149861000000E+03 -0.194022000000E+03
  0.916111000000E+02  0.135366000000E+03 -0.175808000000E+03
  0.963886000000E+02  0.140639000000E+03 -0.177870000000E+03
  0.951012000000E+02  0.131785000000E+03 -0.194320000000E+03
  0.982455000000E+02  0.142690000000E+03 -0.177602000000E+03
  0.976350000000E+02  0.141596000000E+03 -0.180241000000E+03
  0.843835000000E+02  0.128951000000E+03 -0.165427000000E+03
  0.103181000000E+03  0.146276000000E+03 -0.187962000000E+03
  0.977810000000E+02  0.140754000000E+03 -0.185810000000E+03
  0.842147000000E+02  0.127230000000E+03 -0.168255000000E+03
  0.893159000000E+02  0.132821000000E+03 -0.173895000000E+03
  0.929200000000E+02  0.137525000000E+03 -0.173198000000E+03
  0.879905000000E+02  0.131885000000E+03 -0.170667000000E+03
  0.101920000000E+03  0.144562000000E+03 -0.190478000000E+03
  0.994453000000E+02  0.142102000000E+03 -0.188826000000E+03
  0.993663000000E+02  0.141518000000E+03 -0.192415000000E+03
  0.933196000000E+02  0.136957000000E+03 -0.178659000000E+03
  0.937103000000E+02  0.136962000000E+03 -0.181101000000E+03
  0.101885000000E+03  0.144065000000E+03 -0.194508000000E+03
  0.969552000000E+02  0.140431000000E+03 -0.182606000000E+03
  0.108035000000E+03  0.151377000000E+03 -0.188565000000E+03
  0.926413000000E+02  0.137145000000E+03 -0.161497000000E+03
  0.106096000000E+03  0.148323000000E+03 -0.169498000000E+03
  0.968256000000E+02  0.139600000000E+03 -0.161086000000E+03
  0.101036000000E+03  0.144239000000E+03 -0.168507000000E+03
  0.977817000000E+02  0.140948000000E+03 -0.163790000000E+03
  0.999506000000E+02  0.142856000000E+03 -0.165569000000E+03
  0.109767000000E+03  0.152870000000E+03 -0.191085000000E+03
  0.991279000000E+02  0.140935000000E+03 -0.160612000000E+03
  0.975265000000E+02  0.141593000000E+03 -0.167653000000E+03
  0.956438000000E+02  0.137240000000E+03 -0.156169000000E+03
  0.101676000000E+03  0.145715000000E+03 -0.175735000000E+03
  0.893857000000E+02  0.134278000000E+03 -0.156331000000E+03
  0.114814000000E+03  0.157570000000E+03 -0.180620000000E+03
  0.112607000000E+03  0.156044000000E+03 -0.181698000000E+03
  0.959163000000E+02  0.140940000000E+03 -0.170917000000E+03
  0.111322000000E+03  0.153865000000E+03 -0.176163000000E+03
  0.113064000000E+03  0.155712000000E+03 -0.178384000000E+03
  0.953628000000E+02  0.139794000000E+03 -0.165744000000E+03
  0.105527000000E+03  0.148398000000E+03 -0.172325000000E+03
  0.103552000000E+03  0.146546000000E+03 -0.170716000000E+03
  0.949852000000E+02  0.138020000000E+03 -0.159611000000E+03
  0.100769000000E+03  0.144687000000E+03 -0.172708000000E+03
  0.107774000000E+03  0.143219000000E+03 -0.155983000000E+03
  0.102024000000E+03  0.141408000000E+03 -0.159335000000E+03
  0.114192000000E+03  0.154490000000E+03 -0.175340000000E+03
  0.997359000000E+02  0.141225000000E+03 -0.198435000000E+03
  0.101305000000E+03  0.138463000000E+03 -0.153519000000E+03
  0.112153000000E+03  0.150199000000E+03 -0.168957000000E+03
  0.113975000000E+03  0.151687000000E+03 -0.170874000000E+03
  0.110715000000E+03  0.150752000000E+03 -0.170767000000E+03
  0.105500000000E+03  0.145146000000E+03 -0.163908000000E+03
  0.108803000000E+03  0.146703000000E+03 -0.163920000000E+03
  0.103966000000E+03  0.141481000000E+03 -0.157170000000E+03
  0.106562000000E+03  0.143636000000E+03 -0.158966000000E+03
  0.108977000000E+03  0.148884000000E+03 -0.168480000000E+03
  0.109820000000E+03  0.148010000000E+03 -0.165998000000E+03
  0.939946000000E+02  0.127889000000E+03 -0.187262000000E+03
  0.100486000000E+03  0.134003000000E+03 -0.178809000000E+03
  0.961584000000E+02  0.129927000000E+03 -0.184444000000E+03
  0.103566000000E+03  0.135514000000E+03 -0.153521000000E+03
  0.103052000000E+03  0.135008000000E+03 -0.157795000000E+03
  0.102074000000E+03  0.134386000000E+03 -0.155686000000E+03
  0.976004000000E+02  0.131003000000E+03 -0.162180000000E+03
  0.961091000000E+02  0.129875000000E+03 -0.164345000000E+03
  0.946178000000E+02  0.128748000000E+03 -0.166510000000E+03
  0.901439000000E+02  0.125365000000E+03 -0.173005000000E+03
  0.984394000000E+02  0.131441000000E+03 -0.164342000000E+03
  0.101514000000E+03  0.133819000000E+03 -0.159977000000E+03
  0.109939000000E+03  0.146865000000E+03 -0.183387000000E+03
  0.998472000000E+02  0.137672000000E+03 -0.193939000000E+03
  0.111794000000E+03  0.147375000000E+03 -0.178179000000E+03
  0.112221000000E+03  0.156330000000E+03 -0.186355000000E+03
  0.113004000000E+03  0.157152000000E+03 -0.184638000000E+03
  0.111937000000E+03  0.148550000000E+03 -0.180574000000E+03
  0.104987000000E+03  0.143173000000E+03 -0.192139000000E+03
  0.103944000000E+03  0.141813000000E+03 -0.191826000000E+03
  0.110732000000E+03  0.149365000000E+03 -0.185343000000E+03
  0.113079000000E+03  0.151981000000E+03 -0.182407000000E+03
  0.971594000000E+02  0.131480000000E+03 -0.186104000000E+03
  0.104679000000E+03  0.139278000000E+03 -0.180041000000E+03
  0.110390000000E+03  0.144326000000E+03 -0.173036000000E+03
  0.111774000000E+03  0.146305000000E+03 -0.174420000000E+03
  0.113867000000E+03  0.148258000000E+03 -0.172752000000E+03
  0.103830000000E+03  0.140906000000E+03 -0.188686000000E+03
  0.101939000000E+03  0.138404000000E+03 -0.188256000000E+03
  0.101838000000E+03  0.139289000000E+03 -0.191313000000E+03
  0.100832000000E+03  0.135743000000E+03 -0.184394000000E+03
  0.101459000000E+03  0.135386000000E+03 -0.180675000000E+03
  0.970933000000E+02  0.132233000000E+03 -0.188516000000E+03
  0.999806000000E+02  0.136734000000E+03 -0.190674000000E+03
  0.983302000000E+02  0.134269000000E+03 -0.189666000000E+03
  0.103609000000E+03  0.137339000000E+03 -0.177961000000E+03
  0.999768000000E+02  0.132630000000E+03 -0.162160000000E+03
  0.938270000000E+02  0.127875000000E+03 -0.170888000000E+03
  0.938931000000E+02  0.127805000000E+03 -0.183845000000E+03
  0.111305000000E+03  0.144192000000E+03 -0.164722000000E+03
  0.996709000000E+02  0.132809000000E+03 -0.168094000000E+03
  0.109235000000E+03  0.140929000000E+03 -0.156698000000E+03
  0.977954000000E+02  0.131367000000E+03 -0.176856000000E+03
  0.105972000000E+03  0.138638000000E+03 -0.163176000000E+03
  0.106682000000E+03  0.139634000000E+03 -0.166852000000E+03
  0.104586000000E+03  0.137668000000E+03 -0.169386000000E+03
  0.109956000000E+03  0.142363000000E+03 -0.160347000000E+03
  0.916935000000E+02  0.125607000000E+03 -0.186301000000E+03
  0.957783000000E+02  0.129585000000E+03 -0.179030000000E+03
  0.107870000000E+03  0.139124000000E+03 -0.154127000000E+03
  0.110995000000E+03  0.142313000000E+03 -0.155316000000E+03
  0.976025000000E+02  0.130986000000E+03 -0.169565000000E+03
  0.101007000000E+03  0.133876000000E+03 -0.164901000000E+03
  0.917132000000E+02  0.125857000000E+03 -0.182495000000E+03
  0.967911000000E+02  0.130369000000E+03 -0.172524000000E+03
  0.102133000000E+03  0.134737000000E+03 -0.162388000000E+03
  0.987592000000E+02  0.132139000000E+03 -0.174493000000E+03
  0.864347000000E+02  0.127212000000E+03 -0.166748000000E+03
  0.112059000000E+03  0.144185000000E+03 -0.157975000000E+03
  0.916352000000E+02  0.126493000000E+03 -0.170840000000E+03
  0.917626000000E+02  0.128323000000E+03 -0.167166000000E+03
  0.946116000000E+02  0.130674000000E+03 -0.162743000000E+03
  0.886526000000E+02  0.124237000000E+03 -0.175169000000E+03
  0.881175000000E+02  0.124584000000E+03 -0.173473000000E+03
  0.945771000000E+02  0.131454000000E+03 -0.161168000000E+03
  0.900701000000E+02  0.128814000000E+03 -0.165787000000E+03
  0.101705000000E+03  0.134754000000E+03 -0.154327000000E+03
  0.112189000000E+03  0.153016000000E+03 -0.187801000000E+03
  0.947498000000E+02  0.133548000000E+03 -0.156860000000E+03
  0.961077000000E+02  0.131386000000E+03 -0.161372000000E+03
  0.883440000000E+02  0.129257000000E+03 -0.164185000000E+03
  0.958539000000E+02  0.130886000000E+03 -0.162356000000E+03
  0.894255000000E+02  0.130481000000E+03 -0.162326000000E+03
  0.913189000000E+02  0.132475000000E+03 -0.158859000000E+03
  0.989405000000E+02  0.133052000000E+03 -0.158045000000E+03
  0.990917000000E+02  0.132131000000E+03 -0.160016000000E+03
  0.975180000000E+02  0.132994000000E+03 -0.158085000000E+03
  0.957382000000E+02  0.133051000000E+03 -0.157931000000E+03
  0.867224000000E+02  0.123601000000E+03 -0.174307000000E+03
  0.990881000000E+02  0.134650000000E+03 -0.153722000000E+03
  0.870717000000E+02  0.129881000000E+03 -0.162477000000E+03
  0.112759000000E+03  0.145294000000E+03 -0.159835000000E+03
  0.111999000000E+03  0.148257000000E+03 -0.164211000000E+03
  0.108646000000E+03  0.141558000000E+03 -0.150839000000E+03
  0.113715000000E+03  0.148438000000E+03 -0.161727000000E+03
  0.111321000000E+03  0.145226000000E+03 -0.154584000000E+03
  0.902518000000E+02  0.135399000000E+03 -0.159635000000E+03
  0.854149000000E+02  0.131625000000E+03 -0.161612000000E+03
  0.865940000000E+02  0.132150000000E+03 -0.164095000000E+03
  0.921264000000E+02  0.131007000000E+03 -0.190419000000E+03
  0.113686000000E+03  0.157578000000E+03 -0.183174000000E+03
  0.113757000000E+03  0.154599000000E+03 -0.184204000000E+03
  0.114121000000E+03  0.148932000000E+03 -0.163296000000E+03
  0.107676000000E+03  0.138583000000E+03 -0.151236000000E+03
  0.104065000000E+03  0.146184000000E+03 -0.196849000000E+03
  0.967909000000E+02  0.135780000000E+03 -0.152447000000E+03
  0.867179000000E+02  0.128998000000E+03 -0.163802000000E+03
  0.848581000000E+02  0.130501000000E+03 -0.163068000000E+03
  0.105399000000E+03  0.126438000000E+03 -0.193300000000E+03
  0.964518000000E+02  0.127191000000E+03 -0.177628000000E+03
  0.101246000000E+03  0.130557000000E+03 -0.178936000000E+03
  0.989089000000E+02  0.122959000000E+03 -0.184639000000E+03
  0.118209000000E+03  0.143576000000E+03 -0.176364000000E+03
  0.102667000000E+03  0.128724000000E+03 -0.188096000000E+03
  0.125820000000E+03  0.125531000000E+03 -0.157242000000E+03
  0.117186000000E+03  0.108419000000E+03 -0.165211000000E+03
  0.113445000000E+03  0.113636000000E+03 -0.160296000000E+03
  0.118942000000E+03  0.111914000000E+03 -0.158423000000E+03
  0.121409000000E+03  0.143556000000E+03 -0.168155000000E+03
  0.126023000000E+03  0.117549000000E+03 -0.161167000000E+03
  0.133771000000E+03  0.124221000000E+03 -0.168935000000E+03
  0.131327000000E+03  0.119679000000E+03 -0.172433000000E+03
  0.124888000000E+03  0.120396000000E+03 -0.167768000000E+03
  0.131132000000E+03  0.130151000000E+03 -0.179583000000E+03
  0.136097000000E+03  0.135451000000E+03 -0.172324000000E+03
  0.127679000000E+03  0.117935000000E+03 -0.181770000000E+03
  0.121694000000E+03  0.108604000000E+03 -0.172651000000E+03
  0.136254000000E+03  0.130659000000E+03 -0.162807000000E+03
  0.135031000000E+03  0.124838000000E+03 -0.155123000000E+03
  0.131662000000E+03  0.131162000000E+03 -0.159503000000E+03
  0.129166000000E+03  0.136509000000E+03 -0.164741000000E+03
  0.119720000000E+03  0.129365000000E+03 -0.161944000000E+03
  0.113311000000E+03  0.132945000000E+03 -0.188662000000E+03
  0.139058000000E+03  0.108388000000E+03 -0.174708000000E+03
  0.110293000000E+03  0.138871000000E+03 -0.183227000000E+03
  0.104185000000E+03  0.135062000000E+03 -0.186719000000E+03
  0.114964000000E+03  0.125287000000E+03 -0.187823000000E+03
  0.117659000000E+03  0.135706000000E+03 -0.183354000000E+03
  0.106568000000E+03  0.131922000000E+03 -0.180051000000E+03
  0.108178000000E+03  0.137936000000E+03 -0.176119000000E+03
  0.948776000000E+02  0.125077000000E+03 -0.171140000000E+03
  0.941629000000E+02  0.127210000000E+03 -0.162662000000E+03
  0.104568000000E+03  0.130790000000E+03 -0.167670000000E+03
  0.102263000000E+03  0.134181000000E+03 -0.194074000000E+03
  0.102214000000E+03  0.111420000000E+03 -0.172886000000E+03
  0.109443000000E+03  0.111583000000E+03 -0.174833000000E+03
  0.105013000000E+03  0.113975000000E+03 -0.161813000000E+03
  0.995122000000E+02  0.128703000000E+03 -0.163410000000E+03
  0.992841000000E+02  0.127331000000E+03 -0.168973000000E+03
  0.980261000000E+02  0.121209000000E+03 -0.157264000000E+03
  0.106071000000E+03  0.122794000000E+03 -0.155054000000E+03
  0.103940000000E+03  0.133522000000E+03 -0.163681000000E+03
  0.930276000000E+02  0.120346000000E+03 -0.160131000000E+03
  0.128465000000E+03  0.139263000000E+03 -0.177824000000E+03
  0.139153000000E+03  0.133382000000E+03 -0.167074000000E+03
  0.100909000000E+03  0.129806000000E+03 -0.155277000000E+03
  0.104534000000E+03  0.131924000000E+03 -0.156978000000E+03
  0.107113000000E+03  0.120386000000E+03 -0.187952000000E+03
  0.113468000000E+03  0.115079000000E+03 -0.185488000000E+03
  0.102253000000E+03  0.129220000000E+03 -0.174899000000E+03
  0.100218000000E+03  0.116298000000E+03 -0.180620000000E+03
  0.111229000000E+03  0.137070000000E+03 -0.167740000000E+03
  0.125528000000E+03  0.126088000000E+03 -0.182663000000E+03
  0.898290000000E+02  0.113322000000E+03 -0.165472000000E+03
  0.943331000000E+02  0.115463000000E+03 -0.172694000000E+03
  0.131233000000E+03  0.107621000000E+03 -0.162416000000E+03
  0.124632000000E+03  0.112112000000E+03 -0.157530000000E+03
  0.123193000000E+03  0.138756000000E+03 -0.171437000000E+03
  0.112915000000E+03  0.135557000000E+03 -0.158643000000E+03
  0.122575000000E+03  0.101778000000E+03 -0.165454000000E+03
  0.121449000000E+03  0.138348000000E+03 -0.180149000000E+03
  0.136153000000E+03  0.119287000000E+03 -0.152935000000E+03
  0.117076000000E+03  0.120546000000E+03 -0.156686000000E+03
  0.113736000000E+03  0.126322000000E+03 -0.155325000000E+03
  0.119326000000E+03  0.110340000000E+03 -0.180206000000E+03
  0.118775000000E+03  0.139827000000E+03 -0.159798000000E+03
  0.990263000000E+02  0.131899000000E+03 -0.154254000000E+03
  0.892966000000E+02  0.119138000000E+03 -0.165318000000E+03
  0.985206000000E+02  0.112015000000E+03 -0.166634000000E+03
  0.132289000000E+03  0.116262000000E+03 -0.179801000000E+03
  0.126948000000E+03  0.107396000000E+03 -0.175412000000E+03
  0.957545000000E+02  0.130224000000E+03 -0.157020000000E+03
  0.127695000000E+03  0.111446000000E+03 -0.166142000000E+03
  0.132573000000E+03  0.108659000000E+03 -0.155579000000E+03
  0.967752000000E+02  0.113468000000E+03 -0.159663000000E+03
  0.130736000000E+03  0.114495000000E+03 -0.154267000000E+03
  0.133453000000E+03  0.107273000000E+03 -0.179519000000E+03
  0.132691000000E+03  0.998978000000E+02 -0.170506000000E+03
  0.132399000000E+03  0.103301000000E+03 -0.165517000000E+03
  0.120829000000E+03  0.142052000000E+03 -0.178232000000E+03
  0.134155000000E+03  0.109926000000E+03 -0.150242000000E+03
  0.125871000000E+03  0.105296000000E+03 -0.157176000000E+03
  0.134047000000E+03  0.101945000000E+03 -0.155417000000E+03
  0.109698000000E+03  0.140911000000E+03 -0.192016000000E+03
  0.887929000000E+02  0.129307000000E+03 -0.158563000000E+03
  0.108910000000E+03  0.137699000000E+03 -0.193328000000E+03
  0.114708000000E+03  0.140780000000E+03 -0.158618000000E+03
  0.116682000000E+03  0.137757000000E+03 -0.156923000000E+03
  0.939659000000E+02  0.115074000000E+03 -0.180006000000E+03
  0.861141000000E+02  0.124583000000E+03 -0.162493000000E+03
  0.139064000000E+03  0.135580000000E+03 -0.164076000000E+03
  0.123460000000E+03  0.115222000000E+03 -0.152627000000E+03
  0.100820000000E+03  0.132701000000E+03 -0.153982000000E+03
  0.100767000000E+03  0.131756000000E+03 -0.153943000000E+03
  0.977379000000E+02  0.131905000000E+03 -0.153496000000E+03
  0.980638000000E+02  0.126278000000E+03 -0.191632000000E+03
  0.997517000000E+02  0.132912000000E+03 -0.154337000000E+03
  0.910008000000E+02  0.130910000000E+03 -0.157263000000E+03
  0.969054000000E+02  0.107091000000E+03 -0.161589000000E+03
  0.115622000000E+03  0.138807000000E+03 -0.189343000000E+03
  0.117764000000E+03  0.135524000000E+03 -0.189619000000E+03
  0.967557000000E+02  0.122807000000E+03 -0.189473000000E+03
  0.996656000000E+02  0.120356000000E+03 -0.189147000000E+03
  0.102882000000E+03  0.121499000000E+03 -0.190426000000E+03
  0.994351000000E+02  0.117250000000E+03 -0.187198000000E+03
  0.933696000000E+02  0.119372000000E+03 -0.184943000000E+03
  0.962332000000E+02  0.119682000000E+03 -0.187498000000E+03
  0.993964000000E+02  0.112053000000E+03 -0.181173000000E+03
  0.993187000000E+02  0.114378000000E+03 -0.184564000000E+03
  0.951964000000E+02  0.107816000000E+03 -0.165109000000E+03
  0.106189000000E+03  0.109715000000E+03 -0.159384000000E+03
  0.100583000000E+03  0.108244000000E+03 -0.169896000000E+03
  0.946273000000E+02  0.109921000000E+03 -0.171797000000E+03
  0.904665000000E+02  0.114442000000E+03 -0.174128000000E+03
  0.888941000000E+02  0.113746000000E+03 -0.171428000000E+03
  0.108618000000E+03  0.129082000000E+03 -0.193831000000E+03
  0.112171000000E+03  0.127788000000E+03 -0.192336000000E+03
  0.114850000000E+03  0.129512000000E+03 -0.191289000000E+03
  0.112000000000E+03  0.122212000000E+03 -0.152594000000E+03
  0.988115000000E+02  0.108216000000E+03 -0.165632000000E+03
  0.887226000000E+02  0.111184000000E+03 -0.169103000000E+03
  0.993047000000E+02  0.107130000000E+03 -0.159275000000E+03
  0.107573000000E+03  0.111336000000E+03 -0.156608000000E+03
  0.102699000000E+03  0.108517000000E+03 -0.159466000000E+03
  0.123311000000E+03  0.142593000000E+03 -0.171884000000E+03
  0.101199000000E+03  0.107828000000E+03 -0.157204000000E+03
  0.103860000000E+03  0.109709000000E+03 -0.155886000000E+03
  0.891750000000E+02  0.108835000000E+03 -0.165617000000E+03
  0.120066000000E+03  0.141399000000E+03 -0.183045000000E+03
  0.122562000000E+03  0.140690000000E+03 -0.183918000000E+03
  0.116139000000E+03  0.132366000000E+03 -0.190702000000E+03
  0.103032000000E+03  0.109206000000E+03 -0.180212000000E+03
  0.995067000000E+02  0.110125000000E+03 -0.177527000000E+03
  0.108507000000E+03  0.113629000000E+03 -0.154440000000E+03
  0.112588000000E+03  0.126064000000E+03 -0.152299000000E+03
  0.114720000000E+03  0.129231000000E+03 -0.153379000000E+03
  0.116575000000E+03  0.132104000000E+03 -0.155161000000E+03
  0.106524000000E+03  0.126481000000E+03 -0.150453000000E+03
  0.108334000000E+03  0.120294000000E+03 -0.151172000000E+03
  0.105454000000E+03  0.137382000000E+03 -0.194427000000E+03
  0.104894000000E+03  0.139958000000E+03 -0.195346000000E+03
  0.110941000000E+03  0.129604000000E+03 -0.152215000000E+03
  0.104440000000E+03  0.131401000000E+03 -0.152856000000E+03
  0.949609000000E+02  0.132364000000E+03 -0.153147000000E+03
  0.847784000000E+02  0.115616000000E+03 -0.166603000000E+03
  0.862972000000E+02  0.118378000000E+03 -0.168271000000E+03
  0.887213000000E+02  0.117729000000E+03 -0.171704000000E+03
  0.938122000000E+02  0.116968000000E+03 -0.182323000000E+03
  0.923621000000E+02  0.114686000000E+03 -0.177358000000E+03
  0.103847000000E+03  0.141359000000E+03 -0.196507000000E+03
  0.128142000000E+03  0.141040000000E+03 -0.164514000000E+03
  0.123893000000E+03  0.135707000000E+03 -0.158270000000E+03
  0.124975000000E+03  0.142683000000E+03 -0.169135000000E+03
  0.128334000000E+03  0.142402000000E+03 -0.168140000000E+03
  0.106991000000E+03  0.115491000000E+03 -0.189194000000E+03
  0.134464000000E+03  0.141780000000E+03 -0.167654000000E+03
  0.135413000000E+03  0.113919000000E+03 -0.181623000000E+03
  0.138111000000E+03  0.970602000000E+02 -0.181862000000E+03
  0.135573000000E+03  0.127088000000E+03 -0.179535000000E+03
  0.123789000000E+03  0.129201000000E+03 -0.155315000000E+03
  0.123865000000E+03  0.102810000000E+03 -0.176804000000E+03
  0.138366000000E+03  0.951380000000E+02 -0.177840000000E+03
  0.141333000000E+03  0.960016000000E+02 -0.180591000000E+03
  0.134096000000E+03  0.952183000000E+02 -0.176744000000E+03
  0.121428000000E+03  0.105348000000E+03 -0.177131000000E+03
  0.120736000000E+03  0.104060000000E+03 -0.174147000000E+03
  0.142669000000E+03  0.982234000000E+02 -0.173280000000E+03
  0.136692000000E+03  0.111251000000E+03 -0.173933000000E+03
  0.117832000000E+03  0.105784000000E+03 -0.174350000000E+03
  0.126124000000E+03  0.939526000000E+02 -0.175678000000E+03
  0.132973000000E+03  0.951226000000E+02 -0.173026000000E+03
  0.117762000000E+03  0.104491000000E+03 -0.171123000000E+03
  0.132230000000E+03  0.955976000000E+02 -0.169921000000E+03
  0.122614000000E+03  0.963048000000E+02 -0.175401000000E+03
  0.119837000000E+03  0.101037000000E+03 -0.171562000000E+03
  0.119218000000E+03  0.132710000000E+03 -0.189349000000E+03
  0.128906000000E+03  0.943870000000E+02 -0.171592000000E+03
  0.134618000000E+03  0.133871000000E+03 -0.160399000000E+03
  0.116522000000E+03  0.103668000000E+03 -0.167495000000E+03
  0.126081000000E+03  0.948890000000E+02 -0.167793000000E+03
  0.116515000000E+03  0.103227000000E+03 -0.163697000000E+03
  0.130025000000E+03  0.993710000000E+02 -0.155494000000E+03
  0.137990000000E+03  0.106138000000E+03 -0.164508000000E+03
  0.135936000000E+03  0.135927000000E+03 -0.163185000000E+03
  0.107043000000E+03  0.108511000000E+03 -0.165929000000E+03
  0.973068000000E+02  0.132229000000E+03 -0.154659000000E+03
  0.116578000000E+03  0.104680000000E+03 -0.160729000000E+03
  0.112210000000E+03  0.108490000000E+03 -0.161239000000E+03
  0.138869000000E+03  0.102575000000E+03 -0.164470000000E+03
  0.126328000000E+03  0.126238000000E+03 -0.153852000000E+03
  0.129633000000E+03  0.132864000000E+03 -0.157144000000E+03
  0.137632000000E+03  0.140139000000E+03 -0.166782000000E+03
  0.140515000000E+03  0.110662000000E+03 -0.152241000000E+03
  0.140247000000E+03  0.109150000000E+03 -0.156392000000E+03
  0.127233000000E+03  0.120146000000E+03 -0.151466000000E+03
  0.140314000000E+03  0.113438000000E+03 -0.149320000000E+03
  0.134031000000E+03  0.116857000000E+03 -0.146999000000E+03
  0.132524000000E+03  0.136318000000E+03 -0.162386000000E+03
  0.125737000000E+03  0.132644000000E+03 -0.156675000000E+03
  0.129893000000E+03  0.107483000000E+03 -0.146375000000E+03
  0.128596000000E+03  0.104054000000E+03 -0.149283000000E+03
  0.136138000000E+03  0.121439000000E+03 -0.150029000000E+03
  0.117649000000E+03  0.121865000000E+03 -0.153941000000E+03
  0.140824000000E+03  0.121060000000E+03 -0.153881000000E+03
  0.141192000000E+03  0.100903000000E+03 -0.169921000000E+03
  0.115296000000E+03  0.123589000000E+03 -0.153351000000E+03
  0.132072000000E+03  0.129082000000E+03 -0.153532000000E+03
  0.120853000000E+03  0.121994000000E+03 -0.154112000000E+03
  0.137295000000E+03  0.111582000000E+03 -0.160638000000E+03
  0.140702000000E+03  0.110649000000E+03 -0.148600000000E+03
  0.135025000000E+03  0.113404000000E+03 -0.145689000000E+03
  0.135146000000E+03  0.124073000000E+03 -0.151192000000E+03
  0.129685000000E+03  0.100575000000E+03 -0.152213000000E+03
  0.131477000000E+03  0.125350000000E+03 -0.183219000000E+03
  0.130297000000E+03  0.945158000000E+02 -0.175967000000E+03
  0.132599000000E+03  0.133046000000E+03 -0.157958000000E+03
  0.125384000000E+03  0.142318000000E+03 -0.174931000000E+03
  0.126864000000E+03  0.142547000000E+03 -0.171690000000E+03
  0.133764000000E+03  0.142410000000E+03 -0.177063000000E+03
  0.134335000000E+03  0.139025000000E+03 -0.164724000000E+03
  0.131321000000E+03  0.141279000000E+03 -0.165992000000E+03
  0.133800000000E+03  0.142824000000E+03 -0.171104000000E+03
  0.130817000000E+03  0.142837000000E+03 -0.177414000000E+03
  0.132332000000E+03  0.142932000000E+03 -0.174363000000E+03
  0.127432000000E+03  0.142614000000E+03 -0.177945000000E+03
  0.105682000000E+03  0.106808000000E+03 -0.176953000000E+03
  0.133922000000E+03  0.135921000000E+03 -0.182840000000E+03
  0.134168000000E+03  0.139208000000E+03 -0.182149000000E+03
  0.131506000000E+03  0.137539000000E+03 -0.184525000000E+03
  0.131717000000E+03  0.133815000000E+03 -0.184317000000E+03
  0.132783000000E+03  0.142066000000E+03 -0.180060000000E+03
  0.134805000000E+03  0.959836000000E+02 -0.180441000000E+03
  0.137748000000E+03  0.134567000000E+03 -0.176987000000E+03
  0.135911000000E+03  0.140429000000E+03 -0.178609000000E+03
  0.136231000000E+03  0.136211000000E+03 -0.179815000000E+03
  0.128769000000E+03  0.131525000000E+03 -0.185857000000E+03
  0.139828000000E+03  0.134095000000E+03 -0.174270000000E+03
  0.111847000000E+03  0.107131000000E+03 -0.181776000000E+03
  0.139643000000E+03  0.130388000000E+03 -0.174694000000E+03
  0.130605000000E+03  0.140992000000E+03 -0.182987000000E+03
  0.129576000000E+03  0.953912000000E+02 -0.181328000000E+03
  0.126589000000E+03  0.120932000000E+03 -0.186667000000E+03
  0.131470000000E+03  0.106949000000E+03 -0.183373000000E+03
  0.111439000000E+03  0.113662000000E+03 -0.189165000000E+03
  0.114284000000E+03  0.118832000000E+03 -0.190981000000E+03
  0.108736000000E+03  0.111425000000E+03 -0.187094000000E+03
  0.122325000000E+03  0.127378000000E+03 -0.188772000000E+03
  0.109126000000E+03  0.106051000000E+03 -0.175545000000E+03
  0.119137000000E+03  0.105886000000E+03 -0.176399000000E+03
  0.123097000000E+03  0.105583000000E+03 -0.179540000000E+03
  0.121660000000E+03  0.110097000000E+03 -0.184690000000E+03
  0.126708000000E+03  0.115885000000E+03 -0.185580000000E+03
  0.112267000000E+03  0.106026000000E+03 -0.176178000000E+03
  0.117277000000E+03  0.116316000000E+03 -0.190422000000E+03
  0.137936000000E+03  0.124588000000E+03 -0.177969000000E+03
  0.138761000000E+03  0.122284000000E+03 -0.165482000000E+03
  0.107233000000E+03  0.106635000000E+03 -0.172866000000E+03
  0.102487000000E+03  0.111767000000E+03 -0.184130000000E+03
  0.105292000000E+03  0.112326000000E+03 -0.186567000000E+03
  0.114866000000E+03  0.106219000000E+03 -0.173472000000E+03
  0.133657000000E+03  0.116196000000E+03 -0.182413000000E+03
  0.110365000000E+03  0.108847000000E+03 -0.184533000000E+03
  0.106357000000E+03  0.109546000000E+03 -0.183796000000E+03
  0.115748000000E+03  0.112776000000E+03 -0.188751000000E+03
  0.130769000000E+03  0.122843000000E+03 -0.183775000000E+03
  0.143679000000E+03  0.130023000000E+03 -0.170858000000E+03
  0.108622000000E+03  0.118351000000E+03 -0.190371000000E+03
  0.118870000000E+03  0.111203000000E+03 -0.186535000000E+03
  0.123185000000E+03  0.115136000000E+03 -0.187157000000E+03
  0.128397000000E+03  0.123072000000E+03 -0.185567000000E+03
  0.121136000000E+03  0.117502000000E+03 -0.189534000000E+03
  0.125605000000E+03  0.125669000000E+03 -0.187507000000E+03
  0.117806000000E+03  0.102415000000E+03 -0.160662000000E+03
  0.120924000000E+03  0.113539000000E+03 -0.153676000000E+03
  0.124702000000E+03  0.108710000000E+03 -0.152861000000E+03
  0.136030000000E+03  0.109844000000E+03 -0.145106000000E+03
  0.126318000000E+03  0.116631000000E+03 -0.151281000000E+03
  0.118679000000E+03  0.118791000000E+03 -0.153905000000E+03
  0.132733000000E+03  0.103781000000E+03 -0.145987000000E+03
  0.136662000000E+03  0.106137000000E+03 -0.145396000000E+03
  0.132204000000E+03  0.110684000000E+03 -0.145614000000E+03
  0.130603000000E+03  0.121521000000E+03 -0.149946000000E+03
  0.121350000000E+03  0.110367000000E+03 -0.154372000000E+03
  0.134454000000E+03  0.100612000000E+03 -0.147996000000E+03
  0.131734000000E+03  0.110373000000E+03 -0.183867000000E+03
  0.118240000000E+03  0.101683000000E+03 -0.169025000000E+03
  0.117845000000E+03  0.100610000000E+03 -0.166134000000E+03
  0.123654000000E+03  0.957403000000E+02 -0.164220000000E+03
  0.133739000000E+03  0.126825000000E+03 -0.152225000000E+03
  0.132886000000E+03  0.988738000000E+02 -0.150387000000E+03
  0.133590000000E+03  0.975838000000E+02 -0.161251000000E+03
  0.138228000000E+03  0.971441000000E+02 -0.157240000000E+03
  0.137887000000E+03  0.969848000000E+02 -0.153899000000E+03
  0.127916000000E+03  0.101338000000E+03 -0.155663000000E+03
  0.130036000000E+03  0.961023000000E+02 -0.167599000000E+03
  0.136805000000E+03  0.972028000000E+02 -0.167112000000E+03
  0.127354000000E+03  0.972787000000E+02 -0.181700000000E+03
  0.122617000000E+03  0.138824000000E+03 -0.160230000000E+03
  0.135355000000E+03  0.103100000000E+03 -0.181513000000E+03
  0.131862000000E+03  0.103859000000E+03 -0.182079000000E+03
  0.143652000000E+03  0.121272000000E+03 -0.159719000000E+03
  0.134833000000E+03  0.129778000000E+03 -0.180329000000E+03
  0.141626000000E+03  0.104737000000E+03 -0.179333000000E+03
  0.137008000000E+03  0.110585000000E+03 -0.180812000000E+03
  0.136116000000E+03  0.117356000000E+03 -0.180125000000E+03
  0.136575000000E+03  0.106360000000E+03 -0.168326000000E+03
  0.138550000000E+03  0.116718000000E+03 -0.176981000000E+03
  0.137581000000E+03  0.113988000000E+03 -0.178823000000E+03
  0.138581000000E+03  0.101005000000E+03 -0.162008000000E+03
  0.144521000000E+03  0.132787000000E+03 -0.166168000000E+03
  0.115010000000E+03  0.122630000000E+03 -0.191199000000E+03
  0.140629000000E+03  0.133168000000E+03 -0.163532000000E+03
  0.142303000000E+03  0.104097000000E+03 -0.150864000000E+03
  0.123749000000E+03  0.112187000000E+03 -0.152635000000E+03
  0.139003000000E+03  0.119796000000E+03 -0.151235000000E+03
  0.139824000000E+03  0.116720000000E+03 -0.150119000000E+03
  0.139580000000E+03  0.101028000000E+03 -0.166795000000E+03
  0.127591000000E+03  0.135046000000E+03 -0.158942000000E+03
  0.140732000000E+03  0.102799000000E+03 -0.154439000000E+03
  0.140917000000E+03  0.968437000000E+02 -0.170321000000E+03
  0.144531000000E+03  0.128763000000E+03 -0.165876000000E+03
  0.128604000000E+03  0.135435000000E+03 -0.186037000000E+03
  0.133206000000E+03  0.119123000000E+03 -0.182242000000E+03
  0.132617000000E+03  0.122325000000E+03 -0.182326000000E+03
  0.135379000000E+03  0.121355000000E+03 -0.180150000000E+03
  0.142168000000E+03  0.124770000000E+03 -0.171044000000E+03
  0.140025000000E+03  0.120450000000E+03 -0.162067000000E+03
  0.134370000000E+03  0.124668000000E+03 -0.180693000000E+03
  0.137720000000E+03  0.117770000000E+03 -0.160837000000E+03
  0.138052000000E+03  0.132119000000E+03 -0.176340000000E+03
  0.145218000000E+03  0.117402000000E+03 -0.158972000000E+03
  0.137218000000E+03  0.120201000000E+03 -0.168967000000E+03
  0.134314000000E+03  0.117875000000E+03 -0.161470000000E+03
  0.139202000000E+03  0.114614000000E+03 -0.159887000000E+03
  0.141548000000E+03  0.117535000000E+03 -0.160432000000E+03
  0.142225000000E+03  0.127727000000E+03 -0.163179000000E+03
  0.142011000000E+03  0.123895000000E+03 -0.162286000000E+03
  0.139020000000E+03  0.104036000000E+03 -0.161231000000E+03
  0.138027000000E+03  0.122684000000E+03 -0.152394000000E+03
  0.118564000000E+03  0.108670000000E+03 -0.156415000000E+03
  0.115292000000E+03  0.110686000000E+03 -0.156869000000E+03
  0.137862000000E+03  0.133555000000E+03 -0.162090000000E+03
  0.139657000000E+03  0.130579000000E+03 -0.161652000000E+03
  0.140048000000E+03  0.127065000000E+03 -0.160111000000E+03
  0.137142000000E+03  0.125797000000E+03 -0.153293000000E+03
  0.141422000000E+03  0.105346000000E+03 -0.175989000000E+03
  0.138404000000E+03  0.111129000000E+03 -0.177080000000E+03
  0.139753000000E+03  0.107723000000E+03 -0.178972000000E+03
  0.130880000000E+03  0.115945000000E+03 -0.166383000000E+03
  0.143415000000E+03  0.995034000000E+02 -0.176320000000E+03
  0.140259000000E+03  0.106592000000E+03 -0.153321000000E+03
  0.141587000000E+03  0.107760000000E+03 -0.149636000000E+03
  0.135371000000E+03  0.973551000000E+02 -0.152087000000E+03
  0.140606000000E+03  0.989440000000E+02 -0.154611000000E+03
  0.138334000000E+03  0.116678000000E+03 -0.173598000000E+03
  0.137734000000E+03  0.114033000000E+03 -0.175375000000E+03
  0.130966000000E+03  0.134467000000E+03 -0.159847000000E+03
  0.110348000000E+03  0.121223000000E+03 -0.191134000000E+03
  0.125537000000E+03  0.129439000000E+03 -0.187382000000E+03
  0.109843000000E+03  0.110215000000E+03 -0.159192000000E+03
  0.122001000000E+03  0.141634000000E+03 -0.180996000000E+03
  0.126125000000E+03  0.141769000000E+03 -0.182094000000E+03
  0.115007000000E+03  0.117037000000E+03 -0.154172000000E+03
  0.115341000000E+03  0.126372000000E+03 -0.191053000000E+03
  0.141761000000E+03  0.128084000000E+03 -0.172708000000E+03
  0.101220000000E+03  0.139896000000E+03 -0.197562000000E+03
  0.135202000000E+03  0.976815000000E+02 -0.164320000000E+03
  0.112305000000E+03  0.131890000000E+03 -0.192784000000E+03
  0.114303000000E+03  0.135431000000E+03 -0.191376000000E+03
  0.122212000000E+03  0.125465000000E+03 -0.154622000000E+03
  0.131135000000E+03  0.114101000000E+03 -0.147005000000E+03
  0.138644000000E+03  0.987533000000E+02 -0.151058000000E+03
  0.123435000000E+03  0.991201000000E+02 -0.177172000000E+03
  0.139554000000E+03  0.108639000000E+03 -0.146383000000E+03
  0.140180000000E+03  0.122269000000E+03 -0.169499000000E+03
  0.122154000000E+03  0.121281000000E+03 -0.189660000000E+03
  0.107790000000E+03  0.144000000000E+03 -0.193830000000E+03
  0.900302000000E+02  0.123675000000E+03 -0.186857000000E+03
  0.957964000000E+02  0.130021000000E+03 -0.192546000000E+03
  0.976506000000E+02  0.132878000000E+03 -0.194086000000E+03
  0.881304000000E+02  0.128090000000E+03 -0.159983000000E+03
  0.100278000000E+03  0.133724000000E+03 -0.153750000000E+03
  0.991310000000E+02  0.133518000000E+03 -0.154226000000E+03
  0.979181000000E+02  0.133575000000E+03 -0.154574000000E+03
  0.105316000000E+03  0.125558000000E+03 -0.148543000000E+03
  0.922737000000E+02  0.107584000000E+03 -0.164156000000E+03
  0.987873000000E+02  0.106408000000E+03 -0.157393000000E+03
  0.103297000000E+03  0.110050000000E+03 -0.153712000000E+03
  0.107709000000E+03  0.133693000000E+03 -0.194459000000E+03
  0.106452000000E+03  0.113978000000E+03 -0.152267000000E+03
  0.108397000000E+03  0.116482000000E+03 -0.152408000000E+03
  0.106851000000E+03  0.123239000000E+03 -0.149767000000E+03
  0.932613000000E+02  0.132251000000E+03 -0.154215000000E+03
  0.841566000000E+02  0.118732000000E+03 -0.165511000000E+03
  0.830485000000E+02  0.116064000000E+03 -0.164565000000E+03
  0.102093000000E+03  0.127711000000E+03 -0.149968000000E+03
  0.993642000000E+02  0.128358000000E+03 -0.151472000000E+03
  0.976103000000E+02  0.130114000000E+03 -0.152098000000E+03
  0.893815000000E+02  0.127875000000E+03 -0.157697000000E+03
  0.851472000000E+02  0.121997000000E+03 -0.161777000000E+03
  0.965304000000E+02  0.123400000000E+03 -0.154462000000E+03
  0.962975000000E+02  0.128183000000E+03 -0.153391000000E+03
  0.936962000000E+02  0.108179000000E+03 -0.160056000000E+03
  0.958159000000E+02  0.117555000000E+03 -0.156382000000E+03
  0.103557000000E+03  0.115466000000E+03 -0.152179000000E+03
  0.103512000000E+03  0.128360000000E+03 -0.148935000000E+03
  0.104464000000E+03  0.127007000000E+03 -0.148697000000E+03
  0.944493000000E+02  0.106178000000E+03 -0.160103000000E+03
  0.995700000000E+02  0.109078000000E+03 -0.156237000000E+03
  0.975221000000E+02  0.110656000000E+03 -0.157089000000E+03
  0.985535000000E+02  0.121396000000E+03 -0.153734000000E+03
  0.976253000000E+02  0.108233000000E+03 -0.157641000000E+03
  0.872792000000E+02  0.117302000000E+03 -0.161665000000E+03
  0.879742000000E+02  0.119533000000E+03 -0.160674000000E+03
  0.951744000000E+02  0.112145000000E+03 -0.158146000000E+03
  0.916089000000E+02  0.129418000000E+03 -0.155944000000E+03
  0.860094000000E+02  0.127399000000E+03 -0.159879000000E+03
  0.920826000000E+02  0.109143000000E+03 -0.160798000000E+03
  0.975858000000E+02  0.113478000000E+03 -0.156334000000E+03
  0.103906000000E+03  0.113431000000E+03 -0.152482000000E+03
  0.874268000000E+02  0.126042000000E+03 -0.159357000000E+03
  0.897622000000E+02  0.124618000000E+03 -0.158290000000E+03
  0.916958000000E+02  0.126271000000E+03 -0.156689000000E+03
  0.966948000000E+02  0.106034000000E+03 -0.158767000000E+03
  0.105028000000E+03  0.120443000000E+03 -0.150017000000E+03
  0.877538000000E+02  0.111894000000E+03 -0.162746000000E+03
  0.959590000000E+02  0.121473000000E+03 -0.155300000000E+03
  0.104489000000E+03  0.118191000000E+03 -0.150918000000E+03
  0.956384000000E+02  0.115227000000E+03 -0.157081000000E+03
  0.876404000000E+02  0.114535000000E+03 -0.162146000000E+03
  0.854592000000E+02  0.110900000000E+03 -0.164402000000E+03
  0.898375000000E+02  0.113302000000E+03 -0.161115000000E+03
  0.936899000000E+02  0.114359000000E+03 -0.158492000000E+03
  0.102203000000E+03  0.118428000000E+03 -0.152255000000E+03
  0.101160000000E+03  0.120860000000E+03 -0.152276000000E+03
  0.102339000000E+03  0.122423000000E+03 -0.151158000000E+03
  0.913550000000E+02  0.118780000000E+03 -0.158798000000E+03
  0.934097000000E+02  0.117239000000E+03 -0.157933000000E+03
  0.911482000000E+02  0.117021000000E+03 -0.159371000000E+03
  0.979052000000E+02  0.116416000000E+03 -0.155393000000E+03
  0.995632000000E+02  0.114286000000E+03 -0.154920000000E+03
  0.995879000000E+02  0.111876000000E+03 -0.155517000000E+03
  0.109141000000E+03  0.142154000000E+03 -0.167540000000E+03
  0.110060000000E+03  0.143198000000E+03 -0.169818000000E+03
  0.102650000000E+03  0.136041000000E+03 -0.175992000000E+03
  0.983222000000E+02  0.131965000000E+03 -0.181627000000E+03
  0.107910000000E+03  0.141245000000E+03 -0.172532000000E+03
  0.871607000000E+02  0.123109000000E+03 -0.177332000000E+03
  0.969019000000E+02  0.130252000000E+03 -0.166524000000E+03
  0.907521000000E+02  0.125497000000E+03 -0.175252000000E+03
  0.953645000000E+02  0.129064000000E+03 -0.168706000000E+03
  0.100583000000E+03  0.133259000000E+03 -0.157851000000E+03
  0.104589000000E+03  0.136197000000E+03 -0.155613000000E+03
  0.107812000000E+03  0.144140000000E+03 -0.183433000000E+03
  0.101946000000E+03  0.140129000000E+03 -0.194639000000E+03
  0.107941000000E+03  0.145181000000E+03 -0.186200000000E+03
  0.104151000000E+03  0.142779000000E+03 -0.194786000000E+03
  0.111249000000E+03  0.151761000000E+03 -0.189635000000E+03
  0.110371000000E+03  0.150591000000E+03 -0.191042000000E+03
  0.109153000000E+03  0.148419000000E+03 -0.189717000000E+03
  0.110731000000E+03  0.150423000000E+03 -0.187935000000E+03
  0.112984000000E+03  0.153954000000E+03 -0.186029000000E+03
  0.105932000000E+03  0.144592000000E+03 -0.192930000000E+03
  0.111554000000E+03  0.149746000000E+03 -0.183381000000E+03
  0.109393000000E+03  0.147780000000E+03 -0.186845000000E+03
  0.107543000000E+03  0.146420000000E+03 -0.191249000000E+03
  0.114393000000E+03  0.152198000000E+03 -0.179239000000E+03
  0.113935000000E+03  0.150234000000E+03 -0.177761000000E+03
  0.107977000000E+03  0.146279000000E+03 -0.188593000000E+03
  0.105942000000E+03  0.143497000000E+03 -0.189013000000E+03
  0.112135000000E+03  0.151886000000E+03 -0.185283000000E+03
  0.988331000000E+02  0.133885000000E+03 -0.186634000000E+03
  0.101980000000E+03  0.137607000000E+03 -0.185639000000E+03
  0.950093000000E+02  0.129527000000E+03 -0.188818000000E+03
  0.103122000000E+03  0.138015000000E+03 -0.182343000000E+03
  0.961685000000E+02  0.131986000000E+03 -0.191241000000E+03
  0.976486000000E+02  0.134618000000E+03 -0.193142000000E+03
  0.105821000000E+03  0.142523000000E+03 -0.186059000000E+03
  0.105760000000E+03  0.139292000000E+03 -0.175246000000E+03
  0.106408000000E+03  0.140775000000E+03 -0.177756000000E+03
  0.112210000000E+03  0.145150000000E+03 -0.167103000000E+03
  0.114372000000E+03  0.147114000000E+03 -0.164378000000E+03
  0.112647000000E+03  0.146321000000E+03 -0.170675000000E+03
  0.103714000000E+03  0.139749000000E+03 -0.185529000000E+03
  0.938627000000E+02  0.129465000000E+03 -0.192873000000E+03
  0.109803000000E+03  0.145758000000E+03 -0.180806000000E+03
  0.109536000000E+03  0.144197000000E+03 -0.176394000000E+03
  0.113786000000E+03  0.148992000000E+03 -0.175553000000E+03
  0.107823000000E+03  0.143164000000E+03 -0.180090000000E+03
  0.105617000000E+03  0.141072000000E+03 -0.182165000000E+03
  0.100310000000E+03  0.136115000000E+03 -0.187578000000E+03
  0.993094000000E+02  0.133433000000E+03 -0.183389000000E+03
  0.922896000000E+02  0.126686000000E+03 -0.173070000000E+03
  0.101987000000E+03  0.135181000000E+03 -0.171605000000E+03
  0.106706000000E+03  0.138440000000E+03 -0.156530000000E+03
  0.111276000000E+03  0.143963000000E+03 -0.162153000000E+03
  0.103107000000E+03  0.135450000000E+03 -0.160368000000E+03
  0.104963000000E+03  0.137154000000E+03 -0.159381000000E+03
  0.106977000000E+03  0.140117000000E+03 -0.170357000000E+03
  0.108058000000E+03  0.140630000000E+03 -0.161860000000E+03
  0.102520000000E+03  0.135521000000E+03 -0.167566000000E+03
  0.918298000000E+02  0.125850000000E+03 -0.190077000000E+03
  0.107471000000E+03  0.139725000000E+03 -0.159733000000E+03
  0.106127000000E+03  0.137385000000E+03 -0.153431000000E+03
  0.109610000000E+03  0.140223000000E+03 -0.152671000000E+03
  0.104814000000E+03  0.138079000000E+03 -0.173175000000E+03
  0.917425000000E+02  0.126149000000E+03 -0.178670000000E+03
  0.108900000000E+03  0.141670000000E+03 -0.163862000000E+03
  0.947746000000E+02  0.128709000000E+03 -0.175192000000E+03
  0.992255000000E+02  0.132514000000E+03 -0.171884000000E+03
  0.103892000000E+03  0.136446000000E+03 -0.162052000000E+03
  0.896746000000E+02  0.124296000000E+03 -0.180914000000E+03
  0.892147000000E+02  0.124308000000E+03 -0.177434000000E+03
  0.104601000000E+03  0.137521000000E+03 -0.166399000000E+03
  0.103339000000E+03  0.136133000000E+03 -0.164513000000E+03
  0.938555000000E+02  0.127856000000E+03 -0.180648000000E+03
  0.938589000000E+02  0.127916000000E+03 -0.177916000000E+03
  0.927337000000E+02  0.127022000000E+03 -0.176023000000E+03
  0.100433000000E+03  0.133759000000E+03 -0.174859000000E+03
  0.993948000000E+02  0.132800000000E+03 -0.176265000000E+03
  0.956554000000E+02  0.129466000000E+03 -0.181920000000E+03
  0.876012000000E+02  0.126724000000E+03 -0.168398000000E+03
  0.963343000000E+02  0.132130000000E+03 -0.159868000000E+03
  0.901573000000E+02  0.131659000000E+03 -0.160351000000E+03
  0.964233000000E+02  0.133691000000E+03 -0.156497000000E+03
  0.939265000000E+02  0.130241000000E+03 -0.163613000000E+03
  0.949684000000E+02  0.134237000000E+03 -0.155372000000E+03
  0.939108000000E+02  0.129664000000E+03 -0.164765000000E+03
  0.922830000000E+02  0.129287000000E+03 -0.165376000000E+03
  0.895977000000E+02  0.127736000000E+03 -0.167709000000E+03
  0.894566000000E+02  0.125776000000E+03 -0.171586000000E+03
  0.923304000000E+02  0.130816000000E+03 -0.162280000000E+03
  0.929621000000E+02  0.133916000000E+03 -0.156115000000E+03
  0.100457000000E+03  0.134279000000E+03 -0.155134000000E+03
  0.878410000000E+02  0.128047000000E+03 -0.166193000000E+03
  0.883750000000E+02  0.131907000000E+03 -0.159797000000E+03
  0.926479000000E+02  0.130018000000E+03 -0.163998000000E+03
  0.924182000000E+02  0.131860000000E+03 -0.160200000000E+03
  0.879930000000E+02  0.125614000000E+03 -0.170833000000E+03
  0.895207000000E+02  0.126678000000E+03 -0.169721000000E+03
  0.931265000000E+02  0.127620000000E+03 -0.168675000000E+03
  0.910915000000E+02  0.127418000000E+03 -0.168840000000E+03
  0.908311000000E+02  0.129835000000E+03 -0.163992000000E+03
  0.985711000000E+02  0.133776000000E+03 -0.156263000000E+03
  0.936444000000E+02  0.132745000000E+03 -0.158474000000E+03
  0.116305000000E+03  0.148166000000E+03 -0.172132000000E+03
  0.115941000000E+03  0.151926000000E+03 -0.174939000000E+03
  0.116231000000E+03  0.150501000000E+03 -0.178039000000E+03
  0.117601000000E+03  0.145148000000E+03 -0.177661000000E+03
  0.111499000000E+03  0.149065000000E+03 -0.189633000000E+03
  0.114970000000E+03  0.150386000000E+03 -0.184228000000E+03
  0.114450000000E+03  0.147444000000E+03 -0.186088000000E+03
  0.110987000000E+03  0.143686000000E+03 -0.190764000000E+03
  0.115105000000E+03  0.141791000000E+03 -0.187135000000E+03
  0.114061000000E+03  0.143883000000E+03 -0.160997000000E+03
  0.112557000000E+03  0.141304000000E+03 -0.156808000000E+03
  0.113229000000E+03  0.143089000000E+03 -0.158846000000E+03
  0.107892000000E+03  0.135929000000E+03 -0.152447000000E+03
  0.100723000000E+03  0.134830000000E+03 -0.152968000000E+03
  0.103320000000E+03  0.132912000000E+03 -0.153088000000E+03
  0.109519000000E+03  0.137934000000E+03 -0.152898000000E+03
  0.971759000000E+02  0.132588000000E+03 -0.155139000000E+03
  0.943720000000E+02  0.132895000000E+03 -0.155497000000E+03
  0.969913000000E+02  0.134424000000E+03 -0.154565000000E+03
  0.926685000000E+02  0.132228000000E+03 -0.155733000000E+03
  0.906244000000E+02  0.131831000000E+03 -0.158133000000E+03
  0.898936000000E+02  0.129746000000E+03 -0.159981000000E+03
  0.909166000000E+02  0.130522000000E+03 -0.158818000000E+03
  0.864564000000E+02  0.127807000000E+03 -0.165748000000E+03
  0.871771000000E+02  0.127371000000E+03 -0.164419000000E+03
  0.896377000000E+02  0.120373000000E+03 -0.171080000000E+03
  0.885049000000E+02  0.121052000000E+03 -0.169217000000E+03
  0.878515000000E+02  0.123078000000E+03 -0.170670000000E+03
  0.903653000000E+02  0.120532000000E+03 -0.175944000000E+03
  0.913098000000E+02  0.118389000000E+03 -0.175419000000E+03
  0.859741000000E+02  0.121771000000E+03 -0.159599000000E+03
  0.103438000000E+03  0.128064000000E+03 -0.147890000000E+03
  0.993544000000E+02  0.106383000000E+03 -0.155229000000E+03
  0.879197000000E+02  0.111033000000E+03 -0.160899000000E+03
  0.853180000000E+02  0.114559000000E+03 -0.161627000000E+03
  0.860393000000E+02  0.112406000000E+03 -0.161693000000E+03
  0.879046000000E+02  0.113811000000E+03 -0.160275000000E+03
  0.944292000000E+02  0.121956000000E+03 -0.154581000000E+03
  0.904601000000E+02  0.106452000000E+03 -0.160447000000E+03
  0.853823000000E+02  0.125021000000E+03 -0.159207000000E+03
  0.847837000000E+02  0.117148000000E+03 -0.161352000000E+03
  0.937897000000E+02  0.125778000000E+03 -0.154088000000E+03
  0.104572000000E+03  0.111810000000E+03 -0.152486000000E+03
  0.100219000000E+03  0.121607000000E+03 -0.151254000000E+03
  0.963595000000E+02  0.126852000000E+03 -0.152331000000E+03
  0.903600000000E+02  0.112363000000E+03 -0.159160000000E+03
  0.936341000000E+02  0.113550000000E+03 -0.156963000000E+03
  0.876539000000E+02  0.119113000000E+03 -0.159216000000E+03
  0.917032000000E+02  0.129409000000E+03 -0.154489000000E+03
  0.974911000000E+02  0.129468000000E+03 -0.151069000000E+03
  0.100474000000E+03  0.128200000000E+03 -0.149603000000E+03
  0.846571000000E+02  0.119653000000E+03 -0.160856000000E+03
  0.886772000000E+02  0.123138000000E+03 -0.157697000000E+03
  0.101642000000E+03  0.124948000000E+03 -0.149656000000E+03
  0.971638000000E+02  0.123766000000E+03 -0.152560000000E+03
  0.949549000000E+02  0.118849000000E+03 -0.154979000000E+03
  0.102466000000E+03  0.118470000000E+03 -0.150646000000E+03
  0.101186000000E+03  0.116254000000E+03 -0.151903000000E+03
  0.972714000000E+02  0.117839000000E+03 -0.153846000000E+03
  0.995376000000E+02  0.118342000000E+03 -0.152398000000E+03
  0.967259000000E+02  0.113455000000E+03 -0.155165000000E+03
  0.957876000000E+02  0.116064000000E+03 -0.155124000000E+03
  0.103208000000E+03  0.120473000000E+03 -0.151122000000E+03
  0.847953000000E+02  0.117956000000E+03 -0.163017000000E+03
  0.953867000000E+02  0.132490000000E+03 -0.151620000000E+03
  0.100553000000E+03  0.125874000000E+03 -0.151375000000E+03
  0.101209000000E+03  0.110467000000E+03 -0.154883000000E+03
  0.102042000000E+03  0.113006000000E+03 -0.153730000000E+03
  0.981547000000E+02  0.125139000000E+03 -0.153028000000E+03
  0.100634000000E+03  0.116480000000E+03 -0.153709000000E+03
  0.895447000000E+02  0.115882000000E+03 -0.160640000000E+03
  0.860970000000E+02  0.119692000000E+03 -0.161781000000E+03
  0.948679000000E+02  0.119591000000E+03 -0.156445000000E+03
  0.923320000000E+02  0.112089000000E+03 -0.159898000000E+03
  0.102761000000E+03  0.124915000000E+03 -0.150268000000E+03
  0.871881000000E+02  0.121555000000E+03 -0.160641000000E+03
  0.895376000000E+02  0.118248000000E+03 -0.160044000000E+03
  0.100274000000E+03  0.119137000000E+03 -0.153255000000E+03
  0.955601000000E+02  0.108824000000E+03 -0.158753000000E+03
  0.854057000000E+02  0.115549000000E+03 -0.163255000000E+03
  0.100553000000E+03  0.123408000000E+03 -0.152001000000E+03
  0.937692000000E+02  0.110108000000E+03 -0.159522000000E+03
  0.988843000000E+02  0.118533000000E+03 -0.154258000000E+03
  0.859927000000E+02  0.113396000000E+03 -0.163442000000E+03
  0.937343000000E+02  0.127454000000E+03 -0.155143000000E+03
  0.880531000000E+02  0.123402000000E+03 -0.159644000000E+03
  0.970224000000E+02  0.119184000000E+03 -0.155231000000E+03
  0.104177000000E+03  0.122602000000E+03 -0.149990000000E+03
  0.916979000000E+02  0.114987000000E+03 -0.159551000000E+03
  0.843449000000E+02  0.120164000000E+03 -0.162732000000E+03
  0.954512000000E+02  0.125466000000E+03 -0.154598000000E+03
  0.946345000000E+02  0.123423000000E+03 -0.155615000000E+03
  0.941021000000E+02  0.121632000000E+03 -0.156395000000E+03
  0.923109000000E+02  0.123222000000E+03 -0.157087000000E+03
  0.926742000000E+02  0.120280000000E+03 -0.157611000000E+03
  0.898496000000E+02  0.121163000000E+03 -0.159114000000E+03
  0.935374000000E+02  0.125171000000E+03 -0.155842000000E+03
  0.935714000000E+02  0.132534000000E+03 -0.152678000000E+03
  0.106809000000E+03  0.119092000000E+03 -0.149271000000E+03
  0.899579000000E+02  0.110448000000E+03 -0.161766000000E+03
  0.102612000000E+03  0.129320000000E+03 -0.149242000000E+03
  0.103525000000E+03  0.115469000000E+03 -0.150706000000E+03
  0.923067000000E+02  0.105703000000E+03 -0.159531000000E+03
  0.104028000000E+03  0.121513000000E+03 -0.149034000000E+03
  0.104389000000E+03  0.112630000000E+03 -0.150844000000E+03
  0.861760000000E+02  0.123969000000E+03 -0.160647000000E+03
  0.908805000000E+02  0.131537000000E+03 -0.155851000000E+03
  0.939870000000E+02  0.130316000000E+03 -0.154262000000E+03
  0.852617000000E+02  0.126439000000E+03 -0.160580000000E+03
  0.105194000000E+03  0.125278000000E+03 -0.147490000000E+03
  0.106026000000E+03  0.122701000000E+03 -0.147587000000E+03
  0.969938000000E+02  0.132150000000E+03 -0.151959000000E+03
  0.959583000000E+02  0.130605000000E+03 -0.152984000000E+03
  0.101545000000E+03  0.108184000000E+03 -0.155257000000E+03
  0.101418000000E+03  0.108362000000E+03 -0.153564000000E+03
  0.780010000000E+02  0.108556000000E+03 -0.144586000000E+03
  0.783735000000E+02  0.114532000000E+03 -0.143804000000E+03
  0.846288000000E+02  0.104119000000E+03 -0.145806000000E+03
  0.887096000000E+02  0.111255000000E+03 -0.143817000000E+03
  0.847941000000E+02  0.103761000000E+03 -0.156288000000E+03
  0.854405000000E+02  0.105038000000E+03 -0.153315000000E+03
  0.801773000000E+02  0.107794000000E+03 -0.151697000000E+03
  0.761167000000E+02  0.113286000000E+03 -0.151076000000E+03
  0.910980000000E+02  0.105091000000E+03 -0.143989000000E+03
  0.841884000000E+02  0.121358000000E+03 -0.156390000000E+03
  0.898218000000E+02  0.100154000000E+03 -0.142290000000E+03
  0.820144000000E+02  0.119889000000E+03 -0.160711000000E+03
  0.868176000000E+02  0.116443000000E+03 -0.157178000000E+03
  0.855311000000E+02  0.115989000000E+03 -0.147380000000E+03
  0.813718000000E+02  0.113581000000E+03 -0.154957000000E+03
  0.812252000000E+02  0.121160000000E+03 -0.145443000000E+03
  0.882876000000E+02  0.110552000000E+03 -0.156619000000E+03
  0.784075000000E+02  0.124481000000E+03 -0.154431000000E+03
  0.720369000000E+02  0.120292000000E+03 -0.150964000000E+03
  0.756941000000E+02  0.121231000000E+03 -0.144142000000E+03
  0.944850000000E+02  0.111598000000E+03 -0.144298000000E+03
  0.938185000000E+02  0.116391000000E+03 -0.143788000000E+03
  0.950735000000E+02  0.101510000000E+03 -0.149397000000E+03
  0.996262000000E+02  0.118451000000E+03 -0.148492000000E+03
  0.944298000000E+02  0.117685000000E+03 -0.152679000000E+03
  0.992708000000E+02  0.122262000000E+03 -0.144638000000E+03
  0.916821000000E+02  0.128389000000E+03 -0.147314000000E+03
  0.865871000000E+02  0.128329000000E+03 -0.152975000000E+03
  0.918382000000E+02  0.123079000000E+03 -0.152499000000E+03
  0.797542000000E+02  0.129613000000E+03 -0.148692000000E+03
  0.970981000000E+02  0.110626000000E+03 -0.152061000000E+03
  0.955967000000E+02  0.123255000000E+03 -0.146725000000E+03
  0.749673000000E+02  0.114960000000E+03 -0.144324000000E+03
  0.846532000000E+02  0.124016000000E+03 -0.143284000000E+03
  0.869442000000E+02  0.121306000000E+03 -0.143794000000E+03
  0.692515000000E+02  0.122726000000E+03 -0.150590000000E+03
  0.967430000000E+02  0.128306000000E+03 -0.146268000000E+03
  0.913723000000E+02  0.994452000000E+02 -0.149659000000E+03
  0.902353000000E+02  0.120062000000E+03 -0.143908000000E+03
  0.747476000000E+02  0.110301000000E+03 -0.153948000000E+03
  0.756352000000E+02  0.104716000000E+03 -0.150763000000E+03
  0.784603000000E+02  0.102250000000E+03 -0.151544000000E+03
  0.742809000000E+02  0.108192000000E+03 -0.151596000000E+03
  0.696979000000E+02  0.111698000000E+03 -0.146060000000E+03
  0.762575000000E+02  0.102240000000E+03 -0.142319000000E+03
  0.776112000000E+02  0.101353000000E+03 -0.145125000000E+03
  0.863604000000E+02  0.134246000000E+03 -0.145325000000E+03
  0.708278000000E+02  0.114046000000E+03 -0.151169000000E+03
  0.926098000000E+02  0.133942000000E+03 -0.145505000000E+03
  0.782484000000E+02  0.133083000000E+03 -0.150111000000E+03
  0.936369000000E+02  0.133066000000E+03 -0.149235000000E+03
  0.895181000000E+02  0.133778000000E+03 -0.148241000000E+03
  0.792988000000E+02  0.133158000000E+03 -0.146241000000E+03
  0.748089000000E+02  0.131368000000E+03 -0.150457000000E+03
  0.854887000000E+02  0.133896000000E+03 -0.148930000000E+03
  0.104826000000E+03  0.117099000000E+03 -0.142893000000E+03
  0.726719000000E+02  0.110901000000E+03 -0.151244000000E+03
  0.709177000000E+02  0.111816000000E+03 -0.148899000000E+03
  0.679510000000E+02  0.112207000000E+03 -0.142586000000E+03
  0.672392000000E+02  0.116004000000E+03 -0.142019000000E+03
  0.680310000000E+02  0.115319000000E+03 -0.144720000000E+03
  0.960217000000E+02  0.102489000000E+03 -0.145676000000E+03
  0.100035000000E+03  0.107943000000E+03 -0.147911000000E+03
  0.800768000000E+02  0.999800000000E+02 -0.146126000000E+03
  0.967017000000E+02  0.103413000000E+03 -0.142288000000E+03
  0.855552000000E+02  0.982979000000E+02 -0.145720000000E+03
  0.101475000000E+03  0.110680000000E+03 -0.146556000000E+03
  0.105936000000E+03  0.118931000000E+03 -0.146554000000E+03
  0.105001000000E+03  0.115770000000E+03 -0.147253000000E+03
  0.103951000000E+03  0.127991000000E+03 -0.142261000000E+03
  0.103350000000E+03  0.128110000000E+03 -0.145313000000E+03
  0.105101000000E+03  0.125717000000E+03 -0.142621000000E+03
  0.791199000000E+02  0.119288000000E+03 -0.161608000000E+03
  0.815644000000E+02  0.101872000000E+03 -0.153675000000E+03
  0.857414000000E+02  0.100791000000E+03 -0.153761000000E+03
  0.781776000000E+02  0.125655000000E+03 -0.159065000000E+03
  0.777301000000E+02  0.128600000000E+03 -0.156981000000E+03
  0.789148000000E+02  0.122706000000E+03 -0.160689000000E+03
  0.757429000000E+02  0.120779000000E+03 -0.159597000000E+03
  0.884958000000E+02  0.102918000000E+03 -0.156195000000E+03
  0.719700000000E+02  0.128668000000E+03 -0.150630000000E+03
  0.813842000000E+02  0.105343000000E+03 -0.156084000000E+03
  0.764290000000E+02  0.107383000000E+03 -0.153899000000E+03
  0.966342000000E+02  0.103467000000E+03 -0.152705000000E+03
  0.701105000000E+02  0.125484000000E+03 -0.150651000000E+03
  0.987968000000E+02  0.132316000000E+03 -0.142443000000E+03
  0.703890000000E+02  0.108607000000E+03 -0.143936000000E+03
  0.102663000000E+03  0.113922000000E+03 -0.142496000000E+03
  0.677049000000E+02  0.119421000000E+03 -0.142454000000E+03
  0.729363000000E+02  0.105134000000E+03 -0.143206000000E+03
  0.851550000000E+02  0.133851000000E+03 -0.141010000000E+03
  0.862742000000E+02  0.996402000000E+02 -0.141010000000E+03
  0.947812000000E+02  0.102384000000E+03 -0.141010000000E+03
  0.800564000000E+02  0.132825000000E+03 -0.142861000000E+03
  0.795021000000E+02  0.100083000000E+03 -0.142426000000E+03
  0.932268000000E+02  0.134902000000E+03 -0.141010000000E+03
  0.974290000000E+02  0.104940000000E+03 -0.155371000000E+03
  0.699786000000E+02  0.125159000000E+03 -0.143143000000E+03
  0.748267000000E+02  0.130151000000E+03 -0.142826000000E+03
  0.950779000000E+02  0.134334000000E+03 -0.141010000000E+03
  0.984890000000E+02  0.105328000000E+03 -0.141010000000E+03
  0.893658000000E+02  0.100637000000E+03 -0.141010000000E+03
  0.687057000000E+02  0.122716000000E+03 -0.142116000000E+03
  0.949854000000E+02  0.133989000000E+03 -0.142383000000E+03
  0.813825000000E+02  0.989012000000E+02 -0.141010000000E+03
  0.684761000000E+02  0.121764000000E+03 -0.145126000000E+03
  0.970299000000E+02  0.132295000000E+03 -0.148781000000E+03
  0.962028000000E+02  0.132927000000E+03 -0.145748000000E+03
  0.682159000000E+02  0.118195000000E+03 -0.146629000000E+03
  0.761698000000E+02  0.131784000000E+03 -0.146472000000E+03
  0.742797000000E+02  0.129403000000E+03 -0.154373000000E+03
  0.776910000000E+02  0.131293000000E+03 -0.153889000000E+03
  0.711011000000E+02  0.116867000000E+03 -0.154072000000E+03
  0.747797000000E+02  0.126383000000E+03 -0.157255000000E+03
  0.739524000000E+02  0.115143000000E+03 -0.156877000000E+03
  0.775542000000E+02  0.110074000000E+03 -0.156563000000E+03
  0.871189000000E+02  0.131551000000E+03 -0.154815000000E+03
  0.725570000000E+02  0.107987000000E+03 -0.147817000000E+03
  0.724609000000E+02  0.128096000000E+03 -0.142708000000E+03
  0.998572000000E+02  0.131123000000E+03 -0.146010000000E+03
  0.101642000000E+03  0.129602000000E+03 -0.147415000000E+03
  0.105918000000E+03  0.121761000000E+03 -0.143293000000E+03
  0.106405000000E+03  0.120059000000E+03 -0.147966000000E+03
  0.105237000000E+03  0.114347000000E+03 -0.149953000000E+03
  0.103549000000E+03  0.112716000000E+03 -0.148733000000E+03
  0.992054000000E+02  0.106080000000E+03 -0.153107000000E+03
  0.968441000000E+02  0.105304000000E+03 -0.156952000000E+03
  0.878203000000E+02  0.105722000000E+03 -0.158609000000E+03
  0.920498000000E+02  0.102960000000E+03 -0.155898000000E+03
  0.823638000000E+02  0.112746000000E+03 -0.162021000000E+03
  0.835174000000E+02  0.109939000000E+03 -0.160348000000E+03
  0.813046000000E+02  0.127167000000E+03 -0.159039000000E+03
  0.834042000000E+02  0.128780000000E+03 -0.158065000000E+03
  0.712918000000E+02  0.126580000000E+03 -0.141010000000E+03
  0.825333000000E+02  0.121441000000E+03 -0.141010000000E+03
  0.100165000000E+03  0.115776000000E+03 -0.141010000000E+03
  0.878200000000E+02  0.100139000000E+03 -0.141010000000E+03
  0.947063000000E+02  0.104528000000E+03 -0.141010000000E+03
  0.967661000000E+02  0.111769000000E+03 -0.141010000000E+03
  0.915046000000E+02  0.114858000000E+03 -0.141010000000E+03
  0.944415000000E+02  0.115446000000E+03 -0.141010000000E+03
  0.809100000000E+02  0.123456000000E+03 -0.141010000000E+03
  0.797122000000E+02  0.120863000000E+03 -0.141010000000E+03
  0.937531000000E+02  0.132310000000E+03 -0.141010000000E+03
  0.103669000000E+03  0.128657000000E+03 -0.141010000000E+03
  0.101813000000E+03  0.123168000000E+03 -0.141010000000E+03
  0.767675000000E+02  0.101811000000E+03 -0.141010000000E+03
  0.788206000000E+02  0.103099000000E+03 -0.141010000000E+03
  0.797594000000E+02  0.997673000000E+02 -0.141010000000E+03
  0.751598000000E+02  0.130169000000E+03 -0.141010000000E+03
  0.713098000000E+02  0.122668000000E+03 -0.141010000000E+03
  0.760913000000E+02  0.126070000000E+03 -0.141010000000E+03
  0.854498000000E+02  0.101907000000E+03 -0.141010000000E+03
  0.993042000000E+02  0.113343000000E+03 -0.141010000000E+03
  0.879661000000E+02  0.134973000000E+03 -0.141010000000E+03
  0.684438000000E+02  0.113831000000E+03 -0.141010000000E+03
  0.783674000000E+02  0.118300000000E+03 -0.141010000000E+03
  0.986042000000E+02  0.121242000000E+03 -0.141010000000E+03
  0.748414000000E+02  0.123067000000E+03 -0.141010000000E+03
  0.872073000000E+02  0.132096000000E+03 -0.141010000000E+03
  0.105029000000E+03  0.127303000000E+03 -0.141010000000E+03
  0.885265000000E+02  0.102718000000E+03 -0.141010000000E+03
  0.865436000000E+02  0.110769000000E+03 -0.141010000000E+03
  0.932304000000E+02  0.101883000000E+03 -0.141010000000E+03
  0.964059000000E+02  0.107855000000E+03 -0.141010000000E+03
  0.916081000000E+02  0.129278000000E+03 -0.141010000000E+03
  0.700636000000E+02  0.119306000000E+03 -0.141010000000E+03
  0.914475000000E+02  0.110215000000E+03 -0.141010000000E+03
  0.895966000000E+02  0.112496000000E+03 -0.141010000000E+03
  0.927479000000E+02  0.126721000000E+03 -0.141010000000E+03
  0.836770000000E+02  0.104640000000E+03 -0.141010000000E+03
  0.102924000000E+03  0.118032000000E+03 -0.141010000000E+03
  0.101419000000E+03  0.120436000000E+03 -0.141010000000E+03
  0.999771000000E+02  0.118610000000E+03 -0.141010000000E+03
  0.976505000000E+02  0.130486000000E+03 -0.141010000000E+03
  0.100540000000E+03  0.128285000000E+03 -0.141010000000E+03
  0.839703000000E+02  0.108104000000E+03 -0.141010000000E+03
  0.861537000000E+02  0.105240000000E+03 -0.141010000000E+03
  0.909116000000E+02  0.101136000000E+03 -0.141010000000E+03
  0.913708000000E+02  0.103915000000E+03 -0.141010000000E+03
  0.774790000000E+02  0.110803000000E+03 -0.141010000000E+03
  0.989701000000E+02  0.124867000000E+03 -0.141010000000E+03
  0.674454000000E+02  0.119505000000E+03 -0.141010000000E+03
  0.736246000000E+02  0.120106000000E+03 -0.141010000000E+03
  0.696364000000E+02  0.116132000000E+03 -0.141010000000E+03
  0.727746000000E+02  0.117030000000E+03 -0.141010000000E+03
  0.893866000000E+02  0.115611000000E+03 -0.141010000000E+03
  0.713074000000E+02  0.109129000000E+03 -0.141010000000E+03
  0.724151000000E+02  0.113056000000E+03 -0.141010000000E+03
  0.740041000000E+02  0.103703000000E+03 -0.141010000000E+03
  0.737530000000E+02  0.106545000000E+03 -0.141010000000E+03
  0.729527000000E+02  0.125807000000E+03 -0.141010000000E+03
  0.829099000000E+02  0.125977000000E+03 -0.141010000000E+03
  0.806948000000E+02  0.129580000000E+03 -0.141010000000E+03
  0.772445000000E+02  0.129169000000E+03 -0.141010000000E+03
  0.907026000000E+02  0.121376000000E+03 -0.141010000000E+03
  0.878156000000E+02  0.121000000000E+03 -0.141010000000E+03
  0.974048000000E+02  0.127418000000E+03 -0.141010000000E+03
  0.952965000000E+02  0.125098000000E+03 -0.141010000000E+03
  0.843253000000E+02  0.116389000000E+03 -0.141010000000E+03
  0.866703000000E+02  0.126476000000E+03 -0.141010000000E+03
  0.877304000000E+02  0.117921000000E+03 -0.141010000000E+03
  0.914942000000E+02  0.118094000000E+03 -0.141010000000E+03
  0.845308000000E+02  0.130196000000E+03 -0.141010000000E+03
  0.103978000000E+03  0.121494000000E+03 -0.141010000000E+03
  0.106092000000E+03  0.119923000000E+03 -0.141010000000E+03
  0.761915000000E+02  0.104462000000E+03 -0.141010000000E+03
  0.947267000000E+02  0.128529000000E+03 -0.141010000000E+03
  0.821152000000E+02  0.131367000000E+03 -0.141010000000E+03
  0.974800000000E+02  0.114826000000E+03 -0.141010000000E+03
  0.810756000000E+02  0.105785000000E+03 -0.141010000000E+03
  0.775307000000E+02  0.107144000000E+03 -0.141010000000E+03
  0.798547000000E+02  0.112955000000E+03 -0.141010000000E+03
  0.938635000000E+02  0.109882000000E+03 -0.141010000000E+03
  0.928646000000E+02  0.112437000000E+03 -0.141010000000E+03
  0.779830000000E+02  0.123314000000E+03 -0.141010000000E+03
  0.793320000000E+02  0.126179000000E+03 -0.141010000000E+03
  0.920321000000E+02  0.124140000000E+03 -0.141010000000E+03
  0.899602000000E+02  0.132212000000E+03 -0.141010000000E+03
  0.883607000000E+02  0.129433000000E+03 -0.141010000000E+03
  0.102572000000E+03  0.126203000000E+03 -0.141010000000E+03
  0.900581000000E+02  0.126624000000E+03 -0.141010000000E+03
  0.887805000000E+02  0.123803000000E+03 -0.141010000000E+03
  0.970229000000E+02  0.117865000000E+03 -0.141010000000E+03
  0.792297000000E+02  0.115802000000E+03 -0.141010000000E+03
  0.770297000000E+02  0.116288000000E+03 -0.141010000000E+03
  0.820006000000E+02  0.101888000000E+03 -0.141010000000E+03
  0.868523000000E+02  0.107863000000E+03 -0.141010000000E+03
  0.889489000000E+02  0.106016000000E+03 -0.141010000000E+03
  0.921952000000E+02  0.107320000000E+03 -0.141010000000E+03
  0.891625000000E+02  0.109099000000E+03 -0.141010000000E+03
  0.805493000000E+02  0.109578000000E+03 -0.141010000000E+03
  0.746778000000E+02  0.109715000000E+03 -0.141010000000E+03
  0.867858000000E+02  0.114345000000E+03 -0.141010000000E+03
  0.828979000000E+02  0.123423000000E+03 -0.141010000000E+03
  0.852251000000E+02  0.123100000000E+03 -0.141010000000E+03
  0.968142000000E+02  0.123042000000E+03 -0.141010000000E+03
  0.945192000000E+02  0.121135000000E+03 -0.141010000000E+03
  0.848700000000E+02  0.119723000000E+03 -0.141010000000E+03
  0.943339000000E+02  0.118162000000E+03 -0.141010000000E+03
  0.756471000000E+02  0.117989000000E+03 -0.141010000000E+03
  0.767542000000E+02  0.120590000000E+03 -0.141010000000E+03
  0.833655000000E+02  0.112524000000E+03 -0.141010000000E+03
  0.816784000000E+02  0.115219000000E+03 -0.141010000000E+03
  0.894531000000E+02  0.119694000000E+03 -0.141010000000E+03
  0.749614000000E+02  0.115612000000E+03 -0.141010000000E+03
  0.753560000000E+02  0.111791000000E+03 -0.141010000000E+03
  0.766661000000E+02  0.113741000000E+03 -0.141010000000E+03
  0.815485000000E+02  0.118263000000E+03 -0.141010000000E+03
  0.938150000000E+02  0.107058000000E+03 -0.158335000000E+03
  0.100927000000E+03  0.110866000000E+03 -0.153283000000E+03
  0.947036000000E+02  0.129386000000E+03 -0.152728000000E+03
  0.916084000000E+02  0.119893000000E+03 -0.156711000000E+03
  0.878448000000E+02  0.107910000000E+03 -0.161654000000E+03
  0.102185000000E+03  0.129401000000E+03 -0.148323000000E+03
  0.898150000000E+02  0.109558000000E+03 -0.160119000000E+03
  0.833074000000E+02  0.122038000000E+03 -0.161108000000E+03
  0.902849000000E+02  0.116017000000E+03 -0.158372000000E+03
  0.972655000000E+02  0.120374000000E+03 -0.153273000000E+03
  0.964079000000E+02  0.109711000000E+03 -0.156205000000E+03
  0.813674000000E+02  0.118228000000E+03 -0.163117000000E+03
  0.854685000000E+02  0.128875000000E+03 -0.158279000000E+03
  0.876945000000E+02  0.126940000000E+03 -0.157410000000E+03
  0.891908000000E+02  0.128718000000E+03 -0.156125000000E+03
  0.101577000000E+03  0.113394000000E+03 -0.152325000000E+03
  0.989782000000E+02  0.112133000000E+03 -0.154141000000E+03
  0.932815000000E+02  0.116915000000E+03 -0.156404000000E+03
  0.987454000000E+02  0.126159000000E+03 -0.151085000000E+03
  0.994310000000E+02  0.124060000000E+03 -0.151159000000E+03
  0.994219000000E+02  0.109535000000E+03 -0.154471000000E+03
  0.924271000000E+02  0.109834000000E+03 -0.158519000000E+03
  0.891574000000E+02  0.131314000000E+03 -0.155553000000E+03
  0.987407000000E+02  0.115415000000E+03 -0.153534000000E+03
  0.917981000000E+02  0.123332000000E+03 -0.155816000000E+03
  0.904720000000E+02  0.126166000000E+03 -0.155952000000E+03
  0.872446000000E+02  0.116166000000E+03 -0.160128000000E+03
  0.450944000000E+02  0.152000000000E+03 -0.181683000000E+03
  0.159692000000E+03  0.873700000000E+02 -0.183646000000E+03
  0.160508000000E+03  0.951672000000E+02 -0.192701000000E+03
  0.157447000000E+03  0.800693000000E+02 -0.210844000000E+03
  0.156225000000E+03  0.720736000000E+02 -0.200479000000E+03
  0.149973000000E+03  0.897555000000E+02 -0.193849000000E+03
  0.148031000000E+03  0.918700000000E+02 -0.180501000000E+03
  0.149876000000E+03  0.979222000000E+02 -0.184885000000E+03
  0.161599000000E+03  0.859186000000E+02 -0.173722000000E+03
  0.147561000000E+03  0.929647000000E+02 -0.174048000000E+03
  0.150659000000E+03  0.958663000000E+02 -0.178805000000E+03
  0.151675000000E+03  0.686124000000E+02 -0.190824000000E+03
  0.164310000000E+03  0.775712000000E+02 -0.175312000000E+03
  0.156824000000E+03  0.782361000000E+02 -0.171686000000E+03
  0.169443000000E+03  0.862173000000E+02 -0.175224000000E+03
  0.106077000000E+03  0.123117000000E+03 -0.191620000000E+03
  0.161102000000E+03  0.102584000000E+03 -0.183180000000E+03
  0.174912000000E+03  0.959398000000E+02 -0.174805000000E+03
  0.174896000000E+03  0.968176000000E+02 -0.188860000000E+03
  0.162094000000E+03  0.911757000000E+02 -0.170276000000E+03
  0.159160000000E+03  0.104838000000E+03 -0.173419000000E+03
  0.166356000000E+03  0.116797000000E+03 -0.179149000000E+03
  0.163749000000E+03  0.119201000000E+03 -0.182657000000E+03
  0.162744000000E+03  0.111165000000E+03 -0.196772000000E+03
  0.155660000000E+03  0.112483000000E+03 -0.196083000000E+03
  0.156819000000E+03  0.116206000000E+03 -0.189192000000E+03
  0.964159000000E+02  0.916655000000E+02 -0.188771000000E+03
  0.157093000000E+03  0.104765000000E+03 -0.197466000000E+03
  0.953563000000E+02  0.958130000000E+02 -0.190006000000E+03
  0.150933000000E+03  0.100325000000E+03 -0.207083000000E+03
  0.154679000000E+03  0.105295000000E+03 -0.204438000000E+03
  0.157871000000E+03  0.990703000000E+02 -0.205972000000E+03
  0.990404000000E+02  0.100826000000E+03 -0.199051000000E+03
  0.149171000000E+03  0.105401000000E+03 -0.202837000000E+03
  0.144702000000E+03  0.101387000000E+03 -0.186999000000E+03
  0.164144000000E+03  0.905739000000E+02 -0.205989000000E+03
  0.169619000000E+03  0.105743000000E+03 -0.194903000000E+03
  0.172294000000E+03  0.107645000000E+03 -0.186924000000E+03
  0.169317000000E+03  0.997707000000E+02 -0.201444000000E+03
  0.178228000000E+03  0.911876000000E+02 -0.183559000000E+03
  0.130562000000E+03  0.938526000000E+02 -0.153888000000E+03
  0.176384000000E+03  0.823387000000E+02 -0.196885000000E+03
  0.865747000000E+02  0.128494000000E+03 -0.164681000000E+03
  0.169655000000E+03  0.783247000000E+02 -0.183304000000E+03
  0.160860000000E+03  0.131280000000E+03 -0.172616000000E+03
  0.172898000000E+03  0.916990000000E+02 -0.202023000000E+03
  0.172898000000E+03  0.839759000000E+02 -0.183618000000E+03
  0.117255000000E+03  0.111843000000E+03 -0.140424000000E+03
  0.117710000000E+03  0.109047000000E+03 -0.140621000000E+03
  0.129008000000E+03  0.877572000000E+02 -0.194263000000E+03
  0.133635000000E+03  0.830474000000E+02 -0.207144000000E+03
  0.139546000000E+03  0.922914000000E+02 -0.207306000000E+03
  0.138453000000E+03  0.843367000000E+02 -0.205996000000E+03
  0.129381000000E+03  0.100988000000E+03 -0.184646000000E+03
  0.130094000000E+03  0.942351000000E+02 -0.183217000000E+03
  0.135706000000E+03  0.923439000000E+02 -0.185702000000E+03
  0.120646000000E+03  0.102103000000E+03 -0.201911000000E+03
  0.129516000000E+03  0.936573000000E+02 -0.204511000000E+03
  0.111907000000E+03  0.888197000000E+02 -0.199435000000E+03
  0.124987000000E+03  0.974411000000E+02 -0.183953000000E+03
  0.161920000000E+03  0.696403000000E+02 -0.187292000000E+03
  0.165342000000E+03  0.103235000000E+03 -0.201553000000E+03
  0.153475000000E+03  0.910615000000E+02 -0.206579000000E+03
  0.158941000000E+03  0.876211000000E+02 -0.209283000000E+03
  0.152156000000E+03  0.791904000000E+02 -0.204586000000E+03
  0.168214000000E+03  0.112046000000E+03 -0.176578000000E+03
  0.168258000000E+03  0.114532000000E+03 -0.162001000000E+03
  0.162843000000E+03  0.119228000000E+03 -0.168782000000E+03
  0.166789000000E+03  0.113964000000E+03 -0.167322000000E+03
  0.121114000000E+03  0.102501000000E+03 -0.154524000000E+03
  0.116996000000E+03  0.100332000000E+03 -0.158002000000E+03
  0.120171000000E+03  0.939886000000E+02 -0.151478000000E+03
  0.111513000000E+03  0.108972000000E+03 -0.154109000000E+03
  0.122182000000E+03  0.105906000000E+03 -0.151532000000E+03
  0.125734000000E+03  0.984250000000E+02 -0.149151000000E+03
  0.140597000000E+03  0.121992000000E+03 -0.176249000000E+03
  0.127228000000E+03  0.970509000000E+02 -0.154735000000E+03
  0.105686000000E+03  0.106435000000E+03 -0.187790000000E+03
  0.110131000000E+03  0.111281000000E+03 -0.191086000000E+03
  0.102291000000E+03  0.111898000000E+03 -0.196503000000E+03
  0.142856000000E+03  0.127808000000E+03 -0.144513000000E+03
  0.110523000000E+03  0.104672000000E+03 -0.183856000000E+03
  0.105064000000E+03  0.103982000000E+03 -0.182796000000E+03
  0.105517000000E+03  0.105401000000E+03 -0.198958000000E+03
  0.170597000000E+03  0.115564000000E+03 -0.169724000000E+03
  0.100268000000E+03  0.993819000000E+02 -0.194019000000E+03
  0.973903000000E+02  0.103069000000E+03 -0.190324000000E+03
  0.164086000000E+03  0.786606000000E+02 -0.207732000000E+03
  0.149591000000E+03  0.115436000000E+03 -0.197474000000E+03
  0.158740000000E+03  0.118243000000E+03 -0.195584000000E+03
  0.149632000000E+03  0.111457000000E+03 -0.201199000000E+03
  0.148590000000E+03  0.136445000000E+03 -0.153527000000E+03
  0.150324000000E+03  0.134340000000E+03 -0.153045000000E+03
  0.143383000000E+03  0.106719000000E+03 -0.182909000000E+03
  0.135506000000E+03  0.125536000000E+03 -0.194678000000E+03
  0.129597000000E+03  0.127907000000E+03 -0.198853000000E+03
  0.127695000000E+03  0.122102000000E+03 -0.189677000000E+03
  0.129258000000E+03  0.128397000000E+03 -0.191026000000E+03
  0.122450000000E+03  0.124942000000E+03 -0.192323000000E+03
  0.148066000000E+03  0.862731000000E+02 -0.211738000000E+03
  0.133627000000E+03  0.127108000000E+03 -0.187537000000E+03
  0.124241000000E+03  0.131816000000E+03 -0.194332000000E+03
  0.146020000000E+03  0.862504000000E+02 -0.159725000000E+03
  0.143310000000E+03  0.787623000000E+02 -0.161475000000E+03
  0.149925000000E+03  0.794376000000E+02 -0.162453000000E+03
  0.155261000000E+03  0.834944000000E+02 -0.164496000000E+03
  0.151347000000E+03  0.748407000000E+02 -0.169354000000E+03
  0.153479000000E+03  0.876554000000E+02 -0.156112000000E+03
  0.143220000000E+03  0.906018000000E+02 -0.169903000000E+03
  0.107607000000E+03  0.121166000000E+03 -0.196103000000E+03
  0.105131000000E+03  0.134115000000E+03 -0.202283000000E+03
  0.111771000000E+03  0.123928000000E+03 -0.202831000000E+03
  0.111595000000E+03  0.124494000000E+03 -0.194931000000E+03
  0.112565000000E+03  0.119232000000E+03 -0.198782000000E+03
  0.117991000000E+03  0.123796000000E+03 -0.197737000000E+03
  0.116582000000E+03  0.129477000000E+03 -0.193114000000E+03
  0.120545000000E+03  0.129534000000E+03 -0.203083000000E+03
  0.111261000000E+03  0.131967000000E+03 -0.199874000000E+03
  0.143263000000E+03  0.896746000000E+02 -0.176293000000E+03
  0.142025000000E+03  0.746611000000E+02 -0.174905000000E+03
  0.142805000000E+03  0.750451000000E+02 -0.167714000000E+03
  0.138794000000E+03  0.874817000000E+02 -0.172300000000E+03
  0.151458000000E+03  0.714756000000E+02 -0.177948000000E+03
  0.143790000000E+03  0.865378000000E+02 -0.183083000000E+03
  0.139264000000E+03  0.863058000000E+02 -0.178887000000E+03
  0.158728000000E+03  0.735979000000E+02 -0.174565000000E+03
  0.122233000000E+03  0.121992000000E+03 -0.203754000000E+03
  0.179511000000E+03  0.842137000000E+02 -0.189468000000E+03
  0.115920000000E+03  0.115687000000E+03 -0.193751000000E+03
  0.123936000000E+03  0.108790000000E+03 -0.203118000000E+03
  0.121997000000E+03  0.115111000000E+03 -0.193698000000E+03
  0.114909000000E+03  0.109581000000E+03 -0.203038000000E+03
  0.118879000000E+03  0.110833000000E+03 -0.192762000000E+03
  0.118417000000E+03  0.115268000000E+03 -0.204915000000E+03
  0.124404000000E+03  0.114443000000E+03 -0.204467000000E+03
  0.111601000000E+03  0.113683000000E+03 -0.202922000000E+03
  0.104642000000E+03  0.109105000000E+03 -0.149394000000E+03
  0.107347000000E+03  0.112250000000E+03 -0.148766000000E+03
  0.105970000000E+03  0.107036000000E+03 -0.152901000000E+03
  0.138068000000E+03  0.777787000000E+02 -0.165009000000E+03
  0.135730000000E+03  0.720275000000E+02 -0.173157000000E+03
  0.119291000000E+03  0.115072000000E+03 -0.142890000000E+03
  0.117439000000E+03  0.121109000000E+03 -0.142301000000E+03
  0.125439000000E+03  0.117193000000E+03 -0.145344000000E+03
  0.119389000000E+03  0.141489000000E+03 -0.196894000000E+03
  0.116367000000E+03  0.134985000000E+03 -0.197674000000E+03
  0.122208000000E+03  0.136875000000E+03 -0.196760000000E+03
  0.104524000000E+03  0.843735000000E+02 -0.189556000000E+03
  0.101407000000E+03  0.876590000000E+02 -0.183960000000E+03
  0.101336000000E+03  0.921547000000E+02 -0.192966000000E+03
  0.106881000000E+03  0.877686000000E+02 -0.194645000000E+03
  0.107354000000E+03  0.981469000000E+02 -0.199167000000E+03
  0.143724000000E+03  0.106391000000E+03 -0.156819000000E+03
  0.147863000000E+03  0.109558000000E+03 -0.149089000000E+03
  0.142326000000E+03  0.112684000000E+03 -0.163573000000E+03
  0.147402000000E+03  0.112414000000E+03 -0.157027000000E+03
  0.144263000000E+03  0.101027000000E+03 -0.164982000000E+03
  0.148757000000E+03  0.104446000000E+03 -0.169262000000E+03
  0.159580000000E+03  0.105554000000E+03 -0.155224000000E+03
  0.146724000000E+03  0.997256000000E+02 -0.156695000000E+03
  0.115947000000E+03  0.132382000000E+03 -0.144274000000E+03
  0.133779000000E+03  0.139040000000E+03 -0.156000000000E+03
  0.139577000000E+03  0.134626000000E+03 -0.160301000000E+03
  0.138585000000E+03  0.134639000000E+03 -0.151507000000E+03
  0.143894000000E+03  0.132376000000E+03 -0.157792000000E+03
  0.142905000000E+03  0.129553000000E+03 -0.151969000000E+03
  0.157582000000E+03  0.120791000000E+03 -0.153717000000E+03
  0.158277000000E+03  0.116433000000E+03 -0.152835000000E+03
  0.142904000000E+03  0.125289000000E+03 -0.156510000000E+03
  0.133601000000E+03  0.966191000000E+02 -0.167245000000E+03
  0.152735000000E+03  0.128460000000E+03 -0.157985000000E+03
  0.150100000000E+03  0.130022000000E+03 -0.152997000000E+03
  0.152554000000E+03  0.124100000000E+03 -0.150472000000E+03
  0.177494000000E+03  0.108523000000E+03 -0.182531000000E+03
  0.159398000000E+03  0.121620000000E+03 -0.159326000000E+03
  0.145284000000E+03  0.122705000000E+03 -0.147701000000E+03
  0.153949000000E+03  0.116502000000E+03 -0.161383000000E+03
  0.148915000000E+03  0.119966000000E+03 -0.156834000000E+03
  0.108479000000E+03  0.965394000000E+02 -0.153922000000E+03
  0.108454000000E+03  0.105391000000E+03 -0.162782000000E+03
  0.113526000000E+03  0.101311000000E+03 -0.161654000000E+03
  0.892547000000E+02  0.959356000000E+02 -0.170793000000E+03
  0.103662000000E+03  0.963660000000E+02 -0.158619000000E+03
  0.110990000000E+03  0.106687000000E+03 -0.157668000000E+03
  0.106034000000E+03  0.774598000000E+02 -0.190321000000E+03
  0.110105000000E+03  0.109873000000E+03 -0.199339000000E+03
  0.105159000000E+03  0.116987000000E+03 -0.193832000000E+03
  0.121392000000E+03  0.731237000000E+02 -0.172792000000E+03
  0.120360000000E+03  0.749221000000E+02 -0.167256000000E+03
  0.982138000000E+02  0.849892000000E+02 -0.183756000000E+03
  0.126210000000E+03  0.839281000000E+02 -0.175947000000E+03
  0.119517000000E+03  0.858752000000E+02 -0.173507000000E+03
  0.116690000000E+03  0.106945000000E+03 -0.189297000000E+03
  0.179791000000E+03  0.787856000000E+02 -0.198735000000E+03
  0.111089000000E+03  0.103047000000E+03 -0.202155000000E+03
  0.142400000000E+03  0.124117000000E+03 -0.179917000000E+03
  0.143888000000E+03  0.128513000000E+03 -0.179668000000E+03
  0.144431000000E+03  0.124412000000E+03 -0.174457000000E+03
  0.148316000000E+03  0.121175000000E+03 -0.195433000000E+03
  0.144817000000E+03  0.127306000000E+03 -0.191394000000E+03
  0.154183000000E+03  0.123304000000E+03 -0.190233000000E+03
  0.140792000000E+03  0.117675000000E+03 -0.179589000000E+03
  0.137545000000E+03  0.118492000000E+03 -0.183667000000E+03
  0.145476000000E+03  0.119196000000E+03 -0.172830000000E+03
  0.137296000000E+03  0.124606000000E+03 -0.183854000000E+03
  0.158983000000E+03  0.126433000000E+03 -0.179510000000E+03
  0.160023000000E+03  0.122362000000E+03 -0.185951000000E+03
  0.126730000000E+03  0.102729000000E+03 -0.203415000000E+03
  0.162280000000E+03  0.116540000000E+03 -0.152826000000E+03
  0.121738000000E+03  0.959656000000E+02 -0.208034000000E+03
  0.142573000000E+03  0.111603000000E+03 -0.179534000000E+03
  0.146429000000E+03  0.122282000000E+03 -0.169883000000E+03
  0.112800000000E+03  0.856451000000E+02 -0.153978000000E+03
  0.162002000000E+03  0.123771000000E+03 -0.172787000000E+03
  0.111695000000E+03  0.815443000000E+02 -0.155549000000E+03
  0.176598000000E+03  0.705886000000E+02 -0.189482000000E+03
  0.148851000000E+03  0.125148000000E+03 -0.164831000000E+03
  0.160165000000E+03  0.124837000000E+03 -0.165301000000E+03
  0.150469000000E+03  0.129367000000E+03 -0.167781000000E+03
  0.158341000000E+03  0.127874000000E+03 -0.175008000000E+03
  0.169626000000E+03  0.644008000000E+02 -0.197308000000E+03
  0.156578000000E+03  0.132590000000E+03 -0.171569000000E+03
  0.171967000000E+03  0.655549000000E+02 -0.192070000000E+03
  0.168194000000E+03  0.651268000000E+02 -0.191281000000E+03
  0.769198000000E+02  0.131310000000E+03 -0.141010000000E+03
  0.154739000000E+03  0.132743000000E+03 -0.178712000000E+03
  0.147123000000E+03  0.131323000000E+03 -0.173581000000E+03
  0.112090000000E+03  0.113821000000E+03 -0.146571000000E+03
  0.114501000000E+03  0.106294000000E+03 -0.143946000000E+03
  0.122236000000E+03  0.109333000000E+03 -0.146020000000E+03
  0.117509000000E+03  0.110781000000E+03 -0.147748000000E+03
  0.120572000000E+03  0.116549000000E+03 -0.151225000000E+03
  0.112761000000E+03  0.118230000000E+03 -0.149036000000E+03
  0.128913000000E+03  0.116285000000E+03 -0.193321000000E+03
  0.124445000000E+03  0.108583000000E+03 -0.187387000000E+03
  0.114211000000E+03  0.116345000000E+03 -0.139948000000E+03
  0.129517000000E+03  0.117884000000E+03 -0.201455000000E+03
  0.130126000000E+03  0.109657000000E+03 -0.202361000000E+03
  0.131570000000E+03  0.146780000000E+03 -0.164284000000E+03
  0.936282000000E+02  0.103711000000E+03 -0.161931000000E+03
  0.892215000000E+02  0.989009000000E+02 -0.162689000000E+03
  0.158647000000E+03  0.103317000000E+03 -0.149424000000E+03
  0.927209000000E+02  0.943461000000E+02 -0.158389000000E+03
  0.942823000000E+02  0.970279000000E+02 -0.170848000000E+03
  0.147262000000E+03  0.995637000000E+02 -0.144477000000E+03
  0.923153000000E+02  0.925187000000E+02 -0.165425000000E+03
  0.119743000000E+03  0.148916000000E+03 -0.164125000000E+03
  0.132133000000E+03  0.120937000000E+03 -0.188004000000E+03
  0.132565000000E+03  0.140867000000E+03 -0.190186000000E+03
  0.135673000000E+03  0.134473000000E+03 -0.188413000000E+03
  0.137283000000E+03  0.129261000000E+03 -0.183269000000E+03
  0.144533000000E+03  0.134487000000E+03 -0.191379000000E+03
  0.139398000000E+03  0.136782000000E+03 -0.185559000000E+03
  0.139498000000E+03  0.130616000000E+03 -0.193498000000E+03
  0.132410000000E+03  0.134685000000E+03 -0.195302000000E+03
  0.129810000000E+03  0.122996000000E+03 -0.203024000000E+03
  0.125329000000E+03  0.120588000000E+03 -0.194365000000E+03
  0.132991000000E+03  0.113480000000E+03 -0.203837000000E+03
  0.133888000000E+03  0.122190000000E+03 -0.199775000000E+03
  0.141423000000E+03  0.122451000000E+03 -0.196616000000E+03
  0.136732000000E+03  0.118930000000E+03 -0.201142000000E+03
  0.174326000000E+03  0.106750000000E+03 -0.176677000000E+03
  0.110250000000E+03  0.775830000000E+02 -0.177133000000E+03
  0.170727000000E+03  0.109865000000E+03 -0.168748000000E+03
  0.119323000000E+03  0.150327000000E+03 -0.147661000000E+03
  0.121893000000E+03  0.152051000000E+03 -0.150225000000E+03
  0.163237000000E+03  0.119118000000E+03 -0.174221000000E+03
  0.166693000000E+03  0.113051000000E+03 -0.158304000000E+03
  0.167936000000E+03  0.114134000000E+03 -0.184462000000E+03
  0.165360000000E+03  0.109502000000E+03 -0.161662000000E+03
  0.114255000000E+03  0.150640000000E+03 -0.160974000000E+03
  0.161911000000E+03  0.103973000000E+03 -0.160289000000E+03
  0.160998000000E+03  0.112405000000E+03 -0.155679000000E+03
  0.167535000000E+03  0.990734000000E+02 -0.162264000000E+03
  0.162499000000E+03  0.106562000000E+03 -0.153085000000E+03
  0.162925000000E+03  0.109663000000E+03 -0.153399000000E+03
  0.171681000000E+03  0.102812000000E+03 -0.167180000000E+03
  0.105882000000E+03  0.906813000000E+02 -0.153089000000E+03
  0.102753000000E+03  0.905159000000E+02 -0.153715000000E+03
  0.114161000000E+03  0.969923000000E+02 -0.205628000000E+03
  0.154070000000E+03  0.982940000000E+02 -0.149539000000E+03
  0.108728000000E+03  0.837339000000E+02 -0.155197000000E+03
  0.167059000000E+03  0.766601000000E+02 -0.173691000000E+03
  0.157073000000E+03  0.929907000000E+02 -0.153959000000E+03
  0.161296000000E+03  0.964657000000E+02 -0.157178000000E+03
  0.146747000000E+03  0.100858000000E+03 -0.149330000000E+03
  0.154160000000E+03  0.103518000000E+03 -0.149987000000E+03
  0.143642000000E+03  0.745937000000E+02 -0.198865000000E+03
  0.121881000000E+03  0.101041000000E+03 -0.144701000000E+03
  0.147589000000E+03  0.694139000000E+02 -0.183162000000E+03
  0.156774000000E+03  0.110191000000E+03 -0.152002000000E+03
  0.107260000000E+03  0.108401000000E+03 -0.203557000000E+03
  0.152989000000E+03  0.116017000000E+03 -0.149693000000E+03
  0.103253000000E+03  0.105180000000E+03 -0.155210000000E+03
  0.112535000000E+03  0.968515000000E+02 -0.150582000000E+03
  0.111922000000E+03  0.101001000000E+03 -0.147387000000E+03
  0.110058000000E+03  0.741447000000E+02 -0.168149000000E+03
  0.145835000000E+03  0.133843000000E+03 -0.162383000000E+03
  0.142761000000E+03  0.139729000000E+03 -0.154562000000E+03
  0.121737000000E+03  0.734351000000E+02 -0.181041000000E+03
  0.121509000000E+03  0.749590000000E+02 -0.186915000000E+03
  0.113340000000E+03  0.787012000000E+02 -0.189740000000E+03
  0.118708000000E+03  0.754468000000E+02 -0.192965000000E+03
  0.129687000000E+03  0.718743000000E+02 -0.175069000000E+03
  0.129315000000E+03  0.881505000000E+02 -0.182206000000E+03
  0.132641000000E+03  0.903625000000E+02 -0.177057000000E+03
  0.133560000000E+03  0.719792000000E+02 -0.180522000000E+03
  0.127017000000E+03  0.741907000000E+02 -0.194332000000E+03
  0.127004000000E+03  0.745105000000E+02 -0.182711000000E+03
  0.117744000000E+03  0.941562000000E+02 -0.162211000000E+03
  0.118664000000E+03  0.830582000000E+02 -0.157456000000E+03
  0.118225000000E+03  0.873722000000E+02 -0.165606000000E+03
  0.124395000000E+03  0.893981000000E+02 -0.156084000000E+03
  0.115758000000E+03  0.917575000000E+02 -0.153854000000E+03
  0.108036000000E+03  0.886666000000E+02 -0.161870000000E+03
  0.108499000000E+03  0.921881000000E+02 -0.156836000000E+03
  0.115877000000E+03  0.974976000000E+02 -0.165525000000E+03
  0.116463000000E+03  0.915649000000E+02 -0.170922000000E+03
  0.111538000000E+03  0.838183000000E+02 -0.163970000000E+03
  0.136037000000E+03  0.725336000000E+02 -0.189132000000E+03
  0.129992000000E+03  0.706510000000E+02 -0.187116000000E+03
  0.163028000000E+03  0.118238000000E+03 -0.161756000000E+03
  0.152296000000E+03  0.138122000000E+03 -0.161522000000E+03
  0.149923000000E+03  0.140897000000E+03 -0.161474000000E+03
  0.122345000000E+03  0.908180000000E+02 -0.179592000000E+03
  0.165293000000E+03  0.123807000000E+03 -0.169508000000E+03
  0.137773000000E+03  0.773105000000E+02 -0.203039000000E+03
  0.124686000000E+03  0.776575000000E+02 -0.204196000000E+03
  0.133447000000E+03  0.768960000000E+02 -0.203053000000E+03
  0.149794000000E+03  0.948109000000E+02 -0.207672000000E+03
  0.123234000000E+03  0.107535000000E+03 -0.141082000000E+03
  0.145934000000E+03  0.830207000000E+02 -0.204685000000E+03
  0.112549000000E+03  0.138457000000E+03 -0.198805000000E+03
  0.111096000000E+03  0.102590000000E+03 -0.142152000000E+03
  0.137874000000E+03  0.972020000000E+02 -0.190250000000E+03
  0.142956000000E+03  0.103428000000E+03 -0.200838000000E+03
  0.135810000000E+03  0.990879000000E+02 -0.203614000000E+03
  0.111936000000E+03  0.106547000000E+03 -0.140741000000E+03
  0.144348000000E+03  0.985264000000E+02 -0.206725000000E+03
  0.102775000000E+03  0.809509000000E+02 -0.171332000000E+03
  0.995463000000E+02  0.848917000000E+02 -0.175419000000E+03
  0.136564000000E+03  0.139644000000E+03 -0.159555000000E+03
  0.156194000000E+03  0.805386000000E+02 -0.159234000000E+03
  0.113274000000E+03  0.100546000000E+03 -0.172622000000E+03
  0.117392000000E+03  0.915798000000E+02 -0.175992000000E+03
  0.125916000000E+03  0.162962000000E+03 -0.156021000000E+03
  0.971497000000E+02  0.899165000000E+02 -0.175373000000E+03
  0.102634000000E+03  0.797417000000E+02 -0.175911000000E+03
  0.122325000000E+03  0.138768000000E+03 -0.186477000000E+03
  0.995076000000E+02  0.870040000000E+02 -0.167380000000E+03
  0.151404000000E+03  0.130015000000E+03 -0.184752000000E+03
  0.147287000000E+03  0.136434000000E+03 -0.184291000000E+03
  0.143287000000E+03  0.142619000000E+03 -0.182933000000E+03
  0.125259000000E+03  0.137082000000E+03 -0.186756000000E+03
  0.126439000000E+03  0.146996000000E+03 -0.168748000000E+03
  0.151521000000E+03  0.137017000000E+03 -0.168652000000E+03
  0.117215000000E+03  0.779981000000E+02 -0.163138000000E+03
  0.124560000000E+03  0.863431000000E+02 -0.168523000000E+03
  0.122588000000E+03  0.802498000000E+02 -0.160877000000E+03
  0.115503000000E+03  0.750789000000E+02 -0.171192000000E+03
  0.126980000000E+03  0.760107000000E+02 -0.166114000000E+03
  0.135091000000E+03  0.933081000000E+02 -0.162521000000E+03
  0.139737000000E+03  0.961212000000E+02 -0.163705000000E+03
  0.136669000000E+03  0.935936000000E+02 -0.168846000000E+03
  0.134179000000E+03  0.923913000000E+02 -0.156803000000E+03
  0.139151000000E+03  0.870533000000E+02 -0.161531000000E+03
  0.119891000000E+03  0.140363000000E+03 -0.185501000000E+03
  0.133464000000E+03  0.868268000000E+02 -0.158010000000E+03
  0.131953000000E+03  0.934462000000E+02 -0.168189000000E+03
  0.130170000000E+03  0.111281000000E+03 -0.187637000000E+03
  0.152896000000E+03  0.698007000000E+02 -0.202219000000E+03
  0.133024000000E+03  0.116607000000E+03 -0.186863000000E+03
  0.136856000000E+03  0.114593000000E+03 -0.199406000000E+03
  0.131143000000E+03  0.106102000000E+03 -0.189083000000E+03
  0.124899000000E+03  0.139734000000E+03 -0.185137000000E+03
  0.141425000000E+03  0.133997000000E+03 -0.177751000000E+03
  0.116905000000E+03  0.790900000000E+02 -0.199926000000E+03
  0.104237000000E+03  0.103607000000E+03 -0.170099000000E+03
  0.995822000000E+02  0.104144000000E+03 -0.163539000000E+03
  0.138303000000E+03  0.113273000000E+03 -0.184742000000E+03
  0.118500000000E+03  0.152413000000E+03 -0.173527000000E+03
  0.120447000000E+03  0.150611000000E+03 -0.179388000000E+03
  0.168623000000E+03  0.118014000000E+03 -0.168289000000E+03
  0.116403000000E+03  0.126928000000E+03 -0.148469000000E+03
  0.119918000000E+03  0.131820000000E+03 -0.148444000000E+03
  0.121941000000E+03  0.122865000000E+03 -0.146780000000E+03
  0.117460000000E+03  0.121340000000E+03 -0.149775000000E+03
  0.136744000000E+03  0.114753000000E+03 -0.166202000000E+03
  0.135340000000E+03  0.120529000000E+03 -0.166310000000E+03
  0.147271000000E+03  0.105341000000E+03 -0.176961000000E+03
  0.139499000000E+03  0.111490000000E+03 -0.171822000000E+03
  0.145459000000E+03  0.938444000000E+02 -0.164590000000E+03
  0.141156000000E+03  0.931447000000E+02 -0.154068000000E+03
  0.142119000000E+03  0.867909000000E+02 -0.155741000000E+03
  0.143475000000E+03  0.111737000000E+03 -0.202930000000E+03
  0.144665000000E+03  0.117286000000E+03 -0.199779000000E+03
  0.139968000000E+03  0.107449000000E+03 -0.204789000000E+03
  0.142539000000E+03  0.131066000000E+03 -0.163905000000E+03
  0.139855000000E+03  0.105665000000E+03 -0.188752000000E+03
  0.134813000000E+03  0.108724000000E+03 -0.186501000000E+03
  0.135562000000E+03  0.109783000000E+03 -0.201749000000E+03
  0.983711000000E+02  0.909239000000E+02 -0.161047000000E+03
  0.111315000000E+03  0.798943000000E+02 -0.195781000000E+03
  0.152654000000E+03  0.135963000000E+03 -0.158475000000E+03
  0.105705000000E+03  0.805811000000E+02 -0.184504000000E+03
  0.118752000000E+03  0.961572000000E+02 -0.181205000000E+03
  0.173439000000E+03  0.690666000000E+02 -0.194229000000E+03
  0.167386000000E+03  0.691853000000E+02 -0.201663000000E+03
  0.167127000000E+03  0.701145000000E+02 -0.190216000000E+03
  0.129048000000E+03  0.862604000000E+02 -0.208843000000E+03
  0.122052000000E+03  0.876635000000E+02 -0.207498000000E+03
  0.127566000000E+03  0.898811000000E+02 -0.164284000000E+03
  0.133986000000E+03  0.900391000000E+02 -0.171272000000E+03
  0.126331000000E+03  0.835698000000E+02 -0.156331000000E+03
  0.130246000000E+03  0.810413000000E+02 -0.159656000000E+03
  0.116609000000E+03  0.150226000000E+03 -0.170399000000E+03
  0.131571000000E+03  0.783397000000E+02 -0.169575000000E+03
  0.165084000000E+03  0.121326000000E+03 -0.163516000000E+03
  0.117893000000E+03  0.153082000000E+03 -0.167212000000E+03
  0.135770000000E+03  0.816698000000E+02 -0.160586000000E+03
  0.132724000000E+03  0.772977000000E+02 -0.162805000000E+03
  0.151278000000E+03  0.887250000000E+02 -0.150440000000E+03
  0.756765000000E+02  0.131494000000E+03 -0.142349000000E+03
  0.140512000000E+03  0.949902000000E+02 -0.173675000000E+03
  0.138509000000E+03  0.954497000000E+02 -0.171258000000E+03
  0.124093000000E+03  0.113066000000E+03 -0.147478000000E+03
  0.126068000000E+03  0.125715000000E+03 -0.144856000000E+03
  0.109455000000E+03  0.773531000000E+02 -0.170304000000E+03
  0.136989000000E+03  0.104511000000E+03 -0.205677000000E+03
  0.126010000000E+03  0.126507000000E+03 -0.140166000000E+03
  0.131686000000E+03  0.103743000000E+03 -0.206063000000E+03
  0.145370000000E+03  0.961853000000E+02 -0.153131000000E+03
  0.149224000000E+03  0.905189000000E+02 -0.152635000000E+03
  0.962161000000E+02  0.104123000000E+03 -0.168848000000E+03
  0.100961000000E+03  0.104434000000E+03 -0.174193000000E+03
  0.117848000000E+03  0.785297000000E+02 -0.178133000000E+03
  0.160794000000E+03  0.879486000000E+02 -0.161474000000E+03
  0.149054000000E+03  0.946236000000E+02 -0.169615000000E+03
  0.141427000000E+03  0.119677000000E+03 -0.203743000000E+03
  0.144754000000E+03  0.118709000000E+03 -0.203079000000E+03
  0.149738000000E+03  0.100451000000E+03 -0.179816000000E+03
  0.167968000000E+03  0.111407000000E+03 -0.190768000000E+03
  0.144893000000E+03  0.687061000000E+02 -0.191442000000E+03
  0.166999000000E+03  0.641578000000E+02 -0.194956000000E+03
  0.159053000000E+03  0.700794000000E+02 -0.181007000000E+03
  0.151228000000E+03  0.127525000000E+03 -0.192493000000E+03
  0.145724000000E+03  0.946033000000E+02 -0.210483000000E+03
  0.147786000000E+03  0.138434000000E+03 -0.178097000000E+03
  0.141222000000E+03  0.948945000000E+02 -0.210535000000E+03
  0.144928000000E+03  0.145040000000E+03 -0.176471000000E+03
  0.149723000000E+03  0.139913000000E+03 -0.173189000000E+03
  0.951415000000E+02  0.105252000000E+03 -0.177460000000E+03
  0.955041000000E+02  0.950193000000E+02 -0.177256000000E+03
  0.143889000000E+03  0.105462000000E+03 -0.208256000000E+03
  0.981743000000E+02  0.966719000000E+02 -0.184633000000E+03
  0.974246000000E+02  0.104842000000E+03 -0.181523000000E+03
  0.157254000000E+03  0.127823000000E+03 -0.185724000000E+03
  0.143999000000E+03  0.688485000000E+02 -0.178133000000E+03
  0.118778000000E+03  0.145017000000E+03 -0.187560000000E+03
  0.126912000000E+03  0.143800000000E+03 -0.187298000000E+03
  0.124959000000E+03  0.141054000000E+03 -0.196456000000E+03
  0.127661000000E+03  0.137829000000E+03 -0.194308000000E+03
  0.117401000000E+03  0.143903000000E+03 -0.192375000000E+03
  0.135367000000E+03  0.702777000000E+02 -0.198004000000E+03
  0.988082000000E+02  0.103551000000E+03 -0.156795000000E+03
  0.124727000000E+03  0.148374000000E+03 -0.184670000000E+03
  0.104392000000E+03  0.752452000000E+02 -0.175573000000E+03
  0.108315000000E+03  0.102738000000E+03 -0.176601000000E+03
  0.149530000000E+03  0.132773000000E+03 -0.164386000000E+03
  0.154056000000E+03  0.121600000000E+03 -0.195328000000E+03
  0.150133000000E+03  0.713099000000E+02 -0.172783000000E+03
  0.976025000000E+02  0.112637000000E+03 -0.192686000000E+03
  0.993035000000E+02  0.109651000000E+03 -0.186500000000E+03
  0.139331000000E+03  0.119352000000E+03 -0.171683000000E+03
  0.130424000000E+03  0.134993000000E+03 -0.152698000000E+03
  0.100369000000E+03  0.105446000000E+03 -0.195744000000E+03
  0.114888000000E+03  0.890783000000E+02 -0.206699000000E+03
  0.141950000000E+03  0.954945000000E+02 -0.184515000000E+03
  0.129335000000E+03  0.142189000000E+03 -0.159120000000E+03
  0.137849000000E+03  0.143474000000E+03 -0.162851000000E+03
  0.115021000000E+03  0.763927000000E+02 -0.183202000000E+03
  0.138202000000E+03  0.128446000000E+03 -0.148580000000E+03
  0.162876000000E+03  0.116052000000E+03 -0.191546000000E+03
  0.160344000000E+03  0.809755000000E+02 -0.168282000000E+03
  0.147816000000E+03  0.982749000000E+02 -0.174969000000E+03
  0.143234000000E+03  0.140087000000E+03 -0.161842000000E+03
  0.136303000000E+03  0.148276000000E+03 -0.174172000000E+03
  0.131039000000E+03  0.146628000000E+03 -0.170494000000E+03
  0.123158000000E+03  0.148606000000E+03 -0.176019000000E+03
  0.143928000000E+03  0.142837000000E+03 -0.170306000000E+03
  0.138350000000E+03  0.699038000000E+02 -0.180743000000E+03
  0.145642000000E+03  0.115526000000E+03 -0.148864000000E+03
  0.105547000000E+03  0.106406000000E+03 -0.143866000000E+03
  0.138671000000E+03  0.147748000000E+03 -0.165580000000E+03
  0.169096000000E+03  0.934097000000E+02 -0.164766000000E+03
  0.113284000000E+03  0.143571000000E+03 -0.194881000000E+03
  0.133410000000E+03  0.126548000000E+03 -0.146089000000E+03
  0.126227000000E+03  0.154140000000E+03 -0.170343000000E+03
  0.130832000000E+03  0.146734000000E+03 -0.176258000000E+03
  0.135824000000E+03  0.132769000000E+03 -0.147384000000E+03
  0.127400000000E+03  0.131407000000E+03 -0.148543000000E+03
  0.153637000000E+03  0.789345000000E+02 -0.159742000000E+03
  0.923061000000E+02  0.137264000000E+03 -0.151570000000E+03
  0.178464000000E+03  0.680759000000E+02 -0.198425000000E+03
  0.100470000000E+03  0.931491000000E+02 -0.198331000000E+03
  0.997678000000E+02  0.969318000000E+02 -0.199175000000E+03
  0.143909000000E+03  0.108974000000E+03 -0.207521000000E+03
  0.145241000000E+03  0.111537000000E+03 -0.206627000000E+03
  0.146759000000E+03  0.108439000000E+03 -0.207450000000E+03
  0.141718000000E+03  0.108268000000E+03 -0.207772000000E+03
  0.141901000000E+03  0.111067000000E+03 -0.207054000000E+03
  0.132604000000E+03  0.101001000000E+03 -0.181731000000E+03
  0.130190000000E+03  0.832693000000E+02 -0.210557000000E+03
  0.132340000000E+03  0.854080000000E+02 -0.211453000000E+03
  0.122585000000E+03  0.970738000000E+02 -0.143621000000E+03
  0.140558000000E+03  0.130557000000E+03 -0.144504000000E+03
  0.134191000000E+03  0.663887000000E+02 -0.197654000000E+03
  0.140325000000E+03  0.671729000000E+02 -0.199065000000E+03
  0.133607000000E+03  0.127326000000E+03 -0.181367000000E+03
  0.161641000000E+03  0.823933000000E+02 -0.161074000000E+03
  0.152477000000E+03  0.101260000000E+03 -0.208786000000E+03
  0.149828000000E+03  0.100106000000E+03 -0.209189000000E+03
  0.178739000000E+03  0.106196000000E+03 -0.184432000000E+03
  0.181061000000E+03  0.971239000000E+02 -0.182616000000E+03
  0.173093000000E+03  0.114196000000E+03 -0.179931000000E+03
  0.172411000000E+03  0.114302000000E+03 -0.183875000000E+03
  0.179380000000E+03  0.101691000000E+03 -0.190314000000E+03
  0.181472000000E+03  0.977033000000E+02 -0.185937000000E+03
  0.181801000000E+03  0.947106000000E+02 -0.184813000000E+03
  0.972121000000E+02  0.855405000000E+02 -0.179878000000E+03
  0.111832000000E+03  0.893005000000E+02 -0.152857000000E+03
  0.154510000000E+03  0.118822000000E+03 -0.146579000000E+03
  0.112612000000E+03  0.728266000000E+02 -0.180565000000E+03
  0.133454000000E+03  0.122457000000E+03 -0.149810000000E+03
  0.112558000000E+03  0.141290000000E+03 -0.189655000000E+03
  0.112902000000E+03  0.143145000000E+03 -0.189010000000E+03
  0.129450000000E+03  0.672943000000E+02 -0.194256000000E+03
  0.134033000000E+03  0.672452000000E+02 -0.181012000000E+03
  0.130580000000E+03  0.120599000000E+03 -0.183920000000E+03
  0.130554000000E+03  0.116826000000E+03 -0.183993000000E+03
  0.137366000000E+03  0.129104000000E+03 -0.177544000000E+03
  0.140055000000E+03  0.669697000000E+02 -0.175975000000E+03
  0.136520000000E+03  0.675019000000E+02 -0.175550000000E+03
  0.129671000000E+03  0.984327000000E+02 -0.210165000000E+03
  0.110667000000E+03  0.748437000000E+02 -0.164500000000E+03
  0.113114000000E+03  0.728047000000E+02 -0.166614000000E+03
  0.112902000000E+03  0.145854000000E+03 -0.188466000000E+03
  0.137493000000E+03  0.664302000000E+02 -0.198504000000E+03
  0.132822000000E+03  0.660239000000E+02 -0.193727000000E+03
  0.701925000000E+02  0.128761000000E+03 -0.141031000000E+03
  0.739771000000E+02  0.129162000000E+03 -0.141010000000E+03
  0.143355000000E+03  0.668100000000E+02 -0.197610000000E+03
  0.814972000000E+02  0.172843000000E+03 -0.135070000000E+03
  0.709979000000E+02  0.173214000000E+03 -0.141097000000E+03
  0.959938000000E+02  0.110974000000E+03 -0.194882000000E+03
  0.926783000000E+02  0.106534000000E+03 -0.185290000000E+03
  0.662695000000E+02  0.157750000000E+03 -0.200331000000E+03
  0.927857000000E+02  0.928719000000E+02 -0.175605000000E+03
  0.131870000000E+03  0.104352000000E+03 -0.208583000000E+03
  0.133997000000E+03  0.102960000000E+03 -0.208944000000E+03
  0.874811000000E+02  0.969606000000E+02 -0.168106000000E+03
  0.957609000000E+02  0.968560000000E+02 -0.193780000000E+03
  0.105064000000E+03  0.881968000000E+02 -0.201331000000E+03
  0.926813000000E+02  0.102039000000E+03 -0.179999000000E+03
  0.138407000000E+03  0.120128000000E+03 -0.178003000000E+03
  0.100798000000E+03  0.897170000000E+02 -0.197551000000E+03
  0.985753000000E+02  0.914296000000E+02 -0.195467000000E+03
  0.137795000000E+03  0.151122000000E+03 -0.165014000000E+03
  0.125513000000E+03  0.699254000000E+02 -0.172558000000E+03
  0.121603000000E+03  0.705548000000E+02 -0.180076000000E+03
  0.128011000000E+03  0.945292000000E+02 -0.179240000000E+03
  0.352507000000E+02  0.162338000000E+03 -0.170713000000E+03
  0.360855000000E+02  0.169103000000E+03 -0.167937000000E+03
  0.341461000000E+02  0.165164000000E+03 -0.168089000000E+03
  0.123655000000E+03  0.697404000000E+02 -0.193976000000E+03
  0.153472000000E+03  0.115029000000E+03 -0.145567000000E+03
  0.122449000000E+03  0.154811000000E+03 -0.156853000000E+03
  0.162390000000E+03  0.991819000000E+02 -0.153050000000E+03
  0.159561000000E+03  0.992509000000E+02 -0.150079000000E+03
  0.121711000000E+03  0.135340000000E+03 -0.188264000000E+03
  0.129118000000E+03  0.128538000000E+03 -0.204142000000E+03
  0.164507000000E+03  0.645326000000E+02 -0.192361000000E+03
  0.174692000000E+03  0.111163000000E+03 -0.174575000000E+03
  0.175762000000E+03  0.987437000000E+02 -0.166137000000E+03
  0.132851000000E+03  0.753669000000E+02 -0.204816000000E+03
  0.120727000000E+03  0.107775000000E+03 -0.206888000000E+03
  0.122447000000E+03  0.711997000000E+02 -0.201205000000E+03
  0.149127000000E+03  0.818179000000E+02 -0.155131000000E+03
  0.153178000000E+03  0.808739000000E+02 -0.157128000000E+03
  0.161404000000E+03  0.932998000000E+02 -0.210994000000E+03
  0.158648000000E+03  0.920831000000E+02 -0.211236000000E+03
  0.397142000000E+02  0.173436000000E+03 -0.181430000000E+03
  0.972293000000E+02  0.108905000000E+03 -0.196335000000E+03
  0.996363000000E+02  0.109993000000E+03 -0.198200000000E+03
  0.138821000000E+03  0.126795000000E+03 -0.156447000000E+03
  0.156379000000E+03  0.827366000000E+02 -0.156214000000E+03
  0.119337000000E+03  0.143274000000E+03 -0.151964000000E+03
  0.167035000000E+03  0.109470000000E+03 -0.157778000000E+03
  0.172236000000E+03  0.104426000000E+03 -0.162392000000E+03
  0.125607000000E+03  0.164651000000E+03 -0.160138000000E+03
  0.123239000000E+03  0.162841000000E+03 -0.162180000000E+03
  0.165324000000E+03  0.653682000000E+02 -0.189438000000E+03
  0.162186000000E+03  0.648922000000E+02 -0.189441000000E+03
  0.131488000000E+03  0.975906000000E+02 -0.182237000000E+03
  0.176321000000E+03  0.104267000000E+03 -0.192614000000E+03
  0.143733000000E+03  0.988822000000E+02 -0.179860000000E+03
  0.112238000000E+03  0.172858000000E+03 -0.149861000000E+03
  0.964539000000E+02  0.140690000000E+03 -0.145322000000E+03
  0.119182000000E+03  0.137073000000E+03 -0.204095000000E+03
  0.686987000000E+02  0.126053000000E+03 -0.151684000000E+03
  0.130665000000E+03  0.681613000000E+02 -0.182004000000E+03
  0.108708000000E+03  0.819924000000E+02 -0.201460000000E+03
  0.103599000000E+03  0.184704000000E+03 -0.139353000000E+03
  0.795576000000E+02  0.134202000000E+03 -0.140945000000E+03
  0.784339000000E+02  0.131978000000E+03 -0.141010000000E+03
  0.801912000000E+02  0.132625000000E+03 -0.141010000000E+03
  0.502807000000E+02  0.184905000000E+03 -0.170993000000E+03
  0.440319000000E+02  0.180531000000E+03 -0.174677000000E+03
  0.152678000000E+03  0.770543000000E+02 -0.161350000000E+03
  0.153441000000E+03  0.750536000000E+02 -0.164295000000E+03
  0.146883000000E+03  0.656342000000E+02 -0.191783000000E+03
  0.150286000000E+03  0.782198000000E+02 -0.158747000000E+03
  0.793476000000E+02  0.987729000000E+02 -0.141340000000E+03
  0.775595000000E+02  0.999909000000E+02 -0.141291000000E+03
  0.771265000000E+02  0.100183000000E+03 -0.143004000000E+03
  0.129582000000E+03  0.142508000000E+03 -0.180240000000E+03
  0.101045000000E+03  0.168606000000E+03 -0.192304000000E+03
  0.484020000000E+02  0.154389000000E+03 -0.144022000000E+03
  0.106897000000E+03  0.143298000000E+03 -0.199354000000E+03
  0.110174000000E+03  0.142536000000E+03 -0.200540000000E+03
  0.124844000000E+03  0.158166000000E+03 -0.171725000000E+03
  0.122269000000E+03  0.159607000000E+03 -0.169967000000E+03
  0.461934000000E+02  0.152591000000E+03 -0.184540000000E+03
  0.131960000000E+03  0.129736000000E+03 -0.183245000000E+03
  0.913273000000E+02  0.983338000000E+02 -0.149000000000E+03
  0.974439000000E+02  0.102390000000E+03 -0.146329000000E+03
  0.981068000000E+02  0.104877000000E+03 -0.149329000000E+03
  0.983738000000E+02  0.105616000000E+03 -0.145372000000E+03
  0.915746000000E+02  0.120643000000E+03 -0.178555000000E+03
  0.889344000000E+02  0.121638000000E+03 -0.175047000000E+03
  0.463800000000E+02  0.184671000000E+03 -0.177864000000E+03
  0.916972000000E+02  0.146142000000E+03 -0.199248000000E+03
  0.138506000000E+03  0.917489000000E+02 -0.211322000000E+03
  0.469978000000E+02  0.150739000000E+03 -0.179343000000E+03
  0.598938000000E+02  0.145868000000E+03 -0.150242000000E+03
  0.320191000000E+02  0.152618000000E+03 -0.146977000000E+03
  0.810577000000E+02  0.178488000000E+03 -0.185303000000E+03
  0.803954000000E+02  0.176020000000E+03 -0.189125000000E+03
  0.851184000000E+02  0.174029000000E+03 -0.187665000000E+03
  0.472275000000E+02  0.154548000000E+03 -0.186022000000E+03
  0.177198000000E+03  0.683372000000E+02 -0.192422000000E+03
  0.800498000000E+02  0.134742000000E+03 -0.159926000000E+03
  0.968117000000E+02  0.110342000000E+03 -0.174768000000E+03
  0.726205000000E+02  0.181322000000E+03 -0.144469000000E+03
  0.590153000000E+02  0.144965000000E+03 -0.187330000000E+03
  0.151325000000E+03  0.801166000000E+02 -0.209642000000E+03
  0.150012000000E+03  0.774085000000E+02 -0.207260000000E+03
  0.177088000000E+03  0.103552000000E+03 -0.169195000000E+03
  0.174841000000E+03  0.105206000000E+03 -0.166086000000E+03
  0.998735000000E+02  0.108441000000E+03 -0.144918000000E+03
  0.176695000000E+03  0.927646000000E+02 -0.173296000000E+03
  0.151343000000E+03  0.135725000000E+03 -0.189610000000E+03
  0.150839000000E+03  0.118023000000E+03 -0.201828000000E+03
  0.146398000000E+03  0.116531000000E+03 -0.203882000000E+03
  0.108652000000E+03  0.177535000000E+03 -0.144665000000E+03
  0.862734000000E+02  0.991509000000E+02 -0.142260000000E+03
  0.251912000000E+02  0.164816000000E+03 -0.146198000000E+03
  0.146433000000E+03  0.708307000000E+02 -0.166742000000E+03
  0.146705000000E+03  0.734415000000E+02 -0.163072000000E+03
  0.870563000000E+02  0.126502000000E+03 -0.161055000000E+03
  0.176830000000E+03  0.712721000000E+02 -0.206002000000E+03
  0.730537000000E+02  0.183869000000E+03 -0.163184000000E+03
  0.738485000000E+02  0.183331000000E+03 -0.158399000000E+03
  0.734456000000E+02  0.184723000000E+03 -0.159543000000E+03
  0.109087000000E+03  0.167332000000E+03 -0.140812000000E+03
  0.702555000000E+02  0.129026000000E+03 -0.144900000000E+03
  0.423511000000E+02  0.183309000000E+03 -0.178885000000E+03
  0.383084000000E+02  0.181696000000E+03 -0.171419000000E+03
  0.405758000000E+02  0.183022000000E+03 -0.168268000000E+03
  0.391161000000E+02  0.179885000000E+03 -0.168580000000E+03
  0.115638000000E+03  0.141365000000E+03 -0.202805000000E+03
  0.115464000000E+03  0.144113000000E+03 -0.200671000000E+03
  0.118606000000E+03  0.142861000000E+03 -0.201437000000E+03
  0.499150000000E+02  0.182105000000E+03 -0.176646000000E+03
  0.556260000000E+02  0.142276000000E+03 -0.164034000000E+03
  0.995032000000E+02  0.131385000000E+03 -0.150619000000E+03
  0.124568000000E+03  0.171244000000E+03 -0.148244000000E+03
  0.122580000000E+03  0.170050000000E+03 -0.145110000000E+03
  0.350348000000E+02  0.171354000000E+03 -0.151545000000E+03
  0.502388000000E+02  0.175405000000E+03 -0.148061000000E+03
  0.668844000000E+02  0.143854000000E+03 -0.146094000000E+03
  0.956486000000E+02  0.188643000000E+03 -0.160918000000E+03
  0.675460000000E+02  0.123096000000E+03 -0.150450000000E+03
  0.998640000000E+02  0.884827000000E+02 -0.155000000000E+03
  0.112370000000E+03  0.173895000000E+03 -0.153534000000E+03
  0.111204000000E+03  0.172486000000E+03 -0.156080000000E+03
  0.817898000000E+02  0.184208000000E+03 -0.171149000000E+03
  0.839595000000E+02  0.183253000000E+03 -0.176269000000E+03
  0.844533000000E+02  0.184632000000E+03 -0.172933000000E+03
  0.126515000000E+03  0.800684000000E+02 -0.156233000000E+03
  0.127974000000E+03  0.139055000000E+03 -0.185075000000E+03
  0.893922000000E+02  0.106186000000E+03 -0.173923000000E+03
  0.912626000000E+02  0.103676000000E+03 -0.177088000000E+03
  0.176322000000E+03  0.108292000000E+03 -0.173492000000E+03
  0.567428000000E+02  0.179846000000E+03 -0.182044000000E+03
  0.358006000000E+02  0.152943000000E+03 -0.144448000000E+03
  0.375129000000E+02  0.153284000000E+03 -0.143122000000E+03
  0.505840000000E+02  0.148587000000E+03 -0.150961000000E+03
  0.529910000000E+02  0.147198000000E+03 -0.153293000000E+03
  0.102914000000E+03  0.194555000000E+03 -0.155426000000E+03
  0.142526000000E+03  0.115363000000E+03 -0.205409000000E+03
  0.667363000000E+02  0.112356000000E+03 -0.143920000000E+03
  0.788033000000E+02  0.135291000000E+03 -0.148928000000E+03
  0.753519000000E+02  0.135741000000E+03 -0.150565000000E+03
  0.102983000000E+03  0.182569000000E+03 -0.142545000000E+03
  0.102303000000E+03  0.192782000000E+03 -0.152756000000E+03
  0.985997000000E+02  0.190876000000E+03 -0.160359000000E+03
  0.996699000000E+02  0.193842000000E+03 -0.161253000000E+03
  0.102943000000E+03  0.195686000000E+03 -0.161000000000E+03
  0.580868000000E+02  0.165049000000E+03 -0.142890000000E+03
  0.110245000000E+03  0.157219000000E+03 -0.188881000000E+03
  0.855428000000E+02  0.178486000000E+03 -0.182444000000E+03
  0.116107000000E+03  0.156446000000E+03 -0.169046000000E+03
  0.108192000000E+03  0.176648000000E+03 -0.169761000000E+03
  0.861302000000E+02  0.104481000000E+03 -0.167549000000E+03
  0.876122000000E+02  0.108828000000E+03 -0.163611000000E+03
  0.871925000000E+02  0.107061000000E+03 -0.170114000000E+03
  0.901014000000E+02  0.107408000000E+03 -0.162449000000E+03
  0.671804000000E+02  0.171535000000E+03 -0.192617000000E+03
  0.996376000000E+02  0.168149000000E+03 -0.139821000000E+03
  0.125526000000E+03  0.147259000000E+03 -0.157314000000E+03
  0.126121000000E+03  0.137751000000E+03 -0.160472000000E+03
  0.138487000000E+03  0.727685000000E+02 -0.163704000000E+03
  0.108893000000E+03  0.155570000000E+03 -0.191257000000E+03
  0.668180000000E+02  0.148635000000E+03 -0.197276000000E+03
  0.817761000000E+02  0.135486000000E+03 -0.157984000000E+03
  0.771858000000E+02  0.135374000000E+03 -0.160032000000E+03
  0.750440000000E+02  0.130850000000E+03 -0.162846000000E+03
  0.773799000000E+02  0.133560000000E+03 -0.165450000000E+03
  0.163975000000E+03  0.828617000000E+02 -0.163339000000E+03
  0.161587000000E+03  0.804975000000E+02 -0.163873000000E+03
  0.859585000000E+02  0.111888000000E+03 -0.166363000000E+03
  0.911999000000E+02  0.111394000000E+03 -0.171814000000E+03
  0.459241000000E+02  0.182641000000E+03 -0.181500000000E+03
  0.462109000000E+02  0.178715000000E+03 -0.184158000000E+03
  0.852883000000E+02  0.124344000000E+03 -0.175668000000E+03
  0.106521000000E+03  0.121908000000E+03 -0.148733000000E+03
  0.106238000000E+03  0.117615000000E+03 -0.148621000000E+03
  0.176276000000E+03  0.109344000000E+03 -0.176427000000E+03
  0.115659000000E+03  0.132073000000E+03 -0.205987000000E+03
  0.135335000000E+03  0.107869000000E+03 -0.165736000000E+03
  0.982073000000E+02  0.102620000000E+03 -0.149984000000E+03
  0.147949000000E+03  0.118436000000E+03 -0.202289000000E+03
  0.149421000000E+03  0.116034000000E+03 -0.203409000000E+03
  0.127915000000E+03  0.139106000000E+03 -0.162338000000E+03
  0.129239000000E+03  0.136871000000E+03 -0.161316000000E+03
  0.114576000000E+03  0.106238000000E+03 -0.162662000000E+03
  0.374460000000E+02  0.167187000000E+03 -0.172566000000E+03
  0.367218000000E+02  0.164979000000E+03 -0.171071000000E+03
  0.160843000000E+03  0.646335000000E+02 -0.193203000000E+03
  0.160030000000E+03  0.652586000000E+02 -0.197074000000E+03
  0.841837000000E+02  0.181642000000E+03 -0.137658000000E+03
  0.953875000000E+02  0.181606000000E+03 -0.135868000000E+03
  0.165870000000E+03  0.658458000000E+02 -0.202454000000E+03
  0.911003000000E+02  0.132193000000E+03 -0.154210000000E+03
  0.897998000000E+02  0.171959000000E+03 -0.136051000000E+03
  0.863060000000E+02  0.116502000000E+03 -0.171568000000E+03
  0.872264000000E+02  0.119482000000E+03 -0.173182000000E+03
  0.128591000000E+03  0.159917000000E+03 -0.147398000000E+03
  0.965788000000E+02  0.184953000000E+03 -0.136214000000E+03
  0.975952000000E+02  0.186163000000E+03 -0.138862000000E+03
  0.122319000000E+03  0.158554000000E+03 -0.157568000000E+03
  0.155026000000E+03  0.900779000000E+02 -0.150477000000E+03
  0.104984000000E+03  0.765090000000E+02 -0.170239000000E+03
  0.909873000000E+02  0.133346000000E+03 -0.156972000000E+03
  0.561904000000E+02  0.143677000000E+03 -0.171113000000E+03
  0.100310000000E+03  0.191730000000E+03 -0.163445000000E+03
  0.110267000000E+03  0.967168000000E+02 -0.148214000000E+03
  0.112241000000E+03  0.944968000000E+02 -0.148989000000E+03
  0.112919000000E+03  0.921146000000E+02 -0.150819000000E+03
  0.110003000000E+03  0.940753000000E+02 -0.150480000000E+03
  0.139553000000E+03  0.659303000000E+02 -0.181999000000E+03
  0.167738000000E+03  0.121070000000E+03 -0.179188000000E+03
  0.674828000000E+02  0.120687000000E+03 -0.152650000000E+03
  0.806394000000E+02  0.184364000000E+03 -0.142744000000E+03
  0.763495000000E+02  0.183215000000E+03 -0.168147000000E+03
  0.733709000000E+02  0.182396000000E+03 -0.168959000000E+03
  0.154643000000E+03  0.132007000000E+03 -0.154917000000E+03
  0.824877000000E+02  0.126452000000E+03 -0.179591000000E+03
  0.670385000000E+02  0.123186000000E+03 -0.141082000000E+03
  0.130220000000E+03  0.147827000000E+03 -0.191346000000E+03
  0.125411000000E+03  0.133351000000E+03 -0.187348000000E+03
  0.710232000000E+02  0.175023000000E+03 -0.184200000000E+03
  0.107553000000E+03  0.163932000000E+03 -0.188647000000E+03
  0.940115000000E+02  0.188097000000E+03 -0.158673000000E+03
  0.892194000000E+02  0.189279000000E+03 -0.156310000000E+03
  0.702046000000E+02  0.148169000000E+03 -0.197792000000E+03
  0.436292000000E+02  0.172825000000E+03 -0.147047000000E+03
  0.357058000000E+02  0.154638000000E+03 -0.166597000000E+03
  0.142760000000E+03  0.896565000000E+02 -0.150362000000E+03
  0.109267000000E+03  0.149655000000E+03 -0.147687000000E+03
  0.156664000000E+03  0.761471000000E+02 -0.165253000000E+03
  0.159005000000E+03  0.781881000000E+02 -0.164558000000E+03
  0.147681000000E+03  0.666068000000E+02 -0.175663000000E+03
  0.112907000000E+03  0.109859000000E+03 -0.158641000000E+03
  0.149208000000E+03  0.142647000000E+03 -0.182620000000E+03
  0.145765000000E+03  0.147863000000E+03 -0.175626000000E+03
  0.869489000000E+02  0.129911000000E+03 -0.157172000000E+03
  0.868129000000E+02  0.135742000000E+03 -0.155312000000E+03
  0.851117000000E+02  0.134402000000E+03 -0.158250000000E+03
  0.856941000000E+02  0.180427000000E+03 -0.133424000000E+03
  0.714856000000E+02  0.141028000000E+03 -0.189845000000E+03
  0.725517000000E+02  0.140579000000E+03 -0.188297000000E+03
  0.146037000000E+03  0.789291000000E+02 -0.157287000000E+03
  0.665975000000E+02  0.120785000000E+03 -0.143306000000E+03
  0.898326000000E+02  0.131335000000E+03 -0.159023000000E+03
  0.861925000000E+02  0.132694000000E+03 -0.159939000000E+03
  0.118411000000E+03  0.129138000000E+03 -0.189840000000E+03
  0.388044000000E+02  0.180163000000E+03 -0.178856000000E+03
  0.376695000000E+02  0.172424000000E+03 -0.175209000000E+03
  0.799303000000E+02  0.157025000000E+03 -0.139969000000E+03
  0.420005000000E+02  0.175481000000E+03 -0.161616000000E+03
  0.431644000000E+02  0.174715000000E+03 -0.162346000000E+03
  0.961109000000E+02  0.177100000000E+03 -0.186712000000E+03
  0.120288000000E+03  0.712697000000E+02 -0.195585000000E+03
  0.809994000000E+02  0.181177000000E+03 -0.138730000000E+03
  0.819269000000E+02  0.185159000000E+03 -0.167657000000E+03
  0.823265000000E+02  0.186073000000E+03 -0.164040000000E+03
  0.133779000000E+03  0.117823000000E+03 -0.168913000000E+03
  0.849000000000E+02  0.176598000000E+03 -0.135029000000E+03
  0.824835000000E+02  0.128821000000E+03 -0.167438000000E+03
  0.764430000000E+02  0.129252000000E+03 -0.160816000000E+03
  0.807645000000E+02  0.131710000000E+03 -0.164827000000E+03
  0.176806000000E+03  0.664504000000E+02 -0.195441000000E+03
  0.762166000000E+02  0.184619000000E+03 -0.162449000000E+03
  0.697365000000E+02  0.128085000000E+03 -0.142325000000E+03
  0.687387000000E+02  0.126209000000E+03 -0.141126000000E+03
  0.681997000000E+02  0.125104000000E+03 -0.143597000000E+03
  0.119417000000E+03  0.159790000000E+03 -0.178959000000E+03
  0.773839000000E+02  0.131708000000E+03 -0.142803000000E+03
  0.102721000000E+03  0.141596000000E+03 -0.197294000000E+03
  0.823570000000E+02  0.184345000000E+03 -0.168559000000E+03
  0.112418000000E+03  0.124668000000E+03 -0.191678000000E+03
  0.816162000000E+02  0.176077000000E+03 -0.136252000000E+03
  0.800408000000E+02  0.176455000000E+03 -0.135849000000E+03
  0.153822000000E+03  0.103886000000E+03 -0.207940000000E+03
  0.155438000000E+03  0.100647000000E+03 -0.208793000000E+03
  0.131534000000E+03  0.131633000000E+03 -0.142559000000E+03
  0.159904000000E+03  0.125357000000E+03 -0.155637000000E+03
  0.144057000000E+03  0.119738000000E+03 -0.155606000000E+03
  0.117154000000E+03  0.145780000000E+03 -0.173405000000E+03
  0.853724000000E+02  0.186425000000E+03 -0.149725000000E+03
  0.169680000000E+03  0.107663000000E+03 -0.160479000000E+03
  0.101164000000E+03  0.190421000000E+03 -0.168710000000E+03
  0.429431000000E+02  0.180088000000E+03 -0.171377000000E+03
  0.437592000000E+02  0.180353000000E+03 -0.168436000000E+03
  0.593224000000E+02  0.168792000000E+03 -0.142831000000E+03
  0.599928000000E+02  0.170279000000E+03 -0.144760000000E+03
  0.563350000000E+02  0.174749000000E+03 -0.145601000000E+03
  0.269267000000E+02  0.166011000000E+03 -0.144498000000E+03
  0.146387000000E+03  0.146836000000E+03 -0.178835000000E+03
  0.143977000000E+03  0.147448000000E+03 -0.181333000000E+03
  0.467526000000E+02  0.178691000000E+03 -0.162287000000E+03
  0.141111000000E+03  0.150696000000E+03 -0.172809000000E+03
  0.968507000000E+02  0.132342000000E+03 -0.198795000000E+03
  0.941342000000E+02  0.133327000000E+03 -0.195567000000E+03
  0.977610000000E+02  0.181274000000E+03 -0.130956000000E+03
  0.992351000000E+02  0.183368000000E+03 -0.133925000000E+03
  0.615476000000E+02  0.144429000000E+03 -0.148372000000E+03
  0.492280000000E+02  0.183680000000E+03 -0.165801000000E+03
  0.438534000000E+02  0.165960000000E+03 -0.184479000000E+03
  0.615032000000E+02  0.165415000000E+03 -0.142606000000E+03
  0.116924000000E+03  0.147413000000E+03 -0.176975000000E+03
  0.571436000000E+02  0.167626000000E+03 -0.144345000000E+03
  0.182213000000E+03  0.842663000000E+02 -0.186265000000E+03
  0.892161000000E+02  0.188143000000E+03 -0.147277000000E+03
  0.769951000000E+02  0.133460000000E+03 -0.140898000000E+03
  0.124957000000E+03  0.142316000000E+03 -0.165841000000E+03
  0.106197000000E+03  0.115281000000E+03 -0.150612000000E+03
  0.105463000000E+03  0.113403000000E+03 -0.151537000000E+03
  0.825922000000E+02  0.184805000000E+03 -0.164651000000E+03
  0.151447000000E+03  0.658356000000E+02 -0.193281000000E+03
  0.314132000000E+02  0.163337000000E+03 -0.160256000000E+03
  0.801709000000E+02  0.127941000000E+03 -0.177092000000E+03
  0.683190000000E+02  0.176082000000E+03 -0.181788000000E+03
  0.956114000000E+02  0.887856000000E+02 -0.178934000000E+03
  0.953129000000E+02  0.919236000000E+02 -0.180816000000E+03
  0.907125000000E+02  0.120163000000E+03 -0.172765000000E+03
  0.129832000000E+03  0.153648000000E+03 -0.164284000000E+03
  0.106300000000E+03  0.119627000000E+03 -0.190347000000E+03
  0.105094000000E+03  0.121979000000E+03 -0.202640000000E+03
  0.110328000000E+03  0.167397000000E+03 -0.182712000000E+03
  0.525986000000E+02  0.143127000000E+03 -0.164343000000E+03
  0.499855000000E+02  0.146471000000E+03 -0.151800000000E+03
  0.136839000000E+03  0.104449000000E+03 -0.208566000000E+03
  0.124763000000E+03  0.118907000000E+03 -0.187542000000E+03
  0.141509000000E+03  0.143196000000E+03 -0.152676000000E+03
  0.143997000000E+03  0.140569000000E+03 -0.151481000000E+03
  0.384229000000E+02  0.171055000000E+03 -0.178294000000E+03
  0.103210000000E+03  0.110698000000E+03 -0.151978000000E+03
  0.100022000000E+03  0.133086000000E+03 -0.200053000000E+03
  0.102035000000E+03  0.135223000000E+03 -0.200830000000E+03
  0.102545000000E+03  0.131845000000E+03 -0.201215000000E+03
  0.730665000000E+02  0.130587000000E+03 -0.140798000000E+03
  0.854785000000E+02  0.121586000000E+03 -0.173678000000E+03
  0.116143000000E+03  0.153566000000E+03 -0.173396000000E+03
  0.130304000000E+03  0.142817000000E+03 -0.171439000000E+03
  0.112582000000E+03  0.167586000000E+03 -0.179137000000E+03
  0.107201000000E+03  0.174349000000E+03 -0.179933000000E+03
  0.109690000000E+03  0.172068000000E+03 -0.180325000000E+03
  0.772436000000E+02  0.166565000000E+03 -0.137421000000E+03
  0.724767000000E+02  0.133066000000E+03 -0.161201000000E+03
  0.746671000000E+02  0.131041000000E+03 -0.159518000000E+03
  0.124543000000E+03  0.162479000000E+03 -0.142620000000E+03
  0.101793000000E+03  0.120422000000E+03 -0.200385000000E+03
  0.990246000000E+02  0.106771000000E+03 -0.198212000000E+03
  0.101264000000E+03  0.114564000000E+03 -0.199160000000E+03
  0.113553000000E+03  0.126798000000E+03 -0.142726000000E+03
  0.109339000000E+03  0.127177000000E+03 -0.151500000000E+03
  0.132286000000E+03  0.110070000000E+03 -0.140124000000E+03
  0.134920000000E+03  0.112718000000E+03 -0.139692000000E+03
  0.355870000000E+02  0.171066000000E+03 -0.145865000000E+03
  0.862080000000E+02  0.967442000000E+02 -0.141162000000E+03
  0.860309000000E+02  0.965934000000E+02 -0.146425000000E+03
  0.842470000000E+02  0.964828000000E+02 -0.143378000000E+03
  0.374077000000E+02  0.170034000000E+03 -0.142869000000E+03
  0.849417000000E+02  0.102140000000E+03 -0.164906000000E+03
  0.172388000000E+03  0.112287000000E+03 -0.168702000000E+03
  0.172766000000E+03  0.113305000000E+03 -0.172323000000E+03
  0.960559000000E+02  0.132440000000E+03 -0.155214000000E+03
  0.104617000000E+03  0.101176000000E+03 -0.148568000000E+03
  0.106611000000E+03  0.101439000000E+03 -0.146517000000E+03
  0.491457000000E+02  0.166977000000E+03 -0.142350000000E+03
  0.108614000000E+03  0.109119000000E+03 -0.162333000000E+03
  0.597245000000E+02  0.162238000000E+03 -0.195322000000E+03
  0.556797000000E+02  0.158070000000E+03 -0.196947000000E+03
  0.584037000000E+02  0.179478000000E+03 -0.149773000000E+03
  0.876687000000E+02  0.123113000000E+03 -0.179632000000E+03
  0.149887000000E+03  0.684819000000E+02 -0.199923000000E+03
  0.136217000000E+03  0.102025000000E+03 -0.142122000000E+03
  0.690346000000E+02  0.108062000000E+03 -0.141010000000E+03
  0.664644000000E+02  0.110165000000E+03 -0.141457000000E+03
  0.136647000000E+03  0.146435000000E+03 -0.157114000000E+03
  0.137288000000E+03  0.141794000000E+03 -0.170256000000E+03
  0.140509000000E+03  0.139762000000E+03 -0.169388000000E+03
  0.140281000000E+03  0.109529000000E+03 -0.139336000000E+03
  0.991200000000E+02  0.815649000000E+02 -0.180576000000E+03
  0.783818000000E+02  0.100719000000E+03 -0.141010000000E+03
  0.899329000000E+02  0.129957000000E+03 -0.158503000000E+03
  0.136220000000E+03  0.141886000000E+03 -0.174454000000E+03
  0.105490000000E+03  0.774747000000E+02 -0.167511000000E+03
  0.103805000000E+03  0.797152000000E+02 -0.164375000000E+03
  0.911182000000E+02  0.125212000000E+03 -0.193269000000E+03
  0.900942000000E+02  0.127742000000E+03 -0.194331000000E+03
  0.107471000000E+03  0.159508000000E+03 -0.139342000000E+03
  0.110735000000E+03  0.160623000000E+03 -0.138458000000E+03
  0.112388000000E+03  0.160069000000E+03 -0.188973000000E+03
  0.110177000000E+03  0.162825000000E+03 -0.189010000000E+03
  0.108266000000E+03  0.159696000000E+03 -0.190279000000E+03
  0.833002000000E+02  0.159625000000E+03 -0.199843000000E+03
  0.817592000000E+02  0.156435000000E+03 -0.200272000000E+03
  0.883150000000E+02  0.129569000000E+03 -0.157919000000E+03
  0.275038000000E+02  0.157816000000E+03 -0.147872000000E+03
  0.918580000000E+02  0.105003000000E+03 -0.179904000000E+03
  0.108318000000E+03  0.176370000000E+03 -0.172056000000E+03
  0.319210000000E+02  0.170388000000E+03 -0.146727000000E+03
  0.176512000000E+03  0.108910000000E+03 -0.185665000000E+03
  0.129793000000E+03  0.160809000000E+03 -0.150196000000E+03
  0.652585000000E+02  0.117230000000E+03 -0.141189000000E+03
  0.668873000000E+02  0.115667000000E+03 -0.141010000000E+03
  0.863489000000E+02  0.112808000000E+03 -0.171174000000E+03
  0.858416000000E+02  0.110364000000E+03 -0.169347000000E+03
  0.877588000000E+02  0.110034000000E+03 -0.172360000000E+03
  0.841013000000E+02  0.105701000000E+03 -0.164700000000E+03
  0.119249000000E+03  0.975296000000E+02 -0.143246000000E+03
  0.121682000000E+03  0.112507000000E+03 -0.186402000000E+03
  0.724179000000E+02  0.178005000000E+03 -0.142348000000E+03
  0.679519000000E+02  0.139049000000E+03 -0.172283000000E+03
  0.125340000000E+03  0.819535000000E+02 -0.154886000000E+03
  0.123297000000E+03  0.804581000000E+02 -0.155744000000E+03
  0.114769000000E+03  0.171342000000E+03 -0.175477000000E+03
  0.109618000000E+03  0.173926000000E+03 -0.177417000000E+03
  0.434792000000E+02  0.185078000000E+03 -0.175153000000E+03
  0.476250000000E+02  0.185805000000E+03 -0.173968000000E+03
  0.833886000000E+02  0.174734000000E+03 -0.191058000000E+03
  0.884330000000E+02  0.173677000000E+03 -0.192212000000E+03
  0.809019000000E+02  0.132455000000E+03 -0.190709000000E+03
  0.842316000000E+02  0.130729000000E+03 -0.155856000000E+03
  0.116452000000E+03  0.172829000000E+03 -0.165449000000E+03
  0.518333000000E+02  0.147083000000E+03 -0.185104000000E+03
  0.535079000000E+02  0.145469000000E+03 -0.182152000000E+03
  0.574714000000E+02  0.144289000000E+03 -0.183340000000E+03
  0.148225000000E+03  0.138559000000E+03 -0.155522000000E+03
  0.259811000000E+02  0.165923000000E+03 -0.146880000000E+03
  0.974614000000E+02  0.132090000000E+03 -0.150490000000E+03
  0.125667000000E+03  0.171869000000E+03 -0.151927000000E+03
  0.100941000000E+03  0.155445000000E+03 -0.197111000000E+03
  0.683527000000E+02  0.121770000000E+03 -0.141010000000E+03
  0.670825000000E+02  0.113077000000E+03 -0.141010000000E+03
  0.128684000000E+03  0.127463000000E+03 -0.185557000000E+03
  0.131532000000E+03  0.137656000000E+03 -0.198216000000E+03
  0.128961000000E+03  0.143608000000E+03 -0.196082000000E+03
  0.117385000000E+03  0.141985000000E+03 -0.184287000000E+03
  0.618894000000E+02  0.144071000000E+03 -0.183899000000E+03
  0.490185000000E+02  0.144083000000E+03 -0.164628000000E+03
  0.953731000000E+02  0.167353000000E+03 -0.193659000000E+03
  0.575612000000E+02  0.180561000000E+03 -0.152238000000E+03
  0.578118000000E+02  0.179506000000E+03 -0.153961000000E+03
  0.432154000000E+02  0.165322000000E+03 -0.185909000000E+03
  0.447981000000E+02  0.162736000000E+03 -0.185402000000E+03
  0.804745000000E+02  0.182229000000E+03 -0.176275000000E+03
  0.832904000000E+02  0.133524000000E+03 -0.142200000000E+03
  0.975187000000E+02  0.159979000000E+03 -0.198916000000E+03
  0.954954000000E+02  0.163304000000E+03 -0.198263000000E+03
  0.961650000000E+02  0.164730000000E+03 -0.195022000000E+03
  0.971088000000E+02  0.166020000000E+03 -0.196434000000E+03
  0.979860000000E+02  0.168410000000E+03 -0.194294000000E+03
  0.689871000000E+02  0.138354000000E+03 -0.153010000000E+03
  0.741011000000E+02  0.140264000000E+03 -0.151737000000E+03
  0.889295000000E+02  0.144884000000E+03 -0.198881000000E+03
  0.179883000000E+03  0.103200000000E+03 -0.178657000000E+03
  0.179998000000E+03  0.998623000000E+02 -0.176988000000E+03
  0.118476000000E+03  0.707873000000E+02 -0.171395000000E+03
  0.114825000000E+03  0.715073000000E+02 -0.172780000000E+03
  0.653941000000E+02  0.179780000000E+03 -0.179989000000E+03
  0.394228000000E+02  0.172791000000E+03 -0.156462000000E+03
  0.680432000000E+02  0.107308000000E+03 -0.141432000000E+03
  0.718181000000E+02  0.103147000000E+03 -0.141321000000E+03
  0.710038000000E+02  0.105334000000E+03 -0.143805000000E+03
  0.136153000000E+03  0.120364000000E+03 -0.162972000000E+03
  0.159083000000E+03  0.115869000000E+03 -0.149652000000E+03
  0.127817000000E+03  0.968983000000E+02 -0.164366000000E+03
  0.128772000000E+03  0.733918000000E+02 -0.162544000000E+03
  0.986517000000E+02  0.114675000000E+03 -0.197310000000E+03
  0.978338000000E+02  0.111874000000E+03 -0.196703000000E+03
  0.866474000000E+02  0.121934000000E+03 -0.165924000000E+03
  0.830957000000E+02  0.122197000000E+03 -0.162980000000E+03
  0.103781000000E+03  0.171951000000E+03 -0.187298000000E+03
  0.948861000000E+02  0.138730000000E+03 -0.149467000000E+03
  0.972494000000E+02  0.147166000000E+03 -0.199740000000E+03
  0.850580000000E+02  0.185354000000E+03 -0.140852000000E+03
  0.835474000000E+02  0.186127000000E+03 -0.145127000000E+03
  0.100065000000E+03  0.183263000000E+03 -0.140426000000E+03
  0.638777000000E+02  0.181295000000E+03 -0.175442000000E+03
  0.105074000000E+03  0.136655000000E+03 -0.151328000000E+03
  0.146875000000E+03  0.145509000000E+03 -0.182147000000E+03
  0.650181000000E+02  0.160784000000E+03 -0.199876000000E+03
  0.618098000000E+02  0.160469000000E+03 -0.199241000000E+03
  0.107374000000E+03  0.172010000000E+03 -0.156511000000E+03
  0.611473000000E+02  0.157190000000E+03 -0.199279000000E+03
  0.636088000000E+02  0.158333000000E+03 -0.199843000000E+03
  0.124187000000E+03  0.110561000000E+03 -0.140621000000E+03
  0.721685000000E+02  0.104963000000E+03 -0.141010000000E+03
  0.120121000000E+03  0.164741000000E+03 -0.167634000000E+03
  0.119612000000E+03  0.164792000000E+03 -0.170671000000E+03
  0.121388000000E+03  0.163063000000E+03 -0.165015000000E+03
  0.730881000000E+02  0.143688000000E+03 -0.144180000000E+03
  0.752401000000E+02  0.140842000000E+03 -0.145980000000E+03
  0.147787000000E+03  0.878736000000E+02 -0.151108000000E+03
  0.143536000000E+03  0.852023000000E+02 -0.153123000000E+03
  0.151077000000E+03  0.144912000000E+03 -0.168302000000E+03
  0.141161000000E+03  0.137437000000E+03 -0.172439000000E+03
  0.120104000000E+03  0.893221000000E+02 -0.150437000000E+03
  0.125681000000E+03  0.979110000000E+02 -0.160609000000E+03
  0.143674000000E+03  0.121760000000E+03 -0.201811000000E+03
  0.129096000000E+03  0.112922000000E+03 -0.184480000000E+03
  0.132553000000E+03  0.113639000000E+03 -0.183388000000E+03
  0.129305000000E+03  0.146630000000E+03 -0.156803000000E+03
  0.131661000000E+03  0.142512000000E+03 -0.168777000000E+03
  0.130595000000E+03  0.138977000000E+03 -0.163478000000E+03
  0.130625000000E+03  0.150864000000E+03 -0.161711000000E+03
  0.841004000000E+02  0.126198000000E+03 -0.188189000000E+03
  0.443004000000E+02  0.150039000000E+03 -0.172970000000E+03
  0.565156000000E+02  0.146481000000E+03 -0.151914000000E+03
  0.108978000000E+03  0.172119000000E+03 -0.162386000000E+03
  0.111724000000E+03  0.120031000000E+03 -0.205889000000E+03
  0.116784000000E+03  0.108053000000E+03 -0.206700000000E+03
  0.364166000000E+02  0.163534000000E+03 -0.139157000000E+03
  0.361645000000E+02  0.164922000000E+03 -0.138564000000E+03
  0.378170000000E+02  0.162318000000E+03 -0.138760000000E+03
  0.143658000000E+03  0.865836000000E+02 -0.211765000000E+03
  0.142630000000E+03  0.910529000000E+02 -0.211328000000E+03
  0.139830000000E+03  0.880795000000E+02 -0.211847000000E+03
  0.103062000000E+03  0.910554000000E+02 -0.200117000000E+03
  0.981856000000E+02  0.171014000000E+03 -0.192047000000E+03
  0.100404000000E+03  0.165912000000E+03 -0.194879000000E+03
  0.625880000000E+02  0.178224000000E+03 -0.183358000000E+03
  0.161741000000E+03  0.898216000000E+02 -0.211602000000E+03
  0.130793000000E+03  0.671974000000E+02 -0.197296000000E+03
  0.874569000000E+02  0.136530000000E+03 -0.140992000000E+03
  0.842187000000E+02  0.135237000000E+03 -0.140821000000E+03
  0.147867000000E+03  0.801085000000E+02 -0.208855000000E+03
  0.149649000000E+03  0.828395000000E+02 -0.210997000000E+03
  0.101480000000E+03  0.130270000000E+03 -0.149693000000E+03
  0.993803000000E+02  0.131315000000E+03 -0.149537000000E+03
  0.796945000000E+02  0.178297000000E+03 -0.137545000000E+03
  0.822030000000E+02  0.180056000000E+03 -0.135584000000E+03
  0.682987000000E+02  0.172702000000E+03 -0.142424000000E+03
  0.882281000000E+02  0.154197000000E+03 -0.140184000000E+03
  0.826095000000E+02  0.128897000000E+03 -0.189189000000E+03
  0.352118000000E+02  0.152907000000E+03 -0.155825000000E+03
  0.895819000000E+02  0.128397000000E+03 -0.160813000000E+03
  0.874664000000E+02  0.128856000000E+03 -0.158619000000E+03
  0.790788000000E+02  0.124240000000E+03 -0.163113000000E+03
  0.975697000000E+02  0.189673000000E+03 -0.168760000000E+03
  0.989800000000E+02  0.192225000000E+03 -0.165417000000E+03
  0.942112000000E+02  0.187769000000E+03 -0.164021000000E+03
  0.513478000000E+02  0.154549000000E+03 -0.143444000000E+03
  0.479935000000E+02  0.157089000000E+03 -0.141939000000E+03
  0.670487000000E+02  0.163677000000E+03 -0.199219000000E+03
  0.782675000000E+02  0.137884000000E+03 -0.193035000000E+03
  0.762772000000E+02  0.137249000000E+03 -0.189895000000E+03
  0.749176000000E+02  0.140370000000E+03 -0.192354000000E+03
  0.175427000000E+03  0.728645000000E+02 -0.186400000000E+03
  0.141591000000E+03  0.870036000000E+02 -0.151998000000E+03
  0.139888000000E+03  0.888700000000E+02 -0.150653000000E+03
  0.137912000000E+03  0.864692000000E+02 -0.152218000000E+03
  0.136788000000E+03  0.897496000000E+02 -0.149693000000E+03
  0.124336000000E+03  0.108892000000E+03 -0.183850000000E+03
  0.125182000000E+03  0.122350000000E+03 -0.187818000000E+03
  0.131396000000E+03  0.117385000000E+03 -0.206291000000E+03
  0.119243000000E+03  0.131913000000E+03 -0.205564000000E+03
  0.110222000000E+03  0.122708000000E+03 -0.205211000000E+03
  0.102493000000E+03  0.124416000000E+03 -0.201101000000E+03
  0.113910000000E+03  0.170489000000E+03 -0.164782000000E+03
  0.857738000000E+02  0.124286000000E+03 -0.178857000000E+03
  0.863934000000E+02  0.124374000000E+03 -0.181224000000E+03
  0.908585000000E+02  0.121952000000E+03 -0.184186000000E+03
  0.916351000000E+02  0.179732000000E+03 -0.133564000000E+03
  0.958413000000E+02  0.172066000000E+03 -0.130282000000E+03
  0.941836000000E+02  0.125259000000E+03 -0.189439000000E+03
  0.686151000000E+02  0.142966000000E+03 -0.190763000000E+03
  0.736807000000E+02  0.138957000000E+03 -0.188924000000E+03
  0.710843000000E+02  0.139217000000E+03 -0.186121000000E+03
  0.120883000000E+03  0.163979000000E+03 -0.140322000000E+03
  0.103639000000E+03  0.168264000000E+03 -0.149958000000E+03
  0.646061000000E+02  0.151718000000E+03 -0.198572000000E+03
  0.138169000000E+03  0.129937000000E+03 -0.158064000000E+03
  0.157675000000E+03  0.133044000000E+03 -0.161575000000E+03
  0.159907000000E+03  0.129470000000E+03 -0.161694000000E+03
  0.170322000000E+03  0.111184000000E+03 -0.162993000000E+03
  0.164826000000E+03  0.107830000000E+03 -0.155286000000E+03
  0.164955000000E+03  0.111300000000E+03 -0.155530000000E+03
  0.830089000000E+02  0.103422000000E+03 -0.162187000000E+03
  0.808053000000E+02  0.103992000000E+03 -0.159627000000E+03
  0.821134000000E+02  0.101343000000E+03 -0.160195000000E+03
  0.108618000000E+03  0.164683000000E+03 -0.189042000000E+03
  0.963974000000E+02  0.189533000000E+03 -0.147311000000E+03
  0.947004000000E+02  0.151309000000E+03 -0.141049000000E+03
  0.973744000000E+02  0.159865000000E+03 -0.140283000000E+03
  0.826128000000E+02  0.967294000000E+02 -0.141475000000E+03
  0.807698000000E+02  0.978367000000E+02 -0.143325000000E+03
  0.812121000000E+02  0.123053000000E+03 -0.165957000000E+03
  0.795824000000E+02  0.121425000000E+03 -0.164596000000E+03
  0.154421000000E+03  0.137847000000E+03 -0.164523000000E+03
  0.145224000000E+03  0.130229000000E+03 -0.168674000000E+03
  0.153191000000E+03  0.140444000000E+03 -0.175665000000E+03
  0.109904000000E+03  0.113668000000E+03 -0.205383000000E+03
  0.113913000000E+03  0.115658000000E+03 -0.190236000000E+03
  0.110933000000E+03  0.185570000000E+03 -0.152899000000E+03
  0.133634000000E+03  0.109642000000E+03 -0.164793000000E+03
  0.136145000000E+03  0.109108000000E+03 -0.163019000000E+03
  0.888608000000E+02  0.992615000000E+02 -0.170884000000E+03
  0.999215000000E+02  0.108682000000E+03 -0.174031000000E+03
  0.832535000000E+02  0.108993000000E+03 -0.164753000000E+03
  0.863868000000E+02  0.107928000000E+03 -0.160360000000E+03
  0.353868000000E+02  0.169749000000E+03 -0.144914000000E+03
  0.359377000000E+02  0.167894000000E+03 -0.140456000000E+03
  0.113939000000E+03  0.156399000000E+03 -0.145502000000E+03
  0.110384000000E+03  0.163735000000E+03 -0.142807000000E+03
  0.112180000000E+03  0.155625000000E+03 -0.139151000000E+03
  0.104134000000E+03  0.153504000000E+03 -0.196049000000E+03
  0.106250000000E+03  0.158468000000E+03 -0.192966000000E+03
  0.927338000000E+02  0.104205000000E+03 -0.182704000000E+03
  0.808739000000E+02  0.135484000000E+03 -0.193464000000E+03
  0.809534000000E+02  0.138301000000E+03 -0.195674000000E+03
  0.787251000000E+02  0.135396000000E+03 -0.190974000000E+03
  0.169489000000E+03  0.905772000000E+02 -0.161524000000E+03
  0.662996000000E+02  0.174994000000E+03 -0.142713000000E+03
  0.654196000000E+02  0.171727000000E+03 -0.141995000000E+03
  0.519107000000E+02  0.153116000000E+03 -0.144921000000E+03
  0.141028000000E+03  0.743852000000E+02 -0.203613000000E+03
  0.684923000000E+02  0.146603000000E+03 -0.196006000000E+03
  0.146775000000E+03  0.901809000000E+02 -0.211339000000E+03
  0.112248000000E+03  0.754449000000E+02 -0.194268000000E+03
  0.964098000000E+02  0.154024000000E+03 -0.140768000000E+03
  0.772951000000E+02  0.138190000000E+03 -0.147951000000E+03
  0.101359000000E+03  0.194639000000E+03 -0.157988000000E+03
  0.825777000000E+02  0.125294000000E+03 -0.160796000000E+03
  0.817585000000E+02  0.123311000000E+03 -0.161729000000E+03
  0.841103000000E+02  0.124692000000E+03 -0.161727000000E+03
  0.887689000000E+02  0.137683000000E+03 -0.151654000000E+03
  0.878617000000E+02  0.132984000000E+03 -0.151777000000E+03
  0.104818000000E+03  0.178076000000E+03 -0.147513000000E+03
  0.100405000000E+03  0.173753000000E+03 -0.153807000000E+03
  0.112093000000E+03  0.173647000000E+03 -0.174779000000E+03
  0.380727000000E+02  0.174829000000E+03 -0.170107000000E+03
  0.373803000000E+02  0.179027000000E+03 -0.174654000000E+03
  0.380499000000E+02  0.177876000000E+03 -0.170903000000E+03
  0.467894000000E+02  0.181341000000E+03 -0.176840000000E+03
  0.412048000000E+02  0.179838000000E+03 -0.165552000000E+03
  0.982416000000E+02  0.188560000000E+03 -0.144004000000E+03
  0.963656000000E+02  0.187431000000E+03 -0.141266000000E+03
  0.318819000000E+02  0.170410000000E+03 -0.150360000000E+03
  0.343176000000E+02  0.171157000000E+03 -0.148699000000E+03
  0.541972000000E+02  0.182146000000E+03 -0.172994000000E+03
  0.397677000000E+02  0.173505000000E+03 -0.178735000000E+03
  0.126248000000E+03  0.103767000000E+03 -0.179827000000E+03
  0.125751000000E+03  0.100073000000E+03 -0.179256000000E+03
  0.138086000000E+03  0.135170000000E+03 -0.196470000000E+03
  0.446516000000E+02  0.148377000000E+03 -0.173505000000E+03
  0.979155000000E+02  0.134723000000E+03 -0.146967000000E+03
  0.997391000000E+02  0.133543000000E+03 -0.143248000000E+03
  0.107373000000E+03  0.179991000000E+03 -0.151328000000E+03
  0.108344000000E+03  0.180516000000E+03 -0.154619000000E+03
  0.109210000000E+03  0.183011000000E+03 -0.152200000000E+03
  0.119366000000E+03  0.134222000000E+03 -0.143679000000E+03
  0.128960000000E+03  0.858297000000E+02 -0.211616000000E+03
  0.111235000000E+03  0.114912000000E+03 -0.141011000000E+03
  0.173167000000E+03  0.647305000000E+02 -0.195675000000E+03
  0.172052000000E+03  0.719299000000E+02 -0.184310000000E+03
  0.169844000000E+03  0.689506000000E+02 -0.185823000000E+03
  0.105184000000E+03  0.124881000000E+03 -0.145909000000E+03
  0.166874000000E+03  0.119713000000E+03 -0.166019000000E+03
  0.147662000000E+03  0.132805000000E+03 -0.194551000000E+03
  0.156706000000E+03  0.130397000000E+03 -0.155989000000E+03
  0.155435000000E+03  0.133277000000E+03 -0.158040000000E+03
  0.829992000000E+02  0.133237000000E+03 -0.141010000000E+03
  0.156106000000E+03  0.136632000000E+03 -0.176011000000E+03
  0.138329000000E+03  0.150214000000E+03 -0.178221000000E+03
  0.134753000000E+03  0.143886000000E+03 -0.192815000000E+03
  0.129796000000E+03  0.152272000000E+03 -0.182765000000E+03
  0.126895000000E+03  0.154144000000E+03 -0.180964000000E+03
  0.126472000000E+03  0.152626000000E+03 -0.184506000000E+03
  0.133518000000E+03  0.146749000000E+03 -0.190590000000E+03
  0.137576000000E+03  0.152969000000E+03 -0.171940000000E+03
  0.144755000000E+03  0.149020000000E+03 -0.172502000000E+03
  0.128092000000E+03  0.149114000000E+03 -0.159559000000E+03
  0.106094000000E+03  0.126674000000E+03 -0.143506000000E+03
  0.121961000000E+03  0.107539000000E+03 -0.182360000000E+03
  0.756895000000E+02  0.134919000000E+03 -0.181990000000E+03
  0.746027000000E+02  0.136900000000E+03 -0.184136000000E+03
  0.101499000000E+03  0.166095000000E+03 -0.192179000000E+03
  0.417733000000E+02  0.175133000000E+03 -0.164902000000E+03
  0.116324000000E+03  0.147917000000E+03 -0.149029000000E+03
  0.101188000000E+03  0.184380000000E+03 -0.172959000000E+03
  0.102353000000E+03  0.181772000000E+03 -0.174020000000E+03
  0.800524000000E+02  0.113005000000E+03 -0.162822000000E+03
  0.802487000000E+02  0.111743000000E+03 -0.159395000000E+03
  0.139413000000E+03  0.146571000000E+03 -0.186997000000E+03
  0.141626000000E+03  0.147275000000E+03 -0.183966000000E+03
  0.786459000000E+02  0.184503000000E+03 -0.165574000000E+03
  0.180253000000E+03  0.817432000000E+02 -0.196625000000E+03
  0.166232000000E+03  0.840907000000E+02 -0.211352000000E+03
  0.991594000000E+02  0.192387000000E+03 -0.154130000000E+03
  0.763874000000E+02  0.156948000000E+03 -0.140752000000E+03
  0.499281000000E+02  0.147784000000E+03 -0.178122000000E+03
  0.993621000000E+02  0.162635000000E+03 -0.140714000000E+03
  0.101549000000E+03  0.165945000000E+03 -0.141862000000E+03
  0.103125000000E+03  0.176132000000E+03 -0.172848000000E+03
  0.987176000000E+02  0.190977000000E+03 -0.150764000000E+03
  0.100321000000E+03  0.189691000000E+03 -0.146779000000E+03
  0.997787000000E+02  0.187651000000E+03 -0.151510000000E+03
  0.936887000000E+02  0.108590000000E+03 -0.190497000000E+03
  0.927410000000E+02  0.111938000000E+03 -0.188494000000E+03
  0.788748000000E+02  0.182593000000E+03 -0.173239000000E+03
  0.789296000000E+02  0.183624000000E+03 -0.169465000000E+03
  0.107913000000E+03  0.158703000000E+03 -0.193570000000E+03
  0.106243000000E+03  0.162359000000E+03 -0.192857000000E+03
  0.776122000000E+02  0.101653000000E+03 -0.148382000000E+03
  0.753906000000E+02  0.101693000000E+03 -0.148426000000E+03
  0.165716000000E+03  0.105431000000E+03 -0.203797000000E+03
  0.114981000000E+03  0.120588000000E+03 -0.206924000000E+03
  0.466282000000E+02  0.172026000000E+03 -0.145144000000E+03
  0.121040000000E+03  0.134596000000E+03 -0.204261000000E+03
  0.125989000000E+03  0.861574000000E+02 -0.152073000000E+03
  0.360827000000E+02  0.166601000000E+03 -0.171951000000E+03
  0.373747000000E+02  0.171443000000E+03 -0.171535000000E+03
  0.368516000000E+02  0.162891000000E+03 -0.174048000000E+03
  0.374183000000E+02  0.165759000000E+03 -0.175423000000E+03
  0.156970000000E+03  0.135334000000E+03 -0.164840000000E+03
  0.166230000000E+03  0.809261000000E+02 -0.168906000000E+03
  0.166773000000E+03  0.839925000000E+02 -0.165994000000E+03
  0.104677000000E+03  0.129281000000E+03 -0.142691000000E+03
  0.105150000000E+03  0.129087000000E+03 -0.140938000000E+03
  0.155878000000E+03  0.132008000000E+03 -0.186980000000E+03
  0.147957000000E+03  0.136270000000E+03 -0.192390000000E+03
  0.136385000000E+03  0.132453000000E+03 -0.178760000000E+03
  0.961778000000E+02  0.137818000000E+03 -0.147026000000E+03
  0.101436000000E+03  0.135260000000E+03 -0.148591000000E+03
  0.101332000000E+03  0.146947000000E+03 -0.198040000000E+03
  0.608298000000E+02  0.181900000000E+03 -0.162774000000E+03
  0.613853000000E+02  0.183080000000E+03 -0.163436000000E+03
  0.564962000000E+02  0.143734000000E+03 -0.179584000000E+03
  0.532225000000E+02  0.144776000000E+03 -0.178342000000E+03
  0.812406000000E+02  0.119825000000E+03 -0.166324000000E+03
  0.805947000000E+02  0.157628000000E+03 -0.143216000000E+03
  0.815312000000E+02  0.154781000000E+03 -0.143660000000E+03
  0.109203000000E+03  0.191951000000E+03 -0.152217000000E+03
  0.152831000000E+03  0.726201000000E+02 -0.167059000000E+03
  0.166596000000E+03  0.118238000000E+03 -0.162631000000E+03
  0.128521000000E+03  0.158734000000E+03 -0.152244000000E+03
  0.121186000000E+03  0.153373000000E+03 -0.158481000000E+03
  0.466046000000E+02  0.184269000000E+03 -0.167373000000E+03
  0.140888000000E+03  0.131973000000E+03 -0.197079000000E+03
  0.141883000000E+03  0.102072000000E+03 -0.181330000000E+03
  0.151845000000E+03  0.126676000000E+03 -0.147574000000E+03
  0.121811000000E+03  0.100069000000E+03 -0.174551000000E+03
  0.135619000000E+03  0.957553000000E+02 -0.170149000000E+03
  0.137976000000E+03  0.994398000000E+02 -0.164797000000E+03
  0.107018000000E+03  0.936236000000E+02 -0.151766000000E+03
  0.100230000000E+03  0.146043000000E+03 -0.142982000000E+03
  0.985160000000E+02  0.187231000000E+03 -0.169038000000E+03
  0.713020000000E+02  0.134033000000E+03 -0.169958000000E+03
  0.729308000000E+02  0.133975000000E+03 -0.178458000000E+03
  0.732411000000E+02  0.132123000000E+03 -0.172440000000E+03
  0.419155000000E+02  0.180285000000E+03 -0.182361000000E+03
  0.484396000000E+02  0.176163000000E+03 -0.185978000000E+03
  0.111659000000E+03  0.143210000000E+03 -0.147786000000E+03
  0.113688000000E+03  0.140427000000E+03 -0.149486000000E+03
  0.111792000000E+03  0.136484000000E+03 -0.149393000000E+03
  0.522825000000E+02  0.183937000000E+03 -0.167857000000E+03
  0.874461000000E+02  0.904935000000E+02 -0.162258000000E+03
  0.885963000000E+02  0.902220000000E+02 -0.166075000000E+03
  0.111610000000E+03  0.157800000000E+03 -0.186682000000E+03
  0.149846000000E+03  0.124688000000E+03 -0.198723000000E+03
  0.415246000000E+02  0.173947000000E+03 -0.159543000000E+03
  0.175503000000E+03  0.658690000000E+02 -0.198739000000E+03
  0.636099000000E+02  0.171855000000E+03 -0.191637000000E+03
  0.122392000000E+03  0.104542000000E+03 -0.208103000000E+03
  0.582942000000E+02  0.141496000000E+03 -0.165536000000E+03
  0.129191000000E+03  0.101238000000E+03 -0.181136000000E+03
  0.573245000000E+02  0.165405000000E+03 -0.196002000000E+03
  0.561833000000E+02  0.161785000000E+03 -0.196927000000E+03
  0.122131000000E+03  0.153656000000E+03 -0.143539000000E+03
  0.118364000000E+03  0.999625000000E+02 -0.162538000000E+03
  0.951612000000E+02  0.132134000000E+03 -0.154825000000E+03
  0.119613000000E+03  0.143694000000E+03 -0.172326000000E+03
  0.110368000000E+03  0.181910000000E+03 -0.162819000000E+03
  0.359365000000E+02  0.151958000000E+03 -0.162681000000E+03
  0.837049000000E+02  0.114163000000E+03 -0.164646000000E+03
  0.835021000000E+02  0.112554000000E+03 -0.163152000000E+03
  0.408580000000E+02  0.161437000000E+03 -0.181313000000E+03
  0.444117000000E+02  0.154625000000E+03 -0.180011000000E+03
  0.416978000000E+02  0.156982000000E+03 -0.180438000000E+03
  0.768699000000E+02  0.174587000000E+03 -0.190454000000E+03
  0.386333000000E+02  0.163082000000E+03 -0.177590000000E+03
  0.798311000000E+02  0.165340000000E+03 -0.139595000000E+03
  0.140774000000E+03  0.842859000000E+02 -0.153910000000E+03
  0.830386000000E+02  0.971020000000E+02 -0.152580000000E+03
  0.804420000000E+02  0.981092000000E+02 -0.155649000000E+03
  0.853445000000E+02  0.187836000000E+03 -0.158104000000E+03
  0.807863000000E+02  0.124772000000E+03 -0.160488000000E+03
  0.110289000000E+03  0.169031000000E+03 -0.148351000000E+03
  0.140160000000E+03  0.812477000000E+02 -0.155992000000E+03
  0.150074000000E+03  0.727709000000E+02 -0.165086000000E+03
  0.527154000000E+02  0.183599000000E+03 -0.177491000000E+03
  0.515286000000E+02  0.184823000000E+03 -0.174219000000E+03
  0.986703000000E+02  0.135896000000E+03 -0.199873000000E+03
  0.169106000000E+03  0.119309000000E+03 -0.175811000000E+03
  0.169072000000E+03  0.118596000000E+03 -0.171733000000E+03
  0.167682000000E+03  0.121014000000E+03 -0.173087000000E+03
  0.174972000000E+03  0.111576000000E+03 -0.178131000000E+03
  0.167035000000E+03  0.121055000000E+03 -0.169673000000E+03
  0.157513000000E+03  0.131248000000E+03 -0.184578000000E+03
  0.159457000000E+03  0.129283000000E+03 -0.183942000000E+03
  0.158039000000E+03  0.133698000000E+03 -0.177817000000E+03
  0.158800000000E+03  0.133719000000E+03 -0.174430000000E+03
  0.137271000000E+03  0.132186000000E+03 -0.159783000000E+03
  0.273342000000E+02  0.167229000000E+03 -0.143631000000E+03
  0.967036000000E+02  0.144244000000E+03 -0.143393000000E+03
  0.899027000000E+02  0.141572000000E+03 -0.144465000000E+03
  0.904121000000E+02  0.144828000000E+03 -0.142851000000E+03
  0.909772000000E+02  0.147494000000E+03 -0.143357000000E+03
  0.493895000000E+02  0.147972000000E+03 -0.154376000000E+03
  0.107038000000E+03  0.175844000000E+03 -0.176908000000E+03
  0.326244000000E+02  0.170138000000E+03 -0.153812000000E+03
  0.306849000000E+02  0.167763000000E+03 -0.155813000000E+03
  0.609540000000E+02  0.143317000000E+03 -0.184154000000E+03
  0.125954000000E+03  0.168249000000E+03 -0.146149000000E+03
  0.940536000000E+02  0.935335000000E+02 -0.178502000000E+03
  0.678004000000E+02  0.137768000000E+03 -0.175140000000E+03
  0.990831000000E+02  0.183584000000E+03 -0.174719000000E+03
  0.266454000000E+02  0.166254000000E+03 -0.150868000000E+03
  0.265270000000E+02  0.163614000000E+03 -0.152426000000E+03
  0.812599000000E+02  0.151735000000E+03 -0.141482000000E+03
  0.809587000000E+02  0.148915000000E+03 -0.142163000000E+03
  0.893432000000E+02  0.110233000000E+03 -0.175861000000E+03
  0.156039000000E+03  0.706686000000E+02 -0.204445000000E+03
  0.166506000000E+03  0.680547000000E+02 -0.184395000000E+03
  0.304445000000E+02  0.167532000000E+03 -0.141397000000E+03
  0.279687000000E+02  0.167562000000E+03 -0.143047000000E+03
  0.287726000000E+02  0.168672000000E+03 -0.144565000000E+03
  0.292376000000E+02  0.168229000000E+03 -0.141877000000E+03
  0.287049000000E+02  0.168911000000E+03 -0.148681000000E+03
  0.824026000000E+02  0.981547000000E+02 -0.159160000000E+03
  0.791357000000E+02  0.134261000000E+03 -0.142610000000E+03
  0.421655000000E+02  0.176140000000E+03 -0.183718000000E+03
  0.737278000000E+02  0.172037000000E+03 -0.139594000000E+03
  0.699539000000E+02  0.175571000000E+03 -0.142410000000E+03
  0.728635000000E+02  0.175349000000E+03 -0.140561000000E+03
  0.900492000000E+02  0.174605000000E+03 -0.130621000000E+03
  0.957488000000E+02  0.178290000000E+03 -0.129703000000E+03
  0.114606000000E+03  0.169274000000E+03 -0.178383000000E+03
  0.112025000000E+03  0.169762000000E+03 -0.180694000000E+03
  0.838673000000E+02  0.176188000000E+03 -0.133521000000E+03
  0.177095000000E+03  0.899635000000E+02 -0.201053000000E+03
  0.842660000000E+02  0.187337000000E+03 -0.151035000000E+03
  0.799739000000E+02  0.186380000000E+03 -0.151202000000E+03
  0.781311000000E+02  0.140755000000E+03 -0.195623000000E+03
  0.814298000000E+02  0.141258000000E+03 -0.197741000000E+03
  0.109379000000E+03  0.912891000000E+02 -0.152262000000E+03
  0.111608000000E+03  0.107687000000E+03 -0.165279000000E+03
  0.947091000000E+02  0.129989000000E+03 -0.197329000000E+03
  0.159137000000E+03  0.686174000000E+02 -0.203913000000E+03
  0.923828000000E+02  0.132644000000E+03 -0.197658000000E+03
  0.922648000000E+02  0.129151000000E+03 -0.196073000000E+03
  0.625625000000E+02  0.146426000000E+03 -0.193270000000E+03
  0.104578000000E+03  0.169644000000E+03 -0.139409000000E+03
  0.102073000000E+03  0.169440000000E+03 -0.141477000000E+03
  0.994236000000E+02  0.171738000000E+03 -0.141931000000E+03
  0.122293000000E+03  0.774165000000E+02 -0.207901000000E+03
  0.121260000000E+03  0.751454000000E+02 -0.205693000000E+03
  0.163676000000E+03  0.842314000000E+02 -0.160866000000E+03
  0.162103000000E+03  0.844906000000E+02 -0.158522000000E+03
  0.854270000000E+02  0.109909000000E+03 -0.162622000000E+03
  0.841855000000E+02  0.106940000000E+03 -0.158135000000E+03
  0.783170000000E+02  0.103832000000E+03 -0.157071000000E+03
  0.974400000000E+02  0.175026000000E+03 -0.129481000000E+03
  0.481031000000E+02  0.144747000000E+03 -0.167628000000E+03
  0.106850000000E+03  0.126389000000E+03 -0.141047000000E+03
  0.126619000000E+03  0.106034000000E+03 -0.151969000000E+03
  0.124934000000E+03  0.112044000000E+03 -0.185168000000E+03
  0.657141000000E+02  0.112153000000E+03 -0.141429000000E+03
  0.692014000000E+02  0.114646000000E+03 -0.148055000000E+03
  0.105403000000E+03  0.177807000000E+03 -0.139106000000E+03
  0.101911000000E+03  0.178197000000E+03 -0.136964000000E+03
  0.105647000000E+03  0.180252000000E+03 -0.141979000000E+03
  0.658437000000E+02  0.177723000000E+03 -0.144652000000E+03
  0.416218000000E+02  0.170437000000E+03 -0.144926000000E+03
  0.397777000000E+02  0.171709000000E+03 -0.145801000000E+03
  0.770029000000E+02  0.176941000000E+03 -0.186998000000E+03
  0.928870000000E+02  0.122721000000E+03 -0.187391000000E+03
  0.921670000000E+02  0.122353000000E+03 -0.192406000000E+03
  0.135732000000E+03  0.116484000000E+03 -0.140034000000E+03
  0.117418000000E+03  0.805802000000E+02 -0.209092000000E+03
  0.121191000000E+03  0.798380000000E+02 -0.209776000000E+03
  0.119637000000E+03  0.831059000000E+02 -0.211413000000E+03
  0.109404000000E+03  0.763150000000E+02 -0.192528000000E+03
  0.112906000000E+03  0.743356000000E+02 -0.190624000000E+03
  0.138622000000E+03  0.830527000000E+02 -0.210177000000E+03
  0.139800000000E+03  0.805247000000E+02 -0.207890000000E+03
  0.150470000000E+03  0.103102000000E+03 -0.208436000000E+03
  0.165252000000E+03  0.124316000000E+03 -0.179303000000E+03
  0.943842000000E+02  0.181209000000E+03 -0.130630000000E+03
  0.147323000000E+03  0.670287000000E+02 -0.197220000000E+03
  0.146049000000E+03  0.691546000000E+02 -0.200546000000E+03
  0.144487000000E+03  0.115510000000E+03 -0.155197000000E+03
  0.156208000000E+03  0.116474000000E+03 -0.147588000000E+03
  0.154972000000E+03  0.655351000000E+02 -0.182089000000E+03
  0.160244000000E+03  0.669872000000E+02 -0.181699000000E+03
  0.111965000000E+03  0.171599000000E+03 -0.146311000000E+03
  0.112226000000E+03  0.169927000000E+03 -0.142889000000E+03
  0.108334000000E+03  0.170672000000E+03 -0.144323000000E+03
  0.539655000000E+02  0.170019000000E+03 -0.191388000000E+03
  0.164313000000E+03  0.904388000000E+02 -0.155844000000E+03
  0.600753000000E+02  0.162300000000E+03 -0.143014000000E+03
  0.629577000000E+02  0.162713000000E+03 -0.142715000000E+03
  0.622764000000E+02  0.159591000000E+03 -0.143215000000E+03
  0.588008000000E+02  0.159088000000E+03 -0.143355000000E+03
  0.107299000000E+03  0.169901000000E+03 -0.136228000000E+03
  0.110388000000E+03  0.173760000000E+03 -0.137073000000E+03
  0.155450000000E+03  0.122181000000E+03 -0.147857000000E+03
  0.131470000000E+03  0.113490000000E+03 -0.169847000000E+03
  0.133166000000E+03  0.109066000000E+03 -0.168423000000E+03
  0.125599000000E+03  0.839721000000E+02 -0.153549000000E+03
  0.135830000000E+03  0.120532000000E+03 -0.205133000000E+03
  0.799397000000E+02  0.115481000000E+03 -0.161478000000E+03
  0.468206000000E+02  0.161270000000E+03 -0.190127000000E+03
  0.730998000000E+02  0.104181000000E+03 -0.147774000000E+03
  0.742593000000E+02  0.102209000000E+03 -0.144585000000E+03
  0.669687000000E+02  0.118737000000E+03 -0.149541000000E+03
  0.114619000000E+03  0.152532000000E+03 -0.155548000000E+03
  0.103308000000E+03  0.168871000000E+03 -0.136284000000E+03
  0.827616000000E+02  0.185357000000E+03 -0.147469000000E+03
  0.805032000000E+02  0.184226000000E+03 -0.145680000000E+03
  0.848525000000E+02  0.186260000000E+03 -0.153240000000E+03
  0.867576000000E+02  0.186112000000E+03 -0.145894000000E+03
  0.117589000000E+03  0.158028000000E+03 -0.163861000000E+03
  0.116610000000E+03  0.159689000000E+03 -0.169612000000E+03
  0.316400000000E+02  0.156131000000E+03 -0.158823000000E+03
  0.325586000000E+02  0.158873000000E+03 -0.161198000000E+03
  0.505056000000E+02  0.160975000000E+03 -0.191279000000E+03
  0.748190000000E+02  0.150401000000E+03 -0.142398000000E+03
  0.695934000000E+02  0.154267000000E+03 -0.142709000000E+03
  0.742891000000E+02  0.145706000000E+03 -0.145914000000E+03
  0.422995000000E+02  0.148963000000E+03 -0.170713000000E+03
  0.478590000000E+02  0.146181000000E+03 -0.173426000000E+03
  0.115292000000E+03  0.172216000000E+03 -0.147908000000E+03
  0.106726000000E+03  0.172637000000E+03 -0.146600000000E+03
  0.113338000000E+03  0.168332000000E+03 -0.146839000000E+03
  0.746053000000E+02  0.168443000000E+03 -0.196795000000E+03
  0.139003000000E+03  0.144971000000E+03 -0.154749000000E+03
  0.503740000000E+02  0.151164000000E+03 -0.145130000000E+03
  0.635692000000E+02  0.182455000000E+03 -0.168792000000E+03
  0.648311000000E+02  0.182759000000E+03 -0.166191000000E+03
  0.107126000000E+03  0.104805000000E+03 -0.203842000000E+03
  0.961368000000E+02  0.191348000000E+03 -0.154324000000E+03
  0.789173000000E+02  0.118747000000E+03 -0.164472000000E+03
  0.813126000000E+02  0.115933000000E+03 -0.165438000000E+03
  0.131750000000E+03  0.117851000000E+03 -0.139717000000E+03
  0.130876000000E+03  0.121699000000E+03 -0.139669000000E+03
  0.103907000000E+03  0.184423000000E+03 -0.171415000000E+03
  0.996564000000E+02  0.178433000000E+03 -0.176676000000E+03
  0.961873000000E+02  0.185206000000E+03 -0.174038000000E+03
  0.990862000000E+02  0.185849000000E+03 -0.172684000000E+03
  0.155976000000E+03  0.911066000000E+02 -0.211302000000E+03
  0.793153000000E+02  0.987578000000E+02 -0.146219000000E+03
  0.117359000000E+03  0.158995000000E+03 -0.145888000000E+03
  0.113598000000E+03  0.160672000000E+03 -0.143513000000E+03
  0.794310000000E+02  0.989312000000E+02 -0.152211000000E+03
  0.652839000000E+02  0.165124000000E+03 -0.141962000000E+03
  0.116807000000E+03  0.166289000000E+03 -0.178660000000E+03
  0.121877000000E+03  0.137630000000E+03 -0.202804000000E+03
  0.781364000000E+02  0.175874000000E+03 -0.184676000000E+03
  0.780820000000E+02  0.173564000000E+03 -0.187299000000E+03
  0.769228000000E+02  0.172126000000E+03 -0.193401000000E+03
  0.781538000000E+02  0.183391000000E+03 -0.146142000000E+03
  0.755602000000E+02  0.182064000000E+03 -0.145456000000E+03
  0.982430000000E+02  0.169578000000E+03 -0.131131000000E+03
  0.987865000000E+02  0.172360000000E+03 -0.129873000000E+03
  0.761323000000E+02  0.117038000000E+03 -0.159705000000E+03
  0.123173000000E+03  0.138165000000E+03 -0.147821000000E+03
  0.119914000000E+03  0.100565000000E+03 -0.159311000000E+03
  0.119279000000E+03  0.986433000000E+02 -0.168770000000E+03
  0.100841000000E+03  0.131224000000E+03 -0.152158000000E+03
  0.830974000000E+02  0.989699000000E+02 -0.147683000000E+03
  0.877628000000E+02  0.135978000000E+03 -0.144705000000E+03
  0.537015000000E+02  0.174068000000E+03 -0.147583000000E+03
  0.559337000000E+02  0.171531000000E+03 -0.145350000000E+03
  0.763301000000E+02  0.183356000000E+03 -0.144519000000E+03
  0.752624000000E+02  0.180304000000E+03 -0.142403000000E+03
  0.780405000000E+02  0.181755000000E+03 -0.140832000000E+03
  0.764496000000E+02  0.179233000000E+03 -0.139620000000E+03
  0.789810000000E+02  0.179603000000E+03 -0.137908000000E+03
  0.432024000000E+02  0.174984000000E+03 -0.156477000000E+03
  0.418319000000E+02  0.174106000000E+03 -0.153071000000E+03
  0.466143000000E+02  0.168023000000E+03 -0.186418000000E+03
  0.128132000000E+03  0.131673000000E+03 -0.142517000000E+03
  0.149530000000E+03  0.100957000000E+03 -0.144374000000E+03
  0.123863000000E+03  0.154151000000E+03 -0.152908000000E+03
  0.125581000000E+03  0.154392000000E+03 -0.148779000000E+03
  0.599379000000E+02  0.182811000000E+03 -0.168896000000E+03
  0.641596000000E+02  0.183117000000E+03 -0.163695000000E+03
  0.749505000000E+02  0.119974000000E+03 -0.161598000000E+03
  0.974671000000E+02  0.138296000000E+03 -0.198028000000E+03
  0.973116000000E+02  0.128512000000E+03 -0.197878000000E+03
  0.120141000000E+03  0.162701000000E+03 -0.163810000000E+03
  0.137252000000E+03  0.100340000000E+03 -0.148717000000E+03
  0.153166000000E+03  0.826332000000E+02 -0.211297000000E+03
  0.159920000000E+03  0.861661000000E+02 -0.211914000000E+03
  0.157744000000E+03  0.889150000000E+02 -0.211751000000E+03
  0.630604000000E+02  0.174667000000E+03 -0.143806000000E+03
  0.785893000000E+02  0.175377000000E+03 -0.137415000000E+03
  0.756889000000E+02  0.175082000000E+03 -0.138856000000E+03
  0.958963000000E+02  0.851778000000E+02 -0.161006000000E+03
  0.120548000000E+03  0.166527000000E+03 -0.165601000000E+03
  0.122015000000E+03  0.159675000000E+03 -0.166163000000E+03
  0.124230000000E+03  0.160755000000E+03 -0.159956000000E+03
  0.164624000000E+03  0.675331000000E+02 -0.205072000000E+03
  0.166056000000E+03  0.696980000000E+02 -0.207370000000E+03
  0.137909000000E+03  0.115534000000E+03 -0.147185000000E+03
  0.924286000000E+02  0.108919000000E+03 -0.168232000000E+03
  0.884743000000E+02  0.187006000000E+03 -0.148754000000E+03
  0.867792000000E+02  0.184856000000E+03 -0.141906000000E+03
  0.112202000000E+03  0.171762000000E+03 -0.177918000000E+03
  0.119207000000E+03  0.167426000000E+03 -0.168568000000E+03
  0.117072000000E+03  0.168591000000E+03 -0.175625000000E+03
  0.544288000000E+02  0.161804000000E+03 -0.144137000000E+03
  0.126639000000E+03  0.156361000000E+03 -0.152286000000E+03
  0.767621000000E+02  0.146080000000E+03 -0.198662000000E+03
  0.673026000000E+02  0.154465000000E+03 -0.199963000000E+03
  0.135446000000E+03  0.680512000000E+02 -0.200481000000E+03
  0.131461000000E+03  0.951336000000E+02 -0.179462000000E+03
  0.553074000000E+02  0.147345000000E+03 -0.185847000000E+03
  0.549793000000E+02  0.146021000000E+03 -0.186010000000E+03
  0.524447000000E+02  0.148207000000E+03 -0.188253000000E+03
  0.162842000000E+03  0.128452000000E+03 -0.174029000000E+03
  0.161659000000E+03  0.126913000000E+03 -0.183628000000E+03
  0.163921000000E+03  0.124539000000E+03 -0.183191000000E+03
  0.139672000000E+03  0.127412000000E+03 -0.175621000000E+03
  0.139857000000E+03  0.656231000000E+02 -0.185294000000E+03
  0.108108000000E+03  0.196421000000E+03 -0.157123000000E+03
  0.104459000000E+03  0.196278000000E+03 -0.157480000000E+03
  0.175875000000E+03  0.681184000000E+02 -0.204218000000E+03
  0.172360000000E+03  0.670547000000E+02 -0.204415000000E+03
  0.173346000000E+03  0.697449000000E+02 -0.206883000000E+03
  0.179124000000E+03  0.705862000000E+02 -0.202188000000E+03
  0.177002000000E+03  0.673099000000E+02 -0.201247000000E+03
  0.622807000000E+02  0.175644000000E+03 -0.146741000000E+03
  0.628404000000E+02  0.172752000000E+03 -0.144924000000E+03
  0.686324000000E+02  0.173645000000E+03 -0.141239000000E+03
  0.122991000000E+03  0.725341000000E+02 -0.163365000000E+03
  0.134732000000E+03  0.922407000000E+02 -0.147533000000E+03
  0.132252000000E+03  0.154811000000E+03 -0.167468000000E+03
  0.529341000000E+02  0.146655000000E+03 -0.180392000000E+03
  0.153282000000E+03  0.107097000000E+03 -0.206951000000E+03
  0.155967000000E+03  0.106014000000E+03 -0.206880000000E+03
  0.155887000000E+03  0.108828000000E+03 -0.205672000000E+03
  0.127915000000E+03  0.119375000000E+03 -0.185523000000E+03
  0.100901000000E+03  0.791463000000E+02 -0.170306000000E+03
  0.987305000000E+02  0.809000000000E+02 -0.169879000000E+03
  0.102873000000E+03  0.769245000000E+02 -0.172471000000E+03
  0.125245000000E+03  0.140407000000E+03 -0.162556000000E+03
  0.123850000000E+03  0.153225000000E+03 -0.161686000000E+03
  0.128850000000E+03  0.142760000000E+03 -0.174630000000E+03
  0.121275000000E+03  0.141852000000E+03 -0.163334000000E+03
  0.841060000000E+02  0.122005000000E+03 -0.163634000000E+03
  0.116151000000E+03  0.102097000000E+03 -0.208608000000E+03
  0.125182000000E+03  0.102953000000E+03 -0.155929000000E+03
  0.121248000000E+03  0.975518000000E+02 -0.161214000000E+03
  0.107884000000E+03  0.959464000000E+02 -0.150263000000E+03
  0.128600000000E+03  0.105059000000E+03 -0.182334000000E+03
  0.415846000000E+02  0.156793000000E+03 -0.140623000000E+03
  0.407335000000E+02  0.154933000000E+03 -0.139993000000E+03
  0.402553000000E+02  0.155803000000E+03 -0.140091000000E+03
  0.115587000000E+03  0.154203000000E+03 -0.166834000000E+03
  0.120623000000E+03  0.162140000000E+03 -0.168557000000E+03
  0.740792000000E+02  0.166743000000E+03 -0.138578000000E+03
  0.751217000000E+02  0.170675000000E+03 -0.137894000000E+03
  0.107999000000E+03  0.171465000000E+03 -0.140786000000E+03
  0.786963000000E+02  0.134516000000E+03 -0.145588000000E+03
  0.113939000000E+03  0.160401000000E+03 -0.181148000000E+03
  0.114267000000E+03  0.163478000000E+03 -0.178701000000E+03
  0.622736000000E+02  0.144125000000E+03 -0.152049000000E+03
  0.771214000000E+02  0.131778000000E+03 -0.171660000000E+03
  0.107962000000E+03  0.136595000000E+03 -0.202820000000E+03
  0.123909000000E+03  0.155967000000E+03 -0.179108000000E+03
  0.122068000000E+03  0.173603000000E+03 -0.156910000000E+03
  0.139984000000E+03  0.146657000000E+03 -0.157803000000E+03
  0.140543000000E+03  0.147832000000E+03 -0.160343000000E+03
  0.941349000000E+02  0.160580000000E+03 -0.139500000000E+03
  0.834952000000E+02  0.136047000000E+03 -0.195809000000E+03
  0.124086000000E+03  0.773725000000E+02 -0.157958000000E+03
  0.405590000000E+02  0.157771000000E+03 -0.138978000000E+03
  0.760378000000E+02  0.162040000000E+03 -0.142615000000E+03
  0.792796000000E+02  0.163110000000E+03 -0.137940000000E+03
  0.527182000000E+02  0.143546000000E+03 -0.170465000000E+03
  0.420486000000E+02  0.150382000000E+03 -0.151193000000E+03
  0.445685000000E+02  0.146785000000E+03 -0.154425000000E+03
  0.133956000000E+03  0.105830000000E+03 -0.182293000000E+03
  0.112832000000E+03  0.132470000000E+03 -0.153570000000E+03
  0.728819000000E+02  0.131540000000E+03 -0.145259000000E+03
  0.732765000000E+02  0.129785000000E+03 -0.146615000000E+03
  0.766451000000E+02  0.109802000000E+03 -0.158121000000E+03
  0.763427000000E+02  0.106713000000E+03 -0.156076000000E+03
  0.790091000000E+02  0.107008000000E+03 -0.158785000000E+03
  0.751654000000E+02  0.103592000000E+03 -0.146328000000E+03
  0.741359000000E+02  0.101894000000E+03 -0.141430000000E+03
  0.372053000000E+02  0.167995000000E+03 -0.169924000000E+03
  0.362634000000E+02  0.167756000000E+03 -0.163823000000E+03
  0.695538000000E+02  0.178129000000E+03 -0.144434000000E+03
  0.556115000000E+02  0.175253000000E+03 -0.187189000000E+03
  0.527488000000E+02  0.172771000000E+03 -0.188967000000E+03
  0.831570000000E+02  0.184726000000E+03 -0.143899000000E+03
  0.748586000000E+02  0.180386000000E+03 -0.141911000000E+03
  0.773816000000E+02  0.140631000000E+03 -0.149630000000E+03
  0.420298000000E+02  0.150950000000E+03 -0.173726000000E+03
  0.688604000000E+02  0.141471000000E+03 -0.187967000000E+03
  0.106763000000E+03  0.176960000000E+03 -0.174122000000E+03
  0.469309000000E+02  0.174121000000E+03 -0.147750000000E+03
  0.554412000000E+02  0.178715000000E+03 -0.150337000000E+03
  0.924240000000E+02  0.126801000000E+03 -0.194898000000E+03
  0.895668000000E+02  0.134392000000E+03 -0.144729000000E+03
  0.914744000000E+02  0.135585000000E+03 -0.144793000000E+03
  0.890545000000E+02  0.138645000000E+03 -0.146490000000E+03
  0.864599000000E+02  0.141014000000E+03 -0.144881000000E+03
  0.912627000000E+02  0.139672000000E+03 -0.148990000000E+03
  0.138632000000E+03  0.120975000000E+03 -0.204155000000E+03
  0.776612000000E+02  0.181405000000E+03 -0.176249000000E+03
  0.153917000000E+03  0.139751000000E+03 -0.166767000000E+03
  0.174173000000E+03  0.742818000000E+02 -0.208052000000E+03
  0.419248000000E+02  0.147526000000E+03 -0.154334000000E+03
  0.431174000000E+02  0.147868000000E+03 -0.151793000000E+03
  0.111793000000E+03  0.132287000000E+03 -0.205661000000E+03
  0.111381000000E+03  0.155209000000E+03 -0.188125000000E+03
  0.632741000000E+02  0.141777000000E+03 -0.151314000000E+03
  0.615523000000E+02  0.141469000000E+03 -0.154809000000E+03
  0.118462000000E+03  0.717628000000E+02 -0.187461000000E+03
  0.413886000000E+02  0.184516000000E+03 -0.171882000000E+03
  0.906914000000E+02  0.187325000000E+03 -0.170507000000E+03
  0.136167000000E+03  0.149759000000E+03 -0.161996000000E+03
  0.133362000000E+03  0.149858000000E+03 -0.161294000000E+03
  0.133779000000E+03  0.152084000000E+03 -0.164114000000E+03
  0.110207000000E+03  0.106641000000E+03 -0.205316000000E+03
  0.109963000000E+03  0.102878000000E+03 -0.205673000000E+03
  0.109310000000E+03  0.989649000000E+02 -0.206135000000E+03
  0.151895000000E+03  0.143129000000E+03 -0.173475000000E+03
  0.153533000000E+03  0.141274000000E+03 -0.172318000000E+03
  0.986141000000E+02  0.132721000000E+03 -0.154732000000E+03
  0.142272000000E+03  0.112260000000E+03 -0.155712000000E+03
  0.147251000000E+03  0.113576000000E+03 -0.141201000000E+03
  0.816001000000E+02  0.124383000000E+03 -0.168842000000E+03
  0.833489000000E+02  0.121647000000E+03 -0.168217000000E+03
  0.834202000000E+02  0.122790000000E+03 -0.171305000000E+03
  0.118483000000E+03  0.142409000000E+03 -0.180557000000E+03
  0.681896000000E+02  0.109124000000E+03 -0.143628000000E+03
  0.683180000000E+02  0.111554000000E+03 -0.146765000000E+03
  0.675988000000E+02  0.110718000000E+03 -0.141010000000E+03
  0.118582000000E+03  0.157518000000E+03 -0.161263000000E+03
  0.127937000000E+03  0.169249000000E+03 -0.149558000000E+03
  0.121969000000E+03  0.164548000000E+03 -0.149232000000E+03
  0.123098000000E+03  0.166429000000E+03 -0.150875000000E+03
  0.662373000000E+02  0.168457000000E+03 -0.141454000000E+03
  0.552119000000E+02  0.170915000000E+03 -0.143712000000E+03
  0.404654000000E+02  0.147509000000E+03 -0.159526000000E+03
  0.369779000000E+02  0.149776000000E+03 -0.158772000000E+03
  0.893422000000E+02  0.113730000000E+03 -0.177615000000E+03
  0.563585000000E+02  0.182587000000E+03 -0.158977000000E+03
  0.143358000000E+03  0.975958000000E+02 -0.209853000000E+03
  0.169897000000E+03  0.755794000000E+02 -0.210055000000E+03
  0.143465000000E+03  0.100948000000E+03 -0.209102000000E+03
  0.917133000000E+02  0.107809000000E+03 -0.181814000000E+03
  0.118385000000E+03  0.174072000000E+03 -0.157769000000E+03
  0.108381000000E+03  0.190716000000E+03 -0.169179000000E+03
  0.110709000000E+03  0.192470000000E+03 -0.166804000000E+03
  0.391458000000E+02  0.176823000000E+03 -0.167713000000E+03
  0.401699000000E+02  0.175838000000E+03 -0.167787000000E+03
  0.405398000000E+02  0.175613000000E+03 -0.164310000000E+03
  0.585031000000E+02  0.183040000000E+03 -0.165254000000E+03
  0.109296000000E+03  0.160851000000E+03 -0.191124000000E+03
  0.116146000000E+03  0.106422000000E+03 -0.140637000000E+03
  0.397971000000E+02  0.172343000000E+03 -0.150203000000E+03
  0.172177000000E+03  0.108919000000E+03 -0.193161000000E+03
  0.123006000000E+03  0.701273000000E+02 -0.198018000000E+03
  0.478140000000E+02  0.145937000000E+03 -0.154648000000E+03
  0.465219000000E+02  0.147253000000E+03 -0.151583000000E+03
  0.663233000000E+02  0.120516000000E+03 -0.141237000000E+03
  0.102864000000E+03  0.190828000000E+03 -0.149154000000E+03
  0.818902000000E+02  0.183409000000E+03 -0.173977000000E+03
  0.919899000000E+02  0.182960000000E+03 -0.178365000000E+03
  0.118004000000E+03  0.145301000000E+03 -0.199579000000E+03
  0.125239000000E+03  0.144458000000E+03 -0.197654000000E+03
  0.864670000000E+02  0.940636000000E+02 -0.164872000000E+03
  0.106484000000E+03  0.177944000000E+03 -0.171410000000E+03
  0.169731000000E+03  0.862960000000E+02 -0.210128000000E+03
  0.139658000000E+03  0.151538000000E+03 -0.168652000000E+03
  0.143196000000E+03  0.149770000000E+03 -0.169022000000E+03
  0.148923000000E+03  0.144400000000E+03 -0.179314000000E+03
  0.133222000000E+03  0.664199000000E+02 -0.189383000000E+03
  0.182415000000E+03  0.931615000000E+02 -0.186803000000E+03
  0.141585000000E+03  0.100767000000E+03 -0.151846000000E+03
  0.124242000000E+03  0.962466000000E+02 -0.179120000000E+03
  0.128823000000E+03  0.163022000000E+03 -0.147517000000E+03
  0.907788000000E+02  0.127365000000E+03 -0.191466000000E+03
  0.100010000000E+03  0.126549000000E+03 -0.199217000000E+03
  0.105849000000E+03  0.125982000000E+03 -0.203355000000E+03
  0.102687000000E+03  0.128202000000E+03 -0.201313000000E+03
  0.102348000000E+03  0.124545000000E+03 -0.191994000000E+03
  0.103837000000E+03  0.163216000000E+03 -0.143275000000E+03
  0.555493000000E+02  0.158815000000E+03 -0.143212000000E+03
  0.868024000000E+02  0.114649000000E+03 -0.169241000000E+03
  0.580971000000E+02  0.163606000000E+03 -0.144556000000E+03
  0.607167000000E+02  0.160627000000E+03 -0.145055000000E+03
  0.510311000000E+02  0.160373000000E+03 -0.143339000000E+03
  0.534618000000E+02  0.161397000000E+03 -0.142804000000E+03
  0.544127000000E+02  0.165084000000E+03 -0.144083000000E+03
  0.470999000000E+02  0.169383000000E+03 -0.188901000000E+03
  0.448076000000E+02  0.170855000000E+03 -0.187065000000E+03
  0.317900000000E+02  0.159444000000E+03 -0.161616000000E+03
  0.975237000000E+02  0.151355000000E+03 -0.141260000000E+03
  0.110131000000E+03  0.175654000000E+03 -0.163485000000E+03
  0.279304000000E+02  0.166762000000E+03 -0.145479000000E+03
  0.419044000000E+02  0.152708000000E+03 -0.176149000000E+03
  0.762213000000E+02  0.183165000000E+03 -0.148612000000E+03
  0.836744000000E+02  0.118039000000E+03 -0.168456000000E+03
  0.877305000000E+02  0.138548000000E+03 -0.196789000000E+03
  0.910227000000E+02  0.144646000000E+03 -0.200080000000E+03
  0.164655000000E+03  0.118046000000E+03 -0.193657000000E+03
  0.179078000000E+03  0.846824000000E+02 -0.198476000000E+03
  0.180472000000E+03  0.855775000000E+02 -0.195570000000E+03
  0.114133000000E+03  0.167218000000E+03 -0.181310000000E+03
  0.971042000000E+02  0.820021000000E+02 -0.171643000000E+03
  0.128775000000E+03  0.115828000000E+03 -0.206569000000E+03
  0.125884000000E+03  0.113539000000E+03 -0.206861000000E+03
  0.129442000000E+03  0.112490000000E+03 -0.206662000000E+03
  0.817659000000E+02  0.134876000000E+03 -0.140883000000E+03
  0.821067000000E+02  0.135064000000E+03 -0.143761000000E+03
  0.776957000000E+02  0.150387000000E+03 -0.142135000000E+03
  0.785609000000E+02  0.154025000000E+03 -0.141208000000E+03
  0.721293000000E+02  0.150360000000E+03 -0.142701000000E+03
  0.715860000000E+02  0.141159000000E+03 -0.146690000000E+03
  0.104606000000E+03  0.110150000000E+03 -0.201527000000E+03
  0.104380000000E+03  0.106522000000E+03 -0.202021000000E+03
  0.113208000000E+03  0.187463000000E+03 -0.155114000000E+03
  0.113810000000E+03  0.188116000000E+03 -0.159319000000E+03
  0.102047000000E+03  0.111600000000E+03 -0.199569000000E+03
  0.885946000000E+02  0.166348000000E+03 -0.138908000000E+03
  0.938709000000E+02  0.164494000000E+03 -0.138081000000E+03
  0.587261000000E+02  0.141599000000E+03 -0.169605000000E+03
  0.628062000000E+02  0.140167000000E+03 -0.170193000000E+03
  0.170458000000E+03  0.947159000000E+02 -0.207481000000E+03
  0.171483000000E+03  0.912602000000E+02 -0.207860000000E+03
  0.114921000000E+03  0.148007000000E+03 -0.167427000000E+03
  0.115382000000E+03  0.149125000000E+03 -0.170286000000E+03
  0.128592000000E+03  0.156069000000E+03 -0.167277000000E+03
  0.944342000000E+02  0.952986000000E+02 -0.180567000000E+03
  0.936069000000E+02  0.985879000000E+02 -0.180257000000E+03
  0.931151000000E+02  0.962208000000E+02 -0.177621000000E+03
  0.593870000000E+02  0.174677000000E+03 -0.187905000000E+03
  0.144520000000E+03  0.726923000000E+02 -0.202942000000E+03
  0.141810000000E+03  0.720098000000E+02 -0.202559000000E+03
  0.145396000000E+03  0.660260000000E+02 -0.194186000000E+03
  0.169066000000E+03  0.963790000000E+02 -0.158350000000E+03
  0.133091000000E+03  0.146353000000E+03 -0.156791000000E+03
  0.127387000000E+03  0.139308000000E+03 -0.148069000000E+03
  0.957783000000E+02  0.881672000000E+02 -0.156248000000E+03
  0.967004000000E+02  0.912655000000E+02 -0.154491000000E+03
  0.108576000000E+03  0.809448000000E+02 -0.156986000000E+03
  0.105700000000E+03  0.824282000000E+02 -0.157342000000E+03
  0.111951000000E+03  0.982153000000E+02 -0.145280000000E+03
  0.133540000000E+03  0.999229000000E+02 -0.209649000000E+03
  0.101941000000E+03  0.102278000000E+03 -0.149593000000E+03
  0.104178000000E+03  0.103985000000E+03 -0.146765000000E+03
  0.670994000000E+02  0.117931000000E+03 -0.141010000000E+03
  0.667212000000E+02  0.115174000000E+03 -0.146747000000E+03
  0.703065000000E+02  0.110266000000E+03 -0.149294000000E+03
  0.115246000000E+03  0.151772000000E+03 -0.168018000000E+03
  0.122058000000E+03  0.159185000000E+03 -0.173723000000E+03
  0.886506000000E+02  0.183009000000E+03 -0.134467000000E+03
  0.924213000000E+02  0.184711000000E+03 -0.135797000000E+03
  0.883633000000E+02  0.176513000000E+03 -0.132768000000E+03
  0.872792000000E+02  0.177526000000E+03 -0.130973000000E+03
  0.113521000000E+03  0.158053000000E+03 -0.138574000000E+03
  0.542043000000E+02  0.143482000000E+03 -0.173253000000E+03
  0.555839000000E+02  0.142702000000E+03 -0.170815000000E+03
  0.528307000000E+02  0.144379000000E+03 -0.175552000000E+03
  0.501017000000E+02  0.145872000000E+03 -0.176690000000E+03
  0.600133000000E+02  0.142791000000E+03 -0.180752000000E+03
  0.630531000000E+02  0.141134000000E+03 -0.178726000000E+03
  0.523147000000E+02  0.144692000000E+03 -0.162729000000E+03
  0.108327000000E+03  0.153134000000E+03 -0.192671000000E+03
  0.106502000000E+03  0.155041000000E+03 -0.193945000000E+03
  0.797237000000E+02  0.130352000000E+03 -0.186808000000E+03
  0.771439000000E+02  0.131695000000E+03 -0.184148000000E+03
  0.774886000000E+02  0.134017000000E+03 -0.187664000000E+03
  0.818705000000E+02  0.133337000000E+03 -0.190994000000E+03
  0.842994000000E+02  0.136463000000E+03 -0.194646000000E+03
  0.863179000000E+02  0.131770000000E+03 -0.194803000000E+03
  0.872561000000E+02  0.128920000000E+03 -0.193423000000E+03
  0.131518000000E+03  0.148435000000E+03 -0.159299000000E+03
  0.130355000000E+03  0.156386000000E+03 -0.170800000000E+03
  0.865884000000E+02  0.188228000000E+03 -0.153854000000E+03
  0.925628000000E+02  0.190297000000E+03 -0.154975000000E+03
  0.928096000000E+02  0.169175000000E+03 -0.195385000000E+03
  0.954255000000E+02  0.170202000000E+03 -0.193879000000E+03
  0.888168000000E+02  0.123714000000E+03 -0.167668000000E+03
  0.866494000000E+02  0.125441000000E+03 -0.169701000000E+03
  0.491600000000E+02  0.155331000000E+03 -0.191271000000E+03
  0.484959000000E+02  0.158754000000E+03 -0.191708000000E+03
  0.176174000000E+03  0.101844000000E+03 -0.166703000000E+03
  0.164592000000E+03  0.120133000000E+03 -0.159962000000E+03
  0.161017000000E+03  0.110963000000E+03 -0.151631000000E+03
  0.159209000000E+03  0.109037000000E+03 -0.150270000000E+03
  0.166734000000E+03  0.114774000000E+03 -0.194532000000E+03
  0.169875000000E+03  0.116966000000E+03 -0.184904000000E+03
  0.168419000000E+03  0.117006000000E+03 -0.188504000000E+03
  0.356216000000E+02  0.154937000000E+03 -0.164898000000E+03
  0.693677000000E+02  0.166382000000E+03 -0.197857000000E+03
  0.593413000000E+02  0.142242000000E+03 -0.176714000000E+03
  0.606439000000E+02  0.141293000000E+03 -0.173094000000E+03
  0.668243000000E+02  0.180611000000E+03 -0.147021000000E+03
  0.465134000000E+02  0.183167000000E+03 -0.164890000000E+03
  0.135208000000E+03  0.144488000000E+03 -0.154086000000E+03
  0.901752000000E+02  0.185669000000E+03 -0.173605000000E+03
  0.160084000000E+03  0.127249000000E+03 -0.186492000000E+03
  0.156232000000E+03  0.130026000000E+03 -0.189932000000E+03
  0.425170000000E+02  0.173679000000E+03 -0.159209000000E+03
  0.116149000000E+03  0.160014000000E+03 -0.138519000000E+03
  0.113976000000E+03  0.161784000000E+03 -0.138177000000E+03
  0.118413000000E+03  0.104633000000E+03 -0.207662000000E+03
  0.113934000000E+03  0.104833000000E+03 -0.206820000000E+03
  0.169115000000E+03  0.986080000000E+02 -0.206274000000E+03
  0.174056000000E+03  0.979903000000E+02 -0.202201000000E+03
  0.174835000000E+03  0.947329000000E+02 -0.203047000000E+03
  0.159499000000E+03  0.119518000000E+03 -0.197580000000E+03
  0.157837000000E+03  0.118048000000E+03 -0.199379000000E+03
  0.154051000000E+03  0.118951000000E+03 -0.200406000000E+03
  0.122416000000E+03  0.101824000000E+03 -0.157304000000E+03
  0.127342000000E+03  0.103572000000E+03 -0.153381000000E+03
  0.123940000000E+03  0.142060000000E+03 -0.178239000000E+03
  0.127176000000E+03  0.151990000000E+03 -0.161865000000E+03
  0.126224000000E+03  0.154970000000E+03 -0.164237000000E+03
  0.131395000000E+03  0.155510000000E+03 -0.175183000000E+03
  0.135841000000E+03  0.151642000000E+03 -0.178027000000E+03
  0.111823000000E+03  0.188101000000E+03 -0.168415000000E+03
  0.109279000000E+03  0.184728000000E+03 -0.167997000000E+03
  0.157853000000E+03  0.130975000000E+03 -0.158917000000E+03
  0.158881000000E+03  0.128294000000E+03 -0.157601000000E+03
  0.909258000000E+02  0.104772000000E+03 -0.158223000000E+03
  0.253164000000E+02  0.160362000000E+03 -0.148102000000E+03
  0.695430000000E+02  0.157110000000E+03 -0.200683000000E+03
  0.971871000000E+02  0.144642000000E+03 -0.145188000000E+03
  0.946263000000E+02  0.135932000000E+03 -0.140973000000E+03
  0.101439000000E+03  0.188178000000E+03 -0.144017000000E+03
  0.104188000000E+03  0.188401000000E+03 -0.146134000000E+03
  0.100232000000E+03  0.186804000000E+03 -0.140998000000E+03
  0.102620000000E+03  0.183148000000E+03 -0.145274000000E+03
  0.567711000000E+02  0.143969000000E+03 -0.174661000000E+03
  0.591082000000E+02  0.142779000000E+03 -0.171556000000E+03
  0.114765000000E+03  0.172930000000E+03 -0.172198000000E+03
  0.111253000000E+03  0.175233000000E+03 -0.170732000000E+03
  0.124228000000E+03  0.171896000000E+03 -0.159728000000E+03
  0.122175000000E+03  0.170936000000E+03 -0.161953000000E+03
  0.119541000000E+03  0.171499000000E+03 -0.163170000000E+03
  0.122792000000E+03  0.165739000000E+03 -0.163106000000E+03
  0.581932000000E+02  0.150071000000E+03 -0.146550000000E+03
  0.686570000000E+02  0.166714000000E+03 -0.140766000000E+03
  0.705322000000E+02  0.170274000000E+03 -0.141218000000E+03
  0.532327000000E+02  0.182181000000E+03 -0.169767000000E+03
  0.562824000000E+02  0.181107000000E+03 -0.168241000000E+03
  0.564836000000E+02  0.181164000000E+03 -0.171332000000E+03
  0.583293000000E+02  0.181377000000E+03 -0.165581000000E+03
  0.561783000000E+02  0.183337000000E+03 -0.168618000000E+03
  0.617795000000E+02  0.182222000000E+03 -0.172151000000E+03
  0.405378000000E+02  0.149567000000E+03 -0.158081000000E+03
  0.100926000000E+03  0.179155000000E+03 -0.180158000000E+03
  0.463524000000E+02  0.146724000000E+03 -0.160936000000E+03
  0.480753000000E+02  0.147349000000E+03 -0.157643000000E+03
  0.261385000000E+02  0.158467000000E+03 -0.148367000000E+03
  0.169041000000E+03  0.834613000000E+02 -0.169965000000E+03
  0.171036000000E+03  0.116275000000E+03 -0.173887000000E+03
  0.171221000000E+03  0.116597000000E+03 -0.177718000000E+03
  0.169524000000E+03  0.116123000000E+03 -0.167314000000E+03
  0.937952000000E+02  0.186074000000E+03 -0.144401000000E+03
  0.858021000000E+02  0.187292000000E+03 -0.147756000000E+03
  0.873186000000E+02  0.186998000000E+03 -0.144397000000E+03
  0.968731000000E+02  0.824594000000E+02 -0.168582000000E+03
  0.941776000000E+02  0.847240000000E+02 -0.167566000000E+03
  0.111218000000E+03  0.182376000000E+03 -0.159285000000E+03
  0.710452000000E+02  0.136164000000E+03 -0.155197000000E+03
  0.104881000000E+03  0.118181000000E+03 -0.202135000000E+03
  0.104352000000E+03  0.114188000000E+03 -0.201307000000E+03
  0.109930000000E+03  0.110253000000E+03 -0.205349000000E+03
  0.177229000000E+03  0.896999000000E+02 -0.176800000000E+03
  0.179914000000E+03  0.901252000000E+02 -0.180687000000E+03
  0.169944000000E+03  0.868383000000E+02 -0.167489000000E+03
  0.153432000000E+03  0.122911000000E+03 -0.198719000000E+03
  0.152819000000E+03  0.126168000000E+03 -0.197033000000E+03
  0.485394000000E+02  0.172877000000E+03 -0.187906000000E+03
  0.167019000000E+03  0.116801000000E+03 -0.191596000000E+03
  0.175146000000E+03  0.108816000000E+03 -0.188586000000E+03
  0.173678000000E+03  0.111533000000E+03 -0.186895000000E+03
  0.173095000000E+03  0.110043000000E+03 -0.190253000000E+03
  0.171126000000E+03  0.111253000000E+03 -0.191837000000E+03
  0.171655000000E+03  0.112245000000E+03 -0.189565000000E+03
  0.510976000000E+02  0.143674000000E+03 -0.167500000000E+03
  0.534021000000E+02  0.156802000000E+03 -0.195277000000E+03
  0.524509000000E+02  0.153672000000E+03 -0.193488000000E+03
  0.557210000000E+02  0.150919000000E+03 -0.194698000000E+03
  0.564871000000E+02  0.157058000000E+03 -0.195387000000E+03
  0.581053000000E+02  0.153981000000E+03 -0.195629000000E+03
  0.632341000000E+02  0.139777000000E+03 -0.165037000000E+03
  0.169375000000E+03  0.113973000000E+03 -0.191243000000E+03
  0.140070000000E+03  0.102852000000E+03 -0.208776000000E+03
  0.139773000000E+03  0.987593000000E+02 -0.209600000000E+03
  0.100165000000E+03  0.184227000000E+03 -0.143695000000E+03
  0.900184000000E+02  0.119277000000E+03 -0.185394000000E+03
  0.874296000000E+02  0.121511000000E+03 -0.185474000000E+03
  0.133380000000E+03  0.151505000000E+03 -0.180920000000E+03
  0.136810000000E+03  0.149855000000E+03 -0.180704000000E+03
  0.140390000000E+03  0.148703000000E+03 -0.180352000000E+03
  0.144600000000E+03  0.146183000000E+03 -0.184183000000E+03
  0.176429000000E+03  0.851591000000E+02 -0.178186000000E+03
  0.174164000000E+03  0.829500000000E+02 -0.176772000000E+03
  0.172746000000E+03  0.103141000000E+03 -0.198938000000E+03
  0.174308000000E+03  0.860356000000E+02 -0.174886000000E+03
  0.104085000000E+03  0.143646000000E+03 -0.144163000000E+03
  0.747127000000E+02  0.149719000000E+03 -0.145196000000E+03
  0.745502000000E+02  0.153427000000E+03 -0.141982000000E+03
  0.118757000000E+03  0.149822000000E+03 -0.151495000000E+03
  0.141989000000E+03  0.131663000000E+03 -0.172411000000E+03
  0.142638000000E+03  0.134626000000E+03 -0.171954000000E+03
  0.118530000000E+03  0.120932000000E+03 -0.207367000000E+03
  0.107588000000E+03  0.140061000000E+03 -0.201159000000E+03
  0.107098000000E+03  0.140396000000E+03 -0.194056000000E+03
  0.280648000000E+02  0.157916000000E+03 -0.149187000000E+03
  0.912080000000E+02  0.142179000000E+03 -0.198584000000E+03
  0.887311000000E+02  0.147857000000E+03 -0.199363000000E+03
  0.132037000000E+03  0.115277000000E+03 -0.162659000000E+03
  0.796352000000E+02  0.169161000000E+03 -0.137931000000E+03
  0.835642000000E+02  0.170900000000E+03 -0.136588000000E+03
  0.935414000000E+02  0.146072000000E+03 -0.142376000000E+03
  0.102180000000E+03  0.108198000000E+03 -0.176475000000E+03
  0.139649000000E+03  0.714524000000E+02 -0.202416000000E+03
  0.142072000000E+03  0.695127000000E+02 -0.201117000000E+03
  0.113629000000E+03  0.188394000000E+03 -0.162384000000E+03
  0.140491000000E+03  0.118909000000E+03 -0.175078000000E+03
  0.109194000000E+03  0.125339000000E+03 -0.192483000000E+03
  0.178517000000E+03  0.820303000000E+02 -0.200313000000E+03
  0.681212000000E+02  0.169103000000E+03 -0.195454000000E+03
  0.724041000000E+02  0.130741000000E+03 -0.142256000000E+03
  0.701976000000E+02  0.139471000000E+03 -0.149682000000E+03
  0.157756000000E+03  0.103455000000E+03 -0.207636000000E+03
  0.116393000000E+03  0.149069000000E+03 -0.174740000000E+03
  0.115793000000E+03  0.150621000000E+03 -0.172901000000E+03
  0.124233000000E+03  0.168583000000E+03 -0.161591000000E+03
  0.167072000000E+03  0.673347000000E+02 -0.205167000000E+03
  0.818461000000E+02  0.135561000000E+03 -0.192526000000E+03
  0.815678000000E+02  0.138189000000E+03 -0.194088000000E+03
  0.179525000000E+03  0.794344000000E+02 -0.184993000000E+03
  0.142440000000E+03  0.140772000000E+03 -0.191949000000E+03
  0.138256000000E+03  0.141836000000E+03 -0.192796000000E+03
  0.140280000000E+03  0.138149000000E+03 -0.194159000000E+03
  0.182640000000E+03  0.878160000000E+02 -0.186986000000E+03
  0.176429000000E+03  0.822603000000E+02 -0.203943000000E+03
  0.178181000000E+03  0.786682000000E+02 -0.202423000000E+03
  0.150246000000E+03  0.980653000000E+02 -0.145432000000E+03
  0.153049000000E+03  0.955293000000E+02 -0.147012000000E+03
  0.140336000000E+03  0.914788000000E+02 -0.149095000000E+03
  0.145608000000E+03  0.898293000000E+02 -0.150170000000E+03
  0.144494000000E+03  0.930812000000E+02 -0.148278000000E+03
  0.117102000000E+03  0.946064000000E+02 -0.146299000000E+03
  0.115197000000E+03  0.974986000000E+02 -0.144156000000E+03
  0.106510000000E+03  0.178025000000E+03 -0.133163000000E+03
  0.107106000000E+03  0.180703000000E+03 -0.134844000000E+03
  0.119759000000E+03  0.924150000000E+02 -0.147738000000E+03
  0.123803000000E+03  0.920646000000E+02 -0.147605000000E+03
  0.124784000000E+03  0.953195000000E+02 -0.144756000000E+03
  0.152548000000E+03  0.121482000000E+03 -0.145955000000E+03
  0.153332000000E+03  0.124165000000E+03 -0.147259000000E+03
  0.963639000000E+02  0.114541000000E+03 -0.181970000000E+03
  0.952315000000E+02  0.108455000000E+03 -0.193682000000E+03
  0.948776000000E+02  0.117272000000E+03 -0.193852000000E+03
  0.108225000000E+03  0.119822000000E+03 -0.204171000000E+03
  0.110906000000E+03  0.117156000000E+03 -0.190392000000E+03
  0.730784000000E+02  0.121864000000E+03 -0.159575000000E+03
  0.574563000000E+02  0.177572000000E+03 -0.147754000000E+03
  0.627522000000E+02  0.177434000000E+03 -0.145678000000E+03
  0.101836000000E+03  0.113130000000E+03 -0.141010000000E+03
  0.113171000000E+03  0.138187000000E+03 -0.155605000000E+03
  0.936216000000E+02  0.103137000000E+03 -0.186084000000E+03
  0.113603000000E+03  0.117404000000E+03 -0.206866000000E+03
  0.146545000000E+03  0.126692000000E+03 -0.198355000000E+03
  0.102667000000E+03  0.131502000000E+03 -0.143413000000E+03
  0.118969000000E+03  0.138181000000E+03 -0.148782000000E+03
  0.111181000000E+03  0.139271000000E+03 -0.154491000000E+03
  0.834353000000E+02  0.997299000000E+02 -0.151130000000E+03
  0.805346000000E+02  0.100383000000E+03 -0.149867000000E+03
  0.845391000000E+02  0.973326000000E+02 -0.149281000000E+03
  0.981859000000E+02  0.143210000000E+03 -0.198896000000E+03
  0.948129000000E+02  0.147925000000E+03 -0.199280000000E+03
  0.512533000000E+02  0.145037000000E+03 -0.154876000000E+03
  0.490456000000E+02  0.144761000000E+03 -0.157906000000E+03
  0.104796000000E+03  0.181117000000E+03 -0.145101000000E+03
  0.562234000000E+02  0.142650000000E+03 -0.158111000000E+03
  0.916256000000E+02  0.181887000000E+03 -0.175864000000E+03
  0.909126000000E+02  0.181358000000E+03 -0.181374000000E+03
  0.890572000000E+02  0.181250000000E+03 -0.177257000000E+03
  0.852777000000E+02  0.156587000000E+03 -0.199892000000E+03
  0.833886000000E+02  0.163606000000E+03 -0.199497000000E+03
  0.135066000000E+03  0.964961000000E+02 -0.155504000000E+03
  0.137783000000E+03  0.926683000000E+02 -0.147922000000E+03
  0.132207000000E+03  0.894915000000E+02 -0.149563000000E+03
  0.131228000000E+03  0.924891000000E+02 -0.146920000000E+03
  0.177804000000E+03  0.100981000000E+03 -0.194764000000E+03
  0.871661000000E+02  0.140460000000E+03 -0.148271000000E+03
  0.114792000000E+03  0.171080000000E+03 -0.144888000000E+03
  0.118245000000E+03  0.866269000000E+02 -0.211533000000E+03
  0.115568000000E+03  0.867964000000E+02 -0.210194000000E+03
  0.126413000000E+03  0.954304000000E+02 -0.211102000000E+03
  0.159788000000E+03  0.749200000000E+02 -0.209085000000E+03
  0.162112000000E+03  0.776208000000E+02 -0.210908000000E+03
  0.980075000000E+02  0.812299000000E+02 -0.174245000000E+03
  0.993132000000E+02  0.799906000000E+02 -0.176814000000E+03
  0.158862000000E+03  0.921546000000E+02 -0.151616000000E+03
  0.161183000000E+03  0.892250000000E+02 -0.154027000000E+03
  0.126010000000E+03  0.104588000000E+03 -0.208330000000E+03
  0.124295000000E+03  0.102202000000E+03 -0.209203000000E+03
  0.127566000000E+03  0.101828000000E+03 -0.209306000000E+03
  0.150602000000E+03  0.143373000000E+03 -0.176380000000E+03
  0.478343000000E+02  0.166145000000E+03 -0.143192000000E+03
  0.127849000000E+03  0.137623000000E+03 -0.199982000000E+03
  0.475286000000E+02  0.153621000000E+03 -0.188026000000E+03
  0.175779000000E+03  0.785691000000E+02 -0.206137000000E+03
  0.100180000000E+03  0.149907000000E+03 -0.141769000000E+03
  0.700758000000E+02  0.169844000000E+03 -0.190723000000E+03
  0.996293000000E+02  0.138592000000E+03 -0.146959000000E+03
  0.996620000000E+02  0.153373000000E+03 -0.141034000000E+03
  0.130011000000E+03  0.686797000000E+02 -0.176577000000E+03
  0.127086000000E+03  0.693543000000E+02 -0.176373000000E+03
  0.129600000000E+03  0.691486000000E+02 -0.173531000000E+03
  0.981765000000E+02  0.149142000000E+03 -0.143533000000E+03
  0.985598000000E+02  0.156660000000E+03 -0.140605000000E+03
  0.169786000000E+03  0.893656000000E+02 -0.209595000000E+03
  0.592319000000E+02  0.183061000000E+03 -0.161402000000E+03
  0.692443000000E+02  0.184311000000E+03 -0.158355000000E+03
  0.651245000000E+02  0.183802000000E+03 -0.157557000000E+03
  0.664464000000E+02  0.183607000000E+03 -0.161188000000E+03
  0.155205000000E+03  0.138840000000E+03 -0.172296000000E+03
  0.884458000000E+02  0.915597000000E+02 -0.156044000000E+03
  0.128020000000E+03  0.107075000000E+03 -0.207626000000E+03
  0.162246000000E+03  0.124933000000E+03 -0.186257000000E+03
  0.142844000000E+03  0.114319000000E+03 -0.158916000000E+03
  0.169327000000E+03  0.788932000000E+02 -0.210603000000E+03
  0.182228000000E+03  0.920830000000E+02 -0.191358000000E+03
  0.165407000000E+03  0.119837000000E+03 -0.189742000000E+03
  0.162435000000E+03  0.121187000000E+03 -0.192794000000E+03
  0.158620000000E+03  0.127449000000E+03 -0.189512000000E+03
  0.156763000000E+03  0.127634000000E+03 -0.192765000000E+03
  0.100507000000E+03  0.159288000000E+03 -0.196045000000E+03
  0.999354000000E+02  0.142202000000E+03 -0.144656000000E+03
  0.933259000000E+02  0.142630000000E+03 -0.143904000000E+03
  0.160647000000E+03  0.125462000000E+03 -0.188743000000E+03
  0.152879000000E+03  0.115792000000E+03 -0.202615000000E+03
  0.115403000000E+03  0.106849000000E+03 -0.181036000000E+03
  0.126876000000E+03  0.745713000000E+02 -0.205293000000E+03
  0.129678000000E+03  0.749455000000E+02 -0.205018000000E+03
  0.737999000000E+02  0.109696000000E+03 -0.155065000000E+03
  0.686341000000E+02  0.170228000000E+03 -0.140680000000E+03
  0.750429000000E+02  0.179120000000E+03 -0.181736000000E+03
  0.181207000000E+03  0.798774000000E+02 -0.187608000000E+03
  0.117229000000E+03  0.146560000000E+03 -0.180982000000E+03
  0.163855000000E+03  0.123862000000E+03 -0.164461000000E+03
  0.132396000000E+03  0.128039000000E+03 -0.141260000000E+03
  0.122183000000E+03  0.706612000000E+02 -0.186924000000E+03
  0.124346000000E+03  0.119793000000E+03 -0.138903000000E+03
  0.116838000000E+03  0.155327000000E+03 -0.147923000000E+03
  0.445867000000E+02  0.161879000000E+03 -0.141440000000E+03
  0.137907000000E+03  0.148012000000E+03 -0.159846000000E+03
  0.139385000000E+03  0.149188000000E+03 -0.162473000000E+03
  0.124817000000E+03  0.158665000000E+03 -0.143380000000E+03
  0.142907000000E+03  0.146710000000E+03 -0.159369000000E+03
  0.121789000000E+03  0.141017000000E+03 -0.201465000000E+03
  0.121566000000E+03  0.144582000000E+03 -0.199475000000E+03
  0.384062000000E+02  0.172915000000E+03 -0.167105000000E+03
  0.101048000000E+03  0.864537000000E+02 -0.197124000000E+03
  0.112148000000E+03  0.839780000000E+02 -0.206069000000E+03
  0.112225000000E+03  0.807316000000E+02 -0.203553000000E+03
  0.115801000000E+03  0.789709000000E+02 -0.205724000000E+03
  0.127076000000E+03  0.122710000000E+03 -0.139206000000E+03
  0.115756000000E+03  0.714720000000E+02 -0.168858000000E+03
  0.566198000000E+02  0.144427000000E+03 -0.152003000000E+03
  0.729347000000E+02  0.133267000000E+03 -0.157211000000E+03
  0.733750000000E+02  0.134288000000E+03 -0.153609000000E+03
  0.106841000000E+03  0.194070000000E+03 -0.167872000000E+03
  0.892943000000E+02  0.129070000000E+03 -0.159551000000E+03
  0.125716000000E+03  0.133296000000E+03 -0.143409000000E+03
  0.893668000000E+02  0.132160000000E+03 -0.153907000000E+03
  0.113099000000E+03  0.108763000000E+03 -0.206520000000E+03
  0.115390000000E+03  0.154395000000E+03 -0.179686000000E+03
  0.109362000000E+03  0.107510000000E+03 -0.169362000000E+03
  0.101559000000E+03  0.774567000000E+02 -0.176094000000E+03
  0.104690000000E+03  0.108855000000E+03 -0.162614000000E+03
  0.149062000000E+03  0.138695000000E+03 -0.188998000000E+03
  0.786373000000E+02  0.152892000000E+03 -0.200859000000E+03
  0.815217000000E+02  0.154325000000E+03 -0.200903000000E+03
  0.986037000000E+02  0.848571000000E+02 -0.188267000000E+03
  0.119406000000E+03  0.710363000000E+02 -0.167612000000E+03
  0.741763000000E+02  0.106258000000E+03 -0.153135000000E+03
  0.730063000000E+02  0.105879000000E+03 -0.150358000000E+03
  0.809951000000E+02  0.108564000000E+03 -0.157643000000E+03
  0.105795000000E+03  0.189675000000E+03 -0.148612000000E+03
  0.316416000000E+02  0.152739000000E+03 -0.148130000000E+03
  0.976320000000E+02  0.168091000000E+03 -0.134316000000E+03
  0.118959000000E+03  0.169583000000E+03 -0.165922000000E+03
  0.652277000000E+02  0.165625000000E+03 -0.144005000000E+03
  0.122841000000E+03  0.156613000000E+03 -0.163399000000E+03
  0.109836000000E+03  0.844837000000E+02 -0.203945000000E+03
  0.600462000000E+02  0.142798000000E+03 -0.174463000000E+03
  0.164677000000E+03  0.927667000000E+02 -0.210695000000E+03
  0.166857000000E+03  0.958150000000E+02 -0.209034000000E+03
  0.102530000000E+03  0.176521000000E+03 -0.176836000000E+03
  0.182447000000E+03  0.934474000000E+02 -0.188999000000E+03
  0.160113000000E+03  0.685403000000E+02 -0.178520000000E+03
  0.591423000000E+02  0.144915000000E+03 -0.153718000000E+03
  0.126887000000E+03  0.110104000000E+03 -0.206957000000E+03
  0.104394000000E+03  0.176927000000E+03 -0.179419000000E+03
  0.105520000000E+03  0.174540000000E+03 -0.178635000000E+03
  0.146498000000E+03  0.123325000000E+03 -0.200118000000E+03
  0.179895000000E+03  0.103083000000E+03 -0.186261000000E+03
  0.759462000000E+02  0.182307000000E+03 -0.171126000000E+03
  0.847489000000E+02  0.185764000000E+03 -0.169655000000E+03
  0.390569000000E+02  0.152181000000E+03 -0.143182000000E+03
  0.397887000000E+02  0.153674000000E+03 -0.141194000000E+03
  0.148049000000E+03  0.109106000000E+03 -0.142162000000E+03
  0.162834000000E+03  0.653431000000E+02 -0.199765000000E+03
  0.580923000000E+02  0.142824000000E+03 -0.154940000000E+03
  0.569322000000E+02  0.181685000000E+03 -0.155381000000E+03
  0.598423000000E+02  0.181962000000E+03 -0.153789000000E+03
  0.352138000000E+02  0.158579000000E+03 -0.169146000000E+03
  0.364325000000E+02  0.171081000000E+03 -0.149205000000E+03
  0.615445000000E+02  0.177962000000E+03 -0.149230000000E+03
  0.158918000000E+03  0.803254000000E+02 -0.161577000000E+03
  0.159237000000E+03  0.824611000000E+02 -0.158561000000E+03
  0.128326000000E+03  0.104033000000E+03 -0.141818000000E+03
  0.967946000000E+02  0.189320000000E+03 -0.157761000000E+03
  0.542927000000E+02  0.142819000000E+03 -0.161218000000E+03
  0.102101000000E+03  0.178797000000E+03 -0.169698000000E+03
  0.998441000000E+02  0.188021000000E+03 -0.170771000000E+03
  0.103569000000E+03  0.144735000000E+03 -0.199057000000E+03
  0.100176000000E+03  0.146170000000E+03 -0.199396000000E+03
  0.101616000000E+03  0.143537000000E+03 -0.198014000000E+03
  0.137379000000E+03  0.138181000000E+03 -0.146528000000E+03
  0.137210000000E+03  0.140368000000E+03 -0.148726000000E+03
  0.124972000000E+03  0.157715000000E+03 -0.167473000000E+03
  0.106965000000E+03  0.187047000000E+03 -0.169797000000E+03
  0.142373000000E+03  0.994574000000E+02 -0.144294000000E+03
  0.140082000000E+03  0.101498000000E+03 -0.148794000000E+03
  0.156125000000E+03  0.771825000000E+02 -0.209087000000E+03
  0.132831000000E+03  0.692485000000E+02 -0.171179000000E+03
  0.147588000000E+03  0.102382000000E+03 -0.143484000000E+03
  0.893051000000E+02  0.116889000000E+03 -0.179695000000E+03
  0.905526000000E+02  0.113767000000E+03 -0.181167000000E+03
  0.905642000000E+02  0.110666000000E+03 -0.179445000000E+03
  0.673653000000E+02  0.140976000000E+03 -0.185125000000E+03
  0.692369000000E+02  0.142047000000E+03 -0.187258000000E+03
  0.656148000000E+02  0.142949000000E+03 -0.188129000000E+03
  0.652130000000E+02  0.143626000000E+03 -0.186574000000E+03
  0.167262000000E+03  0.806439000000E+02 -0.211162000000E+03
  0.170380000000E+03  0.822932000000E+02 -0.210115000000E+03
  0.164547000000E+03  0.991659000000E+02 -0.155071000000E+03
  0.868794000000E+02  0.183486000000E+03 -0.177277000000E+03
  0.133579000000E+03  0.964729000000E+02 -0.210389000000E+03
  0.870529000000E+02  0.184669000000E+03 -0.174760000000E+03
  0.158426000000E+03  0.134549000000E+03 -0.168350000000E+03
  0.525487000000E+02  0.163675000000E+03 -0.191435000000E+03
  0.102521000000E+03  0.997388000000E+02 -0.201959000000E+03
  0.109206000000E+03  0.948752000000E+02 -0.206025000000E+03
  0.123191000000E+03  0.161271000000E+03 -0.149835000000E+03
  0.941079000000E+02  0.892123000000E+02 -0.175996000000E+03
  0.136684000000E+03  0.950800000000E+02 -0.173765000000E+03
  0.130991000000E+03  0.102004000000E+03 -0.209219000000E+03
  0.130089000000E+03  0.758165000000E+02 -0.159862000000E+03
  0.366820000000E+02  0.149938000000E+03 -0.149755000000E+03
  0.367632000000E+02  0.151172000000E+03 -0.145652000000E+03
  0.367138000000E+02  0.151989000000E+03 -0.144028000000E+03
  0.108282000000E+03  0.754290000000E+02 -0.184448000000E+03
  0.327219000000E+02  0.151987000000E+03 -0.150104000000E+03
  0.299496000000E+02  0.154014000000E+03 -0.149549000000E+03
  0.339024000000E+02  0.151424000000E+03 -0.153280000000E+03
  0.113896000000E+03  0.135437000000E+03 -0.205143000000E+03
  0.485430000000E+02  0.182409000000E+03 -0.162307000000E+03
  0.166289000000E+03  0.646558000000E+02 -0.198601000000E+03
  0.337009000000E+02  0.169436000000E+03 -0.157079000000E+03
  0.470653000000E+02  0.185330000000E+03 -0.170241000000E+03
  0.446186000000E+02  0.185556000000E+03 -0.172059000000E+03
  0.471742000000E+02  0.149737000000E+03 -0.182395000000E+03
  0.130367000000E+03  0.940004000000E+02 -0.210985000000E+03
  0.104828000000E+03  0.190702000000E+03 -0.169169000000E+03
  0.127190000000E+03  0.915727000000E+02 -0.211567000000E+03
  0.916925000000E+02  0.173417000000E+03 -0.192084000000E+03
  0.900892000000E+02  0.175617000000E+03 -0.189925000000E+03
  0.162127000000E+03  0.834413000000E+02 -0.211710000000E+03
  0.160576000000E+03  0.804269000000E+02 -0.211344000000E+03
  0.127350000000E+03  0.157257000000E+03 -0.170139000000E+03
  0.113140000000E+03  0.191228000000E+03 -0.161209000000E+03
  0.146524000000E+03  0.120591000000E+03 -0.201472000000E+03
  0.149867000000E+03  0.120961000000E+03 -0.200488000000E+03
  0.893612000000E+02  0.186739000000E+03 -0.141181000000E+03
  0.148376000000E+03  0.145836000000E+03 -0.176207000000E+03
  0.148087000000E+03  0.147064000000E+03 -0.172813000000E+03
  0.153690000000E+03  0.130190000000E+03 -0.193149000000E+03
  0.124530000000E+03  0.697021000000E+02 -0.189890000000E+03
  0.125842000000E+03  0.695840000000E+02 -0.186135000000E+03
  0.140263000000E+03  0.653718000000E+02 -0.189742000000E+03
  0.167513000000E+03  0.666964000000E+02 -0.187703000000E+03
  0.167127000000E+03  0.721567000000E+02 -0.178916000000E+03
  0.165523000000E+03  0.735952000000E+02 -0.175468000000E+03
  0.324176000000E+02  0.153480000000E+03 -0.156013000000E+03
  0.121214000000E+03  0.946908000000E+02 -0.145418000000E+03
  0.118137000000E+03  0.103438000000E+03 -0.140972000000E+03
  0.121985000000E+03  0.103620000000E+03 -0.141438000000E+03
  0.146808000000E+03  0.657477000000E+02 -0.178405000000E+03
  0.628299000000E+02  0.174087000000E+03 -0.188862000000E+03
  0.663092000000E+02  0.173806000000E+03 -0.189652000000E+03
  0.160095000000E+03  0.106164000000E+03 -0.150962000000E+03
  0.140938000000E+03  0.144039000000E+03 -0.189944000000E+03
  0.163923000000E+03  0.118553000000E+03 -0.156314000000E+03
  0.165952000000E+03  0.116634000000E+03 -0.159085000000E+03
  0.107047000000E+03  0.150882000000E+03 -0.141359000000E+03
  0.110758000000E+03  0.145343000000E+03 -0.145563000000E+03
  0.113487000000E+03  0.146435000000E+03 -0.146941000000E+03
  0.124470000000E+03  0.155237000000E+03 -0.144754000000E+03
  0.134279000000E+03  0.104604000000E+03 -0.140984000000E+03
  0.131986000000E+03  0.102122000000E+03 -0.142045000000E+03
  0.131456000000E+03  0.106104000000E+03 -0.141039000000E+03
  0.144296000000E+03  0.117399000000E+03 -0.141001000000E+03
  0.105418000000E+03  0.134008000000E+03 -0.152561000000E+03
  0.133395000000E+03  0.107575000000E+03 -0.144970000000E+03
  0.131183000000E+03  0.776740000000E+02 -0.206517000000E+03
  0.111230000000E+03  0.135667000000E+03 -0.153651000000E+03
  0.108207000000E+03  0.136073000000E+03 -0.149353000000E+03
  0.106636000000E+03  0.133340000000E+03 -0.150010000000E+03
  0.171189000000E+03  0.770973000000E+02 -0.178024000000E+03
  0.998868000000E+02  0.100031000000E+03 -0.151847000000E+03
  0.103341000000E+03  0.992529000000E+02 -0.150696000000E+03
  0.106779000000E+03  0.986804000000E+02 -0.148928000000E+03
  0.109145000000E+03  0.994901000000E+02 -0.146160000000E+03
  0.936733000000E+02  0.166349000000E+03 -0.197070000000E+03
  0.106539000000E+03  0.165293000000E+03 -0.190471000000E+03
  0.103171000000E+03  0.175681000000E+03 -0.180965000000E+03
  0.118938000000E+03  0.128520000000E+03 -0.154742000000E+03
  0.116030000000E+03  0.126408000000E+03 -0.153499000000E+03
  0.110597000000E+03  0.129516000000E+03 -0.147972000000E+03
  0.997958000000E+02  0.132398000000E+03 -0.154250000000E+03
  0.466869000000E+02  0.148038000000E+03 -0.176534000000E+03
  0.497291000000E+02  0.175525000000E+03 -0.184260000000E+03
  0.707509000000E+02  0.171143000000E+03 -0.193642000000E+03
  0.732914000000E+02  0.175368000000E+03 -0.188613000000E+03
  0.926461000000E+02  0.106535000000E+03 -0.161115000000E+03
  0.897215000000E+02  0.100631000000E+03 -0.153306000000E+03
  0.686187000000E+02  0.180856000000E+03 -0.174920000000E+03
  0.433456000000E+02  0.171096000000E+03 -0.144019000000E+03
  0.307408000000E+02  0.168031000000E+03 -0.140927000000E+03
  0.102436000000E+03  0.191113000000E+03 -0.165999000000E+03
  0.107751000000E+03  0.179138000000E+03 -0.163605000000E+03
  0.100007000000E+03  0.191355000000E+03 -0.156575000000E+03
  0.113244000000E+03  0.169004000000E+03 -0.175151000000E+03
  0.766804000000E+02  0.130406000000E+03 -0.181342000000E+03
  0.828531000000E+02  0.186732000000E+03 -0.160897000000E+03
  0.587775000000E+02  0.153402000000E+03 -0.145581000000E+03
  0.353180000000E+02  0.151670000000E+03 -0.145143000000E+03
  0.340778000000E+02  0.152851000000E+03 -0.145667000000E+03
  0.615304000000E+02  0.150692000000E+03 -0.144177000000E+03
  0.161645000000E+03  0.102896000000E+03 -0.152239000000E+03
  0.163820000000E+03  0.101413000000E+03 -0.154408000000E+03
  0.607056000000E+02  0.180996000000E+03 -0.150970000000E+03
  0.636426000000E+02  0.182970000000E+03 -0.153271000000E+03
  0.610032000000E+02  0.179020000000E+03 -0.147879000000E+03
  0.553862000000E+02  0.154477000000E+03 -0.196284000000E+03
  0.583655000000E+02  0.152247000000E+03 -0.197013000000E+03
  0.646322000000E+02  0.178099000000E+03 -0.147470000000E+03
  0.886422000000E+02  0.127219000000E+03 -0.161506000000E+03
  0.425354000000E+02  0.168264000000E+03 -0.185241000000E+03
  0.613001000000E+02  0.166773000000E+03 -0.196211000000E+03
  0.584503000000E+02  0.168026000000E+03 -0.194425000000E+03
  0.676094000000E+02  0.151811000000E+03 -0.198169000000E+03
  0.106539000000E+03  0.103620000000E+03 -0.144642000000E+03
  0.517188000000E+02  0.175698000000E+03 -0.186699000000E+03
  0.606147000000E+02  0.179650000000E+03 -0.181278000000E+03
  0.105515000000E+03  0.161841000000E+03 -0.139742000000E+03
  0.534093000000E+02  0.144821000000E+03 -0.172611000000E+03
  0.985951000000E+02  0.139717000000E+03 -0.198447000000E+03
  0.999400000000E+02  0.138440000000E+03 -0.197467000000E+03
  0.912165000000E+02  0.176990000000E+03 -0.185273000000E+03
  0.130125000000E+03  0.134494000000E+03 -0.200690000000E+03
  0.396558000000E+02  0.148059000000E+03 -0.156080000000E+03
  0.774943000000E+02  0.121047000000E+03 -0.163054000000E+03
  0.144935000000E+03  0.100959000000E+03 -0.143540000000E+03
  0.759411000000E+02  0.123756000000E+03 -0.158950000000E+03
  0.584000000000E+02  0.167680000000E+03 -0.190696000000E+03
  0.801516000000E+02  0.173525000000E+03 -0.192199000000E+03
  0.632300000000E+02  0.140256000000E+03 -0.173346000000E+03
  0.760584000000E+02  0.123118000000E+03 -0.161033000000E+03
  0.741436000000E+02  0.125207000000E+03 -0.158943000000E+03
  0.700294000000E+02  0.136846000000E+03 -0.178548000000E+03
  0.690181000000E+02  0.176081000000E+03 -0.186879000000E+03
  0.694292000000E+02  0.178383000000E+03 -0.182689000000E+03
  0.142310000000E+03  0.105596000000E+03 -0.140411000000E+03
  0.980856000000E+02  0.192895000000E+03 -0.157471000000E+03
  0.108308000000E+03  0.104733000000E+03 -0.142312000000E+03
  0.114229000000E+03  0.113056000000E+03 -0.140350000000E+03
  0.509972000000E+02  0.146181000000E+03 -0.179887000000E+03
  0.522212000000E+02  0.183184000000E+03 -0.164131000000E+03
  0.491148000000E+02  0.184509000000E+03 -0.168422000000E+03
  0.116446000000E+03  0.157048000000E+03 -0.172041000000E+03
  0.116313000000E+03  0.159976000000E+03 -0.173657000000E+03
  0.800809000000E+02  0.126185000000E+03 -0.166268000000E+03
  0.136510000000E+03  0.107515000000E+03 -0.207885000000E+03
  0.136010000000E+03  0.110540000000E+03 -0.207175000000E+03
  0.953708000000E+02  0.149705000000E+03 -0.199957000000E+03
  0.101260000000E+03  0.152873000000E+03 -0.198713000000E+03
  0.994200000000E+02  0.156447000000E+03 -0.198915000000E+03
  0.107222000000E+03  0.151268000000E+03 -0.145339000000E+03
  0.729655000000E+02  0.113210000000E+03 -0.153959000000E+03
  0.779963000000E+02  0.115875000000E+03 -0.163181000000E+03
  0.698824000000E+02  0.114526000000E+03 -0.153885000000E+03
  0.686838000000E+02  0.114126000000E+03 -0.150354000000E+03
  0.100263000000E+03  0.924374000000E+02 -0.153643000000E+03
  0.943942000000E+02  0.912732000000E+02 -0.177968000000E+03
  0.175903000000E+03  0.107025000000E+03 -0.169917000000E+03
  0.174428000000E+03  0.110285000000E+03 -0.171058000000E+03
  0.102427000000E+03  0.131683000000E+03 -0.153315000000E+03
  0.158413000000E+03  0.131859000000E+03 -0.181212000000E+03
  0.166882000000E+03  0.122493000000E+03 -0.175830000000E+03
  0.160930000000E+03  0.113666000000E+03 -0.151319000000E+03
  0.162902000000E+03  0.112834000000E+03 -0.153301000000E+03
  0.141525000000E+03  0.133695000000E+03 -0.145971000000E+03
  0.134363000000E+03  0.111448000000E+03 -0.182751000000E+03
  0.142131000000E+03  0.134878000000E+03 -0.195152000000E+03
  0.103316000000E+03  0.107284000000E+03 -0.173301000000E+03
  0.121806000000E+03  0.142261000000E+03 -0.175259000000E+03
  0.119225000000E+03  0.138315000000E+03 -0.187888000000E+03
  0.100713000000E+03  0.107497000000E+03 -0.155940000000E+03
  0.159747000000E+03  0.124618000000E+03 -0.192169000000E+03
  0.112685000000E+03  0.110549000000E+03 -0.187008000000E+03
  0.154142000000E+03  0.140546000000E+03 -0.169551000000E+03
  0.100740000000E+03  0.110967000000E+03 -0.142579000000E+03
  0.143698000000E+03  0.136694000000E+03 -0.168654000000E+03
  0.978250000000E+02  0.978120000000E+02 -0.153124000000E+03
  0.157632000000E+03  0.127616000000E+03 -0.153995000000E+03
  0.129049000000E+03  0.714520000000E+02 -0.165986000000E+03
  0.100701000000E+03  0.193587000000E+03 -0.155490000000E+03
  0.112687000000E+03  0.147167000000E+03 -0.158177000000E+03
  0.941368000000E+02  0.865709000000E+02 -0.173613000000E+03
  0.960832000000E+02  0.837599000000E+02 -0.174110000000E+03
  0.175247000000E+03  0.915421000000E+02 -0.203385000000E+03
  0.176634000000E+03  0.929818000000E+02 -0.201277000000E+03
  0.120182000000E+03  0.161844000000E+03 -0.147416000000E+03
  0.131546000000E+03  0.149077000000E+03 -0.188213000000E+03
  0.119668000000E+03  0.106758000000E+03 -0.140831000000E+03
  0.117744000000E+03  0.117585000000E+03 -0.139257000000E+03
  0.114490000000E+03  0.103096000000E+03 -0.141114000000E+03
  0.105418000000E+03  0.140423000000E+03 -0.146226000000E+03
  0.170951000000E+03  0.114377000000E+03 -0.187533000000E+03
  0.171922000000E+03  0.111011000000E+03 -0.165805000000E+03
  0.159707000000E+03  0.719713000000E+02 -0.172730000000E+03
  0.161008000000E+03  0.740810000000E+02 -0.171052000000E+03
  0.172722000000E+03  0.799512000000E+02 -0.177286000000E+03
  0.169987000000E+03  0.784875000000E+02 -0.175220000000E+03
  0.134095000000E+03  0.155109000000E+03 -0.171403000000E+03
  0.173839000000E+03  0.821757000000E+02 -0.207365000000E+03
  0.154527000000E+03  0.127593000000E+03 -0.195046000000E+03
  0.156530000000E+03  0.124811000000E+03 -0.195952000000E+03
  0.133495000000E+03  0.120022000000E+03 -0.148528000000E+03
  0.161778000000E+03  0.114251000000E+03 -0.199549000000E+03
  0.133575000000E+03  0.124497000000E+03 -0.140689000000E+03
  0.135216000000E+03  0.153608000000E+03 -0.175083000000E+03
  0.916147000000E+02  0.134756000000E+03 -0.142548000000E+03
  0.685313000000E+02  0.144765000000E+03 -0.193780000000E+03
  0.762177000000E+02  0.136756000000E+03 -0.186948000000E+03
  0.108774000000E+03  0.179720000000E+03 -0.160165000000E+03
  0.753408000000E+02  0.134310000000E+03 -0.184479000000E+03
  0.744629000000E+02  0.136711000000E+03 -0.186560000000E+03
  0.962405000000E+02  0.116795000000E+03 -0.184987000000E+03
  0.454065000000E+02  0.175579000000E+03 -0.157141000000E+03
  0.895239000000E+02  0.153051000000E+03 -0.141676000000E+03
  0.124711000000E+03  0.158197000000E+03 -0.157332000000E+03
  0.138628000000E+03  0.681194000000E+02 -0.172638000000E+03
  0.135511000000E+03  0.684079000000E+02 -0.172714000000E+03
  0.136700000000E+03  0.696140000000E+02 -0.169380000000E+03
  0.823550000000E+02  0.167098000000E+03 -0.194761000000E+03
  0.791102000000E+02  0.166081000000E+03 -0.195789000000E+03
  0.137316000000E+03  0.832164000000E+02 -0.154668000000E+03
  0.106919000000E+03  0.794826000000E+02 -0.160242000000E+03
  0.958879000000E+02  0.182895000000E+03 -0.177216000000E+03
  0.169298000000E+03  0.111087000000E+03 -0.194880000000E+03
  0.171154000000E+03  0.107604000000E+03 -0.196140000000E+03
  0.913773000000E+02  0.180207000000E+03 -0.178797000000E+03
  0.101192000000E+03  0.138710000000E+03 -0.200284000000E+03
  0.104090000000E+03  0.141131000000E+03 -0.200022000000E+03
  0.100572000000E+03  0.142453000000E+03 -0.199730000000E+03
  0.107353000000E+03  0.172413000000E+03 -0.182823000000E+03
  0.101258000000E+03  0.173688000000E+03 -0.187687000000E+03
  0.107114000000E+03  0.186949000000E+03 -0.148061000000E+03
  0.108241000000E+03  0.189323000000E+03 -0.150059000000E+03
  0.891144000000E+02  0.170004000000E+03 -0.192031000000E+03
  0.107841000000E+03  0.183032000000E+03 -0.148622000000E+03
  0.109188000000E+03  0.186052000000E+03 -0.150516000000E+03
  0.123367000000E+03  0.827962000000E+02 -0.154305000000E+03
  0.122530000000E+03  0.855039000000E+02 -0.152647000000E+03
  0.113437000000E+03  0.167443000000E+03 -0.140020000000E+03
  0.145583000000E+03  0.144663000000E+03 -0.158634000000E+03
  0.126066000000E+03  0.166480000000E+03 -0.155661000000E+03
  0.106274000000E+03  0.184937000000E+03 -0.145409000000E+03
  0.131355000000E+03  0.724455000000E+02 -0.203388000000E+03
  0.928497000000E+02  0.127566000000E+03 -0.191548000000E+03
  0.934149000000E+02  0.139278000000E+03 -0.199603000000E+03
  0.153135000000E+03  0.756449000000E+02 -0.207000000000E+03
  0.150572000000E+03  0.746073000000E+02 -0.205359000000E+03
  0.121411000000E+03  0.168830000000E+03 -0.163636000000E+03
  0.152847000000E+03  0.648402000000E+02 -0.184879000000E+03
  0.178944000000E+03  0.690284000000E+02 -0.195194000000E+03
  0.152972000000E+03  0.727354000000E+02 -0.204837000000E+03
  0.181389000000E+03  0.815551000000E+02 -0.186159000000E+03
  0.157851000000E+03  0.647094000000E+02 -0.189807000000E+03
  0.127896000000E+03  0.722991000000E+02 -0.203403000000E+03
  0.657607000000E+02  0.181802000000E+03 -0.171578000000E+03
  0.145112000000E+03  0.148028000000E+03 -0.165469000000E+03
  0.147460000000E+03  0.145785000000E+03 -0.163956000000E+03
  0.435850000000E+02  0.148414000000E+03 -0.169005000000E+03
  0.130401000000E+03  0.153835000000E+03 -0.179202000000E+03
  0.146477000000E+03  0.966815000000E+02 -0.145984000000E+03
  0.149111000000E+03  0.943265000000E+02 -0.147326000000E+03
  0.116180000000E+03  0.138151000000E+03 -0.204390000000E+03
  0.120360000000E+03  0.785739000000E+02 -0.156632000000E+03
  0.153999000000E+03  0.990418000000E+02 -0.146123000000E+03
  0.167807000000E+03  0.944870000000E+02 -0.157486000000E+03
  0.573462000000E+02  0.142431000000E+03 -0.173265000000E+03
  0.555528000000E+02  0.143423000000E+03 -0.176126000000E+03
  0.647776000000E+02  0.139742000000E+03 -0.175616000000E+03
  0.666951000000E+02  0.139209000000E+03 -0.178659000000E+03
  0.753114000000E+02  0.130724000000E+03 -0.178206000000E+03
  0.706994000000E+02  0.123892000000E+03 -0.157165000000E+03
  0.580578000000E+02  0.141661000000E+03 -0.161602000000E+03
  0.799575000000E+02  0.128888000000E+03 -0.180573000000E+03
  0.771946000000E+02  0.127661000000E+03 -0.176722000000E+03
  0.751156000000E+02  0.128319000000E+03 -0.158670000000E+03
  0.775569000000E+02  0.126688000000E+03 -0.173003000000E+03
  0.760878000000E+02  0.128848000000E+03 -0.170095000000E+03
  0.151150000000E+03  0.141433000000E+03 -0.179394000000E+03
  0.152279000000E+03  0.128526000000E+03 -0.195565000000E+03
  0.108002000000E+03  0.108739000000E+03 -0.141696000000E+03
  0.111251000000E+03  0.111061000000E+03 -0.140685000000E+03
  0.930846000000E+02  0.992166000000E+02 -0.151442000000E+03
  0.406165000000E+02  0.170172000000E+03 -0.142865000000E+03
  0.995781000000E+02  0.104769000000E+03 -0.143520000000E+03
  0.101596000000E+03  0.107939000000E+03 -0.142646000000E+03
  0.773477000000E+02  0.128560000000E+03 -0.179769000000E+03
  0.749877000000E+02  0.132880000000E+03 -0.181529000000E+03
  0.104339000000E+03  0.149329000000E+03 -0.145021000000E+03
  0.107481000000E+03  0.140199000000E+03 -0.147075000000E+03
  0.682118000000E+02  0.149810000000E+03 -0.143286000000E+03
  0.433773000000E+02  0.146133000000E+03 -0.159651000000E+03
  0.423199000000E+02  0.146753000000E+03 -0.163117000000E+03
  0.385878000000E+02  0.157118000000E+03 -0.174814000000E+03
  0.400111000000E+02  0.153813000000E+03 -0.174078000000E+03
  0.553787000000E+02  0.167530000000E+03 -0.193769000000E+03
  0.114800000000E+03  0.153785000000E+03 -0.191968000000E+03
  0.115866000000E+03  0.155463000000E+03 -0.189535000000E+03
  0.711035000000E+02  0.111668000000E+03 -0.152682000000E+03
  0.125286000000E+03  0.106430000000E+03 -0.182191000000E+03
  0.121107000000E+03  0.151535000000E+03 -0.190811000000E+03
  0.123240000000E+03  0.152711000000E+03 -0.186954000000E+03
  0.117861000000E+03  0.153576000000E+03 -0.190118000000E+03
  0.955281000000E+02  0.156584000000E+03 -0.199833000000E+03
  0.916080000000E+02  0.156681000000E+03 -0.200290000000E+03
  0.933863000000E+02  0.153089000000E+03 -0.200211000000E+03
  0.500149000000E+02  0.147450000000E+03 -0.182584000000E+03
  0.174363000000E+03  0.101460000000E+03 -0.164051000000E+03
  0.174644000000E+03  0.951987000000E+02 -0.166101000000E+03
  0.176972000000E+03  0.950452000000E+02 -0.171392000000E+03
  0.176965000000E+03  0.109021000000E+03 -0.179431000000E+03
  0.117311000000E+03  0.170895000000E+03 -0.169505000000E+03
  0.178186000000E+03  0.106427000000E+03 -0.176555000000E+03
  0.174674000000E+03  0.107378000000E+03 -0.191305000000E+03
  0.846888000000E+02  0.162674000000E+03 -0.198628000000E+03
  0.646653000000E+02  0.174463000000E+03 -0.183914000000E+03
  0.105043000000E+03  0.174815000000E+03 -0.182674000000E+03
  0.102157000000E+03  0.176957000000E+03 -0.183050000000E+03
  0.624164000000E+02  0.176274000000E+03 -0.186093000000E+03
  0.544455000000E+02  0.177984000000E+03 -0.184735000000E+03
  0.873007000000E+02  0.143948000000E+03 -0.143279000000E+03
  0.117399000000E+03  0.173666000000E+03 -0.161441000000E+03
  0.941954000000E+02  0.106928000000E+03 -0.162097000000E+03
  0.128312000000E+03  0.169171000000E+03 -0.154010000000E+03
  0.100027000000E+03  0.130148000000E+03 -0.193242000000E+03
  0.101922000000E+03  0.127344000000E+03 -0.193339000000E+03
  0.105528000000E+03  0.125138000000E+03 -0.141010000000E+03
  0.116626000000E+03  0.726700000000E+02 -0.190781000000E+03
  0.124535000000E+03  0.107456000000E+03 -0.207348000000E+03
  0.123175000000E+03  0.110793000000E+03 -0.206983000000E+03
  0.101224000000E+03  0.131557000000E+03 -0.153432000000E+03
  0.107257000000E+03  0.129427000000E+03 -0.151748000000E+03
  0.999237000000E+02  0.131650000000E+03 -0.153460000000E+03
  0.102121000000E+03  0.132228000000E+03 -0.153881000000E+03
  0.942613000000E+02  0.970398000000E+02 -0.153595000000E+03
  0.864809000000E+02  0.136485000000E+03 -0.197535000000E+03
  0.883857000000E+02  0.133700000000E+03 -0.196888000000E+03
  0.904681000000E+02  0.136921000000E+03 -0.198743000000E+03
  0.767746000000E+02  0.100420000000E+03 -0.146248000000E+03
  0.833799000000E+02  0.147507000000E+03 -0.200224000000E+03
  0.134308000000E+03  0.107218000000E+03 -0.140146000000E+03
  0.715668000000E+02  0.107128000000E+03 -0.148176000000E+03
  0.124871000000E+03  0.105544000000E+03 -0.154453000000E+03
  0.101228000000E+03  0.176125000000E+03 -0.155843000000E+03
  0.756938000000E+02  0.133864000000E+03 -0.178947000000E+03
  0.651056000000E+02  0.142755000000E+03 -0.148174000000E+03
  0.476975000000E+02  0.175968000000E+03 -0.150572000000E+03
  0.440016000000E+02  0.177124000000E+03 -0.163607000000E+03
  0.169094000000E+03  0.651630000000E+02 -0.200656000000E+03
  0.847377000000E+02  0.154609000000E+03 -0.142627000000E+03
  0.951352000000E+02  0.157191000000E+03 -0.140209000000E+03
  0.914675000000E+02  0.157725000000E+03 -0.139491000000E+03
  0.150310000000E+03  0.648795000000E+02 -0.187626000000E+03
  0.149325000000E+03  0.654395000000E+02 -0.191026000000E+03
  0.146963000000E+03  0.651651000000E+02 -0.188879000000E+03
  0.461669000000E+02  0.150602000000E+03 -0.145245000000E+03
  0.449614000000E+02  0.155616000000E+03 -0.142915000000E+03
  0.411373000000E+02  0.148939000000E+03 -0.149213000000E+03
  0.159038000000E+03  0.110068000000E+03 -0.203880000000E+03
  0.170605000000E+03  0.105658000000E+03 -0.198853000000E+03
  0.159097000000E+03  0.953914000000E+02 -0.210400000000E+03
  0.116559000000E+03  0.170973000000E+03 -0.162305000000E+03
  0.117497000000E+03  0.172420000000E+03 -0.158339000000E+03
  0.157544000000E+03  0.106616000000E+03 -0.148861000000E+03
  0.172595000000E+03  0.105173000000E+03 -0.196906000000E+03
  0.972744000000E+02  0.180804000000E+03 -0.180446000000E+03
  0.108357000000E+03  0.876347000000E+02 -0.153837000000E+03
  0.151862000000E+03  0.652154000000E+02 -0.190489000000E+03
  0.164200000000E+03  0.661657000000E+02 -0.186571000000E+03
  0.170801000000E+03  0.742565000000E+02 -0.180577000000E+03
  0.168719000000E+03  0.752549000000E+02 -0.176884000000E+03
  0.157363000000E+03  0.668922000000E+02 -0.179915000000E+03
  0.102273000000E+03  0.175309000000E+03 -0.159535000000E+03
  0.172357000000E+03  0.964717000000E+02 -0.204866000000E+03
  0.144218000000E+03  0.654484000000E+02 -0.190808000000E+03
  0.895871000000E+02  0.184151000000E+03 -0.176509000000E+03
  0.147829000000E+03  0.688847000000E+02 -0.170373000000E+03
  0.144297000000E+03  0.689947000000E+02 -0.169951000000E+03
  0.148014000000E+03  0.123688000000E+03 -0.144594000000E+03
  0.150695000000E+03  0.123963000000E+03 -0.145816000000E+03
  0.123545000000E+03  0.827663000000E+02 -0.211123000000E+03
  0.162462000000E+03  0.929928000000E+02 -0.153914000000E+03
  0.806354000000E+02  0.153613000000E+03 -0.200163000000E+03
  0.102936000000E+03  0.788193000000E+02 -0.188127000000E+03
  0.114680000000E+03  0.123624000000E+03 -0.140380000000E+03
  0.117052000000E+03  0.127240000000E+03 -0.140891000000E+03
  0.158646000000E+03  0.829137000000E+02 -0.211759000000E+03
  0.153347000000E+03  0.674609000000E+02 -0.199051000000E+03
  0.525673000000E+02  0.182474000000E+03 -0.160483000000E+03
  0.494254000000E+02  0.180772000000E+03 -0.158391000000E+03
  0.156175000000E+03  0.737409000000E+02 -0.206916000000E+03
  0.458061000000E+02  0.179660000000E+03 -0.160262000000E+03
  0.445775000000E+02  0.181328000000E+03 -0.163335000000E+03
  0.329553000000E+02  0.169906000000E+03 -0.148755000000E+03
  0.122135000000E+03  0.172542000000E+03 -0.150752000000E+03
  0.121320000000E+03  0.171792000000E+03 -0.147726000000E+03
  0.111056000000E+03  0.183296000000E+03 -0.155525000000E+03
  0.113048000000E+03  0.185002000000E+03 -0.158128000000E+03
  0.111786000000E+03  0.190930000000E+03 -0.154098000000E+03
  0.118456000000E+03  0.171298000000E+03 -0.145417000000E+03
  0.113043000000E+03  0.185057000000E+03 -0.161829000000E+03
  0.120484000000E+03  0.170615000000E+03 -0.151546000000E+03
  0.515227000000E+02  0.156656000000E+03 -0.143737000000E+03
  0.861720000000E+02  0.157280000000E+03 -0.141231000000E+03
  0.839235000000E+02  0.156798000000E+03 -0.139483000000E+03
  0.934659000000E+02  0.158156000000E+03 -0.140930000000E+03
  0.385891000000E+02  0.153221000000E+03 -0.143840000000E+03
  0.464968000000E+02  0.157562000000E+03 -0.187087000000E+03
  0.393125000000E+02  0.168492000000E+03 -0.143166000000E+03
  0.491661000000E+02  0.155181000000E+03 -0.189100000000E+03
  0.113873000000E+03  0.719271000000E+02 -0.176786000000E+03
  0.967839000000E+02  0.885870000000E+02 -0.182313000000E+03
  0.961135000000E+02  0.916172000000E+02 -0.184529000000E+03
  0.179330000000E+03  0.927388000000E+02 -0.178749000000E+03
  0.180073000000E+03  0.963272000000E+02 -0.178767000000E+03
  0.181246000000E+03  0.981825000000E+02 -0.189177000000E+03
  0.180428000000E+03  0.981158000000E+02 -0.192863000000E+03
  0.885350000000E+02  0.933178000000E+02 -0.168744000000E+03
  0.902989000000E+02  0.899185000000E+02 -0.169702000000E+03
  0.950558000000E+02  0.100262000000E+03 -0.145334000000E+03
  0.925715000000E+02  0.984859000000E+02 -0.145871000000E+03
  0.932145000000E+02  0.994128000000E+02 -0.142875000000E+03
  0.107271000000E+03  0.754454000000E+02 -0.169380000000E+03
  0.104128000000E+03  0.159084000000E+03 -0.140036000000E+03
  0.102099000000E+03  0.156049000000E+03 -0.140606000000E+03
  0.116456000000E+03  0.721712000000E+02 -0.184542000000E+03
  0.153226000000E+03  0.104281000000E+03 -0.145497000000E+03
  0.146015000000E+03  0.139667000000E+03 -0.190886000000E+03
  0.156697000000E+03  0.100796000000E+03 -0.147584000000E+03
  0.143113000000E+03  0.145405000000E+03 -0.186897000000E+03
  0.966981000000E+02  0.187411000000E+03 -0.171459000000E+03
  0.944108000000E+02  0.191332000000E+03 -0.157734000000E+03
  0.925437000000E+02  0.190642000000E+03 -0.160206000000E+03
  0.948632000000E+02  0.190399000000E+03 -0.166027000000E+03
  0.622290000000E+02  0.140958000000E+03 -0.175490000000E+03
  0.151390000000E+03  0.139513000000E+03 -0.182817000000E+03
  0.156969000000E+03  0.121132000000E+03 -0.198156000000E+03
  0.654788000000E+02  0.140767000000E+03 -0.181882000000E+03
  0.160692000000E+03  0.117135000000E+03 -0.198296000000E+03
  0.162539000000E+03  0.123082000000E+03 -0.189315000000E+03
  0.418700000000E+02  0.163232000000E+03 -0.140837000000E+03
  0.390457000000E+02  0.161144000000E+03 -0.138461000000E+03
  0.417992000000E+02  0.154098000000E+03 -0.141273000000E+03
  0.145352000000E+03  0.146379000000E+03 -0.161796000000E+03
  0.447311000000E+02  0.159404000000E+03 -0.140320000000E+03
  0.140320000000E+03  0.137824000000E+03 -0.166120000000E+03
  0.137505000000E+03  0.137791000000E+03 -0.164825000000E+03
  0.633108000000E+02  0.163730000000E+03 -0.198586000000E+03
  0.596228000000E+02  0.163084000000E+03 -0.197923000000E+03
  0.502234000000E+02  0.169695000000E+03 -0.190184000000E+03
  0.549390000000E+02  0.142572000000E+03 -0.167475000000E+03
  0.511530000000E+02  0.144595000000E+03 -0.173314000000E+03
  0.501165000000E+02  0.146548000000E+03 -0.174146000000E+03
  0.539498000000E+02  0.144096000000E+03 -0.168916000000E+03
  0.504691000000E+02  0.145424000000E+03 -0.170281000000E+03
  0.114291000000E+03  0.726744000000E+02 -0.182974000000E+03
  0.456633000000E+02  0.146373000000E+03 -0.169852000000E+03
  0.832250000000E+02  0.130806000000E+03 -0.190326000000E+03
  0.929038000000E+02  0.118837000000E+03 -0.191565000000E+03
  0.959331000000E+02  0.114123000000E+03 -0.194820000000E+03
  0.110091000000E+03  0.175543000000E+03 -0.141420000000E+03
  0.971349000000E+02  0.117516000000E+03 -0.196237000000E+03
  0.999183000000E+02  0.117462000000E+03 -0.198589000000E+03
  0.106334000000E+03  0.183399000000E+03 -0.141978000000E+03
  0.103816000000E+03  0.186220000000E+03 -0.142882000000E+03
  0.112583000000E+03  0.112075000000E+03 -0.206702000000E+03
  0.102942000000E+03  0.118114000000E+03 -0.189018000000E+03
  0.114912000000E+03  0.174744000000E+03 -0.158915000000E+03
  0.928915000000E+02  0.139039000000E+03 -0.146058000000E+03
  0.904063000000E+02  0.142532000000E+03 -0.146397000000E+03
  0.641002000000E+02  0.142297000000E+03 -0.184683000000E+03
  0.787022000000E+02  0.159877000000E+03 -0.200716000000E+03
  0.107656000000E+03  0.123126000000E+03 -0.204076000000E+03
  0.125137000000E+03  0.992297000000E+02 -0.210292000000E+03
  0.128685000000E+03  0.688744000000E+02 -0.179300000000E+03
  0.123705000000E+03  0.702312000000E+02 -0.183185000000E+03
  0.127257000000E+03  0.692426000000E+02 -0.182606000000E+03
  0.101546000000E+03  0.150929000000E+03 -0.143719000000E+03
  0.928788000000E+02  0.154256000000E+03 -0.140402000000E+03
  0.156294000000E+03  0.849866000000E+02 -0.153801000000E+03
  0.154026000000E+03  0.866026000000E+02 -0.152028000000E+03
  0.120794000000E+03  0.971749000000E+02 -0.171973000000E+03
  0.136714000000E+03  0.138825000000E+03 -0.195120000000E+03
  0.754186000000E+02  0.181320000000E+03 -0.174560000000E+03
  0.724375000000E+02  0.180586000000E+03 -0.175844000000E+03
  0.113489000000E+03  0.146249000000E+03 -0.161875000000E+03
  0.113196000000E+03  0.761266000000E+02 -0.158709000000E+03
  0.111130000000E+03  0.106539000000E+03 -0.172803000000E+03
  0.122665000000E+03  0.104316000000E+03 -0.156083000000E+03
  0.119178000000E+03  0.104461000000E+03 -0.157819000000E+03
  0.130024000000E+03  0.137296000000E+03 -0.146190000000E+03
  0.731377000000E+02  0.166099000000E+03 -0.198315000000E+03
  0.165304000000E+03  0.122614000000E+03 -0.166746000000E+03
  0.146638000000E+03  0.143699000000E+03 -0.185764000000E+03
  0.978627000000E+02  0.153501000000E+03 -0.198373000000E+03
  0.129159000000E+03  0.150947000000E+03 -0.186153000000E+03
  0.103643000000E+03  0.165685000000E+03 -0.192652000000E+03
  0.954245000000E+02  0.168102000000E+03 -0.195505000000E+03
  0.143426000000E+03  0.148411000000E+03 -0.178021000000E+03
  0.120642000000E+03  0.170430000000E+03 -0.160319000000E+03
  0.675577000000E+02  0.137303000000E+03 -0.162509000000E+03
  0.101797000000E+03  0.188759000000E+03 -0.168560000000E+03
  0.588573000000E+02  0.144020000000E+03 -0.156997000000E+03
  0.817643000000E+02  0.127050000000E+03 -0.185912000000E+03
  0.789566000000E+02  0.128361000000E+03 -0.182897000000E+03
  0.816832000000E+02  0.124972000000E+03 -0.182382000000E+03
  0.778174000000E+02  0.128019000000E+03 -0.167175000000E+03
  0.644784000000E+02  0.142662000000E+03 -0.153904000000E+03
  0.688387000000E+02  0.176807000000E+03 -0.142562000000E+03
  0.620199000000E+02  0.171389000000E+03 -0.142671000000E+03
  0.339678000000E+02  0.151556000000E+03 -0.147112000000E+03
  0.120319000000E+03  0.151838000000E+03 -0.157116000000E+03
  0.892577000000E+02  0.171663000000E+03 -0.132531000000E+03
  0.876462000000E+02  0.158800000000E+03 -0.138697000000E+03
  0.941161000000E+02  0.175878000000E+03 -0.186623000000E+03
  0.359225000000E+02  0.165566000000E+03 -0.167232000000E+03
  0.456896000000E+02  0.166257000000E+03 -0.141306000000E+03
  0.343016000000E+02  0.164875000000E+03 -0.163458000000E+03
  0.135343000000E+03  0.148013000000E+03 -0.186819000000E+03
  0.112904000000E+03  0.150203000000E+03 -0.187416000000E+03
  0.346487000000E+02  0.167133000000E+03 -0.161293000000E+03
  0.327950000000E+02  0.166095000000E+03 -0.161846000000E+03
  0.103013000000E+03  0.174509000000E+03 -0.185399000000E+03
  0.707999000000E+02  0.146795000000E+03 -0.143393000000E+03
  0.695883000000E+02  0.143761000000E+03 -0.145166000000E+03
  0.553742000000E+02  0.149292000000E+03 -0.147465000000E+03
  0.688844000000E+02  0.138875000000E+03 -0.182132000000E+03
  0.704557000000E+02  0.138077000000E+03 -0.177061000000E+03
  0.725814000000E+02  0.136167000000E+03 -0.182518000000E+03
  0.489694000000E+02  0.148425000000E+03 -0.148325000000E+03
  0.509266000000E+02  0.157773000000E+03 -0.193596000000E+03
  0.909147000000E+02  0.166563000000E+03 -0.135604000000E+03
  0.615603000000E+02  0.141720000000E+03 -0.168810000000E+03
  0.610548000000E+02  0.140605000000E+03 -0.163630000000E+03
  0.583081000000E+02  0.142807000000E+03 -0.163640000000E+03
  0.656726000000E+02  0.138596000000E+03 -0.165388000000E+03
  0.613000000000E+02  0.150857000000E+03 -0.197326000000E+03
  0.544242000000E+02  0.183746000000E+03 -0.174455000000E+03
  0.494556000000E+02  0.183546000000E+03 -0.179635000000E+03
  0.829128000000E+02  0.179188000000E+03 -0.136393000000E+03
  0.105521000000E+03  0.130315000000E+03 -0.203080000000E+03
  0.369387000000E+02  0.170519000000E+03 -0.164157000000E+03
  0.668317000000E+02  0.163448000000E+03 -0.196949000000E+03
  0.465644000000E+02  0.157358000000E+03 -0.189365000000E+03
  0.170876000000E+03  0.671651000000E+02 -0.189021000000E+03
  0.163528000000E+03  0.644938000000E+02 -0.196037000000E+03
  0.483974000000E+02  0.159327000000E+03 -0.189656000000E+03
  0.716852000000E+02  0.171238000000E+03 -0.189195000000E+03
  0.751948000000E+02  0.133280000000E+03 -0.147590000000E+03
  0.714728000000E+02  0.130600000000E+03 -0.148024000000E+03
  0.698426000000E+02  0.135806000000E+03 -0.159138000000E+03
  0.100493000000E+03  0.107783000000E+03 -0.151157000000E+03
  0.106645000000E+03  0.186042000000E+03 -0.153294000000E+03
  0.379718000000E+02  0.150995000000E+03 -0.165770000000E+03
  0.111011000000E+03  0.194805000000E+03 -0.159932000000E+03
  0.116780000000E+03  0.170584000000E+03 -0.173097000000E+03
  0.119149000000E+03  0.777313000000E+02 -0.207209000000E+03
  0.135393000000E+03  0.132194000000E+03 -0.157293000000E+03
  0.934199000000E+02  0.855853000000E+02 -0.163903000000E+03
  0.971256000000E+02  0.833047000000E+02 -0.164554000000E+03
  0.172302000000E+03  0.108175000000E+03 -0.164098000000E+03
  0.160499000000E+03  0.122663000000E+03 -0.153297000000E+03
  0.827794000000E+02  0.988518000000E+02 -0.143150000000E+03
  0.173809000000E+03  0.109111000000E+03 -0.167528000000E+03
  0.983955000000E+02  0.172030000000E+03 -0.134724000000E+03
  0.686615000000E+02  0.120713000000E+03 -0.148769000000E+03
  0.709434000000E+02  0.120330000000E+03 -0.155097000000E+03
  0.971410000000E+02  0.167092000000E+03 -0.137493000000E+03
  0.128518000000E+03  0.877424000000E+02 -0.150963000000E+03
  0.128444000000E+03  0.850457000000E+02 -0.152905000000E+03
  0.155155000000E+03  0.129776000000E+03 -0.152783000000E+03
  0.139124000000E+03  0.103772000000E+03 -0.167591000000E+03
  0.779344000000E+02  0.132103000000E+03 -0.181901000000E+03
  0.104331000000E+03  0.143372000000E+03 -0.196658000000E+03
  0.138148000000E+03  0.151527000000E+03 -0.175493000000E+03
  0.820508000000E+02  0.129209000000E+03 -0.186631000000E+03
  0.120299000000E+03  0.136318000000E+03 -0.146230000000E+03
  0.878945000000E+02  0.113441000000E+03 -0.174027000000E+03
  0.112191000000E+03  0.969703000000E+02 -0.208095000000E+03
  0.104244000000E+03  0.130009000000E+03 -0.194575000000E+03
  0.127907000000E+03  0.684760000000E+02 -0.188809000000E+03
  0.130690000000E+03  0.675206000000E+02 -0.187946000000E+03
  0.559521000000E+02  0.147137000000E+03 -0.189594000000E+03
  0.125426000000E+03  0.100427000000E+03 -0.157705000000E+03
  0.151237000000E+03  0.105520000000E+03 -0.207727000000E+03
  0.153882000000E+03  0.110813000000E+03 -0.146148000000E+03
  0.157424000000E+03  0.135917000000E+03 -0.171780000000E+03
  0.100341000000E+03  0.813550000000E+02 -0.189807000000E+03
  0.148303000000E+03  0.105482000000E+03 -0.208007000000E+03
  0.147100000000E+03  0.102314000000E+03 -0.208792000000E+03
  0.140716000000E+03  0.692487000000E+02 -0.169799000000E+03
  0.120002000000E+03  0.730549000000E+02 -0.161981000000E+03
  0.120422000000E+03  0.717584000000E+02 -0.164715000000E+03
  0.123271000000E+03  0.744274000000E+02 -0.160667000000E+03
  0.138838000000E+03  0.112598000000E+03 -0.206726000000E+03
  0.140416000000E+03  0.104922000000E+03 -0.146997000000E+03
  0.707446000000E+02  0.120298000000E+03 -0.158063000000E+03
  0.132797000000E+03  0.118828000000E+03 -0.164586000000E+03
  0.100474000000E+03  0.111281000000E+03 -0.141010000000E+03
  0.689734000000E+02  0.123573000000E+03 -0.141010000000E+03
  0.701326000000E+02  0.125077000000E+03 -0.141010000000E+03
  0.103341000000E+03  0.134427000000E+03 -0.152644000000E+03
  0.159184000000E+03  0.115705000000E+03 -0.200117000000E+03
  0.106944000000E+03  0.130174000000E+03 -0.149346000000E+03
  0.132094000000E+03  0.114657000000E+03 -0.206455000000E+03
  0.133444000000E+03  0.108546000000E+03 -0.207495000000E+03
  0.102157000000E+03  0.133741000000E+03 -0.153278000000E+03
  0.114724000000E+03  0.135181000000E+03 -0.155170000000E+03
  0.117796000000E+03  0.134885000000E+03 -0.156340000000E+03
  0.103569000000E+03  0.132190000000E+03 -0.149434000000E+03
  0.102428000000E+03  0.116948000000E+03 -0.200347000000E+03
  0.117788000000E+03  0.857579000000E+02 -0.153299000000E+03
  0.103223000000E+03  0.782166000000E+02 -0.184830000000E+03
  0.158950000000E+03  0.106686000000E+03 -0.205893000000E+03
  0.115371000000E+03  0.110888000000E+03 -0.207114000000E+03
  0.101828000000E+03  0.108212000000E+03 -0.199997000000E+03
  0.152481000000E+03  0.110176000000E+03 -0.205856000000E+03
  0.159050000000E+03  0.113261000000E+03 -0.201779000000E+03
  0.163073000000E+03  0.126492000000E+03 -0.180997000000E+03
  0.161122000000E+03  0.128897000000E+03 -0.180818000000E+03
  0.178574000000E+03  0.101539000000E+03 -0.171802000000E+03
  0.128244000000E+03  0.149766000000E+03 -0.189225000000E+03
  0.126408000000E+03  0.151315000000E+03 -0.187354000000E+03
  0.853068000000E+02  0.127756000000E+03 -0.189032000000E+03
  0.139332000000E+03  0.105295000000E+03 -0.157296000000E+03
  0.139247000000E+03  0.108192000000E+03 -0.160627000000E+03
  0.115437000000E+03  0.129542000000E+03 -0.142637000000E+03
  0.120206000000E+03  0.149450000000E+03 -0.194444000000E+03
  0.113626000000E+03  0.133134000000E+03 -0.147721000000E+03
  0.113267000000E+03  0.129642000000E+03 -0.145128000000E+03
  0.104173000000E+03  0.129360000000E+03 -0.146262000000E+03
  0.109237000000E+03  0.124240000000E+03 -0.151379000000E+03
  0.103864000000E+03  0.129146000000E+03 -0.150507000000E+03
  0.895069000000E+02  0.130530000000E+03 -0.156947000000E+03
  0.921830000000E+02  0.132060000000E+03 -0.154922000000E+03
  0.910228000000E+02  0.132800000000E+03 -0.151964000000E+03
  0.915266000000E+02  0.132125000000E+03 -0.157172000000E+03
  0.424924000000E+02  0.151569000000E+03 -0.144006000000E+03
  0.731350000000E+02  0.132200000000E+03 -0.150993000000E+03
  0.342940000000E+02  0.153068000000E+03 -0.150689000000E+03
  0.399231000000E+02  0.150610000000E+03 -0.154369000000E+03
  0.104575000000E+03  0.141301000000E+03 -0.148434000000E+03
  0.368869000000E+02  0.151962000000E+03 -0.153284000000E+03
  0.119843000000E+03  0.151497000000E+03 -0.144005000000E+03
  0.111779000000E+03  0.145921000000E+03 -0.155669000000E+03
  0.102979000000E+03  0.172452000000E+03 -0.156437000000E+03
  0.102519000000E+03  0.174717000000E+03 -0.146825000000E+03
  0.866195000000E+02  0.949142000000E+02 -0.154059000000E+03
  0.100079000000E+03  0.789893000000E+02 -0.173640000000E+03
  0.611771000000E+02  0.153772000000E+03 -0.198655000000E+03
  0.131255000000E+03  0.112033000000E+03 -0.165426000000E+03
  0.128621000000E+03  0.995552000000E+02 -0.158227000000E+03
  0.152609000000E+03  0.129503000000E+03 -0.149977000000E+03
  0.638365000000E+02  0.139557000000E+03 -0.167263000000E+03
  0.659231000000E+02  0.138462000000E+03 -0.168845000000E+03
  0.142044000000E+03  0.122183000000E+03 -0.156414000000E+03
  0.102720000000E+03  0.162368000000E+03 -0.140430000000E+03
  0.100378000000E+03  0.176349000000E+03 -0.183435000000E+03
  0.162338000000E+03  0.725042000000E+02 -0.173996000000E+03
  0.120127000000E+03  0.154002000000E+03 -0.141594000000E+03
  0.113023000000E+03  0.142531000000E+03 -0.201516000000E+03
  0.973841000000E+02  0.153068000000E+03 -0.199657000000E+03
  0.972058000000E+02  0.178949000000E+03 -0.178383000000E+03
  0.100129000000E+03  0.177554000000E+03 -0.179762000000E+03
  0.121728000000E+03  0.954016000000E+02 -0.168209000000E+03
  0.119668000000E+03  0.972708000000E+02 -0.165076000000E+03
  0.113416000000E+03  0.149640000000E+03 -0.196085000000E+03
  0.111590000000E+03  0.147362000000E+03 -0.197650000000E+03
  0.109623000000E+03  0.155573000000E+03 -0.194019000000E+03
  0.106500000000E+03  0.155953000000E+03 -0.195741000000E+03
  0.168674000000E+03  0.706934000000E+02 -0.182441000000E+03
  0.170300000000E+03  0.114002000000E+03 -0.165943000000E+03
  0.164072000000E+03  0.809474000000E+02 -0.166186000000E+03
  0.177461000000E+03  0.105922000000E+03 -0.188575000000E+03
  0.832237000000E+02  0.169331000000E+03 -0.135370000000E+03
  0.792828000000E+02  0.169799000000E+03 -0.136225000000E+03
  0.110317000000E+03  0.149735000000E+03 -0.141837000000E+03
  0.472068000000E+02  0.160791000000E+03 -0.141198000000E+03
  0.417081000000E+02  0.159993000000E+03 -0.139806000000E+03
  0.168426000000E+03  0.116816000000E+03 -0.165341000000E+03
  0.776360000000E+02  0.183933000000E+03 -0.158024000000E+03
  0.449484000000E+02  0.162929000000E+03 -0.140465000000E+03
  0.798154000000E+02  0.185664000000E+03 -0.161700000000E+03
  0.162301000000E+03  0.122362000000E+03 -0.157096000000E+03
  0.807737000000E+02  0.140970000000E+03 -0.195434000000E+03
  0.582170000000E+02  0.155798000000E+03 -0.198130000000E+03
  0.711927000000E+02  0.145440000000E+03 -0.195942000000E+03
  0.749492000000E+02  0.143663000000E+03 -0.196114000000E+03
  0.913593000000E+02  0.111111000000E+03 -0.182405000000E+03
  0.771969000000E+02  0.166603000000E+03 -0.198181000000E+03
  0.795839000000E+02  0.163420000000E+03 -0.199708000000E+03
  0.443184000000E+02  0.174469000000E+03 -0.150173000000E+03
  0.408288000000E+02  0.173062000000E+03 -0.149556000000E+03
  0.453125000000E+02  0.175808000000E+03 -0.153372000000E+03
  0.597916000000E+02  0.180298000000E+03 -0.173215000000E+03
  0.593321000000E+02  0.180733000000E+03 -0.169101000000E+03
  0.484095000000E+02  0.180904000000E+03 -0.164384000000E+03
  0.101213000000E+03  0.170454000000E+03 -0.152968000000E+03
  0.999912000000E+02  0.169313000000E+03 -0.150108000000E+03
  0.879755000000E+02  0.177536000000E+03 -0.187599000000E+03
  0.718261000000E+02  0.178624000000E+03 -0.142300000000E+03
  0.714488000000E+02  0.175588000000E+03 -0.140675000000E+03
  0.866036000000E+02  0.175455000000E+03 -0.190268000000E+03
  0.857214000000E+02  0.173707000000E+03 -0.192290000000E+03
  0.867176000000E+02  0.172221000000E+03 -0.193807000000E+03
  0.896030000000E+02  0.179548000000E+03 -0.184536000000E+03
  0.855391000000E+02  0.179143000000E+03 -0.185028000000E+03
  0.160269000000E+03  0.119609000000E+03 -0.151150000000E+03
  0.162094000000E+03  0.120052000000E+03 -0.154002000000E+03
  0.110571000000E+03  0.153250000000E+03 -0.140063000000E+03
  0.126797000000E+03  0.157639000000E+03 -0.146206000000E+03
  0.106456000000E+03  0.173443000000E+03 -0.149642000000E+03
  0.656258000000E+02  0.161095000000E+03 -0.142537000000E+03
  0.690392000000E+02  0.159030000000E+03 -0.142137000000E+03
  0.110838000000E+03  0.188608000000E+03 -0.152070000000E+03
  0.110113000000E+03  0.157056000000E+03 -0.139209000000E+03
  0.104784000000E+03  0.195891000000E+03 -0.164483000000E+03
  0.106818000000E+03  0.197134000000E+03 -0.160819000000E+03
  0.100945000000E+03  0.787446000000E+02 -0.178915000000E+03
  0.928955000000E+02  0.187361000000E+03 -0.141332000000E+03
  0.892947000000E+02  0.121825000000E+03 -0.177934000000E+03
  0.830055000000E+02  0.125803000000E+03 -0.175812000000E+03
  0.116997000000E+03  0.146091000000E+03 -0.152602000000E+03
  0.114431000000E+03  0.144549000000E+03 -0.149874000000E+03
  0.875113000000E+02  0.119847000000E+03 -0.178537000000E+03
  0.881924000000E+02  0.117281000000E+03 -0.175619000000E+03
  0.870157000000E+02  0.120222000000E+03 -0.175563000000E+03
  0.849416000000E+02  0.121590000000E+03 -0.177063000000E+03
  0.823316000000E+02  0.122501000000E+03 -0.174713000000E+03
  0.895951000000E+02  0.153447000000E+03 -0.200506000000E+03
  0.867155000000E+02  0.153971000000E+03 -0.200665000000E+03
  0.106058000000E+03  0.825154000000E+02 -0.200014000000E+03
  0.710583000000E+02  0.134840000000E+03 -0.174465000000E+03
  0.111384000000E+03  0.874025000000E+02 -0.206455000000E+03
  0.108222000000E+03  0.880589000000E+02 -0.203781000000E+03
  0.114779000000E+03  0.777116000000E+02 -0.202739000000E+03
  0.116578000000E+03  0.894016000000E+02 -0.210728000000E+03
  0.529490000000E+02  0.148932000000E+03 -0.146950000000E+03
  0.791028000000E+02  0.144430000000E+03 -0.196788000000E+03
  0.655355000000E+02  0.138913000000E+03 -0.172387000000E+03
  0.110209000000E+03  0.794931000000E+02 -0.200244000000E+03
  0.868616000000E+02  0.100761000000E+03 -0.167867000000E+03
  0.136531000000E+03  0.712690000000E+02 -0.166073000000E+03
  0.134788000000E+03  0.726525000000E+02 -0.163788000000E+03
  0.139656000000E+03  0.709029000000E+02 -0.166719000000E+03
  0.136655000000E+03  0.106703000000E+03 -0.181384000000E+03
  0.106365000000E+03  0.155436000000E+03 -0.140236000000E+03
  0.177159000000E+03  0.859553000000E+02 -0.201568000000E+03
  0.175581000000E+03  0.886431000000E+02 -0.203454000000E+03
  0.166374000000E+03  0.887731000000E+02 -0.211070000000E+03
  0.163290000000E+03  0.864616000000E+02 -0.211670000000E+03
  0.145802000000E+03  0.675805000000E+02 -0.173001000000E+03
  0.123118000000E+03  0.123644000000E+03 -0.139251000000E+03
  0.129264000000E+03  0.104416000000E+03 -0.208503000000E+03
  0.133967000000E+03  0.105747000000E+03 -0.208246000000E+03
  0.141352000000E+03  0.660353000000E+02 -0.179412000000E+03
  0.142364000000E+03  0.654262000000E+02 -0.182800000000E+03
  0.126179000000E+03  0.146689000000E+03 -0.194995000000E+03
  0.128821000000E+03  0.140298000000E+03 -0.198126000000E+03
  0.114385000000E+03  0.119755000000E+03 -0.139737000000E+03
  0.111545000000E+03  0.118372000000E+03 -0.141289000000E+03
  0.112109000000E+03  0.121256000000E+03 -0.141536000000E+03
  0.109533000000E+03  0.120582000000E+03 -0.143855000000E+03
  0.109061000000E+03  0.743369000000E+02 -0.181344000000E+03
  0.845652000000E+02  0.150013000000E+03 -0.200561000000E+03
  0.843206000000E+02  0.152653000000E+03 -0.200747000000E+03
  0.930838000000E+02  0.879056000000E+02 -0.157768000000E+03
  0.105616000000E+03  0.115900000000E+03 -0.140908000000E+03
  0.105011000000E+03  0.114167000000E+03 -0.142250000000E+03
  0.102741000000E+03  0.789826000000E+02 -0.167762000000E+03
  0.101944000000E+03  0.129956000000E+03 -0.142521000000E+03
  0.943418000000E+02  0.167377000000E+03 -0.135155000000E+03
  0.114063000000E+03  0.108434000000E+03 -0.184198000000E+03
  0.134857000000E+03  0.137029000000E+03 -0.196955000000E+03
  0.169247000000E+03  0.663234000000E+02 -0.203668000000E+03
  0.154255000000E+03  0.887834000000E+02 -0.211681000000E+03
  0.146683000000E+03  0.778704000000E+02 -0.206667000000E+03
  0.136190000000E+03  0.983753000000E+02 -0.209861000000E+03
  0.176711000000E+03  0.960257000000E+02 -0.200294000000E+03
  0.182408000000E+03  0.887200000000E+02 -0.190666000000E+03
  0.181687000000E+03  0.864266000000E+02 -0.192683000000E+03
  0.181479000000E+03  0.795242000000E+02 -0.190453000000E+03
  0.867778000000E+02  0.124288000000E+03 -0.172047000000E+03
  0.180779000000E+03  0.100256000000E+03 -0.187199000000E+03
  0.178587000000E+03  0.740185000000E+02 -0.188796000000E+03
  0.812046000000E+02  0.132426000000E+03 -0.153299000000E+03
  0.137739000000E+03  0.735836000000E+02 -0.203484000000E+03
  0.100258000000E+03  0.809419000000E+02 -0.185361000000E+03
  0.127040000000E+03  0.683980000000E+02 -0.192445000000E+03
  0.129235000000E+03  0.683928000000E+02 -0.185437000000E+03
  0.122175000000E+03  0.159712000000E+03 -0.140977000000E+03
  0.976884000000E+02  0.898432000000E+02 -0.192224000000E+03
  0.986388000000E+02  0.866613000000E+02 -0.191763000000E+03
  0.119250000000E+03  0.165455000000E+03 -0.147519000000E+03
  0.116934000000E+03  0.163240000000E+03 -0.145522000000E+03
  0.110177000000E+03  0.160541000000E+03 -0.187461000000E+03
  0.474927000000E+02  0.160932000000E+03 -0.142352000000E+03
  0.163160000000E+03  0.123296000000E+03 -0.161318000000E+03
  0.161013000000E+03  0.125819000000E+03 -0.159470000000E+03
  0.868951000000E+02  0.909734000000E+02 -0.159074000000E+03
  0.988833000000E+02  0.803583000000E+02 -0.171935000000E+03
  0.826583000000E+02  0.952126000000E+02 -0.156242000000E+03
  0.466488000000E+02  0.177699000000E+03 -0.156628000000E+03
  0.142055000000E+03  0.655487000000E+02 -0.193655000000E+03
  0.713942000000E+02  0.151874000000E+03 -0.145282000000E+03
  0.114927000000E+03  0.172862000000E+03 -0.155509000000E+03
  0.113734000000E+03  0.172723000000E+03 -0.159099000000E+03
  0.120759000000E+03  0.173020000000E+03 -0.160366000000E+03
  0.109941000000E+03  0.910249000000E+02 -0.205858000000E+03
  0.106347000000E+03  0.921605000000E+02 -0.203190000000E+03
  0.104262000000E+03  0.181101000000E+03 -0.155775000000E+03
  0.917174000000E+02  0.182483000000E+03 -0.132206000000E+03
  0.915247000000E+02  0.178741000000E+03 -0.130065000000E+03
  0.658249000000E+02  0.146401000000E+03 -0.194875000000E+03
  0.850867000000E+02  0.183228000000E+03 -0.136537000000E+03
  0.915706000000E+02  0.186138000000E+03 -0.138916000000E+03
  0.633374000000E+02  0.148564000000E+03 -0.196290000000E+03
  0.115005000000E+03  0.150432000000E+03 -0.167692000000E+03
  0.126541000000E+03  0.144607000000E+03 -0.153771000000E+03
  0.121673000000E+03  0.148445000000E+03 -0.157526000000E+03
  0.123260000000E+03  0.145787000000E+03 -0.155333000000E+03
  0.122683000000E+03  0.157620000000E+03 -0.159968000000E+03
  0.300728000000E+02  0.159028000000E+03 -0.155780000000E+03
  0.116799000000E+03  0.146231000000E+03 -0.169309000000E+03
  0.889385000000E+02  0.984917000000E+02 -0.145815000000E+03
  0.716029000000E+02  0.126391000000E+03 -0.154358000000E+03
  0.724904000000E+02  0.127641000000E+03 -0.157031000000E+03
  0.687243000000E+02  0.120462000000E+03 -0.155610000000E+03
  0.757678000000E+02  0.135215000000E+03 -0.162806000000E+03
  0.736723000000E+02  0.130200000000E+03 -0.157289000000E+03
  0.105472000000E+03  0.170521000000E+03 -0.185712000000E+03
  0.794248000000E+02  0.124762000000E+03 -0.175804000000E+03
  0.100084000000E+03  0.168276000000E+03 -0.136742000000E+03
  0.101096000000E+03  0.168380000000E+03 -0.133374000000E+03
  0.903845000000E+02  0.136644000000E+03 -0.140921000000E+03
  0.878099000000E+02  0.134473000000E+03 -0.142461000000E+03
  0.966343000000E+02  0.148197000000E+03 -0.141855000000E+03
  0.848005000000E+02  0.124900000000E+03 -0.173136000000E+03
  0.124962000000E+03  0.150490000000E+03 -0.189939000000E+03
  0.144422000000E+03  0.134248000000E+03 -0.148006000000E+03
  0.146892000000E+03  0.131738000000E+03 -0.148123000000E+03
  0.143763000000E+03  0.131118000000E+03 -0.146159000000E+03
  0.147292000000E+03  0.114019000000E+03 -0.205133000000E+03
  0.151080000000E+03  0.113320000000E+03 -0.204625000000E+03
  0.146182000000E+03  0.140829000000E+03 -0.154520000000E+03
  0.147642000000E+03  0.141476000000E+03 -0.158023000000E+03
  0.178884000000E+03  0.972141000000E+02 -0.196888000000E+03
  0.162414000000E+03  0.103676000000E+03 -0.206578000000E+03
  0.106484000000E+03  0.101127000000E+03 -0.204138000000E+03
  0.115622000000E+03  0.987974000000E+02 -0.209679000000E+03
  0.102168000000E+03  0.157576000000E+03 -0.142034000000E+03
  0.104263000000E+03  0.103313000000E+03 -0.202646000000E+03
  0.161144000000E+03  0.108481000000E+03 -0.151862000000E+03
  0.142691000000E+03  0.724803000000E+02 -0.164251000000E+03
  0.153258000000E+03  0.835445000000E+02 -0.154236000000E+03
  0.150331000000E+03  0.854408000000E+02 -0.152421000000E+03
  0.168214000000E+03  0.105947000000E+03 -0.201221000000E+03
  0.142753000000E+03  0.704372000000E+02 -0.167454000000E+03
  0.114777000000E+03  0.109669000000E+03 -0.140548000000E+03
  0.118542000000E+03  0.168005000000E+03 -0.172140000000E+03
  0.120655000000E+03  0.110493000000E+03 -0.140561000000E+03
  0.110657000000E+03  0.170983000000E+03 -0.169399000000E+03
  0.510786000000E+02  0.178705000000E+03 -0.157308000000E+03
  0.592572000000E+02  0.149007000000E+03 -0.145292000000E+03
  0.850667000000E+02  0.121933000000E+03 -0.181433000000E+03
  0.842205000000E+02  0.124004000000E+03 -0.185570000000E+03
  0.891019000000E+02  0.123173000000E+03 -0.184597000000E+03
  0.102435000000E+03  0.106947000000E+03 -0.145097000000E+03
  0.104230000000E+03  0.110439000000E+03 -0.142825000000E+03
  0.885375000000E+02  0.119536000000E+03 -0.182237000000E+03
  0.109075000000E+03  0.174370000000E+03 -0.156101000000E+03
  0.745475000000E+02  0.158444000000E+03 -0.144367000000E+03
  0.128428000000E+03  0.123664000000E+03 -0.151925000000E+03
  0.109021000000E+03  0.185618000000E+03 -0.155934000000E+03
  0.174804000000E+03  0.103332000000E+03 -0.196115000000E+03
  0.175565000000E+03  0.100121000000E+03 -0.198861000000E+03
  0.814757000000E+02  0.137920000000E+03 -0.147587000000E+03
  0.733540000000E+02  0.177759000000E+03 -0.184572000000E+03
  0.169829000000E+03  0.101403000000E+03 -0.203643000000E+03
  0.107561000000E+03  0.123491000000E+03 -0.140913000000E+03
  0.106206000000E+03  0.122511000000E+03 -0.141010000000E+03
  0.107498000000E+03  0.120686000000E+03 -0.141078000000E+03
  0.110243000000E+03  0.166946000000E+03 -0.145269000000E+03
  0.118473000000E+03  0.124630000000E+03 -0.154164000000E+03
  0.109091000000E+03  0.177565000000E+03 -0.135137000000E+03
  0.841518000000E+02  0.143503000000E+03 -0.143530000000E+03
  0.881088000000E+02  0.165653000000E+03 -0.136036000000E+03
  0.180166000000E+03  0.773419000000E+02 -0.188021000000E+03
  0.180663000000E+03  0.762252000000E+02 -0.191612000000E+03
  0.959020000000E+02  0.997879000000E+02 -0.194323000000E+03
  0.723479000000E+02  0.162774000000E+03 -0.198226000000E+03
  0.682903000000E+02  0.141752000000E+03 -0.147612000000E+03
  0.667602000000E+02  0.140352000000E+03 -0.150607000000E+03
  0.623743000000E+02  0.144761000000E+03 -0.189797000000E+03
  0.715746000000E+02  0.137793000000E+03 -0.160507000000E+03
  0.706793000000E+02  0.140058000000E+03 -0.154515000000E+03
  0.630987000000E+02  0.141883000000E+03 -0.158961000000E+03
  0.651276000000E+02  0.141036000000E+03 -0.159095000000E+03
  0.786416000000E+02  0.180917000000E+03 -0.178772000000E+03
  0.749395000000E+02  0.180148000000E+03 -0.178477000000E+03
  0.771175000000E+02  0.179832000000E+03 -0.180840000000E+03
  0.812330000000E+02  0.166489000000E+03 -0.198224000000E+03
  0.477324000000E+02  0.165803000000E+03 -0.190335000000E+03
  0.516792000000E+02  0.166716000000E+03 -0.192582000000E+03
  0.137581000000E+03  0.123646000000E+03 -0.141729000000E+03
  0.131798000000E+03  0.680468000000E+02 -0.178624000000E+03
  0.136741000000E+03  0.663555000000E+02 -0.183325000000E+03
  0.137522000000E+03  0.666487000000E+02 -0.179269000000E+03
  0.117188000000E+03  0.166489000000E+03 -0.139793000000E+03
  0.127592000000E+03  0.108557000000E+03 -0.140976000000E+03
  0.752043000000E+02  0.163121000000E+03 -0.139010000000E+03
  0.797689000000E+02  0.185605000000E+03 -0.146756000000E+03
  0.826812000000E+02  0.186631000000E+03 -0.148363000000E+03
  0.767052000000E+02  0.176379000000E+03 -0.137957000000E+03
  0.107586000000E+03  0.178964000000E+03 -0.147954000000E+03
  0.342406000000E+02  0.166466000000E+03 -0.139179000000E+03
  0.107769000000E+03  0.181382000000E+03 -0.144972000000E+03
  0.385545000000E+02  0.164582000000E+03 -0.140551000000E+03
  0.100756000000E+03  0.184626000000E+03 -0.146860000000E+03
  0.903917000000E+02  0.169968000000E+03 -0.138386000000E+03
  0.537536000000E+02  0.164103000000E+03 -0.194995000000E+03
  0.531813000000E+02  0.160128000000E+03 -0.195351000000E+03
  0.340574000000E+02  0.167524000000E+03 -0.164661000000E+03
  0.375102000000E+02  0.151377000000E+03 -0.156603000000E+03
  0.104408000000E+03  0.170434000000E+03 -0.132937000000E+03
  0.101891000000E+03  0.168931000000E+03 -0.138823000000E+03
  0.101188000000E+03  0.171406000000E+03 -0.189791000000E+03
  0.380960000000E+02  0.152442000000E+03 -0.168639000000E+03
  0.380638000000E+02  0.151685000000E+03 -0.165250000000E+03
  0.913357000000E+02  0.151157000000E+03 -0.141003000000E+03
  0.512414000000E+02  0.165760000000E+03 -0.143685000000E+03
  0.173511000000E+03  0.776995000000E+02 -0.180282000000E+03
  0.492752000000E+02  0.173369000000E+03 -0.145919000000E+03
  0.175725000000E+03  0.812788000000E+02 -0.179769000000E+03
  0.164053000000E+03  0.751738000000E+02 -0.172320000000E+03
  0.993845000000E+02  0.107135000000E+03 -0.141010000000E+03
  0.296898000000E+02  0.164405000000E+03 -0.157118000000E+03
  0.110931000000E+03  0.126316000000E+03 -0.145623000000E+03
  0.107430000000E+03  0.126507000000E+03 -0.147547000000E+03
  0.118880000000E+03  0.164799000000E+03 -0.174924000000E+03
  0.946827000000E+02  0.127298000000E+03 -0.196211000000E+03
  0.106970000000E+03  0.170132000000E+03 -0.185905000000E+03
  0.109633000000E+03  0.170022000000E+03 -0.183027000000E+03
  0.716522000000E+02  0.168724000000E+03 -0.196233000000E+03
  0.586349000000E+02  0.159428000000E+03 -0.198392000000E+03
  0.628482000000E+02  0.157333000000E+03 -0.198014000000E+03
  0.547329000000E+02  0.149278000000E+03 -0.188976000000E+03
  0.144235000000E+03  0.142789000000E+03 -0.153914000000E+03
  0.145563000000E+03  0.143166000000E+03 -0.156053000000E+03
  0.148677000000E+03  0.677422000000E+02 -0.173121000000E+03
  0.624118000000E+02  0.143640000000E+03 -0.186815000000E+03
  0.847353000000E+02  0.142022000000E+03 -0.199094000000E+03
  0.133598000000E+03  0.141874000000E+03 -0.150523000000E+03
  0.129948000000E+03  0.117724000000E+03 -0.148945000000E+03
  0.135262000000E+03  0.968636000000E+02 -0.158671000000E+03
  0.144110000000E+03  0.822362000000E+02 -0.154999000000E+03
  0.884632000000E+02  0.188434000000E+03 -0.164616000000E+03
  0.144607000000E+03  0.655250000000E+02 -0.180281000000E+03
  0.909787000000E+02  0.187953000000E+03 -0.144234000000E+03
  0.878484000000E+02  0.127956000000E+03 -0.162585000000E+03
  0.869639000000E+02  0.185939000000E+03 -0.164831000000E+03
  0.902254000000E+02  0.120971000000E+03 -0.188899000000E+03
  0.703338000000E+02  0.129135000000E+03 -0.151355000000E+03
  0.978540000000E+02  0.136052000000E+03 -0.196565000000E+03
  0.937048000000E+02  0.135284000000E+03 -0.196639000000E+03
  0.399930000000E+02  0.161372000000E+03 -0.137643000000E+03
  0.390733000000E+02  0.162453000000E+03 -0.137777000000E+03
  0.704415000000E+02  0.178021000000E+03 -0.178858000000E+03
  0.116069000000E+03  0.169608000000E+03 -0.142144000000E+03
  0.109069000000E+03  0.172351000000E+03 -0.148109000000E+03
  0.111591000000E+03  0.164346000000E+03 -0.138684000000E+03
  0.730349000000E+02  0.118766000000E+03 -0.157443000000E+03
  0.684554000000E+02  0.136749000000E+03 -0.171233000000E+03
  0.944239000000E+02  0.936044000000E+02 -0.154331000000E+03
  0.910804000000E+02  0.942790000000E+02 -0.154383000000E+03
  0.339735000000E+02  0.161564000000E+03 -0.167629000000E+03
  0.327812000000E+02  0.163145000000E+03 -0.164329000000E+03
  0.702569000000E+02  0.106781000000E+03 -0.141010000000E+03
  0.344816000000E+02  0.161804000000E+03 -0.165879000000E+03
  0.100698000000E+03  0.159439000000E+03 -0.140424000000E+03
  0.125459000000E+03  0.130061000000E+03 -0.141646000000E+03
  0.793329000000E+02  0.139434000000E+03 -0.193524000000E+03
  0.893535000000E+02  0.132672000000E+03 -0.158386000000E+03
  0.133655000000E+03  0.139643000000E+03 -0.196035000000E+03
  0.135191000000E+03  0.141311000000E+03 -0.194358000000E+03
  0.123431000000E+03  0.154431000000E+03 -0.182909000000E+03
  0.106607000000E+03  0.107688000000E+03 -0.180506000000E+03
  0.114702000000E+03  0.105519000000E+03 -0.165695000000E+03
  0.152657000000E+03  0.132047000000E+03 -0.152665000000E+03
  0.152761000000E+03  0.134061000000E+03 -0.155440000000E+03
  0.167315000000E+03  0.119637000000E+03 -0.185732000000E+03
  0.164667000000E+03  0.122370000000E+03 -0.186169000000E+03
  0.976159000000E+02  0.165429000000E+03 -0.140319000000E+03
  0.902505000000E+02  0.101562000000E+03 -0.173885000000E+03
  0.921268000000E+02  0.998769000000E+02 -0.177082000000E+03
  0.114947000000E+03  0.113736000000E+03 -0.155200000000E+03
  0.103191000000E+03  0.152303000000E+03 -0.141209000000E+03
  0.798797000000E+02  0.128992000000E+03 -0.171101000000E+03
  0.150361000000E+03  0.103648000000E+03 -0.144123000000E+03
  0.133552000000E+03  0.942871000000E+02 -0.145740000000E+03
  0.130991000000E+03  0.951961000000E+02 -0.144700000000E+03
  0.358614000000E+02  0.162004000000E+03 -0.169443000000E+03
  0.372811000000E+02  0.162028000000E+03 -0.172618000000E+03
  0.391419000000E+02  0.161875000000E+03 -0.175640000000E+03
  0.164598000000E+03  0.862574000000E+02 -0.159355000000E+03
  0.163666000000E+03  0.116000000000E+03 -0.196836000000E+03
  0.149835000000E+03  0.929808000000E+02 -0.210711000000E+03
  0.854884000000E+02  0.127344000000E+03 -0.190808000000E+03
  0.883588000000E+02  0.126095000000E+03 -0.192122000000E+03
  0.868993000000E+02  0.124062000000E+03 -0.189071000000E+03
  0.933916000000E+02  0.111972000000E+03 -0.174864000000E+03
  0.959196000000E+02  0.112605000000E+03 -0.178298000000E+03
  0.136142000000E+03  0.108231000000E+03 -0.171788000000E+03
  0.139427000000E+03  0.105037000000E+03 -0.171752000000E+03
  0.163576000000E+03  0.125819000000E+03 -0.167355000000E+03
  0.113901000000E+03  0.106360000000E+03 -0.169313000000E+03
  0.120178000000E+03  0.754575000000E+02 -0.158967000000E+03
  0.845291000000E+02  0.964851000000E+02 -0.161935000000E+03
  0.148874000000E+03  0.110975000000E+03 -0.206285000000E+03
  0.150193000000E+03  0.107976000000E+03 -0.207125000000E+03
  0.376935000000E+02  0.169163000000E+03 -0.166711000000E+03
  0.109054000000E+03  0.117131000000E+03 -0.142934000000E+03
  0.104699000000E+03  0.178953000000E+03 -0.173920000000E+03
  0.103010000000E+03  0.113596000000E+03 -0.144986000000E+03
  0.983955000000E+02  0.103815000000E+03 -0.198022000000E+03
  0.259595000000E+02  0.163231000000E+03 -0.146437000000E+03
  0.271648000000E+02  0.164259000000E+03 -0.149069000000E+03
  0.279819000000E+02  0.158972000000E+03 -0.153700000000E+03
  0.277722000000E+02  0.162303000000E+03 -0.154734000000E+03
  0.287363000000E+02  0.159045000000E+03 -0.152285000000E+03
  0.274687000000E+02  0.160908000000E+03 -0.150461000000E+03
  0.818979000000E+02  0.123333000000E+03 -0.178555000000E+03
  0.792655000000E+02  0.126148000000E+03 -0.179418000000E+03
  0.278990000000E+02  0.165754000000E+03 -0.154291000000E+03
  0.109302000000E+03  0.128696000000E+03 -0.205048000000E+03
  0.950960000000E+02  0.994058000000E+02 -0.191365000000E+03
  0.112996000000E+03  0.106179000000E+03 -0.179097000000E+03
  0.825765000000E+02  0.972251000000E+02 -0.146369000000E+03
  0.811380000000E+02  0.981097000000E+02 -0.149288000000E+03
  0.127227000000E+03  0.828311000000E+02 -0.210638000000E+03
  0.745264000000E+02  0.103653000000E+03 -0.151019000000E+03
  0.767331000000E+02  0.101203000000E+03 -0.151703000000E+03
  0.128882000000E+03  0.146533000000E+03 -0.193748000000E+03
  0.249209000000E+02  0.163128000000E+03 -0.147133000000E+03
  0.254810000000E+02  0.162509000000E+03 -0.149314000000E+03
  0.155788000000E+03  0.780437000000E+02 -0.162289000000E+03
  0.428760000000E+02  0.162313000000E+03 -0.184988000000E+03
  0.415232000000E+02  0.165222000000E+03 -0.183313000000E+03
  0.146685000000E+03  0.148270000000E+03 -0.169371000000E+03
  0.159169000000E+03  0.780143000000E+02 -0.210365000000E+03
  0.101134000000E+03  0.963216000000E+02 -0.152610000000E+03
  0.168239000000E+03  0.103727000000E+03 -0.203135000000E+03
  0.168233000000E+03  0.799606000000E+02 -0.172025000000E+03
  0.162809000000E+03  0.961638000000E+02 -0.209982000000E+03
  0.164763000000E+03  0.995196000000E+02 -0.208086000000E+03
  0.172422000000E+03  0.100936000000E+03 -0.201510000000E+03
  0.166805000000E+03  0.102191000000E+03 -0.205449000000E+03
  0.715176000000E+02  0.172207000000E+03 -0.139671000000E+03
  0.632831000000E+02  0.168480000000E+03 -0.142155000000E+03
  0.761160000000E+02  0.169712000000E+03 -0.138968000000E+03
  0.546803000000E+02  0.143954000000E+03 -0.154961000000E+03
  0.132552000000E+03  0.142394000000E+03 -0.194926000000E+03
  0.127076000000E+03  0.148515000000E+03 -0.192149000000E+03
  0.123189000000E+03  0.124573000000E+03 -0.206665000000E+03
  0.120198000000E+03  0.126552000000E+03 -0.206552000000E+03
  0.129213000000E+03  0.131405000000E+03 -0.202738000000E+03
  0.119267000000E+03  0.124489000000E+03 -0.190253000000E+03
  0.115680000000E+03  0.756188000000E+02 -0.200323000000E+03
  0.112879000000E+03  0.190261000000E+03 -0.164638000000E+03
  0.113099000000E+03  0.187146000000E+03 -0.164699000000E+03
  0.125435000000E+03  0.134467000000E+03 -0.202540000000E+03
  0.129851000000E+03  0.122787000000E+03 -0.205858000000E+03
  0.134548000000E+03  0.674521000000E+02 -0.177879000000E+03
  0.139398000000E+03  0.136198000000E+03 -0.145888000000E+03
  0.138440000000E+03  0.133287000000E+03 -0.144405000000E+03
  0.128331000000E+03  0.166235000000E+03 -0.147620000000E+03
  0.132629000000E+03  0.135214000000E+03 -0.144409000000E+03
  0.136204000000E+03  0.135928000000E+03 -0.144828000000E+03
  0.120233000000E+03  0.145759000000E+03 -0.154601000000E+03
  0.122587000000E+03  0.143714000000E+03 -0.152683000000E+03
  0.112579000000E+03  0.739501000000E+02 -0.187163000000E+03
  0.174866000000E+03  0.661622000000E+02 -0.192971000000E+03
  0.639670000000E+02  0.155472000000E+03 -0.199691000000E+03
  0.655527000000E+02  0.166671000000E+03 -0.197170000000E+03
  0.644070000000E+02  0.169383000000E+03 -0.194477000000E+03
  0.928786000000E+02  0.184654000000E+03 -0.175420000000E+03
  0.974086000000E+02  0.189377000000E+03 -0.163611000000E+03
  0.912333000000E+02  0.187725000000E+03 -0.153690000000E+03
  0.830459000000E+02  0.163010000000E+03 -0.137345000000E+03
  0.777997000000E+02  0.159955000000E+03 -0.139339000000E+03
  0.813937000000E+02  0.159990000000E+03 -0.138624000000E+03
  0.133952000000E+03  0.138567000000E+03 -0.146886000000E+03
  0.140989000000E+03  0.124127000000E+03 -0.158361000000E+03
  0.854567000000E+02  0.138436000000E+03 -0.146881000000E+03
  0.842117000000E+02  0.135634000000E+03 -0.146270000000E+03
  0.915243000000E+02  0.169199000000E+03 -0.133434000000E+03
  0.149316000000E+03  0.146793000000E+03 -0.169775000000E+03
  0.152574000000E+03  0.142173000000E+03 -0.167256000000E+03
  0.143831000000E+03  0.127569000000E+03 -0.169458000000E+03
  0.906776000000E+02  0.186848000000E+03 -0.164545000000E+03
  0.946213000000E+02  0.971665000000E+02 -0.183361000000E+03
  0.141114000000E+03  0.124794000000E+03 -0.174705000000E+03
  0.141524000000E+03  0.121709000000E+03 -0.172992000000E+03
  0.518491000000E+02  0.151777000000E+03 -0.189183000000E+03
  0.522578000000E+02  0.149309000000E+03 -0.186150000000E+03
  0.116641000000E+03  0.100181000000E+03 -0.141890000000E+03
  0.429250000000E+02  0.158498000000E+03 -0.183906000000E+03
  0.103034000000E+03  0.818675000000E+02 -0.160489000000E+03
  0.101783000000E+03  0.185178000000E+03 -0.149854000000E+03
  0.116624000000E+03  0.918769000000E+02 -0.149320000000E+03
  0.114471000000E+03  0.937297000000E+02 -0.148442000000E+03
  0.112135000000E+03  0.932759000000E+02 -0.207907000000E+03
  0.150004000000E+03  0.144982000000E+03 -0.174130000000E+03
  0.122100000000E+03  0.114396000000E+03 -0.207437000000E+03
  0.118931000000E+03  0.111564000000E+03 -0.207265000000E+03
  0.151453000000E+03  0.137664000000E+03 -0.186204000000E+03
  0.133278000000E+03  0.765900000000E+02 -0.159244000000E+03
  0.128133000000E+03  0.777885000000E+02 -0.158041000000E+03
  0.126656000000E+03  0.753319000000E+02 -0.160158000000E+03
  0.130323000000E+03  0.803907000000E+02 -0.156221000000E+03
  0.120064000000E+03  0.821636000000E+02 -0.154775000000E+03
  0.105041000000E+03  0.962373000000E+02 -0.151286000000E+03
  0.103700000000E+03  0.933089000000E+02 -0.152712000000E+03
  0.138435000000E+03  0.100805000000E+03 -0.181986000000E+03
  0.141097000000E+03  0.987863000000E+02 -0.182448000000E+03
  0.921960000000E+02  0.119844000000E+03 -0.181705000000E+03
  0.722277000000E+02  0.108436000000E+03 -0.151491000000E+03
  0.729704000000E+02  0.114699000000E+03 -0.159212000000E+03
  0.749600000000E+02  0.116606000000E+03 -0.161678000000E+03
  0.948106000000E+02  0.100321000000E+03 -0.148674000000E+03
  0.102936000000E+03  0.193106000000E+03 -0.166747000000E+03
  0.114693000000E+03  0.164738000000E+03 -0.138639000000E+03
  0.180391000000E+03  0.826928000000E+02 -0.183762000000E+03
  0.177495000000E+03  0.761149000000E+02 -0.185584000000E+03
  0.179310000000E+03  0.998026000000E+02 -0.174089000000E+03
  0.181007000000E+03  0.942322000000E+02 -0.194342000000E+03
  0.502781000000E+02  0.170747000000E+03 -0.143746000000E+03
  0.461930000000E+02  0.174198000000E+03 -0.149757000000E+03
  0.115750000000E+03  0.153434000000E+03 -0.177507000000E+03
  0.502391000000E+02  0.168322000000E+03 -0.143956000000E+03
  0.475667000000E+02  0.169547000000E+03 -0.144226000000E+03
  0.469751000000E+02  0.172349000000E+03 -0.146417000000E+03
  0.105328000000E+03  0.170278000000E+03 -0.153498000000E+03
  0.595829000000E+02  0.157069000000E+03 -0.196770000000E+03
  0.561043000000E+02  0.164638000000E+03 -0.192281000000E+03
  0.547299000000E+02  0.162268000000E+03 -0.193198000000E+03
  0.111859000000E+03  0.125435000000E+03 -0.205876000000E+03
  0.118295000000E+03  0.120166000000E+03 -0.190941000000E+03
  0.928372000000E+02  0.108527000000E+03 -0.187577000000E+03
  0.893758000000E+02  0.971841000000E+02 -0.146226000000E+03
  0.584156000000E+02  0.144984000000E+03 -0.149598000000E+03
  0.623522000000E+02  0.154665000000E+03 -0.145674000000E+03
  0.979285000000E+02  0.859018000000E+02 -0.157960000000E+03
  0.910317000000E+02  0.969947000000E+02 -0.173979000000E+03
  0.135640000000E+03  0.881438000000E+02 -0.211897000000E+03
  0.130914000000E+03  0.894740000000E+02 -0.211756000000E+03
  0.125610000000E+03  0.858692000000E+02 -0.211767000000E+03
  0.644089000000E+02  0.145350000000E+03 -0.145871000000E+03
  0.646030000000E+02  0.148581000000E+03 -0.144104000000E+03
  0.587295000000E+02  0.146758000000E+03 -0.147168000000E+03
  0.615785000000E+02  0.147282000000E+03 -0.145538000000E+03
  0.134355000000E+03  0.780670000000E+02 -0.206259000000E+03
  0.121231000000E+03  0.704141000000E+02 -0.173851000000E+03
  0.123481000000E+03  0.700691000000E+02 -0.176612000000E+03
  0.946530000000E+02  0.105490000000E+03 -0.191906000000E+03
  0.909644000000E+02  0.160734000000E+03 -0.140296000000E+03
  0.103383000000E+03  0.766986000000E+02 -0.178962000000E+03
  0.658702000000E+02  0.181928000000E+03 -0.164626000000E+03
  0.114198000000E+03  0.790005000000E+02 -0.156373000000E+03
  0.110121000000E+03  0.731172000000E+02 -0.177737000000E+03
  0.107734000000E+03  0.736657000000E+02 -0.174932000000E+03
  0.737936000000E+02  0.131346000000E+03 -0.169333000000E+03
  0.745655000000E+02  0.130496000000E+03 -0.171451000000E+03
  0.155945000000E+03  0.104047000000E+03 -0.147292000000E+03
  0.926154000000E+02  0.904879000000E+02 -0.155479000000E+03
  0.421767000000E+02  0.152952000000E+03 -0.173697000000E+03
  0.882121000000E+02  0.103240000000E+03 -0.170652000000E+03
  0.159396000000E+03  0.132362000000E+03 -0.165175000000E+03
  0.134332000000E+03  0.133957000000E+03 -0.199044000000E+03
  0.753426000000E+02  0.158139000000E+03 -0.201035000000E+03
  0.750199000000E+02  0.153917000000E+03 -0.200872000000E+03
  0.104647000000E+03  0.149497000000E+03 -0.196243000000E+03
  0.991334000000E+02  0.149657000000E+03 -0.199402000000E+03
  0.103240000000E+03  0.148937000000E+03 -0.198498000000E+03
  0.161451000000E+03  0.129140000000E+03 -0.166056000000E+03
  0.149430000000E+03  0.129238000000E+03 -0.147852000000E+03
  0.115194000000E+03  0.146003000000E+03 -0.164662000000E+03
  0.149596000000E+03  0.966847000000E+02 -0.209952000000E+03
  0.146528000000E+03  0.987194000000E+02 -0.209580000000E+03
  0.120858000000E+03  0.152069000000E+03 -0.153954000000E+03
  0.134384000000E+03  0.925775000000E+02 -0.211168000000E+03
  0.129615000000E+03  0.803271000000E+02 -0.208751000000E+03
  0.137565000000E+03  0.782708000000E+02 -0.206078000000E+03
  0.135911000000E+03  0.808628000000E+02 -0.208400000000E+03
  0.142364000000E+03  0.138956000000E+03 -0.149136000000E+03
  0.144803000000E+03  0.986589000000E+02 -0.144843000000E+03
  0.134314000000E+03  0.132955000000E+03 -0.181676000000E+03
  0.139954000000E+03  0.138766000000E+03 -0.147692000000E+03
  0.135863000000E+03  0.129508000000E+03 -0.154359000000E+03
  0.411344000000E+02  0.178521000000E+03 -0.169591000000E+03
  0.137553000000E+03  0.105747000000E+03 -0.139918000000E+03
  0.127213000000E+03  0.108070000000E+03 -0.149602000000E+03
  0.125282000000E+03  0.105147000000E+03 -0.141593000000E+03
  0.944302000000E+02  0.105212000000E+03 -0.158393000000E+03
  0.853872000000E+02  0.931618000000E+02 -0.160912000000E+03
  0.182060000000E+03  0.954678000000E+02 -0.187748000000E+03
  0.181887000000E+03  0.953308000000E+02 -0.190812000000E+03
  0.864158000000E+02  0.973915000000E+02 -0.151655000000E+03
  0.106466000000E+03  0.116574000000E+03 -0.142556000000E+03
  0.886320000000E+02  0.185141000000E+03 -0.137821000000E+03
  0.106823000000E+03  0.118392000000E+03 -0.141001000000E+03
  0.867549000000E+02  0.186316000000E+03 -0.158900000000E+03
  0.123027000000E+03  0.167483000000E+03 -0.160912000000E+03
  0.121139000000E+03  0.160081000000E+03 -0.160832000000E+03
  0.124042000000E+03  0.161504000000E+03 -0.158688000000E+03
  0.131689000000E+03  0.974828000000E+02 -0.164405000000E+03
  0.868276000000E+02  0.988273000000E+02 -0.149769000000E+03
  0.148381000000E+03  0.909834000000E+02 -0.149315000000E+03
  0.802391000000E+02  0.101001000000E+03 -0.157921000000E+03
  0.142598000000E+03  0.794141000000E+02 -0.157093000000E+03
  0.143265000000E+03  0.769159000000E+02 -0.159164000000E+03
  0.138401000000E+03  0.964523000000E+02 -0.169112000000E+03
  0.166088000000E+03  0.772852000000E+02 -0.211154000000E+03
  0.901458000000E+02  0.189237000000E+03 -0.152687000000E+03
  0.877980000000E+02  0.188241000000E+03 -0.150380000000E+03
  0.124115000000E+03  0.728376000000E+02 -0.204061000000E+03
  0.114668000000E+03  0.173613000000E+03 -0.168889000000E+03
  0.112730000000E+03  0.175033000000E+03 -0.166397000000E+03
  0.146557000000E+03  0.138122000000E+03 -0.152563000000E+03
  0.180591000000E+03  0.759753000000E+02 -0.195950000000E+03
  0.567074000000E+02  0.148403000000E+03 -0.192565000000E+03
  0.180000000000E+03  0.716995000000E+02 -0.197501000000E+03
  0.153714000000E+03  0.134742000000E+03 -0.186649000000E+03
  0.150281000000E+03  0.130456000000E+03 -0.195016000000E+03
  0.150948000000E+03  0.133213000000E+03 -0.192661000000E+03
  0.157970000000E+03  0.129543000000E+03 -0.186906000000E+03
  0.172120000000E+03  0.879833000000E+02 -0.208038000000E+03
  0.150064000000E+03  0.752616000000E+02 -0.161946000000E+03
  0.592718000000E+02  0.172876000000E+03 -0.143841000000E+03
  0.131087000000E+03  0.835169000000E+02 -0.154107000000E+03
  0.639580000000E+02  0.181147000000E+03 -0.149284000000E+03
  0.667462000000E+02  0.158945000000E+03 -0.145166000000E+03
  0.568727000000E+02  0.181655000000E+03 -0.161671000000E+03
  0.155325000000E+03  0.112543000000E+03 -0.203829000000E+03
  0.134346000000E+03  0.108621000000E+03 -0.182728000000E+03
  0.112451000000E+03  0.144832000000E+03 -0.199553000000E+03
  0.111754000000E+03  0.139196000000E+03 -0.203226000000E+03
  0.110659000000E+03  0.135364000000E+03 -0.204384000000E+03
  0.108290000000E+03  0.132943000000E+03 -0.204090000000E+03
  0.156412000000E+03  0.115745000000E+03 -0.201397000000E+03
  0.118936000000E+03  0.139774000000E+03 -0.203045000000E+03
  0.120076000000E+03  0.153694000000E+03 -0.188118000000E+03
  0.123738000000E+03  0.149049000000E+03 -0.193162000000E+03
  0.112130000000E+03  0.155306000000E+03 -0.192500000000E+03
  0.111921000000E+03  0.152644000000E+03 -0.194447000000E+03
  0.140669000000E+03  0.111518000000E+03 -0.159191000000E+03
  0.166084000000E+03  0.123367000000E+03 -0.172430000000E+03
  0.162366000000E+03  0.128814000000E+03 -0.170044000000E+03
  0.109810000000E+03  0.132966000000E+03 -0.149670000000E+03
  0.320753000000E+02  0.166776000000E+03 -0.158881000000E+03
  0.138559000000E+03  0.118194000000E+03 -0.205145000000E+03
  0.147019000000E+03  0.129825000000E+03 -0.196408000000E+03
  0.149813000000E+03  0.127772000000E+03 -0.196940000000E+03
  0.117594000000E+03  0.710438000000E+02 -0.175362000000E+03
  0.121970000000E+03  0.862697000000E+02 -0.212006000000E+03
  0.671698000000E+02  0.122240000000E+03 -0.146821000000E+03
  0.691976000000E+02  0.117360000000E+03 -0.150275000000E+03
  0.658293000000E+02  0.116277000000E+03 -0.143184000000E+03
  0.549936000000E+02  0.183265000000E+03 -0.165709000000E+03
  0.556549000000E+02  0.182981000000E+03 -0.162664000000E+03
  0.108885000000E+03  0.107689000000E+03 -0.182037000000E+03
  0.999250000000E+02  0.112540000000E+03 -0.198155000000E+03
  0.122379000000E+03  0.998213000000E+02 -0.142325000000E+03
  0.125243000000E+03  0.984514000000E+02 -0.143033000000E+03
  0.736642000000E+02  0.147113000000E+03 -0.198256000000E+03
  0.942895000000E+02  0.179150000000E+03 -0.180378000000E+03
  0.123062000000E+03  0.173091000000E+03 -0.153766000000E+03
  0.141334000000E+03  0.149793000000E+03 -0.165457000000E+03
  0.142492000000E+03  0.148141000000E+03 -0.162429000000E+03
  0.111226000000E+03  0.135464000000E+03 -0.193054000000E+03
  0.137113000000E+03  0.145357000000E+03 -0.190151000000E+03
  0.117630000000E+03  0.128898000000E+03 -0.206319000000E+03
  0.141987000000E+03  0.135026000000E+03 -0.165223000000E+03
  0.142507000000E+03  0.133055000000E+03 -0.164548000000E+03
  0.943308000000E+02  0.111514000000E+03 -0.192419000000E+03
  0.839543000000E+02  0.988928000000E+02 -0.141010000000E+03
  0.156704000000E+03  0.109868000000E+03 -0.148365000000E+03
  0.781957000000E+02  0.100888000000E+03 -0.154968000000E+03
  0.837941000000E+02  0.950802000000E+02 -0.159245000000E+03
  0.780466000000E+02  0.997080000000E+02 -0.149025000000E+03
  0.879328000000E+02  0.975121000000E+02 -0.149190000000E+03
  0.100477000000E+03  0.104496000000E+03 -0.147290000000E+03
  0.116756000000E+03  0.149465000000E+03 -0.195596000000E+03
  0.151371000000E+03  0.107492000000E+03 -0.144386000000E+03
  0.148081000000E+03  0.105518000000E+03 -0.142891000000E+03
  0.104738000000E+03  0.159376000000E+03 -0.195572000000E+03
  0.102739000000E+03  0.162829000000E+03 -0.195328000000E+03
  0.118460000000E+03  0.144273000000E+03 -0.165415000000E+03
  0.841209000000E+02  0.177025000000E+03 -0.188155000000E+03
  0.846306000000E+02  0.132873000000E+03 -0.152513000000E+03
  0.734532000000E+02  0.169354000000E+03 -0.191461000000E+03
  0.745524000000E+02  0.172139000000E+03 -0.188446000000E+03
  0.646983000000E+02  0.160539000000E+03 -0.197867000000E+03
  0.772106000000E+02  0.178737000000E+03 -0.183528000000E+03
  0.693876000000E+02  0.139576000000E+03 -0.180534000000E+03
  0.893976000000E+02  0.130592000000E+03 -0.195661000000E+03
  0.448195000000E+02  0.167232000000E+03 -0.187793000000E+03
  0.448466000000E+02  0.163629000000E+03 -0.187865000000E+03
  0.120237000000E+03  0.161741000000E+03 -0.172233000000E+03
  0.138424000000E+03  0.137955000000E+03 -0.175861000000E+03
  0.139177000000E+03  0.140210000000E+03 -0.172696000000E+03
  0.109204000000E+03  0.176077000000E+03 -0.167098000000E+03
  0.718957000000E+02  0.183100000000E+03 -0.155138000000E+03
  0.105755000000E+03  0.173350000000E+03 -0.169490000000E+03
  0.105592000000E+03  0.174066000000E+03 -0.172070000000E+03
  0.105117000000E+03  0.177550000000E+03 -0.176215000000E+03
  0.732692000000E+02  0.185052000000E+03 -0.151768000000E+03
  0.535444000000E+02  0.157309000000E+03 -0.193792000000E+03
  0.368182000000E+02  0.149578000000E+03 -0.154482000000E+03
  0.347084000000E+02  0.151296000000E+03 -0.156396000000E+03
  0.701925000000E+02  0.135022000000E+03 -0.163023000000E+03
  0.723841000000E+02  0.132859000000E+03 -0.165629000000E+03
  0.428602000000E+02  0.149807000000E+03 -0.146583000000E+03
  0.683396000000E+02  0.137633000000E+03 -0.156153000000E+03
  0.108246000000E+03  0.142641000000E+03 -0.145933000000E+03
  0.933047000000E+02  0.101496000000E+03 -0.142154000000E+03
  0.810139000000E+02  0.148285000000E+03 -0.144659000000E+03
  0.393268000000E+02  0.169482000000E+03 -0.177921000000E+03
  0.933869000000E+02  0.148919000000E+03 -0.141484000000E+03
  0.907390000000E+02  0.148035000000E+03 -0.141796000000E+03
  0.994129000000E+02  0.156825000000E+03 -0.142048000000E+03
  0.463766000000E+02  0.169398000000E+03 -0.142875000000E+03
  0.448165000000E+02  0.167717000000E+03 -0.143224000000E+03
  0.102487000000E+03  0.140492000000E+03 -0.145784000000E+03
  0.845142000000E+02  0.149415000000E+03 -0.141819000000E+03
  0.881227000000E+02  0.150271000000E+03 -0.141340000000E+03
  0.877014000000E+02  0.147082000000E+03 -0.142221000000E+03
  0.105874000000E+03  0.144700000000E+03 -0.147585000000E+03
  0.106612000000E+03  0.147894000000E+03 -0.146668000000E+03
  0.265861000000E+02  0.161134000000E+03 -0.152133000000E+03
  0.415106000000E+02  0.161386000000E+03 -0.179106000000E+03
  0.398841000000E+02  0.165148000000E+03 -0.180462000000E+03
  0.656558000000E+02  0.180659000000E+03 -0.171155000000E+03
  0.378879000000E+02  0.175446000000E+03 -0.177733000000E+03
  0.375005000000E+02  0.169086000000E+03 -0.175118000000E+03
  0.616575000000E+02  0.180835000000E+03 -0.178285000000E+03
  0.655837000000E+02  0.140479000000E+03 -0.174362000000E+03
  0.852014000000E+02  0.159848000000E+03 -0.200355000000E+03
  0.873990000000E+02  0.163632000000E+03 -0.199133000000E+03
  0.895552000000E+02  0.160127000000E+03 -0.199986000000E+03
  0.935800000000E+02  0.160103000000E+03 -0.199595000000E+03
  0.122994000000E+03  0.124261000000E+03 -0.189004000000E+03
  0.725947000000E+02  0.181408000000E+03 -0.172582000000E+03
  0.105303000000E+03  0.172828000000E+03 -0.184880000000E+03
  0.522247000000E+02  0.154506000000E+03 -0.191911000000E+03
  0.953651000000E+02  0.183313000000E+03 -0.133106000000E+03
  0.116914000000E+03  0.157321000000E+03 -0.139063000000E+03
  0.117866000000E+03  0.154805000000E+03 -0.140077000000E+03
  0.140326000000E+03  0.945684000000E+02 -0.147259000000E+03
  0.143023000000E+03  0.967208000000E+02 -0.146063000000E+03
  0.104759000000E+03  0.180225000000E+03 -0.132813000000E+03
  0.145688000000E+03  0.106706000000E+03 -0.141498000000E+03
  0.961653000000E+02  0.171285000000E+03 -0.140639000000E+03
  0.957217000000E+02  0.171129000000E+03 -0.137234000000E+03
  0.137043000000E+03  0.102648000000E+03 -0.146839000000E+03
  0.139469000000E+03  0.100535000000E+03 -0.143349000000E+03
  0.139734000000E+03  0.976504000000E+02 -0.145352000000E+03
  0.929833000000E+02  0.185324000000E+03 -0.141624000000E+03
  0.106381000000E+03  0.178569000000E+03 -0.144548000000E+03
  0.107323000000E+03  0.177293000000E+03 -0.142146000000E+03
  0.118501000000E+03  0.130811000000E+03 -0.141793000000E+03
  0.122308000000E+03  0.132035000000E+03 -0.142342000000E+03
  0.121653000000E+03  0.127812000000E+03 -0.140662000000E+03
  0.168708000000E+03  0.119241000000E+03 -0.182202000000E+03
  0.170892000000E+03  0.116735000000E+03 -0.181336000000E+03
  0.169609000000E+03  0.118653000000E+03 -0.179256000000E+03
  0.170006000000E+03  0.715785000000E+02 -0.208611000000E+03
  0.101773000000E+03  0.194277000000E+03 -0.163828000000E+03
  0.103428000000E+03  0.182830000000E+03 -0.169028000000E+03
  0.285477000000E+02  0.167320000000E+03 -0.142790000000E+03
  0.437910000000E+02  0.176527000000E+03 -0.159537000000E+03
  0.322439000000E+02  0.167833000000E+03 -0.139976000000E+03
  0.451049000000E+02  0.176082000000E+03 -0.160665000000E+03
  0.428808000000E+02  0.178118000000E+03 -0.162345000000E+03
  0.131538000000E+03  0.863469000000E+02 -0.152056000000E+03
  0.781081000000E+02  0.128444000000E+03 -0.163674000000E+03
  0.755320000000E+02  0.130022000000E+03 -0.166434000000E+03
  0.894073000000E+02  0.981314000000E+02 -0.141121000000E+03
  0.756229000000E+02  0.136663000000E+03 -0.157562000000E+03
  0.770261000000E+02  0.113533000000E+03 -0.158522000000E+03
  0.833324000000E+02  0.151065000000E+03 -0.143761000000E+03
  0.824447000000E+02  0.162869000000E+03 -0.140016000000E+03
  0.686773000000E+02  0.126666000000E+03 -0.148104000000E+03
  0.984443000000E+02  0.103434000000E+03 -0.141264000000E+03
  0.100503000000E+03  0.106127000000E+03 -0.141131000000E+03
  0.966556000000E+02  0.103142000000E+03 -0.141010000000E+03
  0.965372000000E+02  0.101520000000E+03 -0.142876000000E+03
  0.752679000000E+02  0.129774000000E+03 -0.173925000000E+03
  0.119909000000E+03  0.711484000000E+02 -0.183717000000E+03
  0.182744000000E+03  0.910479000000E+02 -0.188205000000E+03
  0.181989000000E+03  0.910167000000E+02 -0.184443000000E+03
  0.115435000000E+03  0.157829000000E+03 -0.187798000000E+03
  0.127009000000E+03  0.126032000000E+03 -0.205618000000E+03
  0.815305000000E+02  0.110354000000E+03 -0.162923000000E+03
  0.407002000000E+02  0.155394000000E+03 -0.177160000000E+03
  0.117585000000E+03  0.134946000000E+03 -0.205216000000E+03
  0.439324000000E+02  0.150478000000E+03 -0.176446000000E+03
  0.456271000000E+02  0.150096000000E+03 -0.179342000000E+03
  0.120089000000E+03  0.123590000000E+03 -0.207056000000E+03
  0.120635000000E+03  0.129382000000E+03 -0.205890000000E+03
  0.123335000000E+03  0.128036000000E+03 -0.205773000000E+03
  0.120436000000E+03  0.731723000000E+02 -0.202626000000E+03
  0.117728000000E+03  0.758438000000E+02 -0.203702000000E+03
  0.794509000000E+02  0.110172000000E+03 -0.160651000000E+03
  0.120058000000E+03  0.718889000000E+02 -0.199296000000E+03
  0.125426000000E+03  0.116143000000E+03 -0.139393000000E+03
  0.103049000000E+03  0.187880000000E+03 -0.170439000000E+03
  0.101453000000E+03  0.186171000000E+03 -0.171764000000E+03
  0.130282000000E+03  0.109373000000E+03 -0.207146000000E+03
  0.131140000000E+03  0.106584000000E+03 -0.207911000000E+03
  0.151558000000E+03  0.652611000000E+02 -0.181476000000E+03
  0.121717000000E+03  0.154650000000E+03 -0.160173000000E+03
  0.954575000000E+02  0.102389000000E+03 -0.193209000000E+03
  0.953802000000E+02  0.949259000000E+02 -0.186122000000E+03
  0.969349000000E+02  0.101786000000E+03 -0.196221000000E+03
  0.128850000000E+03  0.111037000000E+03 -0.147794000000E+03
  0.141622000000E+03  0.120287000000E+03 -0.141641000000E+03
  0.145244000000E+03  0.134732000000E+03 -0.194310000000E+03
  0.144469000000E+03  0.109627000000E+03 -0.140400000000E+03
  0.127043000000E+03  0.161041000000E+03 -0.145062000000E+03
  0.788895000000E+02  0.107116000000E+03 -0.155726000000E+03
  0.784203000000E+02  0.104496000000E+03 -0.153960000000E+03
  0.104862000000E+03  0.135609000000E+03 -0.149246000000E+03
  0.133957000000E+03  0.111127000000E+03 -0.171887000000E+03
  0.596989000000E+02  0.141552000000E+03 -0.158050000000E+03
  0.107574000000E+03  0.774118000000E+02 -0.164114000000E+03
  0.136765000000E+03  0.117768000000E+03 -0.171129000000E+03
  0.112269000000E+03  0.725138000000E+02 -0.170283000000E+03
  0.974540000000E+02  0.947869000000E+02 -0.153740000000E+03
  0.928177000000E+02  0.867964000000E+02 -0.160514000000E+03
  0.112083000000E+03  0.138279000000E+03 -0.191509000000E+03
  0.117047000000E+03  0.715465000000E+02 -0.180160000000E+03
  0.103592000000E+03  0.173470000000E+03 -0.131434000000E+03
  0.120183000000E+03  0.706748000000E+02 -0.177206000000E+03
  0.103369000000E+03  0.138112000000E+03 -0.147543000000E+03
  0.127894000000E+03  0.824980000000E+02 -0.154649000000E+03
  0.654055000000E+02  0.139565000000E+03 -0.154653000000E+03
  0.108390000000E+03  0.152811000000E+03 -0.195943000000E+03
  0.107028000000E+03  0.149794000000E+03 -0.197306000000E+03
  0.564625000000E+02  0.149049000000E+03 -0.146042000000E+03
  0.957037000000E+02  0.137785000000E+03 -0.197842000000E+03
  0.140439000000E+03  0.851233000000E+02 -0.211404000000E+03
  0.180994000000E+03  0.896664000000E+02 -0.194554000000E+03
  0.557249000000E+02  0.143940000000E+03 -0.161618000000E+03
  0.565322000000E+02  0.144367000000E+03 -0.158778000000E+03
  0.812057000000E+02  0.186546000000E+03 -0.158297000000E+03
  0.788641000000E+02  0.186202000000E+03 -0.155462000000E+03
  0.756383000000E+02  0.185526000000E+03 -0.156468000000E+03
  0.536657000000E+02  0.145201000000E+03 -0.159324000000E+03
  0.167340000000E+03  0.912493000000E+02 -0.158056000000E+03
  0.171837000000E+03  0.100528000000E+03 -0.161178000000E+03
  0.168418000000E+03  0.874319000000E+02 -0.163757000000E+03
  0.171065000000E+03  0.899969000000E+02 -0.165122000000E+03
  0.849823000000E+02  0.165977000000E+03 -0.136116000000E+03
  0.870209000000E+02  0.162696000000E+03 -0.137251000000E+03
  0.109656000000E+03  0.139625000000E+03 -0.148210000000E+03
  0.111659000000E+03  0.118686000000E+03 -0.153315000000E+03
  0.102850000000E+03  0.179246000000E+03 -0.176808000000E+03
  0.878336000000E+02  0.179825000000E+03 -0.180230000000E+03
  0.117199000000E+03  0.135296000000E+03 -0.146576000000E+03
  0.115395000000E+03  0.137035000000E+03 -0.148975000000E+03
  0.921308000000E+02  0.109885000000E+03 -0.185029000000E+03
  0.929613000000E+02  0.171386000000E+03 -0.193611000000E+03
  0.108427000000E+03  0.132738000000E+03 -0.153012000000E+03
  0.150099000000E+03  0.138455000000E+03 -0.158531000000E+03
  0.520044000000E+02  0.149941000000E+03 -0.147465000000E+03
  0.485886000000E+02  0.149799000000E+03 -0.148942000000E+03
  0.521269000000E+02  0.147107000000E+03 -0.149560000000E+03
  0.108124000000E+03  0.146730000000E+03 -0.143334000000E+03
  0.112153000000E+03  0.147850000000E+03 -0.143868000000E+03
  0.116109000000E+03  0.149297000000E+03 -0.144835000000E+03
  0.144381000000E+03  0.132161000000E+03 -0.195828000000E+03
  0.143506000000E+03  0.129138000000E+03 -0.197781000000E+03
  0.654104000000E+02  0.157013000000E+03 -0.143239000000E+03
  0.152709000000E+03  0.985085000000E+02 -0.209453000000E+03
  0.134645000000E+03  0.120696000000E+03 -0.140410000000E+03
  0.162273000000E+03  0.111060000000E+03 -0.201564000000E+03
  0.162404000000E+03  0.107693000000E+03 -0.204005000000E+03
  0.171935000000E+03  0.863713000000E+02 -0.171263000000E+03
  0.171504000000E+03  0.824352000000E+02 -0.173886000000E+03
  0.331431000000E+02  0.169353000000E+03 -0.142549000000E+03
  0.133917000000E+03  0.818954000000E+02 -0.155378000000E+03
  0.133555000000E+03  0.790910000000E+02 -0.157261000000E+03
  0.127514000000E+03  0.155851000000E+03 -0.177336000000E+03
  0.132981000000E+03  0.708282000000E+02 -0.167093000000E+03
  0.992914000000E+02  0.881616000000E+02 -0.194792000000E+03
  0.132524000000E+03  0.742237000000E+02 -0.161604000000E+03
  0.181040000000E+03  0.866298000000E+02 -0.183020000000E+03
  0.146573000000E+03  0.849488000000E+02 -0.152974000000E+03
  0.101481000000E+03  0.172024000000E+03 -0.136141000000E+03
  0.103630000000E+03  0.177114000000E+03 -0.131355000000E+03
  0.924547000000E+02  0.997318000000E+02 -0.141133000000E+03
  0.101698000000E+03  0.181001000000E+03 -0.131680000000E+03
  0.950570000000E+02  0.103675000000E+03 -0.155598000000E+03
  0.934829000000E+02  0.101568000000E+03 -0.152935000000E+03
  0.101411000000E+03  0.171184000000E+03 -0.130850000000E+03
  0.109203000000E+03  0.175390000000E+03 -0.174357000000E+03
  0.113536000000E+03  0.156696000000E+03 -0.190383000000E+03
  0.110306000000E+03  0.165082000000E+03 -0.187203000000E+03
  0.742604000000E+02  0.111940000000E+03 -0.157918000000E+03
  0.118585000000E+03  0.154817000000E+03 -0.150775000000E+03
  0.455839000000E+02  0.145522000000E+03 -0.165668000000E+03
  0.463798000000E+02  0.144848000000E+03 -0.161358000000E+03
  0.292724000000E+02  0.168809000000E+03 -0.152557000000E+03
  0.990541000000E+02  0.170812000000E+03 -0.138297000000E+03
  0.101679000000E+03  0.132420000000E+03 -0.140894000000E+03
  0.730961000000E+02  0.181784000000E+03 -0.169749000000E+03
  0.502863000000E+02  0.180096000000E+03 -0.161094000000E+03
  0.105329000000E+03  0.165003000000E+03 -0.140616000000E+03
  0.109473000000E+03  0.180387000000E+03 -0.137225000000E+03
  0.111046000000E+03  0.177718000000E+03 -0.138321000000E+03
  0.553560000000E+02  0.159945000000E+03 -0.194472000000E+03
  0.126697000000E+03  0.164681000000E+03 -0.145081000000E+03
  0.118697000000E+03  0.172541000000E+03 -0.149489000000E+03
  0.101153000000E+03  0.104223000000E+03 -0.200542000000E+03
  0.985330000000E+02  0.120711000000E+03 -0.197667000000E+03
  0.916926000000E+02  0.113378000000E+03 -0.184621000000E+03
  0.939072000000E+02  0.124585000000E+03 -0.194601000000E+03
  0.952484000000E+02  0.120851000000E+03 -0.194747000000E+03
  0.999023000000E+02  0.123023000000E+03 -0.190694000000E+03
  0.116746000000E+03  0.171807000000E+03 -0.151827000000E+03
  0.117963000000E+03  0.172598000000E+03 -0.155228000000E+03
  0.100001000000E+03  0.123353000000E+03 -0.199059000000E+03
  0.115598000000E+03  0.173294000000E+03 -0.151601000000E+03
  0.972475000000E+02  0.124601000000E+03 -0.196849000000E+03
  0.122305000000E+03  0.160099000000E+03 -0.162645000000E+03
  0.115561000000E+03  0.174178000000E+03 -0.155320000000E+03
  0.112573000000E+03  0.171741000000E+03 -0.152830000000E+03
  0.510939000000E+02  0.171506000000E+03 -0.145308000000E+03
  0.100054000000E+03  0.163315000000E+03 -0.194435000000E+03
  0.112620000000E+03  0.174631000000E+03 -0.156681000000E+03
  0.111225000000E+03  0.175134000000E+03 -0.159711000000E+03
  0.463997000000E+02  0.161199000000E+03 -0.187420000000E+03
  0.104492000000E+03  0.168651000000E+03 -0.189565000000E+03
  0.432344000000E+02  0.162246000000E+03 -0.182823000000E+03
  0.634068000000E+02  0.182185000000E+03 -0.160632000000E+03
  0.654978000000E+02  0.182241000000E+03 -0.161994000000E+03
  0.421606000000E+02  0.165539000000E+03 -0.140170000000E+03
  0.379332000000E+02  0.165107000000E+03 -0.138964000000E+03
  0.628189000000E+02  0.183367000000E+03 -0.160770000000E+03
  0.164658000000E+03  0.114870000000E+03 -0.155748000000E+03
  0.173792000000E+03  0.897744000000E+02 -0.205703000000E+03
  0.178638000000E+03  0.871002000000E+02 -0.179916000000E+03
  0.694390000000E+02  0.144820000000E+03 -0.192447000000E+03
  0.139308000000E+03  0.127232000000E+03 -0.143139000000E+03
  0.141740000000E+03  0.123955000000E+03 -0.142901000000E+03
  0.142516000000E+03  0.113416000000E+03 -0.139870000000E+03
  0.594948000000E+02  0.148899000000E+03 -0.194836000000E+03
  0.138240000000E+03  0.119983000000E+03 -0.141014000000E+03
  0.139790000000E+03  0.121963000000E+03 -0.141842000000E+03
  0.136739000000E+03  0.101217000000E+03 -0.209223000000E+03
  0.182116000000E+03  0.821539000000E+02 -0.188819000000E+03
  0.129689000000E+03  0.694245000000E+02 -0.200832000000E+03
  0.438902000000E+02  0.184847000000E+03 -0.169143000000E+03
  0.871766000000E+02  0.171662000000E+03 -0.133324000000E+03
  0.870114000000E+02  0.173886000000E+03 -0.132348000000E+03
  0.172472000000E+03  0.786595000000E+02 -0.209062000000E+03
  0.107580000000E+03  0.189557000000E+03 -0.162363000000E+03
  0.111780000000E+03  0.193145000000E+03 -0.163476000000E+03
  0.172193000000E+03  0.651235000000E+02 -0.199432000000E+03
  0.174553000000E+03  0.859896000000E+02 -0.205551000000E+03
  0.172304000000E+03  0.849775000000E+02 -0.208414000000E+03
  0.563700000000E+02  0.182671000000E+03 -0.176506000000E+03
  0.162248000000E+03  0.692014000000E+02 -0.205993000000E+03
  0.174139000000E+03  0.662381000000E+02 -0.201797000000E+03
  0.171419000000E+03  0.658138000000E+02 -0.202053000000E+03
  0.817350000000E+02  0.160949000000E+03 -0.200372000000E+03
  0.178963000000E+03  0.880738000000E+02 -0.198266000000E+03
  0.141809000000E+03  0.117928000000E+03 -0.152921000000E+03
  0.553028000000E+02  0.180763000000E+03 -0.177476000000E+03
  0.455802000000E+02  0.145715000000E+03 -0.157437000000E+03
  0.148658000000E+03  0.126302000000E+03 -0.145945000000E+03
  0.139660000000E+03  0.123781000000E+03 -0.155109000000E+03
  0.155687000000E+03  0.126208000000E+03 -0.149916000000E+03
  0.143182000000E+03  0.149243000000E+03 -0.175159000000E+03
  0.554720000000E+02  0.146537000000E+03 -0.148937000000E+03
  0.533332000000E+02  0.145505000000E+03 -0.151986000000E+03
  0.623724000000E+02  0.181423000000E+03 -0.166237000000E+03
  0.140754000000E+03  0.149800000000E+03 -0.176684000000E+03
  0.723168000000E+02  0.185029000000E+03 -0.155141000000E+03
  0.907027000000E+02  0.141002000000E+03 -0.199679000000E+03
  0.879540000000E+02  0.143068000000E+03 -0.199816000000E+03
  0.104659000000E+03  0.137649000000E+03 -0.201245000000E+03
  0.536988000000E+02  0.149697000000E+03 -0.191661000000E+03
  0.971271000000E+02  0.139872000000E+03 -0.199858000000E+03
  0.119902000000E+03  0.160967000000E+03 -0.175927000000E+03
  0.118335000000E+03  0.162783000000E+03 -0.178782000000E+03
  0.117605000000E+03  0.151571000000E+03 -0.192870000000E+03
  0.159408000000E+03  0.665272000000E+02 -0.200719000000E+03
  0.159277000000E+03  0.756981000000E+02 -0.167780000000E+03
  0.165392000000E+03  0.780401000000E+02 -0.170761000000E+03
  0.162612000000E+03  0.767185000000E+02 -0.169465000000E+03
  0.149508000000E+03  0.121235000000E+03 -0.144227000000E+03
  0.117889000000E+03  0.723800000000E+02 -0.193772000000E+03
  0.565425000000E+02  0.172582000000E+03 -0.189791000000E+03
  0.125310000000E+03  0.697590000000E+02 -0.179675000000E+03
  0.500243000000E+02  0.162160000000E+03 -0.193100000000E+03
  0.608862000000E+02  0.169801000000E+03 -0.193344000000E+03
  0.720402000000E+02  0.130681000000E+03 -0.154658000000E+03
  0.667173000000E+02  0.141160000000E+03 -0.155921000000E+03
  0.699760000000E+02  0.127079000000E+03 -0.154524000000E+03
  0.109107000000E+03  0.180085000000E+03 -0.141122000000E+03
  0.105813000000E+03  0.191801000000E+03 -0.150869000000E+03
  0.162243000000E+03  0.668598000000E+02 -0.203191000000E+03
  0.266997000000E+02  0.166895000000E+03 -0.144216000000E+03
  0.106823000000E+03  0.182488000000E+03 -0.138198000000E+03
  0.139757000000E+03  0.129051000000E+03 -0.199308000000E+03
  0.128069000000E+03  0.906975000000E+02 -0.148614000000E+03
  0.125514000000E+03  0.734831000000E+02 -0.162237000000E+03
  0.122780000000E+03  0.712839000000E+02 -0.166375000000E+03
  0.138095000000E+03  0.148268000000E+03 -0.183669000000E+03
  0.135187000000E+03  0.149525000000E+03 -0.183338000000E+03
  0.129288000000E+03  0.700788000000E+02 -0.169685000000E+03
  0.125777000000E+03  0.707513000000E+02 -0.168169000000E+03
  0.905810000000E+02  0.116690000000E+03 -0.183366000000E+03
  0.102135000000E+03  0.848149000000E+02 -0.157132000000E+03
  0.936053000000E+02  0.115041000000E+03 -0.191539000000E+03
  0.115672000000E+03  0.822904000000E+02 -0.154929000000E+03
  0.144088000000E+03  0.764555000000E+02 -0.205018000000E+03
  0.136369000000E+03  0.654013000000E+02 -0.191387000000E+03
  0.116851000000E+03  0.719347000000E+02 -0.164668000000E+03
  0.116140000000E+03  0.739516000000E+02 -0.160627000000E+03
  0.280928000000E+02  0.155969000000E+03 -0.149400000000E+03
  0.265043000000E+02  0.158579000000E+03 -0.149906000000E+03
  0.145210000000E+03  0.103822000000E+03 -0.142214000000E+03
  0.105722000000E+03  0.851508000000E+02 -0.155367000000E+03
  0.144641000000E+03  0.874449000000E+02 -0.151649000000E+03
  0.136684000000E+03  0.952875000000E+02 -0.146044000000E+03
  0.135742000000E+03  0.989800000000E+02 -0.149866000000E+03
  0.142336000000E+03  0.102124000000E+03 -0.142377000000E+03
  0.144075000000E+03  0.664601000000E+02 -0.176446000000E+03
  0.143869000000E+03  0.798374000000E+02 -0.207718000000E+03
  0.147518000000E+03  0.752395000000E+02 -0.204926000000E+03
  0.153276000000E+03  0.918769000000E+02 -0.211008000000E+03
  0.956996000000E+02  0.861137000000E+02 -0.176644000000E+03
  0.157866000000E+03  0.658210000000E+02 -0.182913000000E+03
  0.180563000000E+03  0.789384000000E+02 -0.196366000000E+03
  0.155923000000E+03  0.853531000000E+02 -0.212103000000E+03
  0.151930000000E+03  0.858757000000E+02 -0.211933000000E+03
  0.154463000000E+03  0.799969000000E+02 -0.210240000000E+03
  0.152989000000E+03  0.780635000000E+02 -0.208665000000E+03
  0.150690000000E+03  0.893597000000E+02 -0.211483000000E+03
  0.156177000000E+03  0.680990000000E+02 -0.201515000000E+03
  0.152674000000E+03  0.143088000000E+03 -0.170434000000E+03
  0.154962000000E+03  0.135670000000E+03 -0.161459000000E+03
  0.839982000000E+02  0.138876000000E+03 -0.197667000000E+03
  0.743363000000E+02  0.134580000000E+03 -0.172339000000E+03
  0.723863000000E+02  0.118353000000E+03 -0.159926000000E+03
  0.655497000000E+02  0.144581000000E+03 -0.191819000000E+03
  0.703093000000E+02  0.159084000000E+03 -0.144803000000E+03
  0.682138000000E+02  0.162310000000E+03 -0.144270000000E+03
  0.842845000000E+02  0.153069000000E+03 -0.140772000000E+03
  0.165257000000E+03  0.694177000000E+02 -0.181087000000E+03
  0.162441000000E+03  0.684883000000E+02 -0.180385000000E+03
  0.131050000000E+03  0.126024000000E+03 -0.204581000000E+03
  0.132293000000E+03  0.131763000000E+03 -0.201338000000E+03
  0.132391000000E+03  0.120063000000E+03 -0.205880000000E+03
  0.134822000000E+03  0.117134000000E+03 -0.206043000000E+03
  0.135127000000E+03  0.992332000000E+02 -0.181952000000E+03
  0.140832000000E+03  0.777465000000E+02 -0.205576000000E+03
  0.826794000000E+02  0.133879000000E+03 -0.145838000000E+03
  0.818676000000E+02  0.133773000000E+03 -0.149573000000E+03
  0.132021000000E+03  0.129013000000E+03 -0.202929000000E+03
  0.134622000000E+03  0.126345000000E+03 -0.203279000000E+03
  0.133485000000E+03  0.123244000000E+03 -0.204921000000E+03
  0.136909000000E+03  0.123412000000E+03 -0.203759000000E+03
  0.150785000000E+03  0.145248000000E+03 -0.171577000000E+03
  0.148550000000E+03  0.146577000000E+03 -0.166771000000E+03
  0.100696000000E+03  0.819831000000E+02 -0.193313000000E+03
  0.964298000000E+02  0.932374000000E+02 -0.192908000000E+03
  0.723032000000E+02  0.162232000000E+03 -0.143496000000E+03
  0.131182000000E+03  0.100999000000E+03 -0.148560000000E+03
  0.119103000000E+03  0.147274000000E+03 -0.197383000000E+03
  0.104957000000E+03  0.117391000000E+03 -0.141010000000E+03
  0.129945000000E+03  0.983825000000E+02 -0.161220000000E+03
  0.132023000000E+03  0.978399000000E+02 -0.157720000000E+03
  0.150483000000E+03  0.706541000000E+02 -0.168412000000E+03
  0.105490000000E+03  0.764205000000E+02 -0.182344000000E+03
  0.899730000000E+02  0.975781000000E+02 -0.152308000000E+03
  0.676159000000E+02  0.144178000000E+03 -0.190090000000E+03
  0.825888000000E+02  0.169291000000E+03 -0.196358000000E+03
  0.420706000000E+02  0.172088000000E+03 -0.184542000000E+03
  0.772342000000E+02  0.164341000000E+03 -0.141002000000E+03
  0.757139000000E+02  0.185060000000E+03 -0.149021000000E+03
  0.775406000000E+02  0.185565000000E+03 -0.158988000000E+03
  0.395635000000E+02  0.158996000000E+03 -0.177897000000E+03
  0.907601000000E+02  0.188977000000E+03 -0.149707000000E+03
  0.926358000000E+02  0.188986000000E+03 -0.147257000000E+03
  0.463729000000E+02  0.164618000000E+03 -0.187016000000E+03
  0.103283000000E+03  0.174370000000E+03 -0.163273000000E+03
  0.383406000000E+02  0.172539000000E+03 -0.152426000000E+03
  0.437214000000E+02  0.183149000000E+03 -0.166123000000E+03
  0.513490000000E+02  0.181333000000E+03 -0.163968000000E+03
  0.740974000000E+02  0.174368000000E+03 -0.138922000000E+03
  0.743181000000E+02  0.164979000000E+03 -0.141581000000E+03
  0.695621000000E+02  0.180179000000E+03 -0.146865000000E+03
  0.759536000000E+02  0.173701000000E+03 -0.137802000000E+03
  0.680945000000E+02  0.184259000000E+03 -0.154436000000E+03
  0.759757000000E+02  0.185702000000E+03 -0.153169000000E+03
  0.538582000000E+02  0.176454000000E+03 -0.147992000000E+03
  0.567938000000E+02  0.161877000000E+03 -0.143069000000E+03
  0.560430000000E+02  0.167360000000E+03 -0.143015000000E+03
  0.353488000000E+02  0.152915000000E+03 -0.158618000000E+03
  0.375195000000E+02  0.155279000000E+03 -0.171132000000E+03
  0.398307000000E+02  0.151768000000E+03 -0.171180000000E+03
  0.525963000000E+02  0.175891000000E+03 -0.150557000000E+03
  0.541615000000E+02  0.179960000000E+03 -0.153428000000E+03
  0.716558000000E+02  0.164878000000E+03 -0.139897000000E+03
  0.715736000000E+02  0.168571000000E+03 -0.139504000000E+03
  0.901387000000E+02  0.164135000000E+03 -0.137010000000E+03
  0.103813000000E+03  0.148197000000E+03 -0.142340000000E+03
  0.835277000000E+02  0.139992000000E+03 -0.148826000000E+03
  0.797824000000E+02  0.184255000000E+03 -0.161087000000E+03
  0.778292000000E+02  0.147243000000E+03 -0.145252000000E+03
  0.736157000000E+02  0.138663000000E+03 -0.148719000000E+03
  0.748164000000E+02  0.159725000000E+03 -0.140245000000E+03
  0.316221000000E+02  0.167141000000E+03 -0.155948000000E+03
  0.407889000000E+02  0.158553000000E+03 -0.176175000000E+03
  0.166969000000E+03  0.881503000000E+02 -0.160390000000E+03
  0.579029000000E+02  0.147309000000E+03 -0.188487000000E+03
  0.878901000000E+02  0.156666000000E+03 -0.200542000000E+03
  0.845726000000E+02  0.155886000000E+03 -0.200763000000E+03
  0.871696000000E+02  0.153486000000E+03 -0.199707000000E+03
  0.867593000000E+02  0.173380000000E+03 -0.135379000000E+03
  0.107411000000E+03  0.140395000000E+03 -0.150188000000E+03
  0.118542000000E+03  0.140907000000E+03 -0.150318000000E+03
  0.116553000000E+03  0.142456000000E+03 -0.150832000000E+03
  0.164338000000E+03  0.104306000000E+03 -0.154856000000E+03
  0.166341000000E+03  0.101489000000E+03 -0.156682000000E+03
  0.575088000000E+02  0.183037000000E+03 -0.172537000000E+03
  0.376164000000E+02  0.175153000000E+03 -0.173345000000E+03
  0.476819000000E+02  0.182215000000E+03 -0.173854000000E+03
  0.112593000000E+03  0.746606000000E+02 -0.161538000000E+03
  0.108751000000E+03  0.181926000000E+03 -0.166150000000E+03
  0.107252000000E+03  0.112073000000E+03 -0.203458000000E+03
  0.111315000000E+03  0.184576000000E+03 -0.165453000000E+03
  0.107074000000E+03  0.183810000000E+03 -0.166735000000E+03
  0.107297000000E+03  0.188170000000E+03 -0.166053000000E+03
  0.701377000000E+02  0.116773000000E+03 -0.156892000000E+03
  0.136568000000E+03  0.659966000000E+02 -0.187359000000E+03
  0.718961000000E+02  0.113112000000E+03 -0.156002000000E+03
  0.733703000000E+02  0.167003000000E+03 -0.194301000000E+03
  0.726570000000E+02  0.122904000000E+03 -0.157130000000E+03
  0.133272000000E+03  0.153291000000E+03 -0.177738000000E+03
  0.152059000000E+03  0.101284000000E+03 -0.145017000000E+03
  0.419776000000E+02  0.157513000000E+03 -0.139225000000E+03
  0.410948000000E+02  0.156777000000E+03 -0.138946000000E+03
  0.452647000000E+02  0.153646000000E+03 -0.142517000000E+03
  0.444146000000E+02  0.156292000000E+03 -0.140904000000E+03
  0.664005000000E+02  0.118676000000E+03 -0.145942000000E+03
  0.828917000000E+02  0.140710000000E+03 -0.145251000000E+03
  0.102130000000E+03  0.138262000000E+03 -0.196135000000E+03
  0.790899000000E+02  0.140706000000E+03 -0.145624000000E+03
  0.839156000000E+02  0.142654000000E+03 -0.146342000000E+03
  0.812965000000E+02  0.135276000000E+03 -0.146928000000E+03
  0.113712000000E+03  0.128688000000E+03 -0.206250000000E+03
  0.684138000000E+02  0.123672000000E+03 -0.153843000000E+03
  0.692617000000E+02  0.123921000000E+03 -0.147531000000E+03
  0.100905000000E+03  0.174513000000E+03 -0.130030000000E+03
  0.106894000000E+03  0.174215000000E+03 -0.133262000000E+03
  0.398503000000E+02  0.148513000000E+03 -0.152588000000E+03
  0.465252000000E+02  0.149262000000E+03 -0.152006000000E+03
  0.447817000000E+02  0.148648000000E+03 -0.148724000000E+03
  0.113930000000E+03  0.885044000000E+02 -0.208938000000E+03
  0.149940000000E+03  0.132035000000E+03 -0.150317000000E+03
  0.124838000000E+03  0.885777000000E+02 -0.150385000000E+03
  0.118416000000E+03  0.963715000000E+02 -0.211219000000E+03
  0.118159000000E+03  0.111999000000E+03 -0.155038000000E+03
  0.463812000000E+02  0.148486000000E+03 -0.155410000000E+03
  0.138291000000E+03  0.113157000000E+03 -0.139585000000E+03
  0.140113000000E+03  0.116825000000E+03 -0.140415000000E+03
  0.135802000000E+03  0.127281000000E+03 -0.141981000000E+03
  0.135290000000E+03  0.114718000000E+03 -0.172375000000E+03
  0.599494000000E+02  0.176157000000E+03 -0.145640000000E+03
  0.620789000000E+02  0.182862000000E+03 -0.166044000000E+03
  0.141553000000E+03  0.114420000000E+03 -0.152575000000E+03
  0.163740000000E+03  0.964060000000E+02 -0.154434000000E+03
  0.707572000000E+02  0.182882000000E+03 -0.166085000000E+03
  0.672231000000E+02  0.183072000000E+03 -0.164534000000E+03
  0.114882000000E+03  0.151419000000E+03 -0.194178000000E+03
  0.157224000000E+03  0.652700000000E+02 -0.194342000000E+03
  0.156311000000E+03  0.649367000000E+02 -0.185578000000E+03
  0.160313000000E+03  0.655335000000E+02 -0.185529000000E+03
  0.111403000000E+03  0.123621000000E+03 -0.143250000000E+03
  0.107680000000E+03  0.123378000000E+03 -0.144972000000E+03
  0.154351000000E+03  0.652847000000E+02 -0.192013000000E+03
  0.100170000000E+03  0.184985000000E+03 -0.137352000000E+03
  0.951482000000E+02  0.178296000000E+03 -0.133801000000E+03
  0.990484000000E+02  0.106838000000E+03 -0.142135000000E+03
  0.992434000000E+02  0.132411000000E+03 -0.141010000000E+03
  0.101443000000E+03  0.137053000000E+03 -0.150574000000E+03
  0.103415000000E+03  0.137891000000E+03 -0.150086000000E+03
  0.294938000000E+02  0.155443000000E+03 -0.147605000000E+03
  0.314621000000E+02  0.154540000000E+03 -0.148474000000E+03
  0.302922000000E+02  0.153623000000E+03 -0.147712000000E+03
  0.111531000000E+03  0.112195000000E+03 -0.156583000000E+03
  0.111648000000E+03  0.115353000000E+03 -0.154476000000E+03
  0.113923000000E+03  0.174856000000E+03 -0.162600000000E+03
  0.165524000000E+03  0.108561000000E+03 -0.201354000000E+03
  0.173175000000E+03  0.931259000000E+02 -0.205516000000E+03
  0.849562000000E+02  0.927589000000E+02 -0.157400000000E+03
  0.911627000000E+02  0.871604000000E+02 -0.166879000000E+03
  0.937553000000E+02  0.100728000000E+03 -0.183225000000E+03
  0.907513000000E+02  0.107274000000E+03 -0.177977000000E+03
  0.118089000000E+03  0.738326000000E+02 -0.200710000000E+03
  0.131843000000E+03  0.124395000000E+03 -0.150919000000E+03
  0.148315000000E+03  0.118072000000E+03 -0.142358000000E+03
  0.530863000000E+02  0.180377000000E+03 -0.182422000000E+03
  0.639799000000E+02  0.176914000000E+03 -0.179935000000E+03
  0.116985000000E+03  0.117694000000E+03 -0.207582000000E+03
  0.153911000000E+03  0.648042000000E+02 -0.188418000000E+03
  0.161774000000E+03  0.784891000000E+02 -0.166688000000E+03
  0.129844000000E+03  0.125465000000E+03 -0.140085000000E+03
  0.148515000000E+03  0.661124000000E+02 -0.194007000000E+03
  0.150734000000E+03  0.667528000000E+02 -0.196539000000E+03
  0.505895000000E+02  0.178493000000E+03 -0.184566000000E+03
  0.178843000000E+03  0.926043000000E+02 -0.198255000000E+03
  0.122449000000E+03  0.156296000000E+03 -0.142189000000E+03
  0.142823000000E+03  0.960659000000E+02 -0.176932000000E+03
  0.180808000000E+03  0.936653000000E+02 -0.181624000000E+03
  0.136566000000E+03  0.652784000000E+02 -0.195199000000E+03
  0.115032000000E+03  0.120373000000E+03 -0.153644000000E+03
  0.117215000000E+03  0.121176000000E+03 -0.139031000000E+03
  0.119025000000E+03  0.124114000000E+03 -0.139484000000E+03
  0.107353000000E+03  0.119522000000E+03 -0.142402000000E+03
  0.163046000000E+03  0.872318000000E+02 -0.156654000000E+03
  0.808109000000E+02  0.144839000000E+03 -0.145513000000E+03
  0.165356000000E+03  0.885906000000E+02 -0.157954000000E+03
  0.144663000000E+03  0.132791000000E+03 -0.170290000000E+03
  0.155864000000E+03  0.133576000000E+03 -0.183834000000E+03
  0.140285000000E+03  0.122928000000E+03 -0.202594000000E+03
  0.142636000000E+03  0.125533000000E+03 -0.200187000000E+03
  0.123558000000E+03  0.927682000000E+02 -0.211731000000E+03
  0.122425000000E+03  0.964806000000E+02 -0.211392000000E+03
  0.139853000000E+03  0.656751000000E+02 -0.196305000000E+03
  0.107973000000E+03  0.172442000000E+03 -0.179731000000E+03
  0.166971000000E+03  0.105669000000E+03 -0.157363000000E+03
  0.142986000000E+03  0.102293000000E+03 -0.177835000000E+03
  0.134641000000E+03  0.729739000000E+02 -0.203505000000E+03
  0.650073000000E+02  0.143299000000E+03 -0.151041000000E+03
  0.127897000000E+03  0.771162000000E+02 -0.206904000000E+03
  0.136476000000E+03  0.751312000000E+02 -0.160751000000E+03
  0.112764000000E+03  0.100819000000E+03 -0.207678000000E+03
  0.142262000000E+03  0.677998000000E+02 -0.172904000000E+03
  0.395386000000E+02  0.168075000000E+03 -0.140920000000E+03
  0.430056000000E+02  0.168591000000E+03 -0.141771000000E+03
  0.172217000000E+03  0.936046000000E+02 -0.162988000000E+03
  0.169828000000E+03  0.937728000000E+02 -0.159530000000E+03
  0.140738000000E+03  0.749049000000E+02 -0.161197000000E+03
  0.105727000000E+03  0.112020000000E+03 -0.153807000000E+03
  0.115605000000E+03  0.107574000000E+03 -0.159194000000E+03
  0.640638000000E+02  0.179252000000E+03 -0.146853000000E+03
  0.741545000000E+02  0.177507000000E+03 -0.140114000000E+03
  0.814711000000E+02  0.182744000000E+03 -0.138859000000E+03
  0.139529000000E+03  0.984391000000E+02 -0.167704000000E+03
  0.137714000000E+03  0.131933000000E+03 -0.198517000000E+03
  0.761469000000E+02  0.103637000000E+03 -0.154151000000E+03
  0.813143000000E+02  0.150530000000E+03 -0.200634000000E+03
  0.842415000000E+02  0.130363000000E+03 -0.192259000000E+03
  0.504812000000E+02  0.179240000000E+03 -0.154894000000E+03
  0.147735000000E+03  0.143822000000E+03 -0.161405000000E+03
  0.136077000000E+03  0.153390000000E+03 -0.167937000000E+03
  0.861128000000E+02  0.183599000000E+03 -0.173184000000E+03
  0.940323000000E+02  0.181658000000E+03 -0.180243000000E+03
  0.700376000000E+02  0.183737000000E+03 -0.162151000000E+03
  0.114453000000E+03  0.166025000000E+03 -0.176421000000E+03
  0.116410000000E+03  0.163151000000E+03 -0.171704000000E+03
  0.627259000000E+02  0.142070000000E+03 -0.182035000000E+03
  0.120505000000E+03  0.711283000000E+02 -0.191189000000E+03
  0.136581000000E+03  0.706950000000E+02 -0.202329000000E+03
  0.133362000000E+03  0.700664000000E+02 -0.201993000000E+03
  0.130133000000E+03  0.672321000000E+02 -0.191062000000E+03
  0.139041000000E+03  0.651622000000E+02 -0.193235000000E+03
  0.172592000000E+03  0.896886000000E+02 -0.168746000000E+03
  0.368815000000E+02  0.159508000000E+03 -0.171063000000E+03
  0.177393000000E+03  0.999908000000E+02 -0.168946000000E+03
  0.178239000000E+03  0.978409000000E+02 -0.171871000000E+03
  0.117202000000E+03  0.142991000000E+03 -0.161946000000E+03
  0.119913000000E+03  0.156968000000E+03 -0.140232000000E+03
  0.122632000000E+03  0.152287000000E+03 -0.146324000000E+03
  0.110568000000E+03  0.786451000000E+02 -0.157837000000E+03
  0.127813000000E+03  0.936359000000E+02 -0.145943000000E+03
  0.110661000000E+03  0.157152000000E+03 -0.143457000000E+03
  0.173631000000E+03  0.976968000000E+02 -0.163249000000E+03
  0.138613000000E+03  0.760472000000E+02 -0.204528000000E+03
  0.102618000000E+03  0.880489000000E+02 -0.199221000000E+03
  0.114608000000E+03  0.154341000000E+03 -0.139518000000E+03
  0.105922000000E+03  0.769760000000E+02 -0.186334000000E+03
  0.109499000000E+03  0.754767000000E+02 -0.187953000000E+03
  0.115084000000E+03  0.739074000000E+02 -0.193994000000E+03
  0.113832000000E+03  0.755451000000E+02 -0.197180000000E+03
  0.815824000000E+02  0.154530000000E+03 -0.140591000000E+03
  0.999534000000E+02  0.130099000000E+03 -0.199648000000E+03
  0.907497000000E+02  0.149065000000E+03 -0.200317000000E+03
  0.883962000000E+02  0.146023000000E+03 -0.200190000000E+03
  0.845811000000E+02  0.160220000000E+03 -0.138168000000E+03
  0.438934000000E+02  0.154805000000E+03 -0.182695000000E+03
  0.109440000000E+03  0.180719000000E+03 -0.157347000000E+03
  0.107186000000E+03  0.178441000000E+03 -0.157311000000E+03
  0.732767000000E+02  0.183385000000E+03 -0.146787000000E+03
  0.702184000000E+02  0.182156000000E+03 -0.147005000000E+03
  0.796249000000E+02  0.168053000000E+03 -0.193305000000E+03
  0.101564000000E+03  0.132733000000E+03 -0.146365000000E+03
  0.855081000000E+02  0.140872000000E+03 -0.197152000000E+03
  0.851638000000E+02  0.107883000000E+03 -0.167211000000E+03
  0.788407000000E+02  0.143726000000E+03 -0.198052000000E+03
  0.822848000000E+02  0.144372000000E+03 -0.199317000000E+03
  0.873532000000E+02  0.139670000000E+03 -0.198972000000E+03
  0.874320000000E+02  0.966165000000E+02 -0.143526000000E+03
  0.902334000000E+02  0.977807000000E+02 -0.143053000000E+03
  0.132734000000E+03  0.822408000000E+02 -0.209728000000E+03
  0.693230000000E+02  0.179617000000E+03 -0.144596000000E+03
  0.173638000000E+03  0.106125000000E+03 -0.194391000000E+03
  0.135542000000E+03  0.840464000000E+02 -0.210872000000E+03
  0.724346000000E+02  0.181888000000E+03 -0.148348000000E+03
  0.337497000000E+02  0.151807000000E+03 -0.146163000000E+03
  0.912808000000E+02  0.164416000000E+03 -0.140994000000E+03
  0.601042000000E+02  0.150489000000E+03 -0.194707000000E+03
  0.854181000000E+02  0.149834000000E+03 -0.199631000000E+03
  0.855606000000E+02  0.145175000000E+03 -0.199965000000E+03
  0.115140000000E+03  0.729537000000E+02 -0.187649000000E+03
  0.114508000000E+03  0.915340000000E+02 -0.209456000000E+03
  0.117901000000E+03  0.160500000000E+03 -0.181897000000E+03
  0.116128000000E+03  0.164063000000E+03 -0.181963000000E+03
  0.102733000000E+03  0.805282000000E+02 -0.195081000000E+03
  0.102829000000E+03  0.793944000000E+02 -0.192001000000E+03
  0.179193000000E+03  0.971273000000E+02 -0.175152000000E+03
  0.881699000000E+02  0.177903000000E+03 -0.183719000000E+03
  0.938538000000E+02  0.175302000000E+03 -0.189699000000E+03
  0.108174000000E+03  0.163189000000E+03 -0.139197000000E+03
  0.573706000000E+02  0.156638000000E+03 -0.143527000000E+03
  0.596108000000E+02  0.157049000000E+03 -0.145295000000E+03
  0.130047000000E+03  0.165206000000E+03 -0.151244000000E+03
  0.698542000000E+02  0.108661000000E+03 -0.146346000000E+03
  0.126677000000E+03  0.161356000000E+03 -0.157198000000E+03
  0.834733000000E+02  0.133305000000E+03 -0.193944000000E+03
  0.748885000000E+02  0.147374000000E+03 -0.142744000000E+03
  0.824039000000E+02  0.146326000000E+03 -0.142666000000E+03
  0.852066000000E+02  0.146044000000E+03 -0.142622000000E+03
  0.164267000000E+03  0.126017000000E+03 -0.171404000000E+03
  0.177974000000E+03  0.953099000000E+02 -0.173514000000E+03
  0.735376000000E+02  0.132272000000E+03 -0.175503000000E+03
  0.150046000000E+03  0.143580000000E+03 -0.164705000000E+03
  0.152179000000E+03  0.140369000000E+03 -0.164376000000E+03
  0.725938000000E+02  0.136168000000E+03 -0.169229000000E+03
  0.177819000000E+03  0.105059000000E+03 -0.172579000000E+03
  0.136663000000E+03  0.987097000000E+02 -0.144148000000E+03
  0.133914000000E+03  0.968179000000E+02 -0.144309000000E+03
  0.925785000000E+02  0.117620000000E+03 -0.179223000000E+03
  0.935186000000E+02  0.105766000000E+03 -0.188526000000E+03
  0.707030000000E+02  0.180394000000E+03 -0.173436000000E+03
  0.107136000000E+03  0.176292000000E+03 -0.164595000000E+03
  0.106664000000E+03  0.178746000000E+03 -0.167678000000E+03
  0.180115000000E+03  0.103270000000E+03 -0.182454000000E+03
  0.180600000000E+03  0.100025000000E+03 -0.180567000000E+03
  0.178450000000E+03  0.939666000000E+02 -0.176021000000E+03
  0.106853000000E+03  0.175351000000E+03 -0.160634000000E+03
  0.105636000000E+03  0.175455000000E+03 -0.156648000000E+03
  0.165811000000E+03  0.854166000000E+02 -0.162242000000E+03
  0.142156000000E+03  0.101992000000E+03 -0.174088000000E+03
  0.166624000000E+03  0.973136000000E+02 -0.156583000000E+03
  0.115931000000E+03  0.110097000000E+03 -0.186221000000E+03
  0.173186000000E+03  0.922436000000E+02 -0.166486000000E+03
  0.112331000000E+03  0.114867000000E+03 -0.206592000000E+03
  0.110489000000E+03  0.116946000000E+03 -0.205527000000E+03
  0.107521000000E+03  0.115812000000E+03 -0.203645000000E+03
  0.171188000000E+03  0.968814000000E+02 -0.160442000000E+03
  0.827181000000E+02  0.187111000000E+03 -0.154658000000E+03
  0.703064000000E+02  0.182417000000E+03 -0.151827000000E+03
  0.484697000000E+02  0.166340000000E+03 -0.188044000000E+03
  0.772591000000E+02  0.177337000000E+03 -0.138602000000E+03
  0.108611000000E+03  0.101865000000E+03 -0.144125000000E+03
  0.163348000000E+03  0.749199000000E+02 -0.210191000000E+03
  0.138010000000E+03  0.856021000000E+02 -0.211558000000E+03
  0.174237000000E+03  0.677169000000E+02 -0.190373000000E+03
  0.173228000000E+03  0.697745000000E+02 -0.187472000000E+03
  0.157113000000E+03  0.684936000000E+02 -0.176464000000E+03
  0.157201000000E+03  0.704742000000E+02 -0.173149000000E+03
  0.142018000000E+03  0.828584000000E+02 -0.210112000000E+03
  0.145801000000E+03  0.828722000000E+02 -0.210575000000E+03
  0.109016000000E+03  0.148894000000E+03 -0.192722000000E+03
  0.109994000000E+03  0.146971000000E+03 -0.191577000000E+03
  0.110202000000E+03  0.149987000000E+03 -0.196471000000E+03
  0.105133000000E+03  0.180749000000E+03 -0.171238000000E+03
  0.103098000000E+03  0.156230000000E+03 -0.197452000000E+03
  0.495987000000E+02  0.181261000000E+03 -0.182410000000E+03
  0.142852000000E+03  0.145009000000E+03 -0.155926000000E+03
  0.128871000000E+03  0.161495000000E+03 -0.153873000000E+03
  0.126900000000E+03  0.158631000000E+03 -0.154755000000E+03
  0.155980000000E+03  0.938173000000E+02 -0.210693000000E+03
  0.256421000000E+02  0.165550000000E+03 -0.145529000000E+03
  0.106505000000E+03  0.138307000000E+03 -0.147971000000E+03
  0.813077000000E+02  0.121058000000E+03 -0.162507000000E+03
  0.176544000000E+03  0.965544000000E+02 -0.168910000000E+03
  0.740701000000E+02  0.170600000000E+03 -0.194726000000E+03
  0.104076000000E+03  0.877743000000E+02 -0.154478000000E+03
  0.113235000000E+03  0.100066000000E+03 -0.142762000000E+03
  0.125270000000E+03  0.101889000000E+03 -0.142124000000E+03
  0.798715000000E+02  0.180119000000E+03 -0.181658000000E+03
  0.751419000000E+02  0.112377000000E+03 -0.156064000000E+03
  0.828345000000E+02  0.182642000000E+03 -0.173985000000E+03
  0.851243000000E+02  0.186795000000E+03 -0.166114000000E+03
  0.112902000000E+03  0.165287000000E+03 -0.184590000000E+03
  0.105809000000E+03  0.142465000000E+03 -0.195378000000E+03
  0.883077000000E+02  0.125259000000E+03 -0.164872000000E+03
  0.878996000000E+02  0.125868000000E+03 -0.162494000000E+03
  0.686839000000E+02  0.151143000000E+03 -0.199131000000E+03
  0.716074000000E+02  0.143006000000E+03 -0.193133000000E+03
  0.641985000000E+02  0.145745000000E+03 -0.190480000000E+03
  0.669128000000E+02  0.146226000000E+03 -0.193015000000E+03
  0.785871000000E+02  0.135929000000E+03 -0.157590000000E+03
  0.520074000000E+02  0.182234000000E+03 -0.180430000000E+03
  0.367463000000E+02  0.159371000000E+03 -0.172629000000E+03
  0.392684000000E+02  0.176036000000E+03 -0.171029000000E+03
  0.408832000000E+02  0.178421000000E+03 -0.173122000000E+03
  0.416452000000E+02  0.165246000000E+03 -0.181126000000E+03
  0.179685000000E+03  0.751553000000E+02 -0.200349000000E+03
  0.177889000000E+03  0.748760000000E+02 -0.204579000000E+03
  0.725000000000E+02  0.137944000000E+03 -0.157690000000E+03
  0.387803000000E+02  0.149048000000E+03 -0.162618000000E+03
  0.425437000000E+02  0.146806000000E+03 -0.156882000000E+03
  0.671824000000E+02  0.180090000000E+03 -0.173543000000E+03
  0.686902000000E+02  0.181093000000E+03 -0.170348000000E+03
  0.669813000000E+02  0.182425000000E+03 -0.167909000000E+03
  0.696925000000E+02  0.181833000000E+03 -0.170309000000E+03
  0.688635000000E+02  0.136233000000E+03 -0.166652000000E+03
  0.611942000000E+02  0.140680000000E+03 -0.160698000000E+03
  0.150887000000E+03  0.672327000000E+02 -0.175083000000E+03
  0.415844000000E+02  0.153661000000E+03 -0.143846000000E+03
  0.397859000000E+02  0.150307000000E+03 -0.146261000000E+03
  0.386600000000E+02  0.152792000000E+03 -0.142334000000E+03
  0.842970000000E+02  0.146642000000E+03 -0.144381000000E+03
  0.908204000000E+02  0.135345000000E+03 -0.141010000000E+03
  0.101010000000E+03  0.131059000000E+03 -0.141010000000E+03
  0.385104000000E+02  0.171912000000E+03 -0.160696000000E+03
  0.852863000000E+02  0.135712000000E+03 -0.142945000000E+03
  0.102903000000E+03  0.114815000000E+03 -0.141010000000E+03
  0.799738000000E+02  0.134986000000E+03 -0.190268000000E+03
  0.779199000000E+02  0.130775000000E+03 -0.178057000000E+03
  0.620713000000E+02  0.170047000000E+03 -0.189353000000E+03
  0.897157000000E+02  0.123693000000E+03 -0.191213000000E+03
  0.529225000000E+02  0.169304000000E+03 -0.188268000000E+03
  0.113496000000E+03  0.957900000000E+02 -0.146835000000E+03
  0.107964000000E+03  0.173868000000E+03 -0.144164000000E+03
  0.106806000000E+03  0.175513000000E+03 -0.147153000000E+03
  0.103373000000E+03  0.179112000000E+03 -0.150697000000E+03
  0.573111000000E+02  0.180825000000E+03 -0.157471000000E+03
  0.108945000000E+03  0.125180000000E+03 -0.204800000000E+03
  0.126293000000E+03  0.111341000000E+03 -0.150562000000E+03
  0.125593000000E+03  0.113900000000E+03 -0.151360000000E+03
  0.686982000000E+02  0.163007000000E+03 -0.141334000000E+03
  0.106173000000E+03  0.194661000000E+03 -0.153921000000E+03
  0.972377000000E+02  0.144068000000E+03 -0.199805000000E+03
  0.912813000000E+02  0.188835000000E+03 -0.167090000000E+03
  0.109212000000E+03  0.187797000000E+03 -0.159078000000E+03
  0.705746000000E+02  0.179750000000E+03 -0.178841000000E+03
  0.588337000000E+02  0.177469000000E+03 -0.184705000000E+03
  0.531538000000E+02  0.145647000000E+03 -0.176489000000E+03
  0.581748000000E+02  0.179851000000E+03 -0.177030000000E+03
  0.652392000000E+02  0.175573000000E+03 -0.187202000000E+03
  0.109081000000E+03  0.171133000000E+03 -0.153381000000E+03
  0.817506000000E+02  0.107151000000E+03 -0.161821000000E+03
  0.122194000000E+03  0.705353000000E+02 -0.169966000000E+03
  0.838412000000E+02  0.100020000000E+03 -0.162190000000E+03
  0.856082000000E+02  0.984055000000E+02 -0.165021000000E+03
  0.105742000000E+03  0.176711000000E+03 -0.150465000000E+03
  0.573076000000E+02  0.149409000000E+03 -0.191707000000E+03
  0.491610000000E+02  0.149833000000E+03 -0.185971000000E+03
  0.999222000000E+02  0.175992000000E+03 -0.186091000000E+03
  0.971672000000E+02  0.176455000000E+03 -0.185311000000E+03
  0.984523000000E+02  0.134277000000E+03 -0.140848000000E+03
  0.103324000000E+03  0.130890000000E+03 -0.140864000000E+03
  0.102657000000E+03  0.129489000000E+03 -0.141010000000E+03
  0.544375000000E+02  0.152114000000E+03 -0.144564000000E+03
  0.607219000000E+02  0.155216000000E+03 -0.143679000000E+03
  0.582285000000E+02  0.151675000000E+03 -0.144388000000E+03
  0.598854000000E+02  0.143242000000E+03 -0.151808000000E+03
  0.570889000000E+02  0.154267000000E+03 -0.143831000000E+03
  0.482827000000E+02  0.153278000000E+03 -0.143402000000E+03
  0.102562000000E+03  0.114646000000E+03 -0.187151000000E+03
  0.656685000000E+02  0.177496000000E+03 -0.184432000000E+03
  0.431156000000E+02  0.153111000000E+03 -0.179203000000E+03
  0.425051000000E+02  0.155325000000E+03 -0.176424000000E+03
  0.483575000000E+02  0.147789000000E+03 -0.179594000000E+03
  0.145603000000E+03  0.121488000000E+03 -0.142886000000E+03
  0.106085000000E+03  0.177684000000E+03 -0.154007000000E+03
  0.121764000000E+03  0.116918000000E+03 -0.139286000000E+03
  0.135434000000E+03  0.114798000000E+03 -0.160496000000E+03
  0.109160000000E+03  0.173367000000E+03 -0.151797000000E+03
  0.106053000000E+03  0.174133000000E+03 -0.153318000000E+03
  0.944148000000E+02  0.102531000000E+03 -0.189707000000E+03
  0.106029000000E+03  0.969502000000E+02 -0.203934000000E+03
  0.102996000000E+03  0.949760000000E+02 -0.201168000000E+03
  0.126430000000E+03  0.112684000000E+03 -0.140131000000E+03
  0.122995000000E+03  0.113489000000E+03 -0.140012000000E+03
  0.709069000000E+02  0.153910000000E+03 -0.200373000000E+03
  0.725436000000E+02  0.156537000000E+03 -0.200916000000E+03
  0.752517000000E+02  0.162548000000E+03 -0.200073000000E+03
  0.140571000000E+03  0.141059000000E+03 -0.149947000000E+03
  0.116178000000E+03  0.146186000000E+03 -0.184256000000E+03
  0.106487000000E+03  0.146570000000E+03 -0.198172000000E+03
  0.108931000000E+03  0.147752000000E+03 -0.197528000000E+03
  0.505740000000E+02  0.151600000000E+03 -0.189913000000E+03
  0.445767000000E+02  0.159813000000E+03 -0.187229000000E+03
  0.449588000000E+02  0.155970000000E+03 -0.186134000000E+03
  0.696733000000E+02  0.138466000000E+03 -0.162802000000E+03
  0.727344000000E+02  0.136822000000E+03 -0.163028000000E+03
  0.120314000000E+03  0.157101000000E+03 -0.181278000000E+03
  0.115166000000E+03  0.161357000000E+03 -0.185482000000E+03
  0.109929000000E+03  0.167617000000E+03 -0.185316000000E+03
  0.115979000000E+03  0.150703000000E+03 -0.181404000000E+03
  0.114728000000E+03  0.154850000000E+03 -0.181823000000E+03
  0.701340000000E+02  0.123094000000E+03 -0.153566000000E+03
  0.640601000000E+02  0.139400000000E+03 -0.162034000000E+03
  0.493757000000E+02  0.144697000000E+03 -0.170393000000E+03
  0.902619000000E+02  0.878558000000E+02 -0.163096000000E+03
  0.101629000000E+03  0.831679000000E+02 -0.196436000000E+03
  0.104309000000E+03  0.813151000000E+02 -0.197723000000E+03
  0.103647000000E+03  0.848442000000E+02 -0.199420000000E+03
  0.126877000000E+03  0.685127000000E+02 -0.196877000000E+03
  0.855300000000E+02  0.187568000000E+03 -0.162365000000E+03
  0.879175000000E+02  0.187331000000E+03 -0.168307000000E+03
  0.934444000000E+02  0.186599000000E+03 -0.172505000000E+03
  0.940593000000E+02  0.188536000000E+03 -0.169480000000E+03
  0.154083000000E+03  0.686865000000E+02 -0.174076000000E+03
  0.176439000000E+03  0.784438000000E+02 -0.182696000000E+03
  0.109058000000E+03  0.195358000000E+03 -0.164199000000E+03
  0.132951000000E+03  0.682410000000E+02 -0.175119000000E+03
  0.147895000000E+03  0.651465000000E+02 -0.181584000000E+03
  0.126990000000E+03  0.168859000000E+03 -0.158453000000E+03
  0.125727000000E+03  0.172249000000E+03 -0.155930000000E+03
  0.112951000000E+03  0.191431000000E+03 -0.157354000000E+03
  0.110392000000E+03  0.193956000000E+03 -0.155376000000E+03
  0.105323000000E+03  0.190766000000E+03 -0.164646000000E+03
  0.103073000000E+03  0.163588000000E+03 -0.192776000000E+03
  0.124578000000E+03  0.168769000000E+03 -0.154375000000E+03
  0.108223000000E+03  0.758911000000E+02 -0.166742000000E+03
  0.122825000000E+03  0.992455000000E+02 -0.158781000000E+03
  0.956384000000E+02  0.101091000000E+03 -0.141182000000E+03
  0.132159000000E+03  0.978321000000E+02 -0.153742000000E+03
  0.115422000000E+03  0.891844000000E+02 -0.152095000000E+03
  0.119727000000E+03  0.100801000000E+03 -0.141642000000E+03
  0.110736000000E+03  0.100309000000E+03 -0.143975000000E+03
  0.122732000000E+03  0.147082000000E+03 -0.196324000000E+03
  0.117854000000E+03  0.155550000000E+03 -0.187559000000E+03
  0.976940000000E+02  0.948876000000E+02 -0.196331000000E+03
  0.972149000000E+02  0.984826000000E+02 -0.196697000000E+03
  0.120093000000E+03  0.168508000000E+03 -0.142082000000E+03
  0.130071000000E+03  0.126800000000E+03 -0.152587000000E+03
  0.105917000000E+03  0.784963000000E+02 -0.194926000000E+03
  0.977142000000E+02  0.882754000000E+02 -0.189430000000E+03
  0.973722000000E+02  0.883582000000E+02 -0.186160000000E+03
  0.125580000000E+03  0.702634000000E+02 -0.200970000000E+03
  0.111217000000E+03  0.724393000000E+02 -0.173990000000E+03
  0.150581000000E+03  0.115437000000E+03 -0.143032000000E+03
  0.128901000000E+03  0.128961000000E+03 -0.141213000000E+03
  0.613406000000E+02  0.140551000000E+03 -0.166877000000E+03
  0.179341000000E+03  0.102743000000E+03 -0.175018000000E+03
  0.384802000000E+02  0.167157000000E+03 -0.178190000000E+03
  0.334834000000E+02  0.158725000000E+03 -0.165456000000E+03
  0.422488000000E+02  0.178144000000E+03 -0.166324000000E+03
  0.452410000000E+02  0.174269000000E+03 -0.183910000000E+03
  0.394116000000E+02  0.177156000000E+03 -0.181351000000E+03
  0.164067000000E+03  0.805850000000E+02 -0.211511000000E+03
  0.155899000000E+03  0.821396000000E+02 -0.211447000000E+03
  0.149187000000E+03  0.718038000000E+02 -0.203010000000E+03
  0.128509000000E+03  0.129884000000E+03 -0.154678000000E+03
  0.135421000000E+03  0.113643000000E+03 -0.206564000000E+03
  0.138040000000E+03  0.115400000000E+03 -0.206045000000E+03
  0.121250000000E+03  0.140986000000E+03 -0.150271000000E+03
  0.132774000000E+03  0.111527000000E+03 -0.206818000000E+03
  0.114882000000E+03  0.949634000000E+02 -0.209894000000E+03
  0.106858000000E+03  0.849982000000E+02 -0.201758000000E+03
  0.485883000000E+02  0.145464000000E+03 -0.163760000000E+03
  0.682375000000E+02  0.117408000000E+03 -0.153277000000E+03
  0.157487000000E+03  0.119306000000E+03 -0.148588000000E+03
  0.100085000000E+03  0.808291000000E+02 -0.166970000000E+03
  0.100664000000E+03  0.818151000000E+02 -0.163407000000E+03
  0.898959000000E+02  0.889172000000E+02 -0.158973000000E+03
  0.373117000000E+02  0.171600000000E+03 -0.153311000000E+03
  0.119763000000E+03  0.114068000000E+03 -0.188439000000E+03
  0.115471000000E+03  0.114208000000E+03 -0.207471000000E+03
  0.359389000000E+02  0.171206000000E+03 -0.154897000000E+03
  0.364392000000E+02  0.170981000000E+03 -0.158005000000E+03
  0.124972000000E+03  0.117690000000E+03 -0.207107000000E+03
  0.136968000000E+03  0.118662000000E+03 -0.148578000000E+03
  0.142137000000E+03  0.136584000000E+03 -0.147614000000E+03
  0.144559000000E+03  0.137267000000E+03 -0.149835000000E+03
  0.145524000000E+03  0.125332000000E+03 -0.144431000000E+03
  0.120343000000E+03  0.100734000000E+03 -0.209903000000E+03
  0.128089000000E+03  0.118895000000E+03 -0.139199000000E+03
  0.155748000000E+03  0.738453000000E+02 -0.167455000000E+03
  0.134464000000E+03  0.130017000000E+03 -0.142328000000E+03
  0.122670000000E+03  0.131433000000E+03 -0.204811000000E+03
  0.861893000000E+02  0.169955000000E+03 -0.195742000000E+03
  0.139569000000E+03  0.100977000000E+03 -0.158402000000E+03
  0.158875000000E+03  0.112128000000E+03 -0.149831000000E+03
  0.949402000000E+02  0.144390000000E+03 -0.199205000000E+03
  0.132623000000E+03  0.679470000000E+02 -0.199829000000E+03
  0.117192000000E+03  0.733864000000E+02 -0.197283000000E+03
  0.789241000000E+02  0.146669000000E+03 -0.142719000000E+03
  0.807165000000E+02  0.143498000000E+03 -0.143714000000E+03
  0.769592000000E+02  0.143654000000E+03 -0.143836000000E+03
  0.123939000000E+03  0.940579000000E+02 -0.171786000000E+03
  0.178167000000E+03  0.811066000000E+02 -0.182384000000E+03
  0.178482000000E+03  0.839411000000E+02 -0.181069000000E+03
  0.171623000000E+03  0.991368000000E+02 -0.203777000000E+03
  0.181073000000E+03  0.792025000000E+02 -0.193979000000E+03
  0.174255000000E+03  0.752342000000E+02 -0.183325000000E+03
  0.182448000000E+03  0.853470000000E+02 -0.189734000000E+03
  0.170020000000E+03  0.644515000000E+02 -0.194193000000E+03
  0.157888000000E+03  0.727863000000E+02 -0.170345000000E+03
  0.154229000000E+03  0.710544000000E+02 -0.170265000000E+03
  0.160014000000E+03  0.703155000000E+02 -0.175340000000E+03
  0.887779000000E+02  0.156675000000E+03 -0.199231000000E+03
  0.157659000000E+03  0.878961000000E+02 -0.152543000000E+03
  0.153933000000E+03  0.661131000000E+02 -0.195577000000E+03
  0.785109000000E+02  0.156159000000E+03 -0.201015000000E+03
  0.817249000000E+02  0.157845000000E+03 -0.200817000000E+03
  0.969951000000E+02  0.133502000000E+03 -0.141010000000E+03
  0.883833000000E+02  0.163031000000E+03 -0.197632000000E+03
  0.822182000000E+02  0.115093000000E+03 -0.163330000000E+03
  0.841970000000E+02  0.113748000000E+03 -0.168377000000E+03
  0.825046000000E+02  0.112141000000E+03 -0.165136000000E+03
  0.841982000000E+02  0.110626000000E+03 -0.166956000000E+03
  0.764858000000E+02  0.112990000000E+03 -0.160724000000E+03
  0.116241000000E+03  0.124683000000E+03 -0.206747000000E+03
  0.112984000000E+03  0.122691000000E+03 -0.206228000000E+03
  0.149255000000E+03  0.140627000000E+03 -0.185820000000E+03
  0.120351000000E+03  0.155101000000E+03 -0.185190000000E+03
  0.401636000000E+02  0.168888000000E+03 -0.181759000000E+03
  0.120546000000E+03  0.120538000000E+03 -0.138863000000E+03
  0.406131000000E+02  0.173731000000E+03 -0.162054000000E+03
  0.132175000000E+03  0.114084000000E+03 -0.139831000000E+03
  0.129471000000E+03  0.112129000000E+03 -0.140131000000E+03
  0.128895000000E+03  0.115282000000E+03 -0.139661000000E+03
  0.537313000000E+02  0.184044000000E+03 -0.171436000000E+03
  0.104957000000E+03  0.152788000000E+03 -0.197366000000E+03
  0.147371000000E+03  0.134921000000E+03 -0.150724000000E+03
  0.101264000000E+03  0.159749000000E+03 -0.197508000000E+03
  0.107311000000E+03  0.146761000000E+03 -0.194555000000E+03
  0.109423000000E+03  0.145300000000E+03 -0.198606000000E+03
  0.127986000000E+03  0.114134000000E+03 -0.149447000000E+03
  0.124790000000E+03  0.122655000000E+03 -0.153404000000E+03
  0.123236000000E+03  0.118790000000E+03 -0.153099000000E+03
  0.110066000000E+03  0.766291000000E+02 -0.161057000000E+03
  0.117451000000E+03  0.797408000000E+02 -0.155936000000E+03
  0.116921000000E+03  0.768395000000E+02 -0.157471000000E+03
  0.994026000000E+02  0.836780000000E+02 -0.160715000000E+03
  0.452484000000E+02  0.174600000000E+03 -0.185843000000E+03
  0.108996000000E+03  0.736856000000E+02 -0.171450000000E+03
  0.126374000000E+03  0.136297000000E+03 -0.145653000000E+03
  0.103394000000E+03  0.777834000000E+02 -0.169648000000E+03
  0.919601000000E+02  0.177637000000E+03 -0.187120000000E+03
  0.601154000000E+02  0.172230000000E+03 -0.190665000000E+03
  0.736246000000E+02  0.172943000000E+03 -0.191939000000E+03
  0.882781000000E+02  0.175590000000E+03 -0.186525000000E+03
  0.590594000000E+02  0.144414000000E+03 -0.181302000000E+03
  0.118831000000E+03  0.115114000000E+03 -0.207760000000E+03
  0.120637000000E+03  0.117833000000E+03 -0.207672000000E+03
  0.112373000000E+03  0.903593000000E+02 -0.207735000000E+03
  0.120435000000E+03  0.937110000000E+02 -0.211748000000E+03
  0.835067000000E+02  0.172162000000E+03 -0.193860000000E+03
  0.872212000000E+02  0.134071000000E+03 -0.194757000000E+03
  0.127917000000E+03  0.108788000000E+03 -0.184097000000E+03
  0.795913000000E+02  0.168698000000E+03 -0.196815000000E+03
  0.117420000000E+03  0.926965000000E+02 -0.211160000000E+03
  0.120359000000E+03  0.901258000000E+02 -0.211823000000E+03
  0.139040000000E+03  0.104286000000E+03 -0.181004000000E+03
  0.121900000000E+03  0.107021000000E+03 -0.155362000000E+03
  0.118184000000E+03  0.108483000000E+03 -0.183665000000E+03
  0.153581000000E+03  0.138272000000E+03 -0.179578000000E+03
  0.142542000000E+03  0.124902000000E+03 -0.166624000000E+03
  0.160599000000E+03  0.130900000000E+03 -0.177015000000E+03
  0.166339000000E+03  0.121936000000E+03 -0.182658000000E+03
  0.549298000000E+02  0.181776000000E+03 -0.179715000000E+03
  0.155987000000E+03  0.135125000000E+03 -0.180301000000E+03
  0.154775000000E+03  0.107204000000E+03 -0.146751000000E+03
  0.396031000000E+02  0.172502000000E+03 -0.166371000000E+03
  0.514309000000E+02  0.177671000000E+03 -0.151185000000E+03
  0.125256000000E+03  0.793373000000E+02 -0.209031000000E+03
  0.114293000000E+03  0.820966000000E+02 -0.207423000000E+03
  0.116093000000E+03  0.839341000000E+02 -0.210287000000E+03
  0.112774000000E+03  0.777023000000E+02 -0.200199000000E+03
  0.110181000000E+03  0.774138000000E+02 -0.196941000000E+03
  0.113969000000E+03  0.731189000000E+02 -0.185317000000E+03
  0.107427000000E+03  0.799960000000E+02 -0.198732000000E+03
  0.146214000000E+03  0.128625000000E+03 -0.146089000000E+03
  0.389072000000E+02  0.173752000000E+03 -0.169289000000E+03
  0.770516000000E+02  0.126424000000E+03 -0.160526000000E+03
  0.808950000000E+02  0.130001000000E+03 -0.156339000000E+03
  0.663951000000E+02  0.138319000000E+03 -0.158778000000E+03
  0.976799000000E+02  0.109111000000E+03 -0.171868000000E+03
  0.974741000000E+02  0.829901000000E+02 -0.177088000000E+03
  0.906011000000E+02  0.931141000000E+02 -0.172044000000E+03
  0.922739000000E+02  0.897062000000E+02 -0.172989000000E+03
  0.925460000000E+02  0.868485000000E+02 -0.170424000000E+03
  0.948980000000E+02  0.841736000000E+02 -0.171059000000E+03
  0.483060000000E+02  0.177313000000E+03 -0.153323000000E+03
  0.111750000000E+03  0.168015000000E+03 -0.183016000000E+03
  0.798561000000E+02  0.177251000000E+03 -0.183194000000E+03
  0.695058000000E+02  0.120160000000E+03 -0.152192000000E+03
  0.834470000000E+02  0.180572000000E+03 -0.182153000000E+03
  0.819071000000E+02  0.181642000000E+03 -0.179118000000E+03
  0.961471000000E+02  0.100316000000E+03 -0.152334000000E+03
  0.770471000000E+02  0.134569000000E+03 -0.184662000000E+03
  0.128387000000E+03  0.157511000000E+03 -0.149373000000E+03
  0.379569000000E+02  0.160269000000E+03 -0.175460000000E+03
  0.532630000000E+02  0.181346000000E+03 -0.156826000000E+03
  0.636987000000E+02  0.182161000000E+03 -0.157231000000E+03
  0.618926000000E+02  0.163651000000E+03 -0.144673000000E+03
  0.160477000000E+03  0.131719000000E+03 -0.168898000000E+03
  0.907084000000E+02  0.161408000000E+03 -0.138326000000E+03
  0.747532000000E+02  0.183519000000E+03 -0.165717000000E+03
  0.526856000000E+02  0.143794000000E+03 -0.158038000000E+03
  0.874775000000E+02  0.185997000000E+03 -0.171655000000E+03
  0.102680000000E+03  0.178886000000E+03 -0.157772000000E+03
  0.110817000000E+03  0.157874000000E+03 -0.191765000000E+03
  0.919580000000E+02  0.190077000000E+03 -0.163352000000E+03
  0.546740000000E+02  0.155741000000E+03 -0.143480000000E+03
  0.643655000000E+02  0.161583000000E+03 -0.144909000000E+03
  0.514051000000E+02  0.164154000000E+03 -0.142444000000E+03
  0.500794000000E+02  0.160874000000E+03 -0.142102000000E+03
  0.117263000000E+03  0.151964000000E+03 -0.141417000000E+03
  0.113615000000E+03  0.150656000000E+03 -0.141462000000E+03
  0.415358000000E+02  0.161838000000E+03 -0.138888000000E+03
  0.411746000000E+02  0.158849000000E+03 -0.138028000000E+03
  0.953675000000E+02  0.187731000000E+03 -0.151640000000E+03
  0.939225000000E+02  0.189958000000E+03 -0.150990000000E+03
  0.945481000000E+02  0.186816000000E+03 -0.147793000000E+03
  0.945757000000E+02  0.188564000000E+03 -0.144155000000E+03
  0.344316000000E+02  0.170421000000E+03 -0.151718000000E+03
  0.997236000000E+02  0.181248000000E+03 -0.177221000000E+03
  0.396045000000E+02  0.165529000000E+03 -0.177654000000E+03
  0.310897000000E+02  0.153668000000E+03 -0.152745000000E+03
  0.297461000000E+02  0.160075000000E+03 -0.157533000000E+03
  0.340276000000E+02  0.152881000000E+03 -0.159271000000E+03
  0.335193000000E+02  0.155501000000E+03 -0.162514000000E+03
  0.630429000000E+02  0.140144000000E+03 -0.158172000000E+03
  0.575308000000E+02  0.170106000000E+03 -0.192288000000E+03
  0.397986000000E+02  0.182793000000E+03 -0.175304000000E+03
  0.855778000000E+02  0.134209000000E+03 -0.195902000000E+03
  0.964164000000E+02  0.162641000000E+03 -0.139969000000E+03
  0.372764000000E+02  0.171972000000E+03 -0.148969000000E+03
  0.525018000000E+02  0.173794000000E+03 -0.145626000000E+03
  0.528216000000E+02  0.167461000000E+03 -0.142955000000E+03
  0.547723000000E+02  0.164555000000E+03 -0.142885000000E+03
  0.118080000000E+03  0.115219000000E+03 -0.154161000000E+03
  0.116605000000E+03  0.114580000000E+03 -0.139963000000E+03
  0.119514000000E+03  0.114153000000E+03 -0.139968000000E+03
  0.105371000000E+03  0.168651000000E+03 -0.142596000000E+03
  0.102076000000E+03  0.110140000000E+03 -0.150099000000E+03
  0.102271000000E+03  0.109817000000E+03 -0.141184000000E+03
  0.996903000000E+02  0.109195000000E+03 -0.141010000000E+03
  0.107913000000E+03  0.113299000000E+03 -0.142334000000E+03
  0.103956000000E+03  0.112728000000E+03 -0.140979000000E+03
  0.872389000000E+02  0.143903000000E+03 -0.145352000000E+03
  0.832125000000E+02  0.157468000000E+03 -0.142367000000E+03
  0.844759000000E+02  0.160101000000E+03 -0.140695000000E+03
  0.125003000000E+03  0.156338000000E+03 -0.154902000000E+03
  0.860066000000E+02  0.163024000000E+03 -0.139108000000E+03
  0.121708000000E+03  0.151817000000E+03 -0.159503000000E+03
  0.720100000000E+02  0.161198000000E+03 -0.140686000000E+03
  0.727287000000E+02  0.157455000000E+03 -0.141494000000E+03
  0.708991000000E+02  0.127039000000E+03 -0.146860000000E+03
  0.147337000000E+03  0.648724000000E+02 -0.185357000000E+03
  0.143731000000E+03  0.651645000000E+02 -0.186592000000E+03
  0.145178000000E+03  0.651239000000E+02 -0.183314000000E+03
  0.767236000000E+02  0.118450000000E+03 -0.163023000000E+03
  0.942994000000E+02  0.135597000000E+03 -0.147030000000E+03
  0.997488000000E+02  0.849702000000E+02 -0.194293000000E+03
  0.993043000000E+02  0.838741000000E+02 -0.191532000000E+03
  0.117778000000E+03  0.157849000000E+03 -0.184818000000E+03
  0.650075000000E+02  0.152624000000E+03 -0.143520000000E+03
  0.116627000000E+03  0.139759000000E+03 -0.149737000000E+03
  0.124572000000E+03  0.150163000000E+03 -0.159752000000E+03
  0.673444000000E+02  0.146238000000E+03 -0.144370000000E+03
  0.155950000000E+03  0.137653000000E+03 -0.168281000000E+03
  0.753405000000E+02  0.144158000000E+03 -0.195034000000E+03
  0.119299000000E+03  0.106460000000E+03 -0.179646000000E+03
  0.115965000000E+03  0.106155000000E+03 -0.177173000000E+03
  0.132349000000E+03  0.131413000000E+03 -0.155495000000E+03
  0.158561000000E+03  0.125021000000E+03 -0.152521000000E+03
  0.158256000000E+03  0.122638000000E+03 -0.150290000000E+03
  0.719690000000E+02  0.156774000000E+03 -0.199842000000E+03
  0.481106000000E+02  0.163672000000E+03 -0.141568000000E+03
  0.180864000000E+03  0.100283000000E+03 -0.184161000000E+03
  0.593184000000E+02  0.146669000000E+03 -0.191262000000E+03
  0.131077000000E+03  0.779052000000E+02 -0.158080000000E+03
  0.139424000000E+03  0.778952000000E+02 -0.158383000000E+03
  0.135903000000E+03  0.777381000000E+02 -0.158392000000E+03
  0.136725000000E+03  0.801941000000E+02 -0.156668000000E+03
  0.151586000000E+03  0.118396000000E+03 -0.144477000000E+03
  0.150952000000E+03  0.111876000000E+03 -0.143511000000E+03
  0.154491000000E+03  0.101900000000E+03 -0.146112000000E+03
  0.137443000000E+03  0.980130000000E+02 -0.161135000000E+03
  0.134571000000E+03  0.873556000000E+02 -0.151344000000E+03
  0.160965000000E+03  0.959119000000E+02 -0.152131000000E+03
  0.134766000000E+03  0.148112000000E+03 -0.159408000000E+03
  0.137838000000E+03  0.142811000000E+03 -0.151664000000E+03
  0.156333000000E+03  0.113358000000E+03 -0.147899000000E+03
  0.118792000000E+03  0.149153000000E+03 -0.155092000000E+03
  0.124693000000E+03  0.138793000000E+03 -0.201026000000E+03
  0.891920000000E+02  0.189255000000E+03 -0.160411000000E+03
  0.927623000000E+02  0.999518000000E+02 -0.145724000000E+03
  0.767874000000E+02  0.149608000000E+03 -0.200127000000E+03
  0.724990000000E+02  0.150544000000E+03 -0.199652000000E+03
  0.788356000000E+02  0.126291000000E+03 -0.169511000000E+03
  0.857450000000E+02  0.120398000000E+03 -0.170586000000E+03
  0.106860000000E+03  0.182882000000E+03 -0.169133000000E+03
  0.125829000000E+03  0.720346000000E+02 -0.164710000000E+03
  0.168435000000E+03  0.922187000000E+02 -0.209614000000E+03
  0.113681000000E+03  0.854241000000E+02 -0.208448000000E+03
  0.113735000000E+03  0.733101000000E+02 -0.163482000000E+03
  0.132758000000E+03  0.798619000000E+02 -0.207887000000E+03
  0.124366000000E+03  0.891935000000E+02 -0.211938000000E+03
  0.127413000000E+03  0.884038000000E+02 -0.211869000000E+03
  0.135949000000E+03  0.757751000000E+02 -0.204686000000E+03
  0.175259000000E+03  0.111367000000E+03 -0.182392000000E+03
  0.155993000000E+03  0.971897000000E+02 -0.209786000000E+03
  0.152898000000E+03  0.951727000000E+02 -0.210251000000E+03
  0.173035000000E+03  0.113911000000E+03 -0.176084000000E+03
  0.937795000000E+02  0.175043000000E+03 -0.129879000000E+03
  0.887563000000E+02  0.180814000000E+03 -0.131774000000E+03
  0.996614000000E+02  0.178003000000E+03 -0.129922000000E+03
  0.949207000000E+02  0.169394000000E+03 -0.132326000000E+03
  0.126162000000E+03  0.130024000000E+03 -0.204385000000E+03
  0.122095000000E+03  0.131221000000E+03 -0.188463000000E+03
  0.153783000000E+03  0.132772000000E+03 -0.189927000000E+03
  0.161889000000E+03  0.119056000000E+03 -0.195900000000E+03
  0.159701000000E+03  0.121885000000E+03 -0.195598000000E+03
  0.153665000000E+03  0.136479000000E+03 -0.183237000000E+03
  0.946448000000E+02  0.991062000000E+02 -0.187102000000E+03
  0.122895000000E+03  0.135231000000E+03 -0.144642000000E+03
  0.965222000000E+02  0.105367000000E+03 -0.195483000000E+03
  0.101940000000E+03  0.786004000000E+02 -0.181875000000E+03
  0.131141000000E+03  0.144446000000E+03 -0.153705000000E+03
  0.770344000000E+02  0.169688000000E+03 -0.195912000000E+03
  0.799439000000E+02  0.170996000000E+03 -0.194837000000E+03
  0.111454000000E+03  0.739423000000E+02 -0.184260000000E+03
  0.106603000000E+03  0.746980000000E+02 -0.178556000000E+03
  0.345475000000E+02  0.165084000000E+03 -0.139720000000E+03
  0.950554000000E+02  0.172682000000E+03 -0.191901000000E+03
  0.719774000000E+02  0.159711000000E+03 -0.200771000000E+03
  0.992629000000E+02  0.163161000000E+03 -0.197290000000E+03
  0.915587000000E+02  0.163572000000E+03 -0.198758000000E+03
  0.895110000000E+02  0.167358000000E+03 -0.197123000000E+03
  0.700099000000E+02  0.173519000000E+03 -0.190582000000E+03
  0.178863000000E+03  0.106267000000E+03 -0.180656000000E+03
  0.105049000000E+03  0.107704000000E+03 -0.169566000000E+03
  0.102832000000E+03  0.108467000000E+03 -0.166030000000E+03
  0.740444000000E+02  0.183104000000E+03 -0.151735000000E+03
  0.100855000000E+03  0.108135000000E+03 -0.162433000000E+03
  0.950379000000E+02  0.866171000000E+02 -0.158619000000E+03
  0.109545000000E+03  0.106312000000E+03 -0.178996000000E+03
  0.605362000000E+02  0.182995000000E+03 -0.157283000000E+03
  0.128918000000E+03  0.119276000000E+03 -0.206466000000E+03
  0.948093000000E+02  0.136140000000E+03 -0.199222000000E+03
  0.939780000000E+02  0.142520000000E+03 -0.199903000000E+03
  0.942749000000E+02  0.146197000000E+03 -0.200003000000E+03
  0.126072000000E+03  0.121933000000E+03 -0.206710000000E+03
  0.122272000000E+03  0.121108000000E+03 -0.207297000000E+03
  0.859607000000E+02  0.145788000000E+03 -0.198842000000E+03
  0.128063000000E+03  0.966963000000E+02 -0.143704000000E+03
  0.139583000000E+03  0.103042000000E+03 -0.141405000000E+03
  0.134028000000E+03  0.995772000000E+02 -0.143078000000E+03
  0.850585000000E+02  0.166805000000E+03 -0.197835000000E+03
  0.131254000000E+03  0.983285000000E+02 -0.143089000000E+03
  0.128353000000E+03  0.100238000000E+03 -0.142518000000E+03
  0.916285000000E+02  0.149657000000E+03 -0.199430000000E+03
  0.131629000000E+03  0.724107000000E+02 -0.164135000000E+03
  0.139697000000E+03  0.106337000000E+03 -0.208180000000E+03
  0.139112000000E+03  0.109407000000E+03 -0.207534000000E+03
  0.128357000000E+03  0.165079000000E+03 -0.156128000000E+03
  0.826739000000E+02  0.119154000000E+03 -0.164010000000E+03
  0.132411000000E+03  0.150254000000E+03 -0.184709000000E+03
  0.802320000000E+02  0.124142000000E+03 -0.172076000000E+03
  0.158482000000E+03  0.955599000000E+02 -0.149975000000E+03
  0.156520000000E+03  0.971781000000E+02 -0.147868000000E+03
  0.599548000000E+02  0.181948000000E+03 -0.175665000000E+03
  0.878813000000E+02  0.146990000000E+03 -0.143758000000E+03
  0.159668000000E+03  0.852506000000E+02 -0.155371000000E+03
  0.152109000000E+03  0.921179000000E+02 -0.148749000000E+03
  0.155781000000E+03  0.936409000000E+02 -0.149035000000E+03
  0.861893000000E+02  0.149331000000E+03 -0.143373000000E+03
  0.124646000000E+03  0.759203000000E+02 -0.206682000000E+03
  0.115237000000E+03  0.146951000000E+03 -0.198177000000E+03
  0.726547000000E+02  0.179021000000E+03 -0.181254000000E+03
  0.115216000000E+03  0.144643000000E+03 -0.186050000000E+03
  0.149989000000E+03  0.648374000000E+02 -0.184175000000E+03
  0.150424000000E+03  0.136277000000E+03 -0.155779000000E+03
  0.159283000000E+03  0.133498000000E+03 -0.171225000000E+03
  0.169419000000E+03  0.103201000000E+03 -0.159385000000E+03
  0.169133000000E+03  0.993271000000E+02 -0.158681000000E+03
  0.133014000000E+03  0.671406000000E+02 -0.185177000000E+03
  0.166354000000E+03  0.733002000000E+02 -0.209778000000E+03
  0.174581000000E+03  0.896099000000E+02 -0.172453000000E+03
  0.175061000000E+03  0.929867000000E+02 -0.169607000000E+03
  0.181578000000E+03  0.828442000000E+02 -0.192625000000E+03
  0.179644000000E+03  0.719942000000E+02 -0.192762000000E+03
  0.764095000000E+02  0.182884000000E+03 -0.167725000000E+03
  0.795335000000E+02  0.183650000000E+03 -0.167957000000E+03
  0.137287000000E+03  0.954926000000E+02 -0.210499000000E+03
  0.392889000000E+02  0.172708000000E+03 -0.163731000000E+03
  0.165505000000E+03  0.112132000000E+03 -0.198302000000E+03
  0.168452000000E+03  0.108550000000E+03 -0.198525000000E+03
  0.151086000000E+03  0.688918000000E+02 -0.171790000000E+03
  0.120874000000E+03  0.116312000000E+03 -0.153488000000E+03
  0.149788000000E+03  0.658972000000E+02 -0.178320000000E+03
  0.153728000000E+03  0.666712000000E+02 -0.178121000000E+03
  0.133884000000E+03  0.111768000000E+03 -0.162340000000E+03
  0.156628000000E+03  0.663127000000E+02 -0.198112000000E+03
  0.123783000000E+03  0.166547000000E+03 -0.143142000000E+03
  0.129071000000E+03  0.142133000000E+03 -0.150638000000E+03
  0.118993000000E+03  0.160134000000E+03 -0.139307000000E+03
  0.117090000000E+03  0.162906000000E+03 -0.138753000000E+03
  0.130802000000E+03  0.139880000000E+03 -0.148397000000E+03
  0.120167000000E+03  0.136717000000E+03 -0.157818000000E+03
  0.584043000000E+02  0.181213000000E+03 -0.178960000000E+03
  0.135603000000E+03  0.129757000000E+03 -0.200916000000E+03
  0.138327000000E+03  0.126194000000E+03 -0.201716000000E+03
  0.131105000000E+03  0.140703000000E+03 -0.196680000000E+03
  0.496471000000E+02  0.184947000000E+03 -0.176812000000E+03
  0.120987000000E+03  0.132833000000E+03 -0.156292000000E+03
  0.124976000000E+03  0.141621000000E+03 -0.150376000000E+03
  0.532871000000E+02  0.181263000000E+03 -0.162229000000E+03
  0.469303000000E+02  0.181739000000E+03 -0.167587000000E+03
  0.491572000000E+02  0.182564000000E+03 -0.170363000000E+03
  0.684108000000E+02  0.160441000000E+03 -0.200454000000E+03
  0.897712000000E+02  0.171153000000E+03 -0.194439000000E+03
  0.708559000000E+02  0.163251000000E+03 -0.199697000000E+03
  0.965516000000E+02  0.108689000000E+03 -0.168767000000E+03
  0.980229000000E+02  0.174072000000E+03 -0.189317000000E+03
  0.163189000000E+03  0.672871000000E+02 -0.183215000000E+03
  0.164022000000E+03  0.790176000000E+02 -0.168393000000E+03
  0.506596000000E+02  0.143813000000E+03 -0.161233000000E+03
  0.163325000000E+03  0.705771000000E+02 -0.177586000000E+03
  0.918707000000E+02  0.116661000000E+03 -0.187606000000E+03
  0.798692000000E+02  0.146899000000E+03 -0.199727000000E+03
  0.400235000000E+02  0.149929000000E+03 -0.168229000000E+03
  0.425706000000E+02  0.147536000000E+03 -0.167224000000E+03
  0.401314000000E+02  0.151078000000E+03 -0.168508000000E+03
  0.785457000000E+02  0.148352000000E+03 -0.198617000000E+03
  0.822730000000E+02  0.146928000000E+03 -0.198724000000E+03
  0.402049000000E+02  0.148698000000E+03 -0.165449000000E+03
  0.287212000000E+02  0.156082000000E+03 -0.151844000000E+03
  0.170367000000E+03  0.103485000000E+03 -0.201249000000E+03
  0.957151000000E+02  0.191845000000E+03 -0.161650000000E+03
  0.833798000000E+02  0.185234000000E+03 -0.160107000000E+03
  0.144552000000E+03  0.142668000000E+03 -0.189165000000E+03
  0.147216000000E+03  0.141177000000E+03 -0.188222000000E+03
  0.721974000000E+02  0.137198000000E+03 -0.151872000000E+03
  0.673884000000E+02  0.143347000000E+03 -0.148887000000E+03
  0.674369000000E+02  0.146334000000E+03 -0.146257000000E+03
  0.683471000000E+02  0.153762000000E+03 -0.145457000000E+03
  0.144051000000E+03  0.137479000000E+03 -0.193288000000E+03
  0.862817000000E+02  0.151736000000E+03 -0.141025000000E+03
  0.135142000000E+03  0.132808000000E+03 -0.143331000000E+03
  0.129061000000E+03  0.134257000000E+03 -0.144066000000E+03
  0.137321000000E+03  0.130209000000E+03 -0.143185000000E+03
  0.165506000000E+03  0.938042000000E+02 -0.155856000000E+03
  0.162149000000E+03  0.126227000000E+03 -0.163391000000E+03
  0.101712000000E+03  0.189744000000E+03 -0.153354000000E+03
  0.104242000000E+03  0.191708000000E+03 -0.155549000000E+03
  0.915672000000E+02  0.190225000000E+03 -0.157918000000E+03
  0.163089000000E+03  0.127526000000E+03 -0.177915000000E+03
  0.164887000000E+03  0.125469000000E+03 -0.175155000000E+03
  0.159275000000E+03  0.714350000000E+02 -0.206628000000E+03
  0.162762000000E+03  0.721047000000E+02 -0.208417000000E+03
  0.169689000000E+03  0.683173000000E+02 -0.206368000000E+03
  0.300513000000E+02  0.156275000000E+03 -0.155220000000E+03
  0.757321000000E+02  0.133148000000E+03 -0.143597000000E+03
  0.272603000000E+02  0.156683000000E+03 -0.148420000000E+03
  0.286555000000E+02  0.155024000000E+03 -0.148205000000E+03
  0.952288000000E+02  0.942015000000E+02 -0.183060000000E+03
  0.105950000000E+03  0.750628000000E+02 -0.172282000000E+03
  0.657299000000E+02  0.155771000000E+03 -0.145535000000E+03
  0.585132000000E+02  0.145689000000E+03 -0.184982000000E+03
  0.838698000000E+02  0.127240000000E+03 -0.159592000000E+03
  0.614854000000E+02  0.172769000000E+03 -0.186143000000E+03
  0.606681000000E+02  0.147540000000E+03 -0.191287000000E+03
  0.872315000000E+02  0.181024000000E+03 -0.182011000000E+03
  0.886368000000E+02  0.182606000000E+03 -0.179197000000E+03
  0.917686000000E+02  0.156855000000E+03 -0.198717000000E+03
  0.853083000000E+02  0.182185000000E+03 -0.179376000000E+03
  0.866401000000E+02  0.148164000000E+03 -0.200384000000E+03
  0.871205000000E+02  0.151218000000E+03 -0.200574000000E+03
  0.783542000000E+02  0.155636000000E+03 -0.200203000000E+03
  0.850142000000E+02  0.172124000000E+03 -0.133948000000E+03
  0.168518000000E+03  0.111220000000E+03 -0.160228000000E+03
  0.159779000000E+03  0.995212000000E+02 -0.208966000000E+03
  0.875023000000E+02  0.169012000000E+03 -0.134514000000E+03
  0.794782000000E+02  0.184300000000E+03 -0.148460000000E+03
  0.347433000000E+02  0.169249000000E+03 -0.160814000000E+03
  0.780260000000E+02  0.173329000000E+03 -0.136666000000E+03
  0.124559000000E+03  0.157393000000E+03 -0.175454000000E+03
  0.134391000000E+03  0.848164000000E+02 -0.153320000000E+03
  0.121455000000E+03  0.158142000000E+03 -0.177285000000E+03
  0.116350000000E+03  0.157338000000E+03 -0.175419000000E+03
  0.114707000000E+03  0.149762000000E+03 -0.165883000000E+03
  0.138775000000E+03  0.112145000000E+03 -0.146360000000E+03
  0.632595000000E+02  0.158126000000E+03 -0.145414000000E+03
  0.521916000000E+02  0.158090000000E+03 -0.142831000000E+03
  0.136223000000E+03  0.109732000000E+03 -0.139423000000E+03
  0.816045000000E+02  0.180802000000E+03 -0.177283000000E+03
  0.741791000000E+02  0.182796000000E+03 -0.165306000000E+03
  0.940872000000E+02  0.179745000000E+03 -0.183558000000E+03
  0.924715000000E+02  0.171847000000E+03 -0.131246000000E+03
  0.955817000000E+02  0.135038000000E+03 -0.143262000000E+03
  0.127721000000E+03  0.156992000000E+03 -0.173487000000E+03
  0.138606000000E+03  0.686869000000E+02 -0.200883000000E+03
  0.119367000000E+03  0.173492000000E+03 -0.153624000000E+03
  0.126864000000E+03  0.142094000000E+03 -0.198272000000E+03
  0.131562000000E+03  0.145270000000E+03 -0.193394000000E+03
  0.126572000000E+03  0.140137000000E+03 -0.199461000000E+03
  0.107836000000E+03  0.166946000000E+03 -0.187953000000E+03
  0.117498000000E+03  0.140325000000E+03 -0.186898000000E+03
  0.124539000000E+03  0.141913000000E+03 -0.199732000000E+03
  0.985045000000E+02  0.178571000000E+03 -0.183512000000E+03
  0.942366000000E+02  0.177943000000E+03 -0.183827000000E+03
  0.945792000000E+02  0.186250000000E+03 -0.138672000000E+03
  0.103601000000E+03  0.183101000000E+03 -0.135109000000E+03
  0.961808000000E+02  0.169887000000E+03 -0.191630000000E+03
  0.108185000000E+03  0.163210000000E+03 -0.190509000000E+03
  0.112231000000E+03  0.162967000000E+03 -0.187111000000E+03
  0.677934000000E+02  0.183119000000E+03 -0.150251000000E+03
  0.706119000000E+02  0.184489000000E+03 -0.152179000000E+03
  0.717540000000E+02  0.184079000000E+03 -0.149428000000E+03
  0.144028000000E+03  0.746660000000E+02 -0.161461000000E+03
  0.146762000000E+03  0.760614000000E+02 -0.160082000000E+03
  0.811472000000E+02  0.166261000000E+03 -0.136596000000E+03
CELLS      29054    145270
4      1      2      3      4
4      5      6      8      2
4      2      1      9     10
4     11     12     13     14
4      8     15      1     16
4     17     18     19     16
4     21      1     22     23
4     10      1     14      2
4     24      1     22     21
4      1     23     25     16
4      4      1     14     12
4      1     25     26     14
4     27      2      1      8
4      8      2      1      5
4      8     28     29     30
4     12     31     32     11
4     19     16     33      8
4     34    840     35    846
4   2681     37     98     38
4      8     39     40     41
4      8     43     44     45
4      1     17     37     46
4     16      1     17     25
4     47     48   6573     49
4     25     50     51     52
4     32     53     54     25
4     23      1     15     16
4     16     25     17     55
4     56     57     58     59
4     46     17     37     28
4     10     60     62      2
4     28     19     20    751
4     30     63    398     64
4   3932    393     65     63
4    965     64     29    960
4     28     64    960     29
4     28     64    881    857
4     63     64     29    965
4     67     68     69     70
4      1     17     25     37
4     12   2842     11    255
4   4991     11   6641     12
4     12     11   6641    255
4     71   4950     72   3224
4     73   3964    657    478
4      2     74     60     75
4     26     10      1     14
4      1     10     26     24
4    532   4331      9    531
4      4    845    941      3
4      2     60     62     76
4      8      1     27     77
4     78     79     80    412
4     80     79    491    412
4     81     82   5982   6840
4     83     84     51   6302
4     85    263     86    260
4   3951     80     87     79
4     80     88    492   4947
4     80     88    260    492
4     89   6181    165    210
4     80   6321    492    494
4     56     78     79     80
4     56     59     58     55
4      8     16     46     28
4     87     90    245   3949
4     56     86     80     88
4     56     91     92     93
4     28     16     46     17
4    956    942    847     94
4     94     95    951    945
4     94    950    834    951
4      1      8     16     46
4     96      3    815    867
4     27    814    909      3
4      2     14     74     97
4      2     74     14     60
4    964    785    957   3871
4     35     94    834     96
4    221    528   3044     74
4     14      4     89     97
4    605     72   4625   6579
4     95     34     97     94
4     25     56     16     85
4     16     99    100    101
4     45     43     63      8
4    102     49   6864   5494
4     18    103     55    102
4    719     33    103   5124
4    103     47     16     55
4    102   5057    414     18
4    561   5150   5149     55
4     18     17   5150     55
4   6281   5641    557     17
4   2823    104    542     76
4     16     17     28     19
4    652    100   5565    101
4    100    317    105    641
4    100    321     99   6868
4    298    226     79   6424
4    106    100    317    105
4     15   2910    107    108
4     16    109    106    100
4   4081   6732     34    272
4    110    106    100     16
4    111   4396    817    982
4    106    105   5420   5840
4    100    317    342    106
4    961     27    979     77
4     27      8    112      6
4     29    112    961     46
4    961    966    963     29
4    920    112    961     29
4     43    112    920     29
4      8    113    114     71
4    110     48     16    115
4    115     48   4196    656
4     48    355    333   4222
4    115     48    656   3630
4     22   6867    237    233
4   3629    115   3630     48
4    116   6623    114   3827
4     33     49     16    103
4    909     27    866    979
4    117    118    803    905
4    117    119    120    827
4    119      4    936    956
4   4947   3951     80     87
4    119    954    120    827
4    119    830    120    954
4    949     37    843    844
4     13   6805   6806   4991
4     31     11   2842    222
4     69    120    119    830
4    119    936      4    939
4    948     77    848    119
4    121    381    123   6592
4    119    939      4    845
4    119    845      4     77
4    239    124    251     11
4     81    124    127   6271
4   4367    128    174    130
4   4367    130    591    124
4    119     77     32     37
4    124   5942    127   6271
4    124     11   5942   5806
4     81    591    124    218
4   5570    131    508   5607
4    128    124    132    130
4     25    124    132     50
4    133     50   6164    284
4    133   6164     14   4472
4    133    725    267   4472
4   4567    725    267    133
4    261   6483   4567    133
4     97    210    133   4089
4    133    246     11    728
4    246    133    165   4635
4    133    261     97   4089
4     71    134    663     73
4     41     44   4950     72
4   2900    226    487     78
4   4950     44     71     72
4    135    101    676    480
4    135    136    676    101
4    137    138     73    478
4     72   4625   4596   4898
4     78    140    487   6278
4      8    112     46     77
4    135    101     99     33
4   6592    123    121    137
4     99   2910    368    107
4    135    141     99    326
4    905    120    117    118
4    903     67     69    120
4    831    947    142     69
4    949     37    142    144
4   4828    262    223     67
4     69    120    830    903
4    142    126    902    801
4    142     38    576   3665
4    145    146   6594    497
4    144   2860      7   2862
4    144   2860    801    833
4    144     38   2768     98
4    144     38     42   2768
4    144     38   3665     42
4    147   2859   5986   3861
4    147    148   2791    655
4    149    150    138   2792
4    138    148    147    655
4    147    472   2795   5986
4    147   5172    633    635
4     39    151     41    680
4     41    151    624    680
4   2892     90   5770    152
4    153    524    519   5631
4     39     41    151    154
4     40     41    112      8
4      2    155    156      5
4    604    151    624     41
4      5     41    155    604
4    155    269    614    156
4   5283    892    885    322
4   3521    146    490    158
4   4111    373    159    161
4    146    490    158    162
4    305    439    673    158
4    158    146   4773    305
4    158    146    433   4773
4     56    152    163     59
4     57    164    163     56
4    503    162    502    158
4   4039    118     70   4038
4    166   5585    159    145
4    158    152   5273    495
4    158   5231   4770   4768
4    159   5393    167    145
4     76     62   6885     60
4     97     89   2671     95
4      8      1    168      5
4      2    104     75     76
4    105    110    106    100
4    738     60    670     14
4     74     14   6483     97
4     62     10    739    627
4      2     27      3    169
4     35     75     34     96
4      3      4     96    815
4     74    698     97   6846
4     75     76   2823    678
4     76     75     60   3272
4    738     14     74     60
4    738     74    221     60
4     83    170    302   2964
4    128    133    728    690
4     81    170   5607    131
4     10     26    711     14
4     26     14    232    711
4    736    405    616    984
4     10    711     26   2678
4    500    541    140   3236
4     52    241   3555   3554
4     26    241   3555     52
4     21     24     26   2678
4     25    171     56    172
4    161    159   5393    167
4    173     48    175   3037
4    355    110     48    175
4    432    115   3630   3629
4    161   2903     48   3569
4    338    173    731    333
4     48   3569   2887    339
4     48   3568    375    338
4   3675    113   5945    720
4     71      8    113     33
4    102    414   6817    415
4    176     55     59     47
4    100     99    321   2702
4    100    105    652    641
4   5464    141    368    107
4    659   3557   3515    148
4    116    633    134    147
4    177    178   4226   2721
4    136   6177   5958    343
4    110    759    386   5958
4    115    110   3629    432
4    136   6177   3558   3804
4    104   3202     35     75
4      1    179     10     24
4      3      4    815    941
4     53     11     25     32
4    181    495    505    152
4   6302     84     51    242
4    164    279    163    182
4    564    183    171     54
4     58    171   3939   3938
4   5593    182   5256    164
4     56     90    140    152
4     92     25     56    172
4     47     16     49    103
4   6436    417    360    184
4    171     93     58     56
4    164   5428   6345    585
4    182    152   6541   5273
4     16     15    100     99
4    103     19    719    443
4    177    178    354   4226
4   3664    461    434    414
4     86     80     88    260
4     87     88   4947    370
4     85    694    385     23
4     78     80    486    412
4     30   6089     19    444
4     30   5579     19   6089
4     28     64    857    978
4    281    131    328     78
4     28    958    857   1080
4    681    107    708    108
4     64     29     30     63
4     64    915     63    876
4      8    185     19     30
4    111     76    156    542
4    104    111    871    853
4    104    855    957    862
4    550     76    545     62
4    871    169      6    104
4    111    542    534    104
4    104    852    855    854
4    911    169    870    910
4    232     50   6164     14
4     11    124    251   5806
4    128    124    133     50
4     83    127     81    124
4     28     17     20     19
4     25     52     51    186
4     25     83     92     84
4    166    884    896    897
4     25     50     26     14
4    128    249    729   6004
4    128   5143    249    264
4    128    133    264    249
4    128    124   4367    212
4    133     50     14   6164
4     22    179    108     15
4     15     99     72    107
4      6     27    869    976
4      9   3289    168      5
4    155    151    481    620
4   1076    187   2300    746
4    614   4348    155    156
4   3103    176    441   2674
4   5567      9    156      5
4    156      5    155    269
4    153    108    270   4086
4    615    269    614    155
4    155    151    620    617
4     15     72      8    168
4    393     63     45     65
4    151    155    604    617
4     41    155    604    151
4    187    111      6    155
4    179      1      9    168
4     23     22    362     15
4     15    108   2871   2910
4   6102   4760    414     18
4    248     85    694    385
4    106    109   6285    342
4    187    746   3656    748
4    187    993    880   1076
4    765    154    749   2300
4    112     43    920     40
4    162    290    377   3955
4    159   5728   5729   2737
4    188    159   3404   2737
4   3870    556   5711     59
4    176   5706   5711     59
4    184   3955    377    388
4    881     28   2838   3221
4     53    183    127    686
4    149   5616    685    760
4     25     53    127     11
4    531    156      9    529
4    124    127   5942     11
4    909      3    866     27
4      3    867     27    814
4     17     20     19     18
4      2    104    111      6
4    104    169    852    871
4    968     27    814    909
4     96    169      3    867
4     60    670    627   6885
4     70     31     12    220
4    189    890   5170    780
4     89     97    208   5985
4      1      9    168      5
4     72     41   4898   4950
4    959    112    917    992
4     44    431    642     71
4     77    112    961     27
4    910    169    870    104
4      3    845    941    909
4     53   4780     54    560
4    154     41    151    155
4     35    950    834     94
4    169      6    861    871
4     62   6332   6882      9
4     76    526    529    156
4      5      9      2      1
4      5    168    606   3289
4    168      9    179    525
4      9   3543    525   4202
4      9    179   4915    555
4     92   4381   5397    328
4      9   6332   6882    555
4    531      9   4208   4331
4   4915      9   3543    179
4   5352    350    107    708
4   4208    156    527      9
4    107    121     72    178
4    177    123    178    121
4   5631   3342    519    153
4   6579     72   4625   4596
4    363   6590   6592    123
4    228    562    132    236
4   4947   6321    492     80
4     16    109     85     88
4    175    244   5495   3952
4   5913    103   5494     49
4    163    417   4511    295
4    173   5770    353    175
4    244    175   6788   5955
4    152   2852   5635   4600
4    115    110   3691    101
4    167   5394   5393   5791
4    173    359   5115    675
4    152   2892   5635    389
4    187     40    992    993
4   2300     40    765    154
4    156      5      9      2
4      6    111    850    871
4     54    565    569     17
4     71    116    134    135
4     29    966    963    962
4     29     63    965    921
4     96    169    911     35
4    169    868    861      6
4      8     45    185     63
4    187    748     61    154
4     40      8     43     44
4    190   4439   3548    650
4    190    319     66    747
4    112    961     46     77
4     40    191     43    878
4     43     29    921     63
4     40     43    920    988
4      1      2     27      3
4   5958    101    136   3691
4      8     43     63     29
4     28     64     29     30
4      8    185     30     63
4    192     45    426    758
4     45    426    456   5583
4    431     44    642    639
4    639     44    642    758
4     85    694     23    325
4   2914     84    230    186
4    186    238    693     52
4    103    102     47     55
4     84     86   2914   4568
4   2822    186    238    693
4    693    695    325    186
4   5979    396    146    497
4    325     85   2914    186
4     56     85     86     88
4     25    186     23     52
4    168    606   4228    609
4      8    185     45    114
4      2     76    156    111
4   3521    158    490    503
4    463     17     18   6281
4     19     30    751     28
4     15    179    108    168
4     41      5    155    187
4    155   6128    111   2937
4    156    111    539   2937
4     25     50    132     51
4    184    162    377   3955
4    811   1080     28   2839
4     25     26     50     52
4     51   5553   5554     50
4   5217    258    819   5703
4   2766   5081    557     17
4    142    126    808    902
4    142    947    902    807
4    510    193    605    177
4     28    811    810    856
4    858    967    857    881
4    882    967   1089    858
4    882    876   1089    967
4     64    883    881    967
4    881    857    865    969
4    967    883    881    858
4     64    883   2532    881
4    881    865    857    858
4   2681    798     98    810
4    142   5250    144   3665
4    194    906    821    932
4    708    108    709    681
4     70     67   4710    118
4   2992   4016    892   6055
4    708    350    107    374
4     99    326   6811   5975
4   4625    168     41     72
4    107    708   5213   5352
4    107   5213    705   5352
4    107    368   5213   2910
4     58   2805   3938   3939
4     28   3221     64     30
4    173    410    359    731
4   3569   3568    375     48
4    585     57    273     93
4   2583   3428   3948    196
4    635   5615    638    149
4     16     88    106    109
4    278     91   5951   5795
4     91   3039   5797   2900
4     40    992    993    917
4     76   5083    540    543
4    191    419    336    592
4    169    871    851    852
4    104     35    957    910
4    169    852    851    870
4      8     28     30     19
4     28   2839    751   2765
4   4221    145    189   6594
4    193   5631   4754    518
4    153    193   5631   3342
4    445     47   4351   5404
4    197    316   5784    310
4   3221     64    881     28
4     65   4541    464   4730
4    111    850    973    919
4      2     62      9     76
4     46    872    962     29
4    155   4348    614    625
4    156    540    526   2921
4    152    159    184     59
4   2752    111   3519   4396
4   1081   1082    798    810
4    193   5820   6396    773
4   6743    185   3403    335
4   6000    603    193   5999
4    177    193    605    178
4    193   5339   2806    517
4    193    178    153    168
4    193   6396   6000    775
4   4494   6398    198    668
4    193   5631   5999    607
4    511    774   5820    193
4    162    158    146    159
4     19    444    292   3696
4    176    102   2674   3664
4    171   3938   4199   3939
4    131   4662   4799    508
4     80    494   6071    486
4    145    506    181    507
4    181    152    505   3907
4     37   2681     17     38
4    142    194   2913   4526
4     32    119     69     70
4    572     38    569   6207
4   1091   1082      7    798
4    142   3665    144     38
4    363    137   6592    657
4    120    806    822     67
4    143    194    782    129
4     69    142    194    807
4    809    125    799    801
4    808    126   4974    809
4    193    775    518   4754
4    193   6396    775   4345
4    193    775   6000    518
4    511    193    603    602
4   2721    177   5339   2746
4    171    564   4199    563
4     30   6016   4096   6619
4    562   4795    128    132
4     88   6284    493   5595
4     87   4948    370   4947
4    159   4655   3210    467
4   5172    147   3827    472
4    633   5172    147   3827
4     45    717   4658    715
4    199    349    520    654
4   1082    144     37    843
4      7    144    798   1082
4   1081   2846    810    798
4    799    125    946    801
4     65   4404    464   4541
4    114    423   6623   6621
4    719    113   3326     19
4    197    349   5783    651
4   4754   3342    519   5631
4    193   6396   5820   6000
4    193    153    516   3342
4     43     40    879    988
4    946   2860    833    801
4    809   5090    799    125
4    145    181    506    484
4    167    484   4466    181
4    147   3125   2873   4792
4   5390    145    475    167
4    147   2859   3861    754
4    147   5986   2859    471
4     88    493   6284    260
4   3202     35     75    724
4     54    564   5599    565
4     58    581   2805   3939
4    433    495    505    181
4   5593     91   5797   6278
4    100    101     99   2702
4     59    556   6436   3870
4    131   5397     83   5398
4   4785     55     58    581
4     86   6071    263   2914
4    171   4199    564   3939
4    179   4915    265    523
4     62     76   6885    550
4     75     76    678   3272
4    181    433    158    146
4    404    428    166    200
4     48    375    339    380
4    110    175     16     48
4     48   2887   3569   2903
4    106    105    317   5420
4    130    203    174    590
4   2860    144      7    943
4     40    993   1076    989
4   2300    154    187     40
4    187    111   3519   2752
4    187   1076     40    993
4    192    199   5135   3199
4     39     41    154     40
4    104   2763   2988   2750
4    862   3715   3354   1009
4    862    849    957   2763
4    104   2750    862   2763
4    862   3715   2750   3354
4    144    843    833    949
4    144    949     37    843
4    943   1082    144      7
4   1091      7   1082    943
4     72     99    141    107
4     31   3271   3270    559
4    142    144    801    949
4     67   4710   4876   4828
4     68   3270   6568   4825
4     73   3937   5171   3996
4     73   5171   3937    661
4    149    634    462   2795
4    116    147   3827    633
4     45    717    456   4658
4   5644    116    113    720
4    201   5790   5058   2725
4    581   4785   3939     58
4    145    475    167    484
4    164   5593    358   5980
4    152   2852   4600   3273
4     91   5797    280   5593
4    298    252     78   3577
4    145    181    484    167
4     79    768    231   4337
4    118     36   6526    217
4     97   4089   6477   5985
4    957   3202   2763   3872
4    862    849   2750   3715
4    849    957   2763    964
4      4      1     32     77
4    142    947    949    902
4    142    902    949    801
4    144     42   3665   5250
4     68     69    142    194
4     37   1082    907    810
4    142    801   5250    126
4    142    194    808   2913
4    194    906    807    808
4    808   4974    928    809
4    809    125    801    126
4    809    801    902    126
4    801   5250    126    125
4    809    928   5090   4974
4    796   5987    874   4894
4    846   5434    623    840
4   1088    955    846   3320
4    840   5434    623   3201
4   1088    935   5434    846
4     79    761   2713    266
4    150    629   2792    632
4     17     38    569     54
4     55    570    568    571
4   6273     17     28   2681
4     55   4785    283    581
4    190     66    154   3739
4     55    581    283   4787
4     58   2805   4372   3938
4     85    276   6213    248
4    190    154    613   3739
4     26     52   3555    730
4     47     56     55     59
4   6811   2910    368     99
4   6816    434    414   6102
4    115    656    459    447
4    114   6179    640   5418
4    114   5418   4658    425
4    114    423   4656    406
4    541    487    140    294
4    167    392    675   4466
4    167   3568   5968    331
4   4760    414     18    102
4    563    564    183    171
4    175   5495    244   6788
4      2     14     10     60
4    189   5279    894    268
4    140    293    487   6278
4    189    890    894    891
4    189    268   4646    396
4    138     73    478   3964
4    883    967    882    858
4   4016    202   5282   5283
4    894   5283    885   5279
4    895    898    778    890
4   1084   3662    971    970
4     41    112      5    187
4    193    153    607    168
4    177    605   6579    178
4    442    445   2674    441
4    187    993    992    880
4   3857    187    985    880
4     47   5728   4778    427
4    446   5728    159   3210
4    147   2873   2859   4792
4   6882      9    179     10
4    204   3594   6233    648
4    171     56     55     25
4   5728     47    159    427
4    184    377    162   5181
4    194     69     67     68
4    159   3404   2737   6024
4    964   2763   3871    957
4    201    610    626   4614
4    199    201     39    485
4     10     24   4375   6519
4    140    152     90   3273
4   2647     90   2884    140
4     25    186     85     23
4     91     82    588    131
4     82   3635    587    139
4     82   5357   5356   5199
4   4767     10   6882   4375
4    172    253   3635    530
4     10   2678     26     24
4    570     17     55   5150
4     23     52    186    695
4     25     53    183    127
4     55   4785    571    283
4     28    960     64    978
4    102    103     49   5494
4     93   3286   2673    587
4     28    958    856    863
4     88    371    370   5840
4     79    761   3229   2713
4   5607     81    597    628
4     88    493    492   4947
4   3102     57    273    585
4     87    370   4948   5840
4    173    357    359    675
4    182   2787   3689    489
4     56     93     57    164
4    159    427   3210   5728
4    167    675    392    357
4   4767     62   6882     10
4    153    351    270    374
4    153    351    376    382
4    268   5279    885   3802
4   5955    175   6788   5770
4    152   6541    495    504
4    110    432   4362   3629
4     90   2892   5770   4949
4    128    124    212    728
4   6816   6102    414     18
4     83     92     84   6302
4    128   6647    174    203
4    207   4367    130    591
4   6704    780    890    779
4   6704   5170    890    780
4    890    268    894    895
4    189   4661    780   5170
4    181    152    167    159
4    735   3664    176   4205
4     16     47     56     55
4     13    677   4991   6806
4     89   6181   6725   6806
4    117    945    956    827
4     89   6181    208   4018
4    194    822     67    903
4     95    904    835    839
4     67    194    122   4828
4    804    904     95    117
4    194   4828    782    129
4    795    794   1077    877
4   5987   1077    873    795
4   5590    795    877    422
4   1009   1010   3354    854
4    789   6861    982    790
4   6861    982    790   4396
4     14    670    627     60
4   3272     76    547     60
4    155   6128    535    522
4    197    323    282    316
4    185    393    468   3403
4     45    717    477    438
4    878     43    991    980
4     43    991    879    878
4     40    879    875    878
4   6294    185     30   5643
4    185    406    403   4467
4     45    425    456    639
4    164   6345    286   5980
4    185    468    715   4467
4     65    416   3932     63
4     65     45    464    191
4    332   6145    448    191
4    152    504   3907   2852
4    215     92     78    328
4     91     92     82    131
4   6071     80    486   4568
4    118    803    160   3806
4     30   6294   6619   6743
4    172   6840    127   3033
4     25      1     37     32
4     91    274   5795   4660
4     82   5357   3614    139
4    170   5607   5570    628
4     17    573     38   5081
4   3691    196   3429    115
4    798     98    810    144
4      8     43     29    112
4    856     37    907    810
4    176    735   4205   4755
4    176   4755    582    341
4      8     39     44     40
4     76    550    548    547
4   6641     12    257   4991
4    187   3857    746    880
4    571     17     55    570
4    156    527    269    538
4    156    531      9   4208
4    156    536    537   6098
4      9   4916   4202   4331
4    193   4754   3342    517
4      9   4916   3543   4202
4     22     24    233   5721
4      9    555   4916   4910
4    189   5585    716    722
4    124     83    132    130
4     72    605   4625    168
4     38   2766   2681     17
4      9   4202    525   3289
4    627     60     62     10
4    525    179    523   3543
4    111   4397   6861    787
4    111    787   6861    974
4    971    534   1010    104
4     43    980    990    991
4    111    787   3663    522
4    111    787    522   4397
4   3037     48    333    173
4   4348    536    156    614
4    111    973    982    817
4    111    539   3663   3662
4   2937    156   2921    539
4     59    152    173     56
4   6885     60    546    547
4     56     16     88     87
4    169    868    867    851
4   6885     60     62    627
4     60    670   3035    671
4      4     96    815     94
4     38   3665     42    579
4    142    304   3665    576
4     38   3665    579   5909
4    461    102   3664   2674
4    145    166    200    159
4    121    177   3292   5361
4    193    510    605    602
4    177    510   5063   6579
4    177   6579   5063    482
4   6579    121   4596    482
4   6579    177    121    482
4    178    512   2824   2721
4    773    177    193    774
4    193   4345    775   4754
4    605    177   6579    510
4    663    149    150    134
4   3429    115    432   3691
4    110   5958    318    759
4    152     90   3273   4600
4    182   5255    699   5256
4    810    144     37   1082
4    128    264    133    690
4     53    692    183    686
4     41      8     39     44
4    142   2913    808    126
4    142    126   5250    304
4    144   2860     42   5250
4     70     13    118   4039
4     67    826    905    806
4    118   3877     36   4038
4     65   4541    440    400
4     67    262    223     70
4     69    938    947    807
4    194    903    906    822
4     69    903    830    807
4    194    927    932    931
4   3857    791    986      0
4   3857    880    985   5070
4    986    187    985   3857
4   4345    769    193   6396
4    374    107    681    270
4    769    177    773    514
4    193    177    769   2806
4   5631   4754    518    519
4      3      4      2     96
4     79   3229    761    764
4     79    266   2713    770
4    610    154    201    619
4     41      8      5    112
4    532      9     76    529
4    154    748   3739     66
4    187    987    986    985
4    217     67    118   4710
4    118   1083    217   6526
4     67    217   4876   4710
4    177    340   4805    390
4    511   5126   6317    329
4    137   3514   2881    703
4   3514    135    148   6855
4    648    148    653   6233
4    138    754    473    655
4    134    638    635    633
4    137   3514   3517   2881
4      8     72     71     44
4    116    741   4020   3377
4   5957    196    718    437
4    185   4467    715    406
4    177   4347   4226    361
4    193    511    510    602
4    177   3292    340   6825
4   5820    511    193    603
4    133    267   4567    180
4    170   5396   3990    593
4    171    253   3938   6320
4    176     55    341    582
4    176     55   4787     59
4   3664    176   4205   2674
4     28    958   1080    856
4    171   4199   3938    589
4    172    580    589   6520
4   4760    176   3664    102
4    187   3656   2752     61
4    156    538    269    536
4    156    526    529    531
4    156    537   2937   2921
4    156   4208    527    538
4    156    531   6098    526
4    197   5058   5784   4615
4    156   2937    537    536
4    111    534    539   3662
4   3354    104    854   1010
4   1084    534    971   3662
4    155   2937   4348   6128
4     52    238    693   5554
4     62    551    726    549
4     62   6885    627    551
4    548    550     76    545
4     76    547    544   3272
4    163   6137    277    502
4   3897    503    162    502
4    137    509    141   3516
4    110    652    100    105
4    166   4158    465   4693
4    135   4933    344    326
4    135    702    344    703
4    106     88   6285    109
4    148    655    660   2791
4    101    480   2702   5565
4    191     45    464    332
4    461   2674    445    102
4    102    445    415   5404
4    103     33   5933   5124
4    184    402   3955    372
4    890    189   5170    888
4    103     33   5913   5933
4    146   5979    496    305
4   5115    173   5770    353
4    338    173     48   3568
4     48    338    375    380
4   4646   6594    189    396
4    173   5968    359    357
4    173     48    333    338
4    105   5798   6572    337
4    105    391   5799   5420
4     21     22     24    233
4    150   3937   4084     73
4   5952   4625    168     41
4     72   3224   4950   4898
4    177   2806   5339   2746
4    102    103    721   5057
4    163   5181    285   6804
4    163    285    288   6804
4   3897    163    285    502
4    279   6137    277    163
4    281   6232    131    252
4     78   6278   2900     91
4    385   6213     85    109
4    161     47   3792   3608
4    109   6213   6284   6285
4   6213   6284     85    109
4   2751    227     24    233
4    927     67    823    782
4     67   4710   4828    262
4     46    962    975    966
4   4602   5643     19    185
4   4232   3320    684    828
4     34   3320    745    687
4     34    955   3320    846
4    166    189   5170    722
4    826   1083    933    217
4   1083    744   6526    929
4    118    929   1083   6526
4   2839    810   2846    798
4   2839   2765    810    798
4   2839    810     28    811
4   1080    859   2839    811
4   2839   1080     28   2838
4     28   2839   2838    751
4    510    511    193    177
4   2806    177    769    514
4     75   3202    724    723
4    172   6320     93   3635
4    561     55    341    176
4    124    133     11    728
4    736    984   6053    797
4    616    405    416    984
4    616   6053    984    874
4    882    876   3068    736
4    405     63    398   3932
4    736    405    876   3068
4    179   4915    555   5528
4    145    507    181    146
4    627     14     10   4487
4    116    147    741   3827
4    132     50   5553     51
4   2791    147   4792   2855
4    457    159    465   4111
4    147   3593    435   2873
4    149    636    635   5616
4    147   2795   5172    635
4    138    631    473   2792
4    149    150   3466   3450
4   5621   3223    649    150
4   5767    149   5615   5616
4    149   6050    757   2792
4    149   5615    637   3450
4     82   3635    139    530
4    171    253    589   3938
4     84   4568   6842    486
4    171   4199    589    563
4    106   6285     88    371
4     83    132    235     51
4   4706   4372     57     58
4   5599    183    564     54
4     50     25     11     14
4     85    325   5220    694
4    565     55   4785    571
4   3429   3691    204    196
4     86   6071    260    263
4     85    248    694   5220
4    946    801    125   2860
4     38   5081   2768     98
4     18    429    394   5148
4    485    201    701    199
4    679    199   5135    192
4    199    201   5790    197
4    199   3549    192   3198
4    197   5783   5790    651
4    649   3465    672   5622
4    116    147    134    148
4     17     16     46      1
4    145    348    475   3762
4   5081     38     17   2766
4    185   6747    714    666
4    335    185   3403    397
4     29    962    921    965
4    114    403    406   4656
4    873    980     63     65
4    204    116    437    196
4    185    666    403   4602
4    112    917    992     40
4     64   3221   2532   3707
4     40    917    989    988
4    135    136   6855    676
4    159    378    446    418
4    166   4158   5049    457
4    737    159   2657   4609
4    177    340   3292   5361
4    198   2801    301    319
4    197   5783   5058   5790
4     66    154   3512    190
4    202    439    314   5075
4     51    235   4116    132
4     11    240    255    256
4    697     51    235   4116
4     12   4039   5234   4937
4     12   5234    257   4937
4    133   2989   4089   2990
4    889   4931   3674    896
4   3674   3655    896   3653
4    889    896    888   4931
4    187   1076    880    746
4    187    748   2300    746
4     40   1076    187   2300
4   1076    875   1078   2300
4   1076    746   6862    880
4    913    823    783   4876
4    913    824    783    823
4    189    897    890    891
4    132     50   6004   5553
4    960    816    965     64
4     64    816    967    978
4   4795    132    596    130
4     64     63   3068    876
4     63    915    981    990
4    736    876    405    984
4   1076   1086   6862    746
4   4792    147    754   2859
4     65   5590    873    980
4    877    980    422    420
4    420    877    794    422
4    200    162   5176   3130
4    228    729    132    562
4    175    152     87     56
4   5283   5278    885   5279
4    202   5075    558    498
4    982      0    817   2935
4    788    974    787    970
4    788    982   6861    974
4     10   4487    711    224
4     26   2678    711    710
4    102   6817   5057    721
4    190    747   5466    198
4    190    287    612   5763
4    674    649   3465    672
4   3450    685    384   3466
4   5616    685   5767    149
4    483   3450   5767    384
4    150   3450    663    674
4   3154    201   4614    501
4    151   3078    313    680
4    162    503   3897    490
4      8     40     43    112
4    187    880    992    985
4    154    748     66    749
4     91   2679    588    586
4    172   3635    253   6320
4     82   5357    588   5356
4   3569    161   3568     48
4     76   5083    548    532
4    192   3789    401    758
4    172     83     92     25
4    862   1009   3354    854
4    539    111    542    534
4    104    862   3354    854
4     63     43    916    921
4    166   5585    722    465
4    104    910    855    870
4     75   2823   2988    533
4     43    921     29    920
4     21     25     23     52
4     14   4487    738    554
4     38    573   6207    579
4     60    546   3035   6885
4   3201     35    812   3872
4     63     43    980    990
4     10    627   4487    224
4    980     65    422    420
4    123    733   5340    354
4    123    733   5464    509
4    135    344   4933    480
4    722    166    189   5585
4   4661    145   3196    356
4    185    393     63     45
4    152    495    505    504
4    200   3678    404    387
4    182    699   2788   2787
4    441     47   3946    445
4     79    763    140   2647
4    294    293    487    140
4     78     84   6842    486
4    541    140    487     79
4    166    404    418   6291
4    200   4892   6056    202
4     90   2885   6423    499
4    166    896    884   4659
4     39   4898   3078    680
4    155    111    522   6129
4    166    884    428   4659
4    138    134    147    148
4   2791   4792    147    754
4    147   2795    472   5172
4     44     45    192    758
4     65     45    393   4122
4   3964     73    150    138
4    200   5176    162   4893
4     33   5945    113    116
4    105    652   6572    515
4    175   6788   5770    353
4     18     55     16     17
4     18    296     19   3696
4     18   5148    312   3048
4    161    167   3568    173
4    162    159    200   4893
4    162   5965    290   5176
4    100   2702    641   5565
4   6811   5464    141    368
4    107     99    141    368
4     79    491    289    266
4    412     80    494    491
4    580    171    589    563
4      2     75     60     76
4    128   6647    195    690
4     11   6805    213    297
4     13    117    118   3806
4    194    931    782    927
4     74    724   4140     75
4   4439    190    199    198
4     39    485   3165    192
4    197    199    198    654
4     85    186    325     23
4    966    961     77     46
4    862   2763   2750    849
4     76    104    111      2
4    104    855    862    854
4    104    852    854    853
4    104   3354    862   2750
4    104    534   3354   5048
4      4      2     97     14
4    115    656   4196    459
4     48   3629   4222    380
4    911    837     35    910
4     34    552   3026   4747
4   3320     95    955     34
4     35    837    944    836
4    130   5198   5396    594
4    120    802    903    822
4    120    903    802    830
4     67   4876    782   4828
4    194   2818    129    143
4    120    829    802    805
4     70    262    219   6300
4    201    501    313   5059
4    145    356    348   3762
4     40    989    879    988
4    931    143    194    782
4    782    781    926    931
4    823    782   4876    913
4    826    118   1083    217
4     17    557   6281   5147
4     44   4951   3165   4950
4     29    960    962    965
4    915    816     64    965
4    398   3707     30     64
4    185    393   3403    397
4     28    978    958    872
4     65    440   4122   3932
4     63    915    965    981
4     63    981    965    921
4    794    420    792    877
4    794    419    420    422
4   4661   3469    145    356
4   4373    901    259   3585
4    158    163    502   5254
4     28     37   2681     17
4    132   4116     51   5553
4    128   6647    690    728
4     97     94     96      4
4    186   2914   2822    230
4    443     19    732   4008
4    145   6442   4221   3762
4     17   5147    463   6368
4    724   3872   3202     35
4     18    394   5862   5148
4     18    453   4008   5057
4     18   6816    453    414
4     74    528   3044   5792
4   3675     33   5945    113
4    185    397     30     63
4     73    482   6308    667
4    145   4221    356   3762
4   6483     97    209     74
4     21    234     22    233
4    108   6125    681    408
4   2721   3136   5339    178
4    155   6129    535    481
4     99   6811   2910   5975
4    196    459   3948   3127
4     16    100     15    109
4    675    167   4466    173
4    638    149    134    635
4   3675   5957   5945     33
4    204   3006   3429   3430
4    177   4347   6825   6826
4     73   6308    482   5361
4    136   3558    343   3571
4    381    123   6592   6590
4    177    482    345   5361
4    177    514   2746   4347
4    121    667   3224   4596
4    482    345   5361   6308
4     73    669    664    667
4     73    669    667   6308
4    147    754    655   2791
4    145   3469    348    356
4   3861    149   3158    683
4    149   2795    636    634
4    619   3587    610    154
4     89     13    117      4
4    151    626    481    620
4    145   4661    189    716
4    130    207    591    600
4    124    218    591    691
4    130   5396   5198    600
4     25     53     54    183
4   3794    161   3608    159
4    131     81   5356   5607
4    130    600   5198    207
4    183    127    686    584
4    170    600   3991   5396
4    181    159    167    145
4    573   6207    574     38
4   6842     92    421   6302
4    860     37    908    863
4    542    104    111     76
4    141     72    121     71
4    111   2937   6128   3663
4    123    121    141    107
4    156    269    614    536
4    111    787   3662   3663
4    111    853    974    973
4     62    549   4767   6332
4     47   3792   3793   6573
4    123    137    509    141
4    354    177    361    123
4    167   5390    392    475
4     90    499   4600   2892
4    182    489    140    299
4    198    521    479    668
4   4111    159    465   5585
4   3210   2657    159    446
4    188   6031    184   3958
4     47    467    430    466
4    466    467    159     47
4    116    204    136    196
4     45   5583    717    438
4   3125    148    147   3593
4    136   6855   3804   3557
4    204   3430   3428   3594
4    204   3594   3428    449
4    708    107   5213    707
4     56     86     84     80
4     22   5721    179     24
4    108    681    270    408
4    571     17    565     55
4    105   5840   3321    391
4   4949     90   5955   5770
4    276   6213   6284     85
4    137   5340    658    363
4    102    742   6817    721
4     18    453   6816    407
4     17    463   5150    570
4    155    625    620    481
4     39    680     41   4898
4    155   5114    604    617
4    121   3292    123    381
4     35   3872   3202    957
4    140   5593   6596   6278
4     79    491    412    289
4    789    788    982   6861
4   3235     90    766     79
4   6579    178    121    177
4     90   2892   4949    499
4    121     72   4596   3224
4    121   5361     73    482
4    121     71    664     73
4    137     71    121     73
4     93   3286    273   2673
4   6436    184   3957    556
4    162   5181    377    399
4    166   4931    896   3653
4   5711     59    188    176
4    198   2375    479    743
4    198    479   4494    668
4    282    198   6398    197
4    134    147    633    635
4   5599    560    183     54
4    127     25     83    172
4     78     80     84    486
4   3235     79    291   3951
4   6321     79    491     80
4     58   4706   2805    581
4     51    697    242    230
4    148    135    116    136
4     44    192   3165    401
4     95     13    117     89
4      2      1     14      4
4    156   6098    538    536
4     10   2678   6519    224
4    428    200    352    166
4     27    868    869    968
4     10    739   4375   4767
4     10    739   6519   4375
4     60    671    738    670
4    108    179   4088   4086
4     38     42   2768    579
4     37    844    831    908
4    144     42   2860   2862
4     17   5081    557   6369
4    166   4931   4693    888
4   3674   3653    896   4931
4    878    420    191     65
4    736   1089    876    984
4    169    911    870    851
4    104    855    910    957
4      3    169     27    867
4    194    906    903    807
4    144    949    833    801
4    142   3665    304   5250
4     68    194    142   4526
4    194   2818   2913   4526
4    808    928   2818    821
4     34    552   4747    698
4    104    852    870    855
4     11     50    133    124
4     60     14     10    627
4   3026    724   4140     74
4     89    165   6806   6805
4     35    812    910    837
4   5434    840    937    786
4     48   2887   3630    339
4    832   4373    901    259
4   5217    160    825    819
4   5703    819    901    258
4    901    922    819   5703
4    804    258    819    160
4     70   6300   3876    262
4     43    988    916    920
4    185    714   6747   6743
4    794    792    793    877
4    145    716    424   3469
4    420   4897   1079    878
4    420    878   1079    980
4    684   4080    800    828
4    828   3320    684    745
4   2889    885    776   3802
4    199   5046    520   5047
4    110   6231    334    318
4     55    283    571    568
4    103    721   5912    742
4    735    561    176   4760
4     32     25     38     37
4    148    204    648   3571
4    196   3428   3948    718
4     71     33     99     16
4    102   5494   6864   6839
4    106    371    342   6285
4     49   5494   5913   6583
4    106    371   5840   5420
4     49   6583   3793   6864
4     48   2887    454    656
4     47    159   2737   5728
4    181    484   4466   3907
4     26    730    710    232
4    105   5799    391   5798
4    182   3689   4768   5273
4    730     50   6164    232
4    134    149    150    138
4    138   2792    629    631
4    192    458    332    364
4    303    154    155   3519
4    154    748   3518   3739
4    151    303    154    155
4     62   6332      9    545
4     84    186     86     56
4    190    154    201    610
4   5607     81   5356    597
4    131   5607   4662    508
4    186     56     84     25
4    128    124    728    133
4   5398   5397     83    302
4    131   4256   3522    278
4    588     91    131   2679
4     68   4597     32   3270
4    115    459   3127    447
4     10     14    711   4487
4    131    170   5570    598
4      1     25     11     32
4     25     32     38     54
4    170   3990   5774    593
4     93    586    587   2673
4    186   2822   2914    325
4     54   3007   5599    577
4     85    276   5220    263
4   6725     13   3049     89
4    112      5    187      6
4   3794    373    161    159
4     59    365   4706    583
4     50    284    730   6164
4     50   5553    730    284
4    183    584    686    692
4    127    686    584   4248
4     31    222    271   3271
4    150    134     73    663
4    138   3964    621    150
4     91     78   3577   2900
4    163     59    184    417
4     75     34     74    724
4    167    173   5968   3568
4     76    544    543    678
4    199    349    651   3530
4     97      4     89     94
4    107    368   5464    705
4    470    108   2871     15
4    315   6763   5769    109
4    141   5464   6811    327
4    107   5213    368    705
4    198    409    612    319
4    107   5352    705    512
4    184    388    377    411
4    173    167   4466    152
4    202    490    146    162
4    158    673   5231    503
4    182   6596    699    299
4    182    489   3689    682
4    182   3689   2787   2788
4    101   3691    196    136
4    175    106    110     16
4    159   4655    466   3794
4      3    866     27     77
4     59    159    184    188
4    185    114     19   4602
4    176    582   5707   5706
4     93   6320   3286   3635
4    114    455   6620   6621
4    113   3326    455    450
4     33   5933   3675   5957
4    204   3430    648   3006
4    116    437   5957   5945
4    105    175    106    110
4   3127    115    432   3429
4    145    475    476   3762
4    204   3006    343   3691
4    737   5049   3794    159
4    188     47     59    159
4      1      3     27     77
4    700    100    317    342
4    201   6323   5790   2725
4    131   4256    278    281
4     25     83    132    124
4    135    136    148   6855
4    170   5398    302   5774
4   4893    159    200   3678
4    115    447   3127    432
4    200   4895    383    387
4    161   4111   5392   5393
4      0    187   3857   3656
4    643     44    642     71
4    200   4893   3678    383
4   5770     90     87    152
4    167    331    357   5390
4     96    169    867    911
4     75     34     96     74
4     45    712    458   5103
4     15    109     85     16
4    448   3198    300    191
4     45    639    426    758
4   4081     95     34   2671
4     63    397     30    398
4     86     80    260   6071
4    843   1082    907     37
4     30    296   5974    444
4    197    198    190    610
4   3949     87    244    245
4     73   6592    630    381
4    464    191   4404     65
4     90   3235   3949   3951
4     56     88     16     85
4    166   4158   4931    452
4    418    166   4609    159
4    159   6024   5729    378
4    184    159    162    402
4    166    737   5049    452
4     54    565   5599   3007
4    333    173    731   3037
4    166   6291    418   4609
4    395    146    396    189
4    159    404    378    418
4    200    352    387    428
4     56     78     91    140
4    159    404    166    200
4     94    945    951    834
4    173   5115   5770    389
4    173    353   5115    410
4    314    146    202    490
4   2647     79   3229     90
4     80     86   4568   6071
4    110   5958    386   3691
4   3656    187    748     61
4    110   3629   4362   4222
4    187    155   3519    111
4     55    102     47    176
4     21   3554    695   6563
4     48     56    175     16
4   3587    190   5466    198
4    197    310    323    316
4    197    201    190    199
4    197    323   6398    282
4    198    665   2375    743
4    198    611    306   5467
4     45    191     65     43
4    159    152    173     59
4    198    190    650   4439
4    198    324   4259    650
4    380    333     48    338
4    140    755    756    762
4   5979    395    146    396
4     84     86   4568     80
4     31    559    222   3271
4    109   5769   6285    342
4      9     62     10   6882
4     31    271   4461   3271
4   4088     22   5721    179
4    641    652    100   5565
4    153    179    168    108
4     15    704     99   2910
4   4228    168    607    153
4     78     56     91     92
4     78    309   6304    567
4    158    152    159    184
4    366    105   6572    320
4   4568     80    486     84
4     84    242   6302   6842
4    957    104   3202     35
4    152    173    389   4466
4    179   4479    265   5528
4    109   5769   6213   6285
4    115    110    101     16
4      9   3543   4916   4915
4    108   4088    408   4086
4      9   4331    532   4910
4     22   5721    233    237
4    168   4625   5952    605
4     21   6563    227    241
4      9    545     76     62
4     67    120    806    905
4     57     58   6320     93
4    823     67    826    217
4    133    246   6850   4635
4     12      1     14     11
4     67    822    927    806
4     92    215   4381    328
4    128    195    203   5143
4    194    906    808    821
4    118   3876   4038     36
4    108    709    469    707
4    108    709    681   6125
4     69    831     37    142
4    782    913    926    781
4    120    805    802    806
4     30    751    157    296
4    542     76    540   2823
4     77    860    966     46
4     18     20    311    662
4    119    845    848    939
4     71    121   3224     72
4    111    522   6129   4397
4     64    882    883    967
4     75    533    678   2823
4   6817    102   5057    414
4    156    526    537   2921
4     76   2823    543    540
4    104    542   5048   2823
4    155    625    481    535
4    156    531   4208   6098
4      6    850    919    861
4    187    986    817      0
4    857     28   2838    881
4    881    969   2838    857
4   4660   2679   4662    131
4    117     13    118     70
4     93    585    164   3373
4      6    868    861    869
4     91   3577   5951   2900
4     82    587   5357    139
4     91   5797   3039    274
4    187    919    111    817
4    133   6483   4567    725
4     59   3870    583   5706
4    173   5968    338    731
4    182    164    140    152
4    175    105    320    355
4    119    953    848    938
4     11    297    246   6805
4     77      4    119     32
4     51    230    238    697
4   4947    291     80   3951
4     17   5147   6368   6369
4    194    808   2913   2818
4   3270   4825     68   4597
4     12    243    255    257
4    120    830    829    954
4   3696    444    296     19
4    153    519    382   3342
4    119    954    953    830
4    193    517   3342    516
4    167   5968    357    331
4    901     95    835    832
4    193    605    607    602
4    804     95    835    901
4     18    436    429   3048
4     77      8    112     27
4    832    983   4080    828
4    512    178    733    107
4     65   4404   5591   2830
4    901    258     95    259
4     14     50    133     11
4   3593   6233    148    204
4   6620     19   3327   3326
4     13   6166    214   3806
4    148   2855    659    653
4     95   6460    259   4017
4    138   5620    621   3964
4    187   2752      0    817
4    221     60    671    738
4     71    134    431    637
4   3806    804     95    117
4   3466    149    685    757
4     71   4951    643     44
4    178    733    107    123
4     95    835    952    839
4    150   3466    622    632
4    159    402   4893    162
4     88   6285   6284   5595
4      3    814    941    815
4     78    421    309    488
4   2824    178    354    733
4    189    780   3196    778
4    107    141     72    121
4    909    845    866      3
4     64   3707     30   3221
4     67    905    118    120
4    118     36   3877   6526
4    118     67    826    905
4    178    354    733    123
4    117    905    803    805
4     97   6477    261    209
4   4472     14    133    725
4    133   6850   2990   4635
4    509   5340    658    137
4    118   6526    160    929
4   4567    133   2989    261
4     97    208   5985    205
4    803    825    160    804
4     13   4991     12     11
4    191     65    419   2830
4     43    916    991    990
4    152    158    181    495
4    202   3130    451    734
4    148   3694    660   3604
4   2765   2839    810     28
4     28    958    978    857
4    751     30    157   2838
4   2838     30    157   3221
4    123    141   5464    107
4    144    801   2860   5250
4    819    934   5217    922
4   5278   5279    776    885
4    189   4646    268    898
4    123    141    509   5464
4    189   5283    894   5279
4   5283    322   4016    892
4    894    885   5283    892
4   6317    329    774    511
4     34   4747    687    272
4    812    786   3871    785
4    329   5126    772   4805
4     75    724   4140    723
4    637    149    663    134
4   3593   3125   2873    147
4     81   6180    591    218
4     70     68    219    223
4     13     95   4017   3049
4    684    828    800   4232
4     95   2671   6460   4017
4    111    971    974    853
4    118    803    905    929
4     95   6460   4081    745
4    135    137     71    141
4   1083   6526    744    217
4     55     18    561   5150
4    176    735    341    561
4    132   5553   6004    228
4     67    826    806    927
4    933    783    784   3784
4    105    320    355    515
4     59   5706   5711   3870
4   2860   5250    801    125
4    140    682   6551    755
4    176    341    735   4755
4     30   6619   6294   6016
4     19   5976   6089   5579
4     71    643    663    637
4    916     63    981    990
4     12   4991   4937    257
4    972     77    860    966
4     65   5591   4541    400
4     45   4122    477    393
4      1      9     10    179
4    109   6868   5769    342
4    151    501   3104    313
4    198    301    409    319
4    868     27      6    169
4    149    138    473   2792
4    192    460    646   3789
4    156   5567    269    527
4    150    757   3466    632
4    168     41    608   5952
4    108    107    708    707
4   2910    108    707    107
4     70     67     68    223
4     99   5975   2910    704
4    118    120    117     70
4     15   6763    704   6764
4    202    892    189   5283
4     51     84    186    230
4     22     23      1     15
4    168    608    606    609
4   6868     15    109   6763
4    156    542    540   2921
4    100   6868    700    321
4    169    851    871    861
4    729    132    562    128
4    124    239    254    297
4    198   2801   5467    665
4   4038   4039    250     70
4    128    174   6647    212
4     53     31     32    559
4    228   6004    132    729
4    128    562    729    206
4     38    579   6207   5909
4     38    576   5909    575
4    179   4086   4479   4088
4      4    941    942    815
4    117    904    805    803
4     24   5721    247   6190
4    105    515   6572    320
4    144    833    943   2860
4     37    908    863    907
4    175    355    320   3037
4    105    337    641    317
4    525    153    179    168
4     37    949    831    844
4   4899    150    674    649
4    144    798     98   2862
4    363    123   6592    137
4    150    649   3465    674
4   3465   5621    649    150
4    128    264    195   5143
4   6304     78    252    281
4   5390   5394    348    145
4    138    474    478   3604
4     79    761    768    764
4     16     71     72     99
4     12      1     32      4
4     70     12    250    220
4     70    120     67    118
4    138    655    474   3604
4    150    669     73   3223
4    149   5615    638    637
4     19   6620   3327   4602
4    130    594    596   5555
4    138    631    474    473
4     74   6846    553    698
4     57   4707    295   4705
4     94     35     34     96
4    961     29    963    920
4   6483    133     97     14
4    108    237     22   6263
4     70     32     68     69
4    147    472    741   3827
4     35     75     96    169
4     51     52   5554    238
4     83     92   5397    131
4     78    226    487     79
4     93   3286   6320   4705
4    163   6804   4511    411
4   5428    163     57    164
4   3877     13    211   4039
4     68   4825    223    122
4     17    570    571    727
4     89    165    133    210
4     53    560   5557   4780
4    920     40    818    112
4     89    208   6732   4018
4    131   5398   4256   5397
4     26     50     52    730
4      8     29     28     46
4     18   6281   5148    463
4     69    807    830    938
4     31   3270   3271   6568
4    119    939    848    936
4     70    120    117    119
4    815      4     94    942
4    136   3557   3558    659
4     70    219     31    220
4     63    416    405    984
4     31    219   4461    220
4   6263     15    362     22
4   6004    132    729    128
4    108     22    237   4088
4    153    524    523    382
4    133   6805    165     89
4   5199     81    597   5356
4   3221     28   2838     30
4     29    872    962    960
4    133    728   6850    246
4     31    271    225   4461
4   6483     14     74    738
4    261    133   2989   4089
4     17    557   5147   6369
4    662     17     20   6273
4   5081   6369     17    573
4     74    221    209   6483
4     83    601   5397   4381
4    725     14    133   6483
4    500     79    768    764
4    104    862    957   2763
4    108    179     22   4088
4     78    488    566    412
4     88    109   6284   6285
4    838    911    837     35
4     49   6583   6573   3793
4    204   3428   3430   2583
4     34   3026    623   4747
4    173    159     47    161
4    116   5644    114   6623
4     67    194    782    927
4     67    194    927    822
4     74   3026    552   4140
4     74   4140    528   5792
4    927     67    826    823
4     67    823    782   4876
4     34   3320    623    846
4     53    222     31    559
4     81     82   5356   5199
4    217     67    826    118
4     35    957    812   3872
4    118   4710     36    217
4   2763    957   3872   3871
4    170   3991   3990   5396
4   5434    937    840    935
4    153    523    524    525
4    217   4876    823     67
4    193    177    773    769
4     74     75   5792     60
4    133    688   2989   2990
4    133   4472   4473   6164
4   5728     47    379   2737
4    128    690    195    264
4    128   4795    562    206
4    133    689    688    264
4    124    691   6272    218
4    145    476    484    506
4     73    121    667    664
4    133    688   2990   6850
4     50    730   5553   5554
4     69     70    120     67
4     21    229     24   2678
4     25     26     21      1
4      2     27    169      6
4    130    124   4367    128
4     21     24    229    227
4    162    402   4893   3955
4    158    433    495   3690
4    181    505    507    506
4    182    279   5255   5256
4     21     23    234    695
4    261     97    209   6483
4    164   5256   5980    279
4     74   6846     97    209
4     11    256    255   2842
4     25    127    124     11
4    182   5273   6541    682
4    172     82    530   3635
4    132   5553    228   4116
4     52    730   5554   3555
4    754    147    138    149
4   5135    192    645    679
4    103   5933   5913   5912
4     24   6519   2678    229
4    105    391   3321   5798
4    101   5565    652   6231
4    191   6145    448   3198
4   5150     18    561   5862
4    136    101   6714    676
4     49   6864   5494   6583
4     51   4800    238   5554
4     74   5792     75   4140
4    196    459    346   3948
4   2842     31    225     12
4     10    739    224   6519
4    175    366   3321   5495
4     33   5124   3675   5933
4    134    633    114    431
4    103    443    719   5124
4    291     80   3951     79
4    115    101   3691    196
4     51   4116   4800   5553
4    185    715     45   4658
4    175    353   6309   5495
4    145    189   6594    146
4     18   3525    453    407
4    140   5580    762   3236
4     18   5862    463   5148
4     18    453   3525   4008
4    298     79     78   4337
4   4008     19    732   5976
4    302     83    601   5397
4      2     96    169      3
4    296     30    751     19
4    147    148   2855   2791
4   3571    148    653    648
4    204    343   3571    136
4    204   3430   3594    648
4     21     52    695   3554
4    115   5913     49     33
4   3608    161   3796   3792
4     56     79     78    140
4    164   6345   5980    358
4     89   6805   6806     13
4    175   6309    353    410
4   5254    163    502   6137
4    188   2738   2737   3404
4    200    387    383   3678
4    101     99   2702   4933
4      1     26     21     24
4    170   5396    130    600
4    204    435    449   4020
4   3691    115    432    110
4    116   4020    437   3377
4    173    731    359   5968
4    153    524    382    519
4    350    107    374    153
4   5711   5707    176    752
4     50   5554     52    730
4    153    168    107    108
4    124    297     11    239
4    101   6714   5565   6231
4     75     34    724     35
4    116   5644    741   3377
4    708    374    107    681
4   3557    136    148    659
4   3951   3949     90     87
4    175   3952   5495   3321
4     11    728    246    297
4    167    392   4466    484
4    124    212    728    297
4    133    690   6850    728
4    115     33    346   5913
4    368     99    141   6811
4    164   6345    358   3373
4    270    107    681    108
4    131   2679   4662    588
4    114    633   6179    431
4    172    171    589    580
4     56     92     78     84
4    138   5620   3964    478
4    170     81    130     83
4     34     74    698     97
4   6233    204    648    148
4    197   4614   4752    610
4   4439   3548    199    190
4    159    404   3678    378
4    162    490   3897    399
4    162    734   5965   3130
4    478     73    137    657
4   5952    680   4625     41
4    155    535   6128   4348
4    156   6098   4208    538
4     27    968    979    909
4    204    196   2583   3429
4    151    680    313   3104
4    199    679   5135   3383
4    204   3430   3429   2583
4    680   4625     41   4898
4    154    613   3518    618
4    500    763    140     79
4    148    136   3571    659
4     59    581    583   4706
4    150    630    621   3996
4    116    437   5945   3377
4    135     99    101   4933
4     88    370    371   5595
4    106   5420    342    371
4   5945   3377    720    116
4     88   5595    493    370
4    172    127     81     83
4    204   3691    136    196
4    110   6231    652    334
4    159    402   6024   3678
4    159    418    166    404
4    166   5049    159    457
4     15    315   6763   6764
4    196   3429   3127   2583
4     29    962    963    921
4    115   3630    447    432
4     93    172     92     56
4    587     82    588     93
4    113    455   5644    720
4    172     81     82     83
4    201   2725   5059    313
4    159    402   6031   6024
4   5393    159   5585    145
4    161   5183    740   5392
4    172    589    171    253
4   3958   3404    188   6031
4    172     81   6840     82
4    188   3958    706   3404
4     73   5171    661   5361
4    116   3827    114    633
4     73   3937   4084    661
4    137    658   3516   2881
4     25     16     23     85
4    101   4933   2702    480
4    198    743    521   4259
4    191    287    190    300
4     78     79    412    566
4    199    198   5046   4439
4    563   5599    183    564
4    182    299    140   6596
4   4111    159   5585   5393
4    152   3907   4466   5635
4    159    161   3608     47
4    175   5495   6788    353
4     56     78     80     84
4    170    628   5570   3990
4     87   5770    175   5955
4     30   5974   6016    444
4    149    147    138    134
4    105   5420   5840    391
4    105   5799    317   5420
4   5798    105   6572    366
4     82     81   5356    131
4    176     18    102   4760
4    106    342   5420    317
4    149   2795    147    635
4    141    327    702   3516
4    141    509    327   3516
4    178    512    733   2824
4    178    107    512   3136
4    141   6811    326    327
4    197   4614    201   4615
4      8     16     33     71
4    150    629    632   3072
4    177   6826    772    774
4    150   3072   3996    621
4    150   3465   3467    622
4    179     24   5721    247
4    123   5340    733    509
4    748   2300    154    187
4    137    478    657   3517
4   6805     11     13     89
4    111   3519   4396   4397
4   3519    154    618    303
4   3292    123    381   6590
4    198    190    319    612
4    131   5795   4799   4660
4    171     55   4785    565
4    185   4658    406    715
4     23    694    385    696
4     15    385    315    362
4    668    513   6398    198
4    166    465   4158    457
4    175   5840   3952   3321
4     81   6329   6843   5982
4    198    647   3741   3742
4    175   3037    320   6309
4    164   5428    585     57
4    164   3373    585   6345
4   3554     21     52    241
4     91   3039   5951   5795
4   5795    131    278     91
4    108   6125   6263    469
4     76    547    548    544
4    175   6309    410   3037
4     54   5599    560    577
4    578   5599    560    183
4    532      9    545     76
4    175    366   6309    320
4      8    185    114     19
4     16    103     19     33
4    186   2822    325    693
4     10   6882   4375    179
4    172    183   3033    127
4     57    365    417   4707
4    110    105    175    355
4    573   6369     17    574
4    127   4246    686   4248
4    118    803    929    160
4    143    931    821   3156
4     79    566   4337    289
4    197    199    651   5790
4    172   6520   3033    580
4     85    260    276    263
4    164    140   5593    182
4     25    171     54     17
4     78    328   6304    215
4    131   4256    598   3522
4    252    131     78     91
4     28   2765     20   6273
4     94    813    847    834
4     56    186     86     85
4    840    623     34   3201
4    984    874    873   4894
4   4597   4825     68   6301
4    133   4473    689    249
4    616    874    984   4894
4   4760    561    176     18
4    161   3796    367   3608
4     84     25     51    186
4    161    373   3794    367
4    159   6031   3404   6024
4    736    616   6053    984
4    405    398     63   3068
4     85    276    248   5220
4     47   3608    430   3792
4    161   3569   5791    740
4    123    107   5464    733
4    416   3932     63    405
4    136   6714    101   6177
4    241     26    710   2678
4      2     62     10      9
4     77    866    972    841
4     20     17     28   6273
4    111    787    974   3662
4     89   6181   6806    165
4    119    956    936    827
4     77    866    864    972
4     74    738    221   6483
4    360    184   3957   6436
4    348    145    475   5390
4     60   3035   3044    671
4    188    752   2738    706
4     54    577   4780    572
4    356   4221    145   3196
4    116    134    633    114
4     64    978    967    857
4    197    651    199    349
4   5641     17    662   6273
4    197    199    654    349
4    197    201   5790   5058
4    881    967    857     64
4    398     63   3068     64
4     38    576   3665   5909
4    142    194    807    808
4     56     90     87     79
4    102   6817    742   6839
4   3223    669     73    661
4   2892    389    152   5770
4   5428    163    164    286
4    158   5231    502    503
4    197   4615    201   5058
4    190    610    201    197
4    188    752    176   3103
4     24   5721   2751    233
4    990     43    916     63
4    142    902    808    807
4    381   6592    121     73
4    194    932    927    822
4   2871     15   6764    470
4     16     72     15     99
4     68    194    122     67
4    120    805    806    905
4     22   6867    362   6263
4    802    120    806    822
4    178    107   3136    153
4    117      4    956     94
4    782    927    931    926
4    153    179    265    523
4    108   6263   6125    237
4    976    112    918      6
4    188    184    556   3958
4    199    485    192    679
4    199   5046   5047   4439
4    184   3958   6031    372
4     40    989    875    879
4    190    192    191   3198
4    136    343   5958   3691
4   4785    171    564   3939
4     30     28   2838    751
4     18    436   3048   3696
4     37    908    831    912
4    574     38     17    573
4    148    660   3694    659
4     37    860     77     46
4     46    860    975    863
4     46    860    966    975
4    114   6620   4602   4656
4    204   4020   5312    437
4   5792   3272    546     60
4     77    972    912    841
4     14     25     11      1
4     71    114     44    431
4    168      1     15    179
4     14     26    232     50
4    444    296     19     30
4   4780     53     54    575
4    185    666    714   4467
4    143   2818   3155    821
4    194    143    821   2818
4    782    931    143    781
4    782    926    823    927
4    808   4974   2818    928
4    154    748     61   3518
4    422   5590    980    877
4   6323     39   5395   3078
4    190    287   3512    612
4     40    765    878    875
4   5057    103    721    443
4    619    303    154    151
4    155    303   6129    481
4     91     93    164   3373
4    752   5711    188    176
4    198    611   3587    610
4    172     82   6840    530
4    191   2830    592    448
4     30   6294   5643   5579
4    151    619    303    481
4    332    191   4404    464
4    114     45    425   4658
4    116   6623    741   5644
4    146    433   4773    496
4    140   6276    756    755
4   5585    145    424   5393
4    198    521    668   3742
4     89     11    133   6805
4    749     66    154   3512
4     45    456    717   5583
4    153   4228    524   5631
4    101   5958    318    110
4    149    147   2795    462
4    168     41      5    608
4    137   3516    658    509
4     47    159    466   3608
4   6102    434    414   3664
4     19    732   5579   5643
4    135    344    702    326
4   2678     21    241     26
4    204   3593   6233   3594
4    159   6031    184    188
4    222     11   2842   4246
4    101   6714    480   5565
4    123    121    137    141
4    149    462    634    683
4    204    718    437   5312
4     47    176    188     59
4     18    436    407    429
4    141    703   3516    702
4    116    113    114   5644
4     48   2903   3792    454
4   5149    561     55    341
4    788   6861    787    974
4   5340    123    137    509
4    161   3569    740   2903
4     74    553    552    698
4    439    146    202    314
4    124    254    239    251
4     47   6194   6864   3793
4      5    155    615    604
4    140    299    762   5580
4    188   3404    706   2738
4     47   3793   3792    430
4    166   6291   4609   3653
4    161    167    173    159
4    977    112    976     27
4     47    161   3792     48
4     74    553    528    552
4     35    812    836    840
4     19   3327    719    732
4     94    942    847    815
4    158    305   4773   4770
4     96     94    834    813
4    185    397     63    393
4     37    907    844    908
4     97    205    698    272
4     45   4658    456    425
4     74    528    553    221
4   5395     39    485   3165
4     56    152     87     90
4     97   6477    209   6846
4     28     46    872    863
4     37     28    856    863
4     45    192    460    458
4     21   2678    241    229
4     30   6619   4722    335
4     48    339    375   3569
4     43     65    980    878
4      5     41    604    608
4     48   4196    656    454
4     55     18    102    176
4   3450    149   5615   5767
4    188    441    176     47
4     48    110   3629    115
4     48   3629    339   3630
4    565     17    171     55
4     19   5976   5579    732
4    864    966    961     77
4    155      6      2    111
4     30    335   6743   6619
4      6    155      5    187
4    185   6743   3403    714
4    135    676   6855    703
4     65   5590    400    713
4    138    621   5620    631
4      5    156   5567    269
4    834     96    838     35
4    148    653   3125   2855
4    137    135    148   3514
4    148   3694   3604   3517
4    136   3558   3557   3804
4     72    178    168    107
4     38   6207    574    569
4    177    340   5361    345
4    149   3158   2792    473
4    136   3558   6177    343
4    138    474    631   5620
4      5   3289   5567      9
4   5047   4439   3548    199
4     73    630   5171    381
4    148    660    655   3604
4    150   2744   3072    622
4    150   2744    622   3467
4   3223    649    150   4899
4    754    149   3861    147
4   4951   4950     44     71
4    683    462   3861    149
4    639    425    431     44
4     71    664   4950   3224
4    191    300    448    592
4    106     88   5840    371
4    145    484    476    475
4      2     96     97     74
4     79     90    766   2713
4     44   4951    643    369
4   6743    185     30   6294
4    813     96    838    834
4   2884    140   6277   2647
4   6321     80    291     79
4   4947   6321     80    291
4     91    164    140   5593
4   6424     79    768    500
4      8      5    112      6
4    185    468   4467    714
4    657     73    137   6592
4     85     25     56    186
4   4466    181    152    167
4    123    178    121    107
4    182   5255   2788    699
4     75    104    169     35
4    162   3955   4893   5176
4     56     79    140     90
4    884   4353    893    352
4     90   2647   2884    767
4      8     44     71    114
4    140    755    489    682
4     16     15     23     85
4    137    363    658   3603
4     96     34     97     74
4    140    756   6276   6277
4    182    299   2787    489
4    140   6596    299   5580
4    435    116   4021   4020
4    182   5255   6137   5254
4    107   5464    733    705
4    163    279    286    277
4    182   5256    164    279
4    182    158    152   5273
4   3125    148   2855    147
4    158    490    503    162
4     33    113     71    116
4    182   5254   4768   2788
4    149    750    683    634
4   5172    636    635   2795
4    150    621    629   3072
4     85    260     86     88
4     35     34    950     94
4    663    150    149   3450
4     73   3996   5171    630
4   5791    167    331   3568
4    664    121    667   3224
4    140    755    762    489
4    245     87    244   5955
4   5181    163    285   3897
4    556   5711     59    188
4     81   6843    307   5982
4   2713     79    770    766
4   4466    173    389    675
4    188    556   5711    706
4    152   2852   3273    504
4     83    596    601    599
4    513    198   3742    647
4    199    192   3549   3199
4   5046    647   3741    198
4     82   5199   5982   3614
4    201   3078   2725    313
4    198   2801   5466   5467
4     18     19    103    443
4    130   5198    590    207
4    170   2964    594    593
4     93   3373    586   2673
4    151    501    617   3104
4    199   3383    701    485
4     19     33    103    719
4    668    198   3742    513
4    884   4659   2735    428
4    172    183    580   3033
4   6320     57   4705   4372
4     65    420    419    422
4   5912   5913    103   5494
4    200   3130   5176   4895
4     45   5583    438    712
4     88    493   4947    370
4    426    192   3789    460
4     59    583   3870    365
4    128     50    133    249
4    192    458    364    460
4    102   6839    742   5494
4    172    253    530   6520
4    192    645   3789    646
4     56     57     59    163
4   3466    674    384   3450
4    103     49   5913     33
4    575     53     54     32
4    191    592   2830    419
4     96     35    911    838
4    192   6145    364    332
4    117    842    839    945
4   3049     13    214   4017
4    115     33     49     16
4     87   4947   3951   4948
4    352    166    884    428
4    166    888    896   4931
4    161   3568     48    173
4    184   3957   3958    372
4     56     87     88     80
4     87     80   4947     88
4    847    813     94    815
4     96    813    867    815
4    163    285    277    288
4    184   5181    411    377
4    373   5049    159   3794
4     95    955    952    828
4    166    465    159   5585
4   2671     89   3049     95
4    173    389    675   5115
4    158   3690   4768   4770
4     96    813    911    867
4    168    607    605    609
4    153   3136    516    350
4    193    516   3136   5339
4    145   5585    424    716
4    182   2788   5255   5254
4   3342    193   5631   4754
4     62    550   6885    551
4    175     56     87     16
4    153    516    376    350
4   3136    107    350    153
4   3136   5339    178    193
4     14   4472    232    554
4    193    168    607    605
4     72    178    121   6579
4    168    608      5    606
4    128    130    203    174
4     14    711   4487    554
4   3044     60    671    221
4    128    130   4795    203
4    133   4089    210   2990
4     14    232   4472   6164
4     31     12    220    225
4    146    496    507    433
4    104    853    871    852
4    104    854    971    853
4    181    505    433    507
4    162   5965   5176   3130
4    158   4770   4773   3690
4   3103    379    441    188
4   6137    182    163    279
4    182   5255    279   6137
4   4228    525   3289    168
4    817   2752      0   4396
4     39   4898   4950   5395
4    164     93     57    585
4    152     90   4600   2892
4   1084    971    534   1010
4    187      6    919    918
4     60   3044    546   5792
4    467    427   3210    159
4    111   4396   6861   4397
4    104   2988   2763   3202
4    152   5273    495   6541
4    128     50    132    124
4    246   6805    165    133
4     17    727   6368    570
4    185   6747   6294   6743
4    442    461   2674    445
4     18    394   4760   5862
4     56    173    175    152
4     11   6641    213   4991
4     18     19   5976    292
4    132   4795    128    130
4    140   6541   6551    682
4     54    577    572   3007
4    133    180   2989    688
4     97    210   4089   5985
4   4767   6332   6882     62
4    153    216    265   4086
4    133    180    688    689
4    128    132     50   6004
4    100   6868    342    700
4     22    108   6263     15
4     48    339   3629    380
4     14   4472    554    725
4     60   3035    670   6885
4     24    247   4375   6190
4    148   3557   3515   6855
4     51   6302    235     83
4    176    582   4755   5707
4    116    204    435    147
4     71    664     73    663
4    103   5124   5933   5912
4    105    337   5799   5798
4     18   3696    292    436
4     15   6763   6868    704
4     18   6815    407   6816
4     18    311   3048    312
4   2674     47    102    176
4    188   3103   2738    752
4     48    454   3792   6573
4     45   5103    458    460
4     93   3286    587   3635
4     45   5103    426   5583
4     57   4372   4707   4705
4     80   6071    494    492
4     18   3525    292   5976
4    189    778   3196    898
4    895    779    778   3420
4     37    907    843    844
4     99    135     33     71
4    116    114    113     71
4    103    721   5124   5912
4   3107   6704   5170    890
4   3806     13    211   3877
4    490   3521    314    146
4    895    898    890    268
4    182    152    163    164
4    355    333   3037     48
4    540    526   5083     76
4    189   5170    722   4661
4    863     37    907    856
4    144   1082    810    798
4    890   5170   3107    888
4    140   6276   5452   6277
4    146    395    498    202
4    166    722   5170   4693
4    565    171    564   4785
4    131   4662   5607   5356
4    888   3109   4693   5170
4   4694    888   3109   4693
4    161    740   3796   2903
4   5570    170   5774    598
4    127   4248   3033    307
4    137    657    363   3603
4     73    669    663    664
4     64   3707   3068    398
4     30    398    397   4722
4    921     63    981    916
4    990    873    980     63
4    598    170   5774   5398
4     63    915    984    876
4    131    598   4256   5398
4    116     33    196    136
4     81    600    591   6180
4     63    876    405   3068
4    185    393    477    468
4    393    397     63   3932
4     65   4894     63    873
4     64   2532    882   3068
4    322   5283   5278    885
4    191    336    420    765
4    191    592    287    300
4   3932     63    398    397
4     71    643   4951    664
4    201   5058   4615   5059
4     65    419   2830    422
4     65   4404   4541   5591
4    199   5135   3199    644
4   3198    192    191   6145
4    184   3957    372    388
4    163    162   3897   5181
4     45    464    332    458
4    628     81    597    595
4    116    204    148    136
4     91    586   3373    308
4     91    308    280    274
4     81   5982   5199   6329
4    189   5279    558   5283
4    162   3897   5181    399
4     81   6329    595   6180
4     99    321   4933   5975
4    131    508   4799   3522
4    163    417    360   4511
4    163    275    288   5428
4     81   3991   6180    595
4    170    593   5774    302
4    445     47    102   2674
4    102     47   5404   6864
4    202    200   3130    162
4   5404     47   4351   6194
4    542    111    539    156
4   5820    511    603   6317
4    202    200    451   3130
4      5    269   5567    615
4    123    177    361   3292
4    102   6839   6864   5404
4    111    539   2937   3663
4    102    721    103    742
4    962     46     29    966
4    184    162    163   5181
4    193    153   5631    607
4    735   4760    176   3664
4    379    441    188     47
4     32    575    559   4597
4    202    395    498    558
4   6055    886   6056    892
4    168      8     41     72
4     18    662    311    312
4   3949   3950     87   3951
4    153   4228    168    525
4    197    647    513   4654
4    626    201   4614   3154
4    513   6398    198    197
4    155   4348    625    535
4    184    163    152     59
4    202    146    439    498
4    198    306   2375   5467
4    155   3519    111   6129
4    184    163    360    411
4    158    184    159    162
4    610    198   5465    197
4    163    158    502    162
4   2937    536    156   4348
4    184    152    163    158
4    163    275   6804    288
4    202    200    189    893
4    187   3519    155    154
4     85     88    109   6284
4    161    740   5791   5392
4   3604    137    478    138
4    483   3450    384    674
4    159   2737   5729   6024
4    200    145    146    189
4    286   5428   6345    164
4     59    417    365   6436
4   3678    402   4893    159
4     16     87    106     88
4    149    134    635    147
4    137   6592     73    121
4   5729    446   5728    159
4    121    177    123   3292
4     45    639    456    426
4    147   5986    462   3861
4     65    713   4894   5590
4    114   4656    423   6621
4    185    666   4467    403
4    154   2300    748    749
4    193   6000   5820    603
4    114    406   5418    423
4    112    818    977    959
4    176     55    582   4787
4     63    984   4894    416
4    149    760    685    757
4     22    696   6867    234
4   5361    661   6308    345
4    135     33     71    116
4    202    200   4892    451
4    137    658   2881   3603
4    149   5616    750    636
4    107    153    270    374
4    135    344    480    676
4     47   3946    427   4778
4    149   3158    473    754
4    149   6050   3158    683
4    148   3694   3517   3514
4    659    148    653   3571
4    114    640   6179   3827
4    114    431   6179    425
4    362     23    385    696
4    102    445    461    415
4    148   3515    659   3694
4    442    434   2674    461
4     73   5171   5361    381
4     71    134    637    663
4   4351     47   3946    427
4   2679     91    131   4660
4    137    657   3603   3517
4     47    467    427   4351
4     47   6194    467   4351
4   3224     71    664    121
4     91    131   4660   5795
4     47   6573     48   3792
4   3517    137    478   3604
4   3292    123   6590    361
4    204    449   5312   4020
4    149    754    473    138
4   4655    466    467    159
4     47   4778    441   3946
4    149    635    636   2795
4     91     82     92     93
4    141   6811     99    326
4   3326     19   3327    719
4    188   3103    379   2738
4     91     93   3373    586
4    115     48     49   4196
4    147   4021    471    435
4     48    380   4222    333
4     55     25     17    171
4     16    115     48     49
4    100    342    109    106
4    110    334    347    759
4    581     59    583   4787
4     87   3952   5840   4948
4     56    164     91     93
4     44     43    191     45
4    147    471   2873    435
4   6868    100    342    109
4    110    347    355   4222
4     48   2887   2903    454
4    148    659   2855    660
4   6596    182   5256   5593
4    110    386   4362    432
4     90   6789   4949    245
4     48   6573   4196    454
4    147    472   5986   4021
4    191     39     40     44
4      2      6      8     27
4    765    878    420    191
4    161   5183    367   3796
4    148   2791    660   2855
4   6763     15    109    315
4    148   3514   6855   3515
4    108   2871   2910    707
4   4222    110     48    355
4     90   5994   6790    766
4    128   5143    206    729
4     80    486    412    494
4     50   6004    249    128
4     51    238   4800    697
4     79   6321    491   5832
4     53   4246    222    686
4     78    215    309    421
4    110    759    347   4362
4     51   4800   4116    697
4    170    302   2964    593
4    133    284   6164   4473
4    170   5396    593    594
4     51    235    242    697
4    124    251   6272    691
4     83    601   4381    599
4    128   5143    729    249
4     78   6842    421    488
4     57   4707    417    295
4    132    228    235   4116
4    109   5769    315    385
4     55   4787    568    582
4     34    623   3320    687
4    131    328     78     92
4     48     49   4196   6573
4   6232    131    252     91
4    140    293   6596   5580
4    154     40    765    191
4     35    950    944    834
4     34   4081    687    745
4     79   5832    291   6321
4     78    252    567   6304
4     60     74    221   3044
4     89   3049   4018   2671
4    828     95    955   3320
4    164     91    280   5593
4     58   6320   3938   4372
4     91    131    278   6232
4    140    756    763   3236
4    182    699   6596   5256
4    933    783    217    784
4   6278     91   5797   2900
4    140   6551   6276    755
4     51    186     52    238
4   6284     85    260    276
4     91     93    586    588
4    191     39    190    154
4     89   6181   4018   6725
4   3049     95   4017   2671
4    158    495   5273   3690
4     51     84    230    242
4    162   5965    490    399
4     78    131     92     91
4    124   6271   6272   5942
4   3512    154    191    190
4    158   5254   5231   4768
4    158   3690   4773    433
4    163    277    286    288
4     81    628   3991    595
4    132    235    228    236
4    502    162   3897    163
4     21    227    229    241
4   3608    159    466   3794
4    202    498    439   5075
4     24   2751    229    227
4    154    749   3512    765
4    189    897    891    893
4    395   5279    558    189
4    158   5231   5254    502
4    140   6276   6551   3757
4    202   5075    314    734
4    500    140    541     79
4    603    193   5999    602
4    252     78   3577     91
4     79    566    289    412
4    153   3342    376    516
4    115   4196     49   5913
4    110    386    759   4362
4     85    263   2914     86
4     79    761    266    231
4    153    108   4086    179
4     79    289    231    266
4    696     22    362     23
4    153    216    351    382
4     92     84   6842     78
4     78    566    488    309
4   3320    955    828   4232
4    950    846     34     35
4    154    618   3587    613
4   2855    147   4792   3125
4     73    121    381   5361
4    114   4656   6621   6620
4    116    741   4021   4020
4    134    638    431    637
4     44    425    431    114
4   6592   3964    657     73
4    204   3594    449   3593
4     92    131    328   5397
4   6302     84   6842     92
4    150    663    669   4899
4    191    448   4404   2830
4    151    481    626    619
4    187    985    992    987
4    280    164    358   3373
4    197   4615   4752   4614
4    179   4479   5528    247
4   3656    187   3857    746
4    177    772    329    774
4     16     47     48     56
4    181    484   3907    506
4    187    992    918    987
4    151   3154    617    501
4    302   5398    170     83
4    421     92     78    215
4     40    993    989    917
4    140    294    293   5580
4     92   6302   4381    421
4    151   3154    620    617
4    672    674    483    384
4     78    412    486    488
4    884    428   2735    352
4    720    116    113   5945
4    882    736   1089    876
4   6855    703   3514    135
4    173     56    175     48
4    135    116    134    148
4    110    652    515    334
4   5452     90   6423   3757
4    792    420   1079    877
4    110    759    318    334
4    873    795    877   5590
4    795    873    877   1077
4    410   3037    731    173
4    794    793   1077    877
4    102    415   6817   6839
4    176    752   4205   3103
4    248    385   6213     85
4    437    196    718    204
4    877   5590    980    873
4    795   4894   5590    873
4   4372     58   6320     57
4    198    612    409   5763
4    190   5763   4157    287
4    616   4894    984    416
4    616    874   6054   6053
4    796   6054   4894    874
4      8     46    112     29
4    616   6054    874   4894
4   5987    795    873   4894
4     63    984    873   4894
4    198   5763    190    612
4   3662    970    974    971
4    244   3950     87   3949
4   4396    817   2752    111
4    111    971    534   3662
4    104    542    534   5048
4    787    970    974   3662
4    153    525    524   4228
4   3199    646    192    413
4    104   2750   2988   5048
4   5790    199    651    701
4    104   3202   2763    957
4    155   2937    111    156
4   5465    198    282    197
4     27    977    979    869
4    977     27    979    961
4     27    869    979    968
4    192    364    413    646
4     57     59    365   4706
4     13    211   6166   3806
4   3373     91    280    164
4   3229     90   5994   2647
4     91   2679    308   4660
4     57   4706     58     59
4     57     59    417    365
4   6304    215    309     78
4     57     93   4705    273
4    120    954    829    827
4    117    842    945    827
4     57   5428    585   3102
4    783    217   4876    823
4     79    768    761    231
4    588     93    586    587
4     50     26    232    730
4     13    677    214   6166
4     69    807    194    903
4    118     70   3876   4710
4     57    295    163   3102
4    955    950    846     34
4    135    344    676    703
4     56    163    152    164
4    140   6596    293   6278
4     47   6864    102     49
4     59   5706   4787    176
4    541     79   6424    500
4     94    847    956    945
4     97    205   6846    698
4     96    838    911    813
4    177   5063    345    482
4     57    417    163    295
4    154   3587    610    190
4    201    151   3154    626
4    177   2721   4226   2746
4     37    119     77    948
4    182    299    699   2787
4    840     35    812   3201
4    133    267    180    689
4     74   4140    552    528
4   3757   6541    140   3273
4    182    682   3689   5273
4     90    767   6789   6790
4   3757     90   6423   3273
4    770     79    291   3235
4   3236    294    541    140
4     34   3201   3026    724
4    161    373   5183   4111
4     90    245   3949   6790
4   5792     74     60   3044
4     35    944    838    834
4    957     35    812    910
4    181    158    152    159
4    115   3630    656    447
4    193    773   6396    769
4    329   5126   6317    772
4    966     46     29    961
4    965    915     63     64
4    142    144   5250    801
4    948    912     77     37
4    161   5393   5392   5791
4    191     45    332    192
4    101     33    115     16
4    912     37    908    860
4    872     28     29     46
4     54    575    572   4780
4     73   3964    630   6592
4    193   5999    602    607
4     39    201   6323    485
4    948     69    938    831
4    177    340    390   6825
4    825    160   5217    771
4    825   5217    934   2895
4    771    929    825    160
4    825    771   2895    925
4    819    934    825   5217
4    771    825    930    925
4    261   6483    133     97
4     41   5952    624    608
4    808    126   2913   4974
4    905    118   1083    826
4    613   3587    190   5466
4    160    258    819   5217
4    112    818    961    977
4    959    976    112    918
4     95    745   3320    828
4     28    958    863    872
4     49   4196   6583   5913
4    933    784    820   3784
4     15    109    100   6868
4    933    824    823    783
4   3037     48    175    355
4    167    357    392   5390
4     13    117   3806     95
4     91    586    308   2679
4    176    441   2674     47
4    193    153    178   3136
4    826    933    823    217
4     90   3949    766   6790
4    766     79    770   3235
4     90   3235    766   3949
4     37     38    142    144
4     90    766   2713   5994
4    701    201   5790    199
4    685   5616   4817    760
4     37     98     38    144
4   2681     28    810     37
4    420    878    765   4897
4    110    347    334    515
4     40    917    988    818
4    198    301    665    324
4    618    619    303    154
4    177   5063    510    329
4    142    831     37    949
4     40   2300    875   1076
4     65   5591   5590    422
4   1076   2300   1086    746
4    179    247   6882   4375
4     26    710    730   3555
4   3555     26    710    241
4    809   4974   5090    125
4    845    866      3     77
4   6177    101   5958    318
4     11    297    213    239
4    417     59    184   6436
4      8     72     44     41
4    808   2913   2818   4974
4   2766     38     98   5081
4     15     23    385    362
4     13     12     70    117
4    121    482     73    667
4    123    354   5340   6590
4   4596    121   6579     72
4    185   5643   6747    666
4    107    733    512    705
4   2775   4974   5090    928
4     28    863     37     46
4    107    512   3136   5352
4    113    455    720    450
4     32     12     70     31
4     28    978    872    960
4     12    243    220    225
4     30   5974    157   4096
4     30   4096   3221   3707
4    147   2873    471   2859
4    363    123    137   5340
4    130     83    132    596
4     30   6016   6294   6089
4    716   3469    145   4661
4   2964     83    601    302
4     32    576     38    575
4     65    440   4541   4730
4    242   6302    235     51
4    179   4479   5721   4088
4    130    174   4367    207
4    189   6594    146    396
4    128    206    203   4795
4    153    376    374    350
4   1010    104    854    971
4     75   3272    678   6397
4    539    156   2921    542
4    111    973    974    982
4     64    883    882   2532
4    130   5555    596   4795
4     32   6301    142    576
4     32     31   3270    559
4     84     25     56     92
4    596     83    601   2964
4     23    696    695    694
4      0    790    982   4396
4      2    156     76      9
4    199    654    520   5046
4    170     81   3991    600
4   6301   4597     32     68
4     21    233    227    234
4    191     44     45    192
4    182    163    152    158
4    177    329    772   4805
4    133    690    688   6850
4     31    222   2842    271
4    111    817   2752    187
4    182    158   5273   4768
4    192   3165    679    485
4   2766     17   5641   6273
4    809    126   4974    125
4     32    142     38    576
4    142    304   2913    126
4     39    151    680   3078
4   3155    928   4974   2775
4      6    111    919    850
4    192    401    679   3165
4    191   3512    287    336
4     43    920    916    921
4     44    401    369    758
4     17    312   5641    662
4    569     38     17    574
4    113    114   5644    455
4    611    610    198   5465
4     69     37     32    142
4    182    682    140    489
4    913    926    823    782
4     13    677   4937   4991
4   4494    282    198   6398
4   5046    654    647    198
4     89   2671   4018   6732
4    197    323   4654    513
4   2671     34   6732     97
4    189    722    716   4661
4    150    757    632   2792
4    483    384   5767   5752
4     12   5234   4039    250
4     97   6477    205   5985
4     29    921    963    920
4   3078    201   6323     39
4      1     46     37     77
4     14    554    738    725
4    485    199    192     39
4    150   3072    632    622
4    172    253   6520    589
4   4084     73   3223    150
4     70    223    219    262
4    271   2842     31    225
4    149    685   5767   3450
4   5434    840    786   3201
4     60     76    547   6885
4     34   4081    272    687
4     94    945    834    847
4     60   3035    546   3044
4    179   4915   5528    265
4    177   6826    390    772
4    501    151   3154    201
4    147    472   4021    741
4    951     95     94    950
4    182   6541    140    682
4    182    158   4768   5254
4     95    839    952    951
4     95   6460   2671   4081
4   4039    118   3877     13
4    197   5784   5783    310
4    214   6725     13   3049
4   5622   5621    649   3465
4     34    623   3026   3201
4    104     35    910    169
4    197    753    349    654
4    199    520    644   5047
4     35    836    944    950
4    201    151    313    501
4    201    313    151   3078
4    199   3530    651   3383
4     97    205   6732    208
4     39    199    192    190
4    201     39    154    190
4    805    905    120    117
4   4081   2671     34   6732
4    150   2744   3937   3996
4    204   3593    449    435
4     95    835    832    952
4    135    703    141    702
4     34    745   3320     95
4     75    723   4140   5792
4    197    349    753   5783
4   1088    846   5434   3320
4    114    633   3827   6179
4    812   3201    786    840
4    204   3593    435    147
4    198    747   2801    319
4    148    135    137    134
4    116    204    437   4020
4    116   3377    720   5644
4    198   2375    665   5467
4     99     71    141    135
4    197    610   4752   5465
4    199    349   3530    520
4    198    409    301    324
4   5070    880    746   3857
4      5    604    615   5566
4    185     19     30   5643
4    198    319    190    747
4    154    618   3518     61
4    198    650    190   5763
4    201   5059   4615   4614
4     81   6180   6843   6329
4     25    171    183     54
4    135    141    326    702
4    596     83   2964    594
4     13     95   3806   4017
4     25     38     17     54
4    135    326     99   4933
4     63    405    876    984
4    199   3530   5135    644
4      9   4208   4331   4202
4    183    584    580   3033
4    127   4248   5942   4246
4    127   4248    584   3033
4     30   5974    296    157
4    127   6271   4248    307
4     53   4780   5557    559
4    112    818    959    917
4     54   3007    572    569
4      6    976    869    861
4     53   4780    559    575
4    170    130    594     83
4     91   3039   2900   5951
4    835    804    904     95
4    841    948     77    848
4     44    758    192    401
4    190   3739    613   5466
4     32    559   3270   4597
4     47    102    103     49
4    529    156      9     76
4     55    341    568   5149
4     75   2988   3202    533
4     89     14     97    133
4    156     76    540    542
4    739     62    726   4767
4     83   5398    170    131
4     76    543   2823    678
4      1    179     24     22
4     68     31    219   6568
4    108    470    469   6263
4     77    866    841    845
4     26    710    711    232
4    111    974   6861    982
4   1076   1086   2300   1078
4     41   5952    680    624
4     47   5404   6864   6194
4     55   5150   5149    568
4      9   4916    555   4915
4     76    548    545    532
4    193    153   3136    516
4     68    122    194   4526
4    547     60    546   3272
4     65    400   5590   5591
4    193   4754    517   4345
4     89     97    210    133
4     65   5590   4894    873
4     63     65    980     43
4     30   4096   3707   4722
4    420    980   1079    877
4    422    877    794    795
4    193    517    516   5339
4   4347    514   6826    177
4   2935    986      0    817
4    187    987    817    986
4      5   5566    615   5567
4    514   2746   2806    177
4    514   6826    177    774
4    179      1     15     22
4     22    237   4088   5721
4    146   5979    305    498
4   2935    986    791      0
4    146   6594    497    396
4     52     26     21     25
4     56     59     47    173
4    181   3907    505    506
4    526    156     76    540
4    182    152    140   6541
4    555      9    179   6882
4    152   2892   4600   5635
4    152   6541    504   3273
4     87     90   3951     79
4   3857    986    791   5070
4    789   2935    790    982
4   3103    188    441    176
4     37     25     38     17
4    863     46    860     37
4     48   2887    656   3630
4    158   4768   3690   5273
4   3907    181    152   4466
4    841    948    912     77
4    200    451   3130   4895
4   5283    892   4016    202
4    200    404    428    387
4    892    189    893    202
4    202   6056    893    892
4     68     31   6568   3270
4    379     47   5728   4778
4    884    893    897    166
4    189    268    396    395
4   4016   6055   6056    892
4    892   6056   4016    202
4    166   5170    888   4693
4      9   4916   4331   4910
4   6056   4016    202    330
4    202    330   4892   6056
4   5590    422    980     65
4     65    440   3932    416
4   6862   5070    880    746
4    189    894    892    891
4    156   6098    537    526
4    166    200    352    893
4     45   4122   4730    438
4     65    400    440    713
4    202    558   5075   5282
4    145   5394    348    424
4    158   5231    673   4770
4    145   3469    424    348
4   6291    896   3655   3653
4    166   3653    452   4931
4    895   2889   5632   3802
4     68     32   6301    142
4    884   2736   4659    887
4    166    722   4693    465
4   6291    404    428    166
4    189    166    200    145
4     87    106    175     16
4    189    778    890    780
4    268    898    890    189
4   5220     85    263   2914
4    202    451    330    734
4    159    161   5393   4111
4    161   5183   5392   4111
4    152    173    175   5770
4    122     67    223     68
4     47    173    161     48
4     70    118   3876   4038
4    884   2735   4659   2736
4   1083    744    784    217
4     95    828    832   4080
4     47    441   2674    445
4     95    258   4017    259
4    445    442   3946    441
4    159    145    146    200
4   4039     12     70     13
4   2839    859   2846    811
4     47    430    467   6194
4     38    573    579   2768
4     68   3270     32     31
4     18   3048    311   3696
4    188    379   2737   2738
4    114     45     44    425
4     20    296     19     18
4    144     98   2768   2862
4    159   2657    418    446
4   2839   2846    810    811
4     81   3991    600   6180
4    427     47    159    467
4    198   4259    324    743
4    183   3033    127    584
4    557   2766     17   5641
4    227     24    233     21
4    100    641    700    317
4   3102    163     57   5428
4     89   6181    210   5985
4   5393    145    424   5394
4   5434    846    623   3320
4   4655   3210   2657    159
4     95    952    955    950
4     35    836    950    846
4     35    837    836    812
4     35    836    846    840
4     34    698   4747    272
4     13     89     11     14
4     35    837    838    944
4    184   6031    402    372
4    159    200   3678    404
4     34   4747    623    687
4      3    867    814    815
4     11   4991    213   6805
4     18    561   5862   4760
4     68     69     32    142
4    127     11   4246   5942
4     81   6843   6271    307
4     21     52     23    695
4     25    172    183    171
4    194    903     67     69
4     96      4      2     97
4     58   4785   3939    171
4     55    568   4787    283
4     31   4461    225    220
4    102   6839   5404    415
4    255     12    257   6641
4     53   4246    127     11
4     70   6300    220    250
4     30     19   5579   5643
4    193    168    605    178
4     53     32    575    559
4    188    706   5711    752
4    159    737   2657   4655
4     12    255    225   2842
4    145   6594   6442    497
4    202    200    893   6056
4     82     93    587   3635
4    145   6594   4221   6442
4     70   6300    250   4038
4   2992    892   4016    322
4    111   3663   6128    522
4     31    219   6568   4461
4     75   5792   6397    723
4     83   6302    235    599
4     68   4526   6301   4825
4      9   6332   4910    545
4    581     58     59     55
4     54     32     38    575
4    194    821    808   2818
4    194    931    821    143
4   2818   4974   3155    928
4    179   4375     24    247
4    193   5631    518   5999
4    179   4479   4086    265
4     56     58    171     55
4     68   4526   4825    122
4    198    479   2375   4494
4     25    172    127    183
4    171     55     58   4785
4     21    227   6563    234
4    197    753    654    647
4    197   5058   5783   5784
4    982    111   4396   6861
4    563    183    580    171
4    695     52    186    693
4   6320     93     58    171
4    172    171   6320    253
4    191   3512    190    287
4     74    209    221    553
4     68    223   6568    219
4    672    384   3465    674
4     82   6840    530   3614
4    171    183    580    172
4    197    310   5783   4654
4    119    953    954    936
4    173     59     47    159
4    124   6271    218   6272
4     68   6568    223   4825
4    170     81    628   3991
4   3739    190    747   5466
4    249     50    133    284
4   4246     53    222     11
4    197   4654   5783    753
4     32      1     12     11
4     11     53    222     31
4    191   3198    300    190
4     11   4246   5942    256
4     13     12    117      4
4     92    215    421   4381
4   6732     89   2671     97
4    183    580    578    563
4    183    578    580    692
4     91    252   6232   3577
4     91   3577   6232   5951
4     91    274    280   5797
4     84    242   4568    230
4    212    128    174   4367
4    130    174    207    590
4     78   4337     79    566
4     11    240    256   5806
4    197   5465   4752    282
4      6    871    850    861
4    159    146    145    181
4   5635    389   4466    152
4    845     77      3      4
4    169     75     96      2
4    163    277    285    502
4    155   6129    522    535
4     56    164    152    140
4    140    152   3273   6541
4     11     31     32     53
4    470     15    362   6263
4    164    286    279   5980
4    150   3964    621    630
4     13    211    677   6166
4     85     86   2914    186
4     70     68     31    219
4     57   3102    273    295
4    188   3958    556    706
4    150   3996     73    630
4   3951     90   3235     79
4     13   4039     12   4937
4    190   4157    300    287
4    117    904    839    842
4    286    164    279    163
4     89     97   5985    210
4    192   6145   3198   3549
4    119     70     12    117
4     31     32     68     70
4    487     79    226    541
4     80   6071    492    260
4     78    566    309    567
4     78    488    486   6842
4    150     73    669    663
4     75   6397    678    533
4   3450    149    685   3466
4    117     12    119      4
4    124     11    297    728
4     93    273   3286   4705
4    166    452   4609    737
4    130   4795    203   5555
4    124   6272   5806   5942
4    117     95    945    839
4    637    149    134    638
4    117    120    805    827
4      4     89     94    117
4    189    892    894   5283
4    119    117      4    956
4    138    134     73    150
4    894    895    268    885
4    117     95    839    904
4    117     94    956    945
4    599    596    236    132
4   4487    670    627     14
4    149    150   2792    757
4     97    205    272   6732
4     89     97   6732    208
4   3872    812   3871    957
4    155    615   5114    614
4    151    626    620   3154
4    197    647   4654    753
4    610    201    626    619
4    596     83    132    599
4     83    130    594    596
4    140    294   5580   3236
4     24    229   6190   6519
4   3198    190    192    199
4     12   5234    243    257
4   4722    398   3707     30
4     30   6016   5974   4096
4    105    337   6572    652
4   3037    175    173    410
4    150    138   2792    629
4    736    797   1089    984
4     13    118   3877   3806
4   3199    192    645   5135
4    187   3519     61   2752
4     19     16      8     28
4   2838    859   1080    969
4     40    765    875   2300
4     83     92   6302   4381
4     64    816    978    960
4    199    644   3549   5047
4    196    115     33    346
4    113    720   3675    450
4    141   5464    327    509
4     64   3068    882    876
4    609   4228    168    607
4     40     44     43    191
4     40    818    112    917
4     72     99     71    141
4    151    624    680   3104
4   3872   3201    786    812
4    605    178    168     72
4    169     35    910    911
4     64    876    882    967
4     45   4730    464    712
4     45    192    458    332
4    156   4348    155   2937
4    485     39   5395   6323
4     83     92   4381   5397
4     15   6764    470    315
4   5987   4894    873    874
4   3568    161   3569   5791
4    175   5495   6309    366
4    150    138    629    621
4     18    662     17     20
4    117     89     94     95
4     83    132    599    235
4     22   6867   6263    237
4     63    915    990    984
4     43    991    916    879
4    960     28     29    872
4   3876   4710     36    118
4    258   3806    804     95
4   4710     70   3876    262
4    110    101    652   6231
4     31   6568   3271   4461
4    803    160   3806    804
4    117    118   3806    803
4    117    842    827    805
4     13   4937    211   4039
4    117    804    803   3806
4    120    805    827    829
4    173    338   5968   3568
4   3792    161   3796   2903
4    124     25     83    127
4     14     12     13      4
4    153   5631    607   4228
4    118   1083    929    905
4    137    148   3604   3517
4     22    234     23    696
4    137     71    141    121
4    523    525    153    179
4     30    444   6016   6089
4     30   6089   6294   5579
4    177   6825    361   3292
4    119    948    938    848
4    193    774   5820    773
4   3006    204    343   3571
4    194    129   4526    122
4    142   6301   4526   2913
4     32    575   4597    576
4     38    572    575   5909
4    117    956    119    827
4     37    912    831    948
4   2737     47    379    188
4    111    155    156      2
4    875    878   4434    765
4    145    476   6442   3762
4    933    783   3784    824
4    188    184     59    556
4    194    932    821    931
4    110    515    105    355
4    110    105    515    652
4    110    100    652    101
4    163   5428    288    286
4    217    933    823    783
4    189    200    166    893
4     47   3608    466    430
4    163    182   5254    158
4    163   4511   6804    275
4    194    122   4828    129
4      5      6      2    155
4    111   3662    974    971
4      6    918    861    919
4    184    388    372   3955
4     41    624    604    608
4    163   3102    275   5428
4    200   4892   4895    387
4    187     41    112     40
4    166   3653   4609    452
4    166    893    897    189
4     93     82    588     91
4    110    101     16    100
4    617    151    624    604
4    166   5049   4158    452
4   6056    200    893    352
4    986      0    187   3857
4    198    743    479    521
4    930    929    825    771
4    819    901    258    804
4    803    160    825    929
4    160    744    771    929
4    583     59   5706   4787
4     56    140     91    164
4    891    892    189    893
4     83     82    172     92
4    140    763   6277   2647
4     82     93    172     92
4    146    497    496   5979
4    200   4895   4893    383
4   3585   5703    901    259
4   5593    164    358    280
4    161    740   5183   3796
4    161    367   3794   3608
4    145    476    506   6442
4    145    507    497   6442
4   5585    166    189    145
4    158   4770    673    305
4    895    898   3802   5632
4    825   2895    771   5217
4   3568    161   5791    167
4    819    922   5217   5703
4    159    200    146    162
4    895    898   3420    778
4     30   4096    157   3221
4     57     59    163    417
4    189   4646    898   3196
4   5279    776    885   3802
4    189   4661    145   3196
4    145    146    497    507
4    167    173    357   5968
4    159   3678   6024    378
4    159    446    378   5729
4   5283    189    202    558
4     77    841    848    845
4    457   4111    373    159
4   5957   5945     33    116
4    202    200    146    189
4    158    439    673   3521
4    188    159   2737     47
4     18    394   6102   4760
4     18   6815   6102    394
4    281    252    131     78
4    887   6291    896   3655
4     18    561    176     55
4   2674    176   4205   3103
4     18   6102   6815   6816
4     18   6815    394    429
4     47     49   3793   6864
4   6102   3664    414   4760
4     87   5840    106     88
4    100    700   2702    321
4     18   5150    463   5862
4     99   6868    321    704
4    176   5707   4755    752
4     19    292    444   6089
4     90     79   3229   2713
4   2674    461    434   3664
4    100   2702    700    641
4    163    295   4511   3102
4   5791    167    161   5393
4    281    328   6304     78
4     18   4008   3525   5976
4     76    544    678   3272
4    251     11    240    239
4   5643   6747   6294    185
4     30   4096   4722   6619
4    169    868    851    861
4     19    292   6089   5976
4     75   5792   3272   6397
4    166    457    159    465
4     19   3327    732   5643
4    610    198    190   3587
4    185   5643    666   4602
4    199   3383   5135   3530
4    192    413   3549   3199
4    241     21     52     26
4   6278     78    140     91
4    397     30    335    185
4    142   6301    304    576
4     91    308   3373    280
4    831     69    938    947
4   6145    192    413   3549
4    202    734    162   3130
4    189    897    888    890
4    145   5585    716    189
4    352   4892   6056    200
4    148    653   6233   3125
4    200    352   4892    387
4    159    158    146    181
4     38    575    572     54
4    166   3653    896   6291
4    331   5394   5390    167
4    202    162    734    490
4    457   5049    159    373
4    204    449   3428   5312
4    184    162   3955    402
4    166   4659    428   6291
4    196   3948   2583   3127
4    101    676    480   6714
4     71    431    642    637
4    114   6179   5418    425
4    123   5340    363   6590
4     45    438   4730    712
4    185    468    477    715
4     65    416     63   4894
4     44   3165   4951    369
4    637     71    643    642
4    138   5620    478    474
4    757    150   3466    149
4     45   4122    438    477
4    685   4817   5616   5767
4    758    192   3789    426
4    177    773    514    774
4     45   5103   5583    712
4    177    510    511    329
4    178   2721   2824   4226
4     17    574    727    569
4    168    609    605   5952
4   3158    754    149   3861
4    149    462   3861    147
4    147   4021   5986    471
4    193   2806   4345    517
4   5361    121    381   3292
4    184    159    402   6031
4    193    518   6000   5999
4    130   5198   5555    590
4     38   5081    573   2768
4    136   6177   3804   6714
4   3327   4602   5643     19
4    556     59   6436    184
4     39     44   4950     41
4    137    138    134     73
4    184    417    360    163
4     17    727    574   6368
4   3675   5124     33    450
4     77    864    979    961
4    110   3691    386    432
4     81   6843    218   6271
4    170   5774   3990   5570
4    114    640   6623    423
4   5840    106    175     87
4   2765   6273     28   2681
4    179      9   3543    525
4   6031   3404    188    159
4    163   5181   6804    411
4     18    443   5057   4008
4     55    568    341    582
4    108    709   6125    469
4     17    463    570   6368
4     97    205   6477   6846
4    563    578    183   5599
4     27    112    976      6
4    312   6281   5148     18
4     22   6867    233    234
4     47    430   6194   3793
4    187      6    111    919
4    186   2822    238    230
4    184   5181    163    411
4    112    977    976    959
4     89    133     11     14
4    183    560    578    692
4   2765   2681     28    810
4    103    742   5912   5494
4   6281     17     18    312
4     86   4568   6071   2914
4    888    189   5170    166
4    184    163    162    158
4    181    146    507    433
4     53    222    559   5557
4     53    686   5557    692
4    127   5942   4248   6271
4    104    111    853    971
4     21     23     22    234
4    179    555   6882   5528
4    161   5183    373    367
4     62    545    549   6332
4    774    177    193    511
4      9   3289   5567    527
4     62    550    549    545
4   3543    179    523   4915
4   5170   3107    888   3109
4    159    167    173    152
4    890    898    778    189
4    166    897    888    189
4     56     57     93     58
4    189    268    894    890
4    768     79   6424   4337
4     47     49     16     48
4    163    411   4511    360
4    140     90     79   2647
4   6424     79    298   4337
4   4609    159   2657    418
4     56    172    171     93
4    198    190    199    197
4    169     27    867    868
4    104   3202     75   2988
4    189   3196    780   4661
4     25     56     55     16
4    763    764     79    500
4     75    723    533   3202
4    140    756   6277    763
4    175    173    410    353
4   2885   6423   5452     90
4    558    189    202    395
4     69     37    948    119
4     56     87     80     79
4    140     90   2884   5452
4     93     57   4705   6320
4    167    475    392    484
4    895   3802    898    268
4    145    506    507   6442
4   6551   3757   6541    140
4   5979    498    146    395
4    202    330   5282   5075
4   6137    182   5254    163
4     90    140   3757   5452
4    146    439    498    305
4     58    171   3938   6320
4    202    558   5282   5283
4    495    158    181    433
4    182    140   5593   6596
4     90    245   6790   6789
4   3521    146    158    439
4     87   3950    244   3952
4   3757   6276   5452    140
4     87   3950   3952   4948
4    124     25     11     50
4   4707   4706   4372     57
4    167    357    173    675
4    145   5394   5393    167
4   5770    389    152    173
4    152    505   3907    504
4    184    360   3957    388
4     59     55   4787    581
4    566    567     78   4337
4    177    345    329   4805
4    104    534   1010   3354
4    177    361   4226    354
4    164   5980   5256   5593
4     82    588   5357    587
4    104    111    971    534
4    707    107   5213   2910
4    178   5339    177    193
4    104    169    870    852
4    197    610    201   4614
4    201   4614    501   5059
4    178    354    123    177
4     81   6843   6180    218
4    198   4259    521   3741
4    306   5465    198    282
4    329    177    774    511
4    197    316    282   4752
4    178   4226   2824    354
4    198    650    409    324
4    198    301   2801    665
4    198   4259   4439    650
4    198    611   5467   5466
4    190   4157    650   3548
4     81    307   6840   5982
4    198   2375    306   4494
4    887   6291   4659    896
4    889   4931    888   4694
4    198    521   3742   3741
4    166    896    888    897
4    167   5394   5390    145
4    198    743    324    665
4    199    644    520   3530
4    192    191     39    190
4   4659    896    884    887
4     69     37    831    948
4    627     62    726    739
4    166   4931   4158   4693
4     76    529   5083    532
4     10    224    739    627
4    896   6291   4659    166
4    199   5047   3549   3548
4    119    830    938     69
4      9   4910   6332    555
4     85     15     23    385
4    192    679    401    645
4     45    464    458    712
4     74      2     96     75
4    191   4404     65   2830
4     13      4     89     14
4      2    104    169     75
4    439    146    158    305
4    527      9    156   5567
4    104     75   2823   2988
4    158    503   3521    673
4    162    290   3955   5176
4    918    187    112    992
4    111    973    850    853
4    155    522    111   6128
4     71    134    114    431
4    953    119    830    938
4      9    545   4910    532
4      5    608   5566    606
4    116   3827    741   6623
4    114    640   3827   6623
4    114   6623   5644   6621
4    527      9   4202   4208
4    114   5418    640    423
4     65    440    416    713
4    163   4511    275   3102
4    104     75     76   2823
4     65   4894    713    416
4     59    365   3870   6436
4    196    101     33    115
4    184    388    411    360
4    236   4795    132    596
4     57    273   4705    295
4     93   3373   2673    585
4    202    200    162    146
4    135   4933    101    480
4   5394    167    331   5791
4   4706     58     59    581
4     57   4706    365   4707
4    136     33    196    101
4     88    371   6285   5595
4    173    359    410   5115
4    184   3957    556   3958
4    196   3127    115    459
4     53     54    183    560
4    204   5312   3428    718
4    196    115    346    459
4   6594   4221   4646    189
4    119     12     70     32
4    894    268   5279    885
4    202   5075    734    330
4    146    497    507    496
4    330    202   5282   4016
4     70    119     69    120
4     17    727    565    569
4    101    110   3691   5958
4    200   4892    451   4895
4   5452    140   6277   2884
4   3428    204    196   2583
4     69     37    119     32
4   4337    567     78    298
4     82   6840   3614   5982
4     92    131     83     82
4    598    131    508   5570
4    202    314    490    734
4     83   4381   6302    599
4    132    235    236    599
4    170     81    600    130
4     93   2673    273    585
4    170    594    130   5396
4    115    196   3429   3127
4    146   4773    305    496
4    159    166   4609    737
4    116    147   4021    741
4     82    530    139   3614
4   3196    145    189   4221
4    131   4799    278   3522
4    491     80    494   6321
4     53    686    127   4246
4    162    490   5965    734
4    110    318    101   6231
4    594     83   2964    170
4     53    560    183    692
4    172   6520    530   6840
4    131   4799   4662   4660
4    162    399    377    290
4     18    429   5148   3048
4    138    148   3604    137
4   4020    204    435    116
4    190    613    154   3587
4     65     45   4730    464
4    813     94    815     96
4    654    199    198   5046
4     65   4730     45   4122
4    198    306    611   5465
4    127   6840    307   3033
4   5398    131    598    170
4    187    918    112      6
4    189    395   5279    268
4    893    166    884    352
4    193    177   2806   5339
4    202    451   4892    330
4    152   3907   5635   2852
4    111    817    919    973
4     81    130    591    600
4    151    624   3104    617
4     81    127   6840    307
4    196    116    437   5957
4     95     34   2671     97
4   6323    485    201    701
4    190    612     66    319
4    183    584    692    580
4     61   3519    154    618
4     10    179   4375     24
4    532    531      9    529
4    197    310   4654    323
4    765    154    191   3512
4    707    108    709    708
4   3289    168    606   4228
4     34    745     95   4081
4    104    169      6      2
4    976     27    869    977
4    108    153    270    107
4   4494    306    198    282
4     34    950     94     95
4    108    408    237   6125
4    670     14   4487    738
4     15    109    315    385
4    191     40    765    878
4    128   6647    728    212
4    199    644   3199   3549
4     44   3165     39   4950
4    187    918    919    987
4    101   6177   6714   6231
4     82    131   5356    588
4    115    459   4196    346
4   6232     91   5951    278
4    100   5565    101   2702
4    149    634    636    750
4     73    669   6308    661
4    150   4084   2744   3467
4     47     49   6573   3793
4    150   2744   4084   3937
4     16     72      8     15
4    134    135    137     71
4      8    114     45     44
4     99   2702   4933    321
4    150    622   3466   3465
4    171    565    564     54
4    178   2721   3136    512
4    108   2871    707    469
4    460     45    426    192
4     72   3224   4898   4596
4    136   3804    676   6714
4   2910     15   6764   2871
4    101    318   6177   6231
4     15    315    470    362
4    136    659   3558   3571
4    185    114   4658     45
4    177    121    482   5361
4    110    347   4222   4362
4     99   5975   4933    326
4     99   5975    704    321
4    140    762    299    489
4     34     95    955    950
4    191    765   3512    336
4    192    646    460    364
4     43     40    878    879
4    131    328   5397   4256
4    191     65     43    878
4     64    967    816    876
4     79     78    140    487
4    185     45    715    477
4    226     79   6424    541
4    425     45     44    639
4   6145    192    191    332
4     34    698     74    552
4    201   2725   5058   5059
4     81   6329    597    595
4   3450    149    663    637
4     79    231    289   4337
4    369     44    642    643
4     44    642    758    369
4      1      8     46     77
4     72     41   4625   4898
4    191     39     44    192
4     13     12   4991   4937
4   4602    114     19   6620
4    136    101   5958   6177
4    185     45    477    393
4    140    756   3236    762
4    567    252     78    298
4    718    204    196   3428
4    196   3948    346    718
4    525      9   3289    168
4    131    278   6232    281
4     34     74   3026    552
4    153    382    376   3342
4   2900     78   3577    226
4     33    346   5957    196
4    110   4222     48   3629
4    116    196     33   5957
4   5607    170   5570    131
4     81     83    131     82
4    131   3522    598    508
4    196   5957    718    346
4     91   3039   5795    274
4    131   4256    281    328
4    161   3792     48   2903
4   5933     33    346   5957
4    150   3467   3465   5621
4     71   4951   4950    664
4    647    197    513    198
4     78     92    421   6842
4   2721    178   5339    177
4     82   3614   5357   5199
4    138    629    621    631
4    153    351    374    376
4    182   3689   2788   4768
4    177   4805    340    345
4     71    664    663    643
4    150   4899    674    663
4     91   4660    308    274
4   3273    140   3757     90
4     73   6308   5361    661
4   3465    674    384   3466
4    131   4799   5795    278
4    170   3991    628   3990
4    150   5621   4084   3467
4    661     73   3223   4084
4     65     45     43     63
4    487     78   6278   2900
4   3201    840     35     34
4     32      4    119     12
4    194    906    932    822
4    108    408    270   4086
4   4991     11     13   6805
4    846    623     34    840
4     94     95     89     97
4     96     97     34     94
4     95   4080   6460    745
4     15    108   6263    470
4     16    101     33     99
4    108    408   4088    237
4      8     63     30     29
4    153    270    351    216
4    153    216   4086    270
4     17   2766   2681   6273
4   6806     89     13   6725
4    153    523    265    216
4     13    211   4937    677
4     95    259   4080    832
4     13   6725    677   6806
4     34    272     97    698
4     50     51     52   5554
4   5806     11    240    251
4    124    251    691    254
4     97   6477   4089    261
4    124   4367    254    691
4    185    114    406   4658
4    124   4367    691    591
4     31     12   2842     11
4    133   4635    210    165
4   6732     34    272     97
4     89   5985    208   6181
4    116    148    204    147
4   4795    236    132    562
4    133    264    249    689
4    153    168    178    107
4    526    529   5083     76
4    133    210   4635   2990
4     11    239   6641    240
4    185    114    403    406
4   6805     11    133    246
4    109   6213   5769    385
4    113    450    719   3326
4     51    186    238    230
4     52   3554   3555    693
4     21   3554   6563    241
4    201     39   3078    151
4    114   4658   5418    406
4      8    114    113     19
4     54     17    171    565
4    137   3516    703   2881
4     95     89   3049     13
4    172     82   3635     93
4     21    695    234   6563
4     68    142   6301   4526
4    118   3877   4038   4039
4     18    414    453   5057
4     23    234    695    696
4    185    114   4602    403
4   5150    570    568     55
4    832    259    901     95
4   4080    828    983    800
4    110    355    347    515
4   3585    901   5703    922
4    160    258   3806    804
4     88   6284     85    260
4    185     30    335   6743
4     88    260    492    493
4    179   6882    247   5528
4     18     19    292   3696
4   6460     95    259   4080
4    819    160    825    804
4     24   6190   4375   6519
4     27    868    968    814
4     62    551    627    726
4    832    983   4373    259
4     27    868    814    867
4    103     18   5057    102
4     17     18   5150    463
4    155   5114    620    625
4     12    220    243    250
4    155   5114    625    614
4     62    726   4767    549
4     10    711   2678    224
4     77    966    972    864
4     53   5557    560    692
4    108    469    470   2871
4   5976     18   4008     19
4   3006   3429   3691    204
4   3289      9   4202    527
4     77    866    979    864
4     72      8     71     16
4    719    450    113     33
4    137     71     73    134
4     33    450    113   3675
4    197    316   4752   4615
4     81   5199    597   6329
4    296    311     18     20
4    186     86   2914     84
4    124   5806   6272    251
4    177   4347   2746   4226
4     56     47     48    173
4    189   4221   4646   3196
4    115   5913    346   4196
4    105    337    652    641
4    124   4367    212    254
4     18   3525    407    436
4    130    590   5555    203
4     19     18   4008    443
4     33    113    719     19
4    443     18   5057    103
4   5049    166    159    737
4    130   5198    594   5555
4    168     15      1      8
4    162    399    290   5965
4    455    114   6620    113
4    946    943    833   2860
4    201    154     39    151
4     19    113   3326   6620
4    176    752   4755   4205
4   3007     54    565    569
4   5706   5707    176   5711
4     28    751     20   2765
4    191     40     39    154
4    154   3518    613   3739
4    101    135    136     33
4    190    300   4157   3198
4     28   1080    811    856
4    199   3198   3548   3549
4    751     19     20    296
4     64    881   2532   3221
4   2838    859   2839   1080
4    198   5763    409    650
4    198   3587    611   5466
4    895   3420    898   5632
4   6620    114     19    113
4    895    268    885   3802
4    395    189    202    146
4    199    679   3383    485
4   5763    190   4157    650
4    198    654    647    197
4    198   4259   3741   4439
4    777    893   4353    352
4    190    201     39    199
4    177   6826   6825    390
4    777    893   6056    886
4   4396      0    817    982
4   4897    765   4434    878
4   4084   5621    150   3223
4    190    199   3198   3548
4    619    201    626    151
4     41    154     40    187
4   3165     39   4950   5395
4    177    345   5063    329
4    190   3548   3198   4157
4    197   4615   5784    316
4     22   6867    696    362
4    112    961    818    920
4     65   4122    393   3932
4     69    119    948    938
4    109   6763   5769   6868
4    198    747   5466   2801
4     46    962    872    975
4    949    947    142    831
4    137    138    148    134
4   2681   2766     38     98
4   1083    217    784    933
4   2713     90   5994   3229
4   4767     10    739     62
4     37     32    142     38
4     77     32     37      1
4     28   2838   1080    857
4     74    209    553   6846
4   2885   5452   2884     90
4     81    170    628   5607
4     15     99    704   6868
4     40    989   1076    875
4    808    809    902    126
4     90   6790   5994    767
4     33      8    113     19
4     77    972    860    912
4     79   2647   3229    764
4    187    154     61   3519
4     90   5994   2647    767
4     46    975    872    863
4     39     44    192   3165
4     64   3707   2532   3068
4    262     67   4710     70
4    804    901    258     95
4    942      4     94    956
4     89   3049   6725   4018
4     70   4038   3876   6300
4    385    109     85     15
4     99     15   2910    107
4    107    168     72     15
4    117    904    803    804
4    140    763    500   3236
4     15   6868    100     99
4     13   4017   3806    214
4     70   4039    250     12
4    119    848    953    936
4     12   5234    250    243
4    124    297    254    212
4   1083    933    784    820
4    988     40    818    920
4    150   2744   3996   3072
4    154   3587    618    619
4     95    832    828    952
4   2818    821    928   3155
4    150    669   3223   4899
4    772    329    774   6317
4    121    482    667   4596
4    177   4805    772    390
4     69    142    807    947
4   2806   4345    769    193
4    177    361   6825   4347
4   4828     67    223    122
4      4    941    845    939
4     14    711    554    232
4     43    988    879    916
4   1083    744    929    930
4      4    939    936    942
4    197    323    513   6398
4    175   3321    105   5840
4    143    821   3155   3156
4    901    259   5703    258
4    118   3806    160   6526
4    149   5616    635   5615
4    784    820    744   1083
4    820    744   1083    930
4    155    187    154     41
4    111   3519   4397   6129
4     45    477    717    715
4     87   5840     88    370
4    114   4602    403   4656
4    153    179   4086    265
4    138    655    473    474
4      5   5566    608    604
4    187    817    987    919
4    191    419     65    420
4    138   3604    148    655
4    655    147    138    754
4    116     71    134    114
4    810     98     37    144
4   2862      7    144    798
4    843    943   1082    144
4    810    798   2765   2681
4    204   3571   3006    648
4    149   6050    683    760
4    149    757   6050    760
4    758     45    639     44
4    155   6129    303   3519
4    269      5    155    615
4    875   1078   2300    765
4    191    592    336    287
4    104   5048   3354   2750
4    875   4434   1078    765
4   5434    846    935    840
4    886   6056    892    893
4    352   2735    884   4353
4    777    352   6056    893
4    172   6840     81    127
4    103     18     55     16
4    812    957    785   3871
4   3872   3871    812    786
4     90   4600    499   6423
4    111    871    853    850
4     76    548   5083    543
4    155   5114    617    620
4    343    204   3691    136
4    812    785    840    786
4    724     34     74   3026
4    105   5840    106    175
4   5955     90     87   5770
4      6    918    976    861
4    102    103   5494    742
4     90   2884   2885    767
4     90   4949   6789    499
4    143    781    931   3156
4     65   4122    440   4730
4    822     67    903    120
4    194   4526    129   2818
4     70    220   6300    219
4     90   2885   6789    767
4    937    785    786    840
4     90   6423   3273   4600
4    832    259   4080    983
4    175     87   5955    244
4   2647    764     79    763
4     87    175   3952    244
4     16     18     19    103
4     87    175   5840   3952
4   1088   3320   4232    955
4     90   2885    499   6789
4     79   5832    491    266
4     79   5832    770    291
4     79   5832    266    770
4   5798    105    366   3321
4    153    382    523    216
4    445     47   3946   4351
4    684    745   4080    828
4     32    576   4597   6301
4     38    572   5909   6207
4     84    242   6842   4568
4     54    572     38    569
4     52   5554    693   3555
4    142   2913    304   6301
4      4    956    942    936
4    120    830    802    829
4     91    140   6278   5593
4   3951     87   4948   3950
4    105    366   3321    175
4     81     82   5199   5982
4     53    686    222   5557
4    117    904    842    805
4    147    462   5986   2795
4     27    112    961    977
4    149    683    750    760
4      3    941    814    909
4   3741    198   4439   5046
4     17    574   6369   6368
4     83     25     51     84
4    284   6004    249     50
4   5955     90    245     87
4      1      4      3     77
4    144   2768     42   2862
4     24   6190   2751   5721
4      5      8     41    168
4     76   6885    550    547
4   3450    384    685   5767
4     18    436    292   3525
4     62    549    550    551
4     67    194   4828    782
4     18   6815    429    407
4   3664    414   4760    102
4      5   3289    606   5567
4     25     83     51    132
4     81    127    307   6271
4      4    941    939    942
4    912     37    860     77
4     81    124   6271    218
4    102    415    461    414
4    137    148   3517   3514
4     10     24   6519   2678
4    159   4655   3794    737
4    119     77    848    845
4    186    695    325     23
4    414    102   3664    461
4     81    124    591    130
4   6816    461    414    434
4   6815    434   6816   6102
4     47    102   5404    445
4     35     34    724   3201
4    149   3158   6050   2792
4   3201     35   3872    724
4    630     73    150   3964
4   3272     75     60   5792
4    169    867    911    851
4    149    750   5616    760
4     95    952    950    951
4    104   5048   2988   2823
4    117     94    945     95
4    179   4479    247   5721
4   2935    790    982      0
4     27    866    979     77
4    685   5767    384   5752
4    135    703   3514    137
4     75   6397    533    723
4    176   5706   4787    582
4    450   5124     33    719
4     19    443    732    719
4    114    455   6621   5644
4     65    420    980    878
4    128    206   5143    203
4   6620    113   3326    455
4   6281    312   5641     17
4    152   5770    175     87
4    170     83    131     81
4   3696    311     18    296
4    645   3199    646    192
4    992    187    112     40
4    320    175    366    105
4    112    992    959    918
4     93    172    171   6320
4    200   4893   4895   5176
4    187   2752   3656      0
4   3857    986   5070    985
4    192    401   3789    645
4     45   5103    460    426
4   4950     41   4898     39
4     44    401   3165    369
4     33    135    136    116
4   3593    148    147    204
4    201   2725   3078   6323
4   4931   4693    888   4694
4      5   5566   5567    606
4    201    701   5790   6323
4    361    123   6590    354
4     39   5395   3078   4898
4    146   3521    314    439
4    895    890    778    779
4    147    116   4021    435
4    119    827    936    954
4   5820    511   6317    774
4    150     73   3996   3937
4    133    267   4473   4472
4   3125   3593   6233    148
4    131    588   4662   5356
4    895   3802    885   2889
4     52   3554    693    695
4    890    779    780    778
4    128   6647    203    195
4   4568     84    230   2914
4     78   3577    226    298
4     90   5955    245   4949
4    669    663    664   4899
4    298     78     79    226
4     17    571    565    727
4     23    695    325    694
4   5220    325     85   2914
4    843    833    943    144
4   1081    798   1082   1091
4    172   3033   6520   6840
4   2681    810     98     37
4     58   2805   4706   4372
4    137    141    703   3516
4    619    154    201    151
4     65    422   2830   5591
4   2838    969   1080    857
4    810     28    856     37
4    876    816     64    915
4    199    701   3383    651
4   5147   6281     17    463
4    669    661   3223   6308
4    190     66    612   3512
4    191    332   4404    448
4     30   4722    397    335
4   3450    150   3466    674
4     63    984    990    873
4    130     81    124     83
4   6145    192    364    413
4    185    468    714   3403
4    178    605   6579     72
4    204    136   3571    148
4    141    327    326    702
4    148   3514   3515   3694
4    662     18     17    312
4    137   2881   3517   3603
4    191    420    336    419
4    136    676   3804   6855
4      1     25     23     21
4    134    431    638    633
4     11   6641    255    240
4     12    255    243    225
4   6855    136    148   3557
4    160    744    929   6526
4    214   6725    677     13
4    103    721    443   5124
4     47   4778    379    441
4    118   6526   3877   3806
4     76    544    548    543
4     95    951    945    839
4    135    703    137    141
4     49   6573   6583   4196
4     95   4080    745    828
4    105   5799    337    317
4    929    744    771    930
4     95   4017    258   3806
4     33   5913   5933    346
4     54   4780    577    560
4    133   2989    180   4567
4   5352   3136    107    350
4    133   4473    249    284
4   4800     51   5553   5554
4    133    690    264    688
4     11   5942   5806    256
4     14    725    738   6483
4    133    267    689   4473
4     11   6641    239    213
4    155   5114    615    604
4    685   4817   5767   5752
4   5621   3467   3465   5622
4    869     27      6    868
4     11   4246    256   2842
4     50    284   6004   5553
4   5616   4817    760    750
4    168    609   5952    608
4    674    150   3466   3465
4    155    481    151    303
4    168    108     15    107
4      6    104    111    871
4    190   3739    747     66
4     24    229   2751   6190
4    704     15   6764   2910
4    899   1542   1004   1001
4    816   1005   1068   1069
4    899   1631   1058   1638
4    907   1625   1630    899
4    899   1065   1000   1063
4   1000   1616   1069    899
4    899   1046   1034    975
4    899    960   1046    872
4   1051   1628    833   1662
4   1051    833    943   1662
4   1051    833    946    943
4    912   1603    841   1034
4   1045   1034    912    908
4    907   1622    844   1621
4   1026   1569   1567    929
4   1026   1016   1565    805
4    850   1019    919    861
4   1581   1019    919    850
4   1008   1561    850   1581
4   1567   1578    929   1569
4   1564   1085   1555    854
4   1555   1061    862   3715
4   1555   1085   1009    854
4   1031   1602   1586    947
4    837    812   1553    836
4    836   1563   1559   1562
4    836   1556    846   1559
4    836    840   1559    846
4    846   1012    950    955
4    836   1563   1012   1556
4    846    840   6503    935
4    846   6503    840   1559
4    848   1050   1612    841
4    928   1541   3155   1606
4    928   1606    808   1056
4    808    809   1057    902
4    928   1057   1056    808
4   1056   1541   1057    928
4   1600   1606   1543    808
4    811    810   1629   2846
4   1080   1638   1631    958
4    928   2775   1072   5090
4   1057    902   1003    808
4   3887    809    799    801
4    902    809   1057   1624
4    956    847    942   1568
4    848    841   1612    845
4    876   1657    900   1089
4   1652   1060    900    984
4    801    833   1633    949
4    821    931   1605   2967
4   1657    900   1089   1073
4    928    808    809   1057
4   1041    913   5119    926
4   1627    900   1637   1073
4    926   5119   1047    931
4    926    913   5119    781
4    926    927    931   1047
4    833    943   1662   2072
4    833   2072    843    943
4    811   1625   1617    810
4    899   1065   1055   1001
4   1631   1625   1617    811
4    856    810    907   1625
4   1080   1067   1631   1638
4    949   1623   1059    833
4    833    949   1623   1633
4   1003   1586   1543    808
4    833   1633   1623   1615
4    833   1662   1628   2072
4    857   2804   1638   1626
4    833   1623   1059   1628
4   1623   1635   1633    949
4   1615    946   1051    833
4   3887    946   1051   1615
4   1037    963   1607   1608
4   1594   1039    963   1607
4   1060    900    984    876
4   1039    920    963   1607
4   1089    900    876    984
4   1028   1565    904    803
4    803   1565    904    805
4   1028    804    803    904
4   1584   1028    904   1027
4   1005    915    816   1545
4    804   1027    904   1028
4   1025    995    939    936
4   1027    839   1022   1023
4   1027    952   1007    835
4   1012    955   1550   1013
4    836   1012    846   1556
4    836    950   1012   1563
4    992    959    976   1537
4   1537   1576   1018    992
4   1537   1536   1574    917
4   1536   1038    988    818
4    880   1576   1574    992
4    880   1076   1574   1575
4    880   1076   1575   6862
4    880   5070   3833    985
4    880   1574   1576   3833
4    857   1071    967   1062
4    857   1062   1638   1071
4   1638   1080   2804    857
4    857   1620    967    858
4    857   1062   1620   1626
4    857    858    865   1626
4    852   1011    853    871
4    870   1557    855    852
4    852    854    853   1015
4    948    912   1045   1603
4    948    912   1603    841
4    867    868   1582    851
4    948    831   1045    912
4   1042    903    807    830
4    906   1042   1610   1609
4    903    822    802   1614
4    840    935    937   6503
4    846    955   1088    914
4    846    935   6503    914
4   1623   1054   1635    949
4   1012    950    955   1013
4    924   2895    940    825
4    924    934    819    922
4    899    960    872    978
4   1030    899    960   1046
4    899    908   1621    907
4    908   1034    912    860
4    837   1553    910   1558
4    837   1549    838    944
4    837    910   1553    812
4   1553    840   1559    836
4    836    812   1553    840
4    910    812    957   1553
4    910    911   1549   1006
4   1558   1014    910   1006
4    870    855   1014    910
4    812   1552    785    957
4    910   1553    957   1558
4   1553    836   1562    837
4    840   1552   6243    785
4    840    937    785   6243
4    840    937   6243   6503
4    812    957   1553   1552
4   1080    857   1638    958
4   1026   1569    929    803
4   1569    929    803    825
4   1471   1041    913   5119
4   3155   1606   2967    821
4    928   1606   3155    821
4   5119   2967    931    781
4    808   1611    906    807
4   1090    843   1082   1064
4    943    843   1082   1090
4   1041    913    824   1471
4    926    781   5119    931
4    846    914   1088    935
4   1598    877    793   1044
4    846   1556   1550    914
4    836   1563   1556   1559
4    836   1563    944    950
4    955   1550   1548   2870
4    797    984   6053   1652
4   1652    797    900   1073
4   1076   1574   1575   1033
4   1076    875   1589   4738
4   4738   1078   1575   1076
4    811   1629   1617   5235
4    870   1011    852    851
4    811    810   1617   1629
4   1617    923    810   1066
4    899   1625    856    907
4    899   1630   1621   1619
4   1089   1620    967   1657
4    857    858   1626   1620
4   1071   1070    967   1618
4    978   1071   1070    967
4   1627   1637    998   1545
4   1076   1078    875   4738
4   1078   1575   1076   1086
4    880   1076    993   1574
4   1622   1630    907   1636
4    978    899   1638    958
4    899   1058   1055   1065
4    899    908    907    863
4   1636    810   1066   1625
4   1542   1001   1621   1002
4   1544   1621    908    844
4    946    801   1615   3887
4   1633    902    949   1053
4    801    902    949   1633
4   1059    833    843    949
4    903    830   1042   1614
4   1042   1539   1614    830
4   1600    808    821   1606
4   1600    906    932    821
4   1042    938   1602   1036
4    903    822   1609    906
4   1602    807   1042   1610
4    807    938   1602   1042
4    903   1042   1609   1614
4    808   1586   1543   1611
4   1600   1606    821   1605
4   1610   1602    807   1611
4   1031    947   1048   1602
4    961    920    963   1039
4    921    916   1037    920
4   1592    920   1039   1038
4   1536   1592   1038    818
4    928   5090   1072    809
4    920    916   1037    988
4   1038   1037   1601    988
4    961    920   1039   1592
4   1038    920    988    818
4    917   1033   1601   1536
4   1536    917    988   1601
4   1537   1536    818   1592
4    976   1537   1540   1018
4   1594   1607    963   1608
4   1592    961    979   1599
4   1536   1574    917   1033
4   1592   1540    979    977
4   1039   1594    966   1587
4   1537    992   1018    976
4   1537   1592    818    977
4   1580    976   1540   1018
4    869   1580    976   1540
4   1027    835   1007    804
4   4180   5391    788    974
4   4180    974    788    970
4   5391   1640    789    982
4    974   1015    971   6374
4    973    982   1560    974
4    846   1550   1556   1012
4    955   2870    828   4232
4    955   1013    952   1548
4    955   4826   4232   1088
4    955   1013    950    952
4    955   1548    952    828
4   1013   1548   1023    952
4   1021    950   1013    951
4    899   1625   1630   1619
4   1600    808   1611    906
4   3155   1541   2967   1606
4    880    992    985   1576
4    880    985   3833   1576
4    880   3833   1575   1574
4   1537    917   1574    992
4    791   5070    986   4035
4   5070   3834   3833    985
4    791   2935   4035    986
4   5070   3834    985    986
4    984    997   1546   1597
4    984    874   6053   1652
4    984    997   1652   1060
4    984   1060    876    999
4    991   1035    878    980
4    980   1044    877   1035
4    980   1043    873   1588
4    980   1588    873    990
4    980    877   1043   1035
4    870    911    910   1006
4    957   1552    964   1551
4   1557    855    852    854
4    853   1560   1011   1015
4    789    982   1640   2935
4    949    843   1059    844
4    844    949   1054   1059
4   2072   1628    843   1064
4   1051   1615    833   1628
4   1031    949   1054    844
4   1059    949   1054   1623
4   1621   1002   1622   1544
4    831    908    844   1544
4    831    912    908   1045
4   1031    831    947    949
4   1628    833    843   1059
4   2895    925    940    825
4    930    825   1578    925
4    825   1578    925    940
4    994   4497   1595    933
4   6374   1084   1085    971
4   1578   1569    825    929
4    940   1578   1569    825
4    838    911   1547   1549
4    838    911    813   1547
4    837   1549    910    911
4    838   1571    834    944
4   6374   4180    970    974
4    902    949   1053    947
4   1053    947   1586    902
4   1053   1624   1633    902
4   1632    801   1633   1624
4   1632    801   3887   1615
4    902   1624   1633    801
4    843   1636    907   1082
4   1636   1622    844    907
4    833    801   1615    946
4    843    844    907   1636
4   1632    809    801   1624
4    843   1082   1064   1636
4   1032    932   1609    822
4    927    822   1032    806
4   1032    826    823    927
4    994   1032    826    823
4   1032    926   1041   1047
4   1600   1611    808   1543
4   1611   1602    947   1586
4    822   1609    906    932
4    923   1081    810   1082
4    844   1621    908    907
4    923    810   1081   2846
4    992    918    987   1576
4    880    992   1574    993
4   1574    993    992    917
4    860    972   1034    912
4   1031    947   1586   1053
4    948    831   1048   1045
4   2935   4035    986    817
4   5391    788    974    982
4   5391    982   1560   1640
4   1076   1033    989    993
4    870    855   1557   1014
4    849    957   1551    862
4   1061    849   1551    862
4    987    919   1019    918
4   1552    812    840   1553
4   6243    840   1559   1553
4    837   1558    910   1549
4    957   1554   1558   1553
4   1090   1074   1082   1091
4    988    879   1601    989
4    843   2072   1090    943
4   1064   2072   1090    843
4   5035    809    799   3887
4    955    828   2870   1548
4   2870   4232    800    828
4   1636    907   1625   1630
4    908    899   1542   1034
4   1625    856    811   1631
4   1617    810    923   1629
4   1082    810   1066   1636
4    923    810   1066   1082
4   1052   1044   4897    878
4   1079    792    877   1044
4   1044   4897    878   1079
4   1657    876   1637    967
4    876   1637    900   1657
4   1080    811   1631   1617
4    908    863    899   1034
4   1611    947   1602    807
4   1080   1617   1631   1067
4    876    998   1637    915
4   1618   1062    967   1071
4   1637   1070    816   1068
4   3074    997   1652    874
4   1067   1638   1080   2804
4   1034    863    899    975
4    899    863    856    958
4    984   1597    874    997
4   1002   1054   1544   1634
4    980   1079   1044    878
4   1001   1000    899   1065
4   1625   1617    810   1066
4   1544   1621   1542    908
4   1002   1544   1054   1622
4   1627    900   1060    876
4   1652   1073    900   1627
4    984    999    998   1546
4   1652   1627    900   1060
4    848   1613    995   1612
4   4738   4434    875   1075
4   1075    875    878   4434
4   1066   1074   1082   1064
4   1080   1067   5235   1617
4   1090   1082   1074   1064
4    822   1614    996    802
4    903    830   1614    802
4   1032   1614    996    822
4    982   1560    974   5391
4    840   6503   6243   1559
4   1593    988    879   1601
4    988   1037   1601   1593
4   1593   1601    879   1040
4   1593   1037   1596    916
4   1600    821    808    906
4   1600   1610   1609    906
4   1608   1594   1046    962
4   1608    965   1604   1037
4    965    921   1037   1608
4   1034    966    860    975
4   1039   1587    966    864
4   1594    962    975   1046
4   1592   1039    961   1599
4   1031    844   1054   1544
4    947    949   1053   1031
4    899   1621   1001   1619
4   1600   1605    932   1047
4   1600    906   1611   1610
4    808   1543   1056   1606
4   1605   1047   5119    931
4   3156   3155   2967    821
4   1042    830   1036   1539
4   1600    932   1605    821
4    926    927   1032    823
4   1605   1047    931    932
4    938    830   1042    807
4    802    822    806    996
4    926   1041   1047   5119
4    823   1041    913    824
4    926    913    823   1041
4   1598   1087    873   1043
4   1598   1087   5987    873
4   1025    954   1585   1539
4   1025   1029    939    995
4   3834    985   1020   1576
4    805   1026    803   1565
4   1565   1585   1024    827
4   1565    829   1585    827
4    857   2804    865    969
4   1031   1635    949   1053
4   1579    870    851   1011
4   1564   1554    862   1061
4   1061    862   3715    849
4   1557    854    852   1015
4   1564    862    854   1555
4    849   1551    957    964
4   1061   1551   1554    862
4    855    910    957   1554
4    836    846   1012    950
4   1563   1549   1562    944
4   1546    984    915    998
4    999    984    997   1546
4   1597    873   1043   1588
4    984    873   1597    990
4   1597    990   1546    984
4    997    874   3074   1597
4    823    926   1041   1032
4   1598    877   1077    793
4    899   1619   1055   1625
4    829    805   1565   1016
4   1585    954    829   1539
4    954    995   1025    936
4   1025    956   1024    827
4    880   3833   5070   6862
4   2935    817    982   1640
4    986    987    817   1020
4    985    987   1020   1576
4    992    987    985   1576
4    984    990   1546    915
4    874   6054   3074    796
4    874   5987   1087    873
4   1593    879    988    916
4   1536    818    988    917
4    988    989   1601    917
4   1080    856   1631    811
4   1620   1618    967   1657
4    857    967   1620   1062
4    899    863    872    975
4    899   1065   1063   1058
4    905    805    806   1016
4    899   1616   1638   1058
4    979    968    869   1572
4    957   1552   1554   1553
4    785    964    957   1552
4   1080    857    969   2804
4    844   1054   1544   1622
4   1063   1616   1000    899
4   1034    908   1045   1542
4    841   1034    972    912
4   5070    986   4035   3834
4    979   1572   1599    909
4    968   1573   1572    909
4    968   1573    814    868
4   1542    908   1045   1544
4    965    915    816   1590
4   1037    965   1604    981
4   1608   1049    962   1046
4    919    850    973    817
4   1594    966    975    962
4   1042    903    906    807
4    822   1032   1614   1609
4   1031   1634   1054   1635
4   1611    902    808   1586
4   1013    951   1023   1021
4   1080    969    859   5235
4   1039   1587    864   1599
4    899   1631   1625   1058
4    811    859   2846   1629
4    810    907   1636   1082
4    923   2846   1629    810
4    811    859   1629   5235
4   1080   5235   2804    969
4    975    860   1034    863
4    857    978   1638    958
4   1026    803    905    805
4    803    825    804   1570
4   1578    930   1083    929
4    826    905   1016   1567
4   1026    929   1567    905
4    924    825    940   1570
4   1565   1028    904   1584
4   1083   1567   1578    929
4    987   1019    919   1020
4    987   1576   1019   1020
4    918    959    976    992
4   1637    816    876    915
4    915   1005    998   1545
4    867   1582    814   1583
4    955   4232   4826   2870
4    846   1012    955   1550
4   1013   1021   1563    950
4   1548   4374   1007    832
4   2870   1548    828   1459
4   4035    817   1581   1020
4    982   1561   1640    817
4    850   1581    817    919
4    817    850    973   1561
4   1008    853   1011    871
4    861   1579    851   1008
4   1039    963    961    966
4   4035   1640   1581    817
4   2935    817   1640   4035
4    986   1020    985    987
4   1012   1013   1563    950
4    836   1562    944   1563
4    846    955    914   1550
4   4373    832   4374   1459
4   6374   4180    974   1560
4   4374   3585    901   4373
4   3585   4374    901   5216
4   3585    922   5216    901
4    901   4373    832   4374
4   1074   1082   1091   1081
4    809    902    801   1624
4   1031   1048    947    831
4   1034   1046   1594    975
4    844   1636   1059   1622
4   1066   1064   1082   1636
4    923   1082   1074   1081
4    857   2804   1626    865
4   1075   4434    878   1052
4   1078   4738   4434    875
4    875   1589    878    879
4   4738   1076   1033   1589
4    989    917   1033   1601
4   1536   1038   1601    988
4   1076   1086   1575   6862
4   1558   1014   1554    910
4   1590    960    816    965
4   1060    999    984    997
4   1073    797    900   1089
4    876   1627    900   1637
4   1627    876    998   1637
4    968    814   1573    909
4    836   1562    837    944
4   1637    900   1657   1073
4    876    999    998    984
4   1637    998   1545    915
4    984    797    900   1652
4    965   1590    981    915
4    809   5035    799   5090
4    801   1633    833   1615
4   1072    928   1057   1541
4    809   5090   1072   5035
4   1031    831   1544   1048
4    843   1636   1064   1059
4    872    962    960   1046
4   1031    949   1635   1054
4   1031    831    949    844
4   1053    902   1003   1624
4   1004   1001   1000    899
4    857    978   1071   1638
4    956   1024   1566   1568
4   1618    967   1637   1070
4   1071   1638    978   1616
4    899    958    856   1631
4    978    857   1071    967
4    857   1062   1626   1638
4    843   1064   1628   1059
4   1034   1603    841   1587
4    833    843   2072   1628
4    844   1059   1054   1622
4    899   1631   1638    958
4   1080    811   5235    859
4    899   1631    856   1625
4   1621   1622    844   1544
4   1069    899   1030   1000
4   1586    902    808   1003
4   1031   1544   1054   1634
4    899   1542   1034   1004
4   1071   1616    978   1070
4   1616    978    899   1638
4    801   3887    946    799
4    858   1089   1620    967
4   1034    972    860    966
4   1577    834    847    813
4   1011   1006    870   1557
4    872   1046    975    962
4   1616   1070   1069    978
4   1637    816   1070    967
4   1637   1545   1068    816
4   1618   1657   1637    967
4   1070    816   1068   1069
4   1005   1068   1069   1545
4   1545    915    816   1637
4    899   1058   1063   1616
4   1625    907   1636    810
4    899   1000   1004   1030
4   1587    864    972    966
4   1541   2775   1072    928
4   1610   1611    807    906
4   1586   1053    902   1003
4   1611    902   1586    947
4    899   1055   1058   1625
4    928   1606   1056   1541
4    808   1611    807    902
4   1589   1076   1033    989
4   1075   1589    875   4738
4   1075    878    875   1589
4   1044    878   1052   1035
4   1080   1631    856    958
4   4897   1052    878   4434
4   1050   1613   1036    938
4    938   1613   1036    953
4   1050    948    841    848
4    923   1082   1066   1074
4   1613    995   1036    953
4    939   1029   1538    995
4    939   1612   1538    845
4    848    939    845   1612
4    848    936    995    953
4    953    995   1036    830
4   1591   1037    981   1596
4    915   1590    981   1591
4   1591    981   1037   1604
4   1607   1038   1039    920
4   1592   1540   1599    979
4   1593    916    988   1037
4    915   1590    998   1005
4   1597   1043    873   1087
4    980   1588   1035   1043
4   1598   1035   1043    877
4    874    997   1652    984
4   1052   1040   1035    878
4   1596    990   1588    991
4   1598   1077    873   5987
4   1632   1633    801   1615
4    801   1632   3887    809
4   1598   1043    873    877
4    831   1048   1045   1544
4   1031    844   1544    831
4    822    927   1032    932
4   1036   1048   1050    938
4    920    963   1607   1037
4    827    805   1565    829
4    965   1049   1608   1604
4    928   1606    821    808
4   1041    933   1595    824
4   1471   1595    824   1041
4    781   3156   2967    931
4   1605   5119   2967    931
4    994    933   1567   4497
4    994    826   1567    933
4    996    822    806   1032
4   1609    903    906   1042
4    939   1029    942    941
4   1025   1585    827   1024
4    948   1048   1050   1603
4   1036    953    830    938
4    948   1050   1048    938
4   1036    830   1042    938
4    948   1603   1045   1048
4   1587   1034    972    841
4    845   1599    866   1587
4   1621   1542    908    899
4   1546   1588   1591    990
4   1593    991   1596   1040
4   1587   1612    845   1538
4    965   1049    960    962
4    963   1608    962   1594
4    965   1604    981   1590
4    962   1046   1049    960
4   1005    960    816   1590
4   1557    854   1564    855
4    981    921   1037    965
4   1593    916   1596    991
4   1621    907   1630    899
4    960   1049   1590   1005
4    915   1005    816   1590
4    875    879    989   1589
4   1033   1601   1589    989
4   1589    879   1601   1040
4    966   1594   1039    963
4   1540    979    869   1572
4   1589    989   1601    879
4   1574    917   1033    993
4   1040    991   1035    878
4    815    867    814   1583
4   1591    981    990   1596
4   1588    991   1035   1596
4    848    939    995    936
4   1034    966   1587    972
4   1587   1538    845   1599
4   1034    975   1594    966
4    899   1004   1046   1030
4   1040    879    991    878
4   1080   2804   5235   1067
4    899   1616   1069    978
4    957   1554   1551    862
4    809   1632   3887   5035
4    899   1055   1619   1001
4    980    991   1035   1588
4   1583   1571    813   1547
4    960   1069    899   1030
4    978   1069    816   1070
4   1069   1030    960   1005
4   1005    960   1069    816
4   1025    956    936    942
4   1568   1017   1583    847
4   1017    847    942    815
4    945   1566   1577    956
4   1025   1568    956    942
4   1029   1017    942    941
4    842   1584    904    839
4   1025    936    939    942
4    954   1025    827    936
4   1029   1573    909   1572
4   1568    956    847   1577
4   1029    909   1538   1572
4   1584    945    839    842
4   1577   1021    834   1571
4   1025   1568   1024    956
4    945   1024   1566    956
4   1024    945   1566   1584
4   1027   1584   1022    839
4    846   1559   1556   6503
4   1565    827   1024    842
4   1584    904    839   1027
4    977    976   1537   1540
4   1008   1579   1580    861
4    851   1008    871    861
4   1019   1580   1018    918
4   1580   1573    869    868
4   1579   1580    861   1582
4   1011   1008    871    851
4   1008   1579    851   1011
4    870   1006   1579    911
4    910   1006   1549   1558
4    861   1582    851   1579
4    910   1014   1554    855
4    968   1572   1573    869
4    833   1615   1623   1628
4   1029    941    909   1017
4   1632   1057    809   1624
4    815   1583    814   1017
4   1070    978    967    816
4    815    813   1583    847
4   1573   1582   1583    814
4   1540    869   1573   1572
4   1582    851    911    867
4   1583   1577    813   1571
4   1577    956    847    945
4   1008   1580   1019    861
4   1018   1576   1019    918
4   1602    947    938    807
4   1582   1580    861    868
4   1580    868   1582   1573
4   1076   1575   4738   1033
4   1037    981   1596    916
4    986   1020    817   4035
4   1579    851    911   1582
4   1570    901   1007   5216
4   1570   5216    819    901
4   1578    930    820   1083
4    804    835   1007    901
4   1007    952    832    835
4   1548    952    828    832
4   1548   1459    832    828
4    929    905   1083   1567
4   1568   1017    942   1029
4    951    945   1577    834
4   1577    813   1571    834
4   1022    951    839    945
4    951    834   1577   1021
4   1548    832   1007    952
4   1563    944    950   1021
4    846   1556    914   6503
4   1581   1020    919   1019
4   1019   1008    850   1581
4   1581    817    919   1020
4    899    872    863    958
4    982    817    973   1561
4   1581   1561    817   1640
4   4180   1560   5391    974
4   5391    789    788    982
4   1553   1552   6243    840
4   2870   1459    828    800
4   1632    809   1057   5035
4    785    812    840   1552
4   1555   3715    862   1009
4   1564    855    862   1554
4   1014    910   1006    870
4    911   1547   1549   1006
4    852   1011    871    851
4    837   1558   1562   1553
4    837    911    838   1549
4   6374   1015    971   1085
4    853   1560   1561   1011
4    853   1015    971    974
4    850    973   1561    853
4    852   1015    853   1011
4    871    850   1008    853
4   1015   1560    974    853
4    976    861    918   1580
4   1564   1061    862   1555
4   6374   1560    974   1015
4    815   1583    813    867
4    861   1008    850   1019
4   3834    986   1020    985
4    918   1580   1018    976
4   1084   1085    971   1010
4   1085    854   1010   1009
4   1028   1570    804   1027
4   1583    813   1577    847
4   1017    814   1573   1583
4   1022    951    945   1577
4   1022   1021   1023    951
4    911   1547    867    813
4   1561   1581    817    850
4   1555    854   1009    862
4   1564    855    854    862
4   1537    917    959    818
4   1557    852   1011   1015
4   1017   1573    814    909
4   1573    868   1582    814
4   1563   1571    944   1021
4    956    945   1024    827
4    951   1023    839    952
4   1559    836   1562   1553
4   1022   1566    945   1584
4   1587    866    841    972
4    899    872   1046    975
4   1049   1046   1030    960
4   1049   1005    960   1030
4    998    984    915    876
4   1060   1627    876    999
4   1591   1604   1590    981
4    995    953    936    954
4   1591   1588   1596    990
4   1540   1580   1573    869
4    990    873   1597   1588
4    915   1591    998   1590
4   5035    809   1057   1072
4    903   1614   1609    822
4   1624    902   1003   1057
4   1003    808   1056   1057
4   1031   1634   1635   1053
4   1600   1609   1047    932
4   1543   1003    808   1056
4   1016    826    996    806
4   1597    874   1087    873
4   1087    874   3074    796
4   1546    915    990   1591
4    796    874   5987   1087
4    999   1627    998   1545
4    816   1545   1068   1005
4   1593   1040    879    991
4   6054   6053    874   3074
4    899    856    863    907
4   1022   1577   1021    951
4   1569    803   1028   1570
4   1027    839   1023    952
4    933    823   1041    994
4   1567    826    996   1016
4    994    996   1567    826
4   1007    804   1570   1027
4    924    922    819   5216
4   1032    806    996    826
4   1016    829   1585   1565
4   1567   4497    933   1083
4    806    905   1016    826
4   1578   4497   1083    820
4   1578   1567   1083   4497
4    802   1016   1539    996
4   1614    996    802   1539
4    909   1572   1599   1538
4   1568    847   1583   1577
4   1599   1538    845    909
4    948    938    848   1050
4   1039    961   1599    864
4    995    954    830    953
4    987    918   1019   1576
4   1037    981    916    921
4   1076   1033    993   1574
4    921   1608    962    963
4   1596    990    916    981
4   1025   1568    942   1029
4    991    990   1588    980
4   1561    853   1011   1008
4   1557   1564   1014    855
4   1596    991   1035   1040
4    980   1035    878   1044
4    924   1570   5216    819
4    841   1050   1612   1603
4   1596    991    916    990
4   1589    878    879   1040
4   1537    992    959    917
4    980    873   1043    877
4    989    875   1589   1076
4   1587   1612    841    845
4    988    920   1038   1037
4   1614   1539    802    830
4   1038    818   1592    920
4    931   3156   2967    821
4   1033    993    917    989
4    983    828   1459    800
4   4373   1459    983    832
4   5216    819    901    922
4   1548    832   1459   4374
4    901    804   1570   1007
4    955   1550   2870   4826
4    955   1088    914   4826
4   1089    797    900    984
4   1580    861    918   1019
4   1537    818   1536    917
4   1540   1572   1599    979
4    963    921   1037    920
4   1608    921   1037    963
4   1016    805    806    802
4    793    792   1044    877
4   1598    877   1044   1035
4   1597   1087    874   3074
4   1075    878   1589   1040
4    984    874   1597    873
4   1075   1040   1052    878
4    965   1608   1049    962
4    980   1044   1079    877
4    965   1049   1590    960
4   1637    816    967    876
4   1622    907   1630   1621
4    843   1059    844   1636
4    978    960   1069    899
4   1652    874   6053   3074
4   1080    811   1617   5235
4    899   1542   1001   1621
4   1540    869    979    977
4   3834   4035   1020    986
4   1592    977    979    961
4   1577    847    834    945
4   1557   1015   1564    854
4   1540    977    976    869
4   1580    869    861    868
4    867   1582   1547    911
4   1015   1085    854    971
4   6374    971    970   1084
4   1018    918    992   1576
4    853    971   1015    854
4   1085   1010    854    971
4   1542   1002   1621   1544
4    979    968   1572    909
4    863    860   1034    908
4    899   1004   1034   1046
4   1029    941   1538    909
4    924    934    825    819
4    838   1571   1549   1547
4    837   1549   1562   1558
4    837    944   1562   1549
4    868   1582    851    861
4    867   1582   1583   1547
4   1592    977    961    818
4   1537    977    818    959
4   1537    976    977    959
4    920    818   1592    961
4    920   1037   1607   1038
4    965   1604   1590   1049
4    979    866   1599    864
4   1587    845    841    866
4   1072    809   1057    928
4    965    921   1608    962
4   1537    992   1574   1576
4   1588    990   1546   1597
4   1546   1591    998    915
4   1587   1599    866    864
4    968    868    869   1573
4    976    992   1018    918
4    880   3833   6862   1575
4   1554    910    957   1558
4    853    850   1008   1561
4   1011   1006   1579    870
4    911   1582   1547   1579
4   3834   1576   3833    985
4   6374    971    974    970
4   1564    854   1015   1085
4   1587   1612   1603    841
4    848    939   1612    995
4   1539    954    830    995
4   1602   1036    938   1048
4   1611    947    807    902
4    948    831    938   1048
4   1633    949   1635   1053
4    838   1547    813   1571
4   1024    945   1584    842
4    956   1566   1577   1568
4   1557   1011    852    870
4   1019    861    918    919
4   1029   1017    909   1573
4   1580    976    861    869
4    933   1595    824   3784
4    815    941   1017    814
4    815   1017    847   1583
4   1022   1566   1577    945
4   1022   1584    945    839
4   1024    842    827    945
4   1026   1569    803   1028
4   1565    827    842    805
4   1022    839    951   1023
4    951    950   1013    952
4   1027    952    835    839
4    830    954   1539    829
4    830    995   1036   1539
4   1021    834   1571    944
4   1585    829    954    827
4    939    995   1538   1612
4   1585   1016   1539    829
4   1563    944   1571   1549
4   1564   1554   1014    855
4    848   1613    953    995
4   1548    952   1007   1023
4    955   4826    914   1550
4    952    951   1023   1013
4   1027   1023   1007    952
4    904   1584    842   1565
4   1016    829    805    802
4    924    825    934   2895
4   1569    825    803   1570
4   4497    820   3784    933
4   4497    820    933   1083
4   1603    948    841   1050
4   1602    947   1048    938
4   1025    827    936    956
4    957   1551   1554   1552
4   1021    944    950    834
4    951   1021    950    834
4    838    834   1571    813
4    911    870    851   1579
4    932    927   1032   1047
4   1047    927   1032    926
4   1565   1024   1584    842
4    994    933    823    826
4   1032   1041    823    994
4   1587    864    866    972
4   1028   1570    803    804
4    824    823   1041    933
4   4497   1595    933   3784
4   1567    826   1083    933
4    994    933   1595   1041
4    927    932    931   1047
4   1565    842    904    805
4    905    826   1083   1567
4   4374    901   1007    832
4   1569    825   1570    940
4    829    802   1016   1539
4    930    929   1578    825
4    831   1544   1045    908
4   1600    932    906   1609
4   1032    994    826    996
4   1605    821    932    931
4    927    826    806   1032
4   1090    943   1091   1082
4    831    938   1048    947
4    911   1547   1006   1579
4    807   1042   1610    906
4    953    848    938   1613
4   1539    995   1025    954
4    928   2775   3155   1541
4   1047    932   1609   1032
4   1026    805    905   1016
4    825    804   1570    819
4   2967   1606   1605    821
4   1570    804    901    819
4   1026    905    803    929
4   1027    904    839    835
4    924    819    825   1570
4   4374   5216   1007    901
4    982   1560   1561    973
4    810    856    811   1625
4   1039    864    966    961
4    853   1561   1560    973
4    939    845   1538    941
4    987    919    817   1020
4    939    941   1538   1029
4    838   1549   1571    944
4    957    855   1554    862
4   1008    871    861    850
4    853    974    973   1560
4    870   1014   1557   1006
4   1594    962    963    966
4   1627    999    998    876
4    915    981    990   1591
4   1598    877    873   1077
4   1620   1062    967   1618
4   1657   1089    876    967
4    960    978   1069    816
4   1613    848    938   1050
4   1025    942    939   1029
4   1538    909    941    845
4    867   1547   1583    813
4   1026    905   1567   1016
4   1017    909    814    941
4   1568   1017    847    942
4    815    942   1017    941
4    867    814   1582    868
4    909   1599    866    845
4    982   1640   1561   1560
4   1599    909    866    979
4   1585    954   1025    827
4   1537   1592    977   1540
4    848   1050   1613   1612
4   1034   1587    966   1594
4   1034   1603   1045    912
4    899    872    958    978
4    830    829   1539    802
4    979    961    864   1599
4    835    804   1027    904
4   1565   1026    803   1028
4    955   1548   1550   1013
4   1016    996    802    806
4   1593    916    991    879
4    983    832   1459    828
4   1007    835    832    901
4   1093   1042   1094   1614
4   5378   1199   1047   1609
4   1095   1097    996   1094
4   1098   4850   3059   1426
4   1099   1100   1101   1103
4   1104   1105   1425   2858
4   1104   1105   2858   4850
4   1106   1442   1105   4850
4   1106   1104   4850   1105
4   1104   1421   1105   1107
4   1108   2570   1104   1107
4   1109   1110   1105   1106
4   1435   1271   1277   1111
4   1437   1111   1112   3167
4   1106   1107   1104   1105
4   1113   1104   1114   1111
4   1106   1098   1104   1115
4   1116   1118   1193   5693
4   1116   5532   1119   5693
4   1210   1097   1120   1116
4   1116   1120   1210   1211
4   1121   1118   1122   1123
4   1116   1122   1097   1120
4   1116   2847   1120   1211
4   1124   1002   1634   1125
4   1126   1128   1129   1130
4   1130   1125   1131   1132
4   1131   1133   1130   1134
4   1131   1132   1002   1542
4   1110   1105   1106   3503
4   1135   1131   1004   1126
4   1125   6268   1136   1515
4   1131   1126   1132   1004
4   1133   1125   1131   1130
4   1137   1107   1328   1108
4   1288   1103   6507   1098
4   2427   1405   1138   1111
4   1111   1405   1138   1435
4   1138   1111   1435   1277
4   1138   1108   1313   4699
4   1599   1592   1123   1540
4   1130   6715   4183   1217
4   1139   1070   1068   1069
4   1140   1135   1134   1131
4   1126   1135   1046   1004
4   3398   1111   3167   1113
4   1544   1124   1048   1132
4   1131   1134   1130   1126
4   1118   1122   1568   1119
4   1571   1021   1177   5693
4   1571   1583   1577   1119
4   1571   1647   1547   1118
4   1118   1123   1573   1017
4   1573   1118   3735   1123
4   1141   1142   1120   1122
4   1143   1142   1144   1141
4   1098   1103   6507   1301
4   1095   1144   1198   6342
4   1097   1095   1195   5782
4   1095   1097   1141   1197
4   1095   1093   1609   5378
4   1122   1568   1119   1025
4   1585   1119   1025   1122
4   1301   1098   6506   6507
4   1116   1482   1119   5532
4   1547   1579   1582   3032
4   1145   1122   1121   1146
4   1146   1145   1122   1143
4   1143   1123   1122   1538
4   1122   1094   1539   1097
4   1095   1094   1122   1097
4   1147   3602   1214   2772
4   1148   2668   1144   6211
4   1664   1148   2917   1124
4   1148   5264   5263   1242
4   1148   1128   1226   1144
4   1148   1132   1128   1143
4   1093   1148   1144   1143
4   1099   1280   2786   1274
4   2834   1100   1101   1281
4   1100   6059   1134   1130
4   1122   1142   1120   1146
4   1469   1120   1146   5319
4   1107   3029   1307   1146
4   1121   1116   1118   1193
4   1451   1338   1404   1120
4   1747   1514   1744   2699
4   1404   1120   5400   5319
4   2847   1120   5319   1340
4   1142   1143   1122   1141
4   1146   1143   1122   1142
4   1141   1097   2045   1197
4   1116   1097   1122   1119
4   1149   4903   1150   6773
4   1115   1391   1151   1145
4   1115   1159   1145   1152
4   6140   1159   1180   1145
4   1115   1152   4861   6780
4   6780   1152   1159   1115
4   1152   4861   6780   1181
4   1143   1115   1129   1146
4   4028   1141   1120   1097
4   6342   1144   1352   1141
4   1113   1112   3167   5451
4   1104   1114   1115   1098
4   1153   1272   1265   1379
4   1113   1291   1111   1114
4   1111   1435   3398   1436
4   1104   1349   1425   1468
4   1151   1154   4422   1310
4   1145   1391   1151   3646
4   1151   1102   3367   1145
4   1247   1151   2936   1114
4   1110   1109   1129   1106
4   1155   1112   5835   1422
4   1111   1112   3059   1437
4   1112   2624   5451   1438
4   1112   3059   1437   5345
4   1098   1156   1103   1301
4   1134   1235   2948   1228
4   1521   1134   1498   1527
4   1134   1527   1521   1701
4   1134   1701   1726   1529
4   1134   1157   1228   1212
4   1140   1135   1157   1134
4   1146   1142   1129   1143
4   1421   1107   1307   1146
4   1129   1331   5523   1142
4   1313   1138   1277   1291
4   1362   1158   1109   1142
4   3462   1158   1109   1362
4   1146   1469   5604   3149
4   1146   1335   3149   1363
4   1142   2925   1109   1362
4   3367   1145   5076   1537
4   1120   4028   2872   1451
4   1097   1119   1565   1585
4   1097   1122   1585   1539
4   1199   5378   1095   1609
4   1271   1111   1291   1277
4   1161   1125   1162   1148
4   1240   2917   1148   1668
4   1143   1128   1129   1126
4   1148   1182   1242   6211
4   1161   1148   1664   1124
4   1124   1586   1003   1053
4   1116   1097   1119   1209
4   1143   1603   1126   1587
4   1538   1587   1143   1123
4   1143   1094   1613   1612
4   1125   1516   1515   1732
4   5378   1093   1609   2668
4   1093   1143   1094   1036
4   1097   1026   1016   1565
4   1123   1587   1143   1145
4   1146   1142   2925   1109
4   1122   1143   1538   1094
4   1093   1095   1143   1144
4   1145   1123   1122   1143
4   1537   1540   3367   1145
4   2917   1148   1668   1124
4   1592   1123   1540   1145
4   1599   1145   1123   1592
4   3735   1573   1580   1582
4   1122   1123   1017   1029
4   1116   1118   5693   1119
4   1358   1109   1146   1363
4   1106   4850   1098   1103
4   2902   1008   1581   1561
4   1103   1098   1106   1156
4   1105   1425   2858   5689
4   3059   1111   1437   1430
4   1163   1398   1418   2594
4   1163   3503   1164   5686
4   1400   1163   1401   1449
4   1106   1146   1129   1115
4   1131   1165   1000   1125
4   1140   1157   3681   1235
4   1230   1152   4861   1115
4   1157   1152   1230   1115
4   1157   1229   4332   1230
4   1279   1655   1165   2959
4   1139   1236   4584   1140
4   1100   1134   1126   1130
4   5136   1115   1157   4332
4   1156   1115   1157   5136
4   1140   4318   1236   5726
4   5726   1546   1140   4318
4   3504   1166   1110   1153
4   1132   1143   1603   1126
4   1143   1124   1148   1132
4   1095   1143   1122   1094
4   1145   1126   1135   1607
4   1594   1587   1039   1126
4   1128   1132   1126   1143
4   1100   1126   1129   1130
4   1167   1302   1287   4878
4   1113   1114   1411   1450
4   1113   6644   1284   6429
4   1156   1301   1098   1463
4   1098   1253   1115   1463
4   1098   1115   1253   1292
4   1139   1133   1719   1707
4   1126   1115   1129   1143
4   1070   1655   1071   1165
4   1168   1161   1136   1162
4   1161   1136   1715   1532
4   1135   1131   1126   1134
4   6117   1413   5474   1298
4   1162   1125   1161   1136
4   1165   1631   1058   1625
4   1143   1128   1144   1129
4   1148   1206   5263   2682
4   1135   1134   1126   1157
4   1122    995   1539   1094
4   1124   1031   1634   1544
4   3602   1162   1206   2772
4   1226   2682   3193   1128
4   4836   1387   4904   1149
4   1156   1371   1301   1296
4   2548   1421   1107   1307
4   1146   1151   1145   1115
4   1165   1065   1125   1055
4   1115   1292   1245   6786
4   1332   1108   1104   1138
4   1155   5831   1297   1408
4   3059   1422   5345   1112
4   1142   1129   1356   5523
4   1569   1570   1473    940
4   1142   4426   1337   1357
4   1195    996    994   1032
4   1142   6443   1362   3005
4   6267   1622   6268   1125
4   1158   5025   6533   4145
4   1103   1169   1288   6507
4   5782   1097   1189   1195
4   1662   1628   2072   1663
4   1043   1654   1598   1087
4   1043   4321   1588   4076
4   1043   1598   1654   4076
4   1119   1565   1584   4577
4   1119   1584   1022   1127
4   1584   4577   1565   1028
4   1098   1284   1411   1292
4   1220   1681   1706   1481
4   1101   1433   4742   6532
4   1145   1039   1599   1587
4   1587   1039   1126   1145
4   1126   1039   1607   1145
4   1097   1026   1565   4577
4   1026   1189   1016   1567
4   1097   1197   3788   2045
4   4023   1128   1129   1225
4   1024   1585   1119   1025
4   1097   1585   1565   1016
4   1097   4028   2045   1092
4   1481   1705   1706   1220
4   1483   1513   1498   6112
4   1513   1498   2909   1483
4   5216   1127   4374   1007
4   1145   6140   1536   1180
4   6014   1459   1548   1243
4   1548   1233   1023   1007
4   1127   6014   1007   1233
4   1151   1218   1246   1311
4   1170   1392   6531   1439
4   1170   1392   3680   4998
4   1322   1107   1323   1320
4   1407   6311   1150   6312
4   1169   1185   6312   1370
4   5248   1100   1456   6610
4   1388   5468   2199   1171
4   4824   1276   1172   1282
4   1120   2872   4028   1210
4   1118   2564   1647   1193
4   1667   2668   4973   1606
4   1667   4973   2669   1606
4   1543   2668   1124   1667
4   1043   4076   1035   1598
4   1597   1651   1043   1087
4   4076   1654   1043   4321
4   1552   1554   1643   1551
4   1552   1643   1554   1553
4   1552   6244   1643   1553
4   1097   3788   1189   4578
4   1027   4577   1127   1584
4   1097   1016    996   1539
4   1016   1189    996   1567
4   1705   1220   1752   1219
4   1217   1706   1535   1705
4   1681   1513   6112   1706
4   1481   1220   1752   1705
4   1326   1108   3317   1423
4   1517   1505   1480   1215
4   1098   1114   1115   1411
4   1142   5523   1356   1355
4   1128   6712   1129   1278
4   1129   5523   6717   5239
4   1569   1578    940   1472
4   2772   1162   1206   1148
4   1147   1203   1479   3602
4   4575   1720   1717   1203
4   4575   1203   1479   1720
4   1203   1162   6794   3602
4   1043   1035   4076   1588
4   1043   1588   1651   1597
4   4321   1654   1043   1651
4   4076   1649   1035   1044
4   4076   1035   1649   4070
4   4076   4321   1588   4070
4   1174   1293   1372   4319
4   1643   1554   4772   1551
4   1051   6267   3886   1628
4   1119   1233   1482   1127
4   1022   1127   1027   1023
4   1021   1119   1233   1179
4   1119   1179   1482   1233
4   1085   1564   1644   1015
4   1095   6342   1141   1144
4   1122   1025    995   1029
4   1359   5351   1403   1138
4   1093   1095   1609   1614
4   1121   1120   1116   2847
4   1118   1583   1573   1582
4   3095   1163   6527   1378
4   3237   3238   1164   1254
4   1714   1710   1161   1507
4   1517   1501   1717   1192
4   1505   1503   1502   1215
4   1514   1474   1510   3132
4   6268   1514   1744   1724
4   1514   6268   1515   1724
4   1514   1515   4363   1474
4   1747   2699   1510   1514
4   1163   1449   6035   1261
4   1407   6312   1150   1185
4   1170   1401   1440   1397
4   1169   1185   1370   6507
4   6350   1155   1169   6038
4   3339   1171   6117   1389
4   1095   3472   1199   1032
4   1142   4426   6224   5025
4   1124   1543   1667   2917
4   1142   4426   5025   1355
4   1163   1401   1449   1261
4   1133   1497   1533   1725
4   1331   1142   1355   5523
4   1129   5239   6717   1319
4   1146   3149   2925   1469
4   1114   3099   1291   1313
4   1476   1627   1073   1475
4   1667   1606   1543   2668
4   1112   5451   1300   1382
4   1667   1606   2669   1543
4   5351   1403   1138   2427
4   1605   2967   2668   1606
4   1659   4889   1661   1067
4   1659   4889   1067   2804
4   1618   1062   1071   2959
4   1062   2959   1620   1656
4   1656   1638   1626   1062
4   1033   6140   1589   1180
4   1135   1037   1152   1145
4   1593   1145   1152   1037
4   1593   1040   1596   1180
4   1152   4321   4860   4070
4   1596   1035   1649   1040
4   1591   1152   1596   1588
4   3886   1161   1665   1124
4   1147   1525   1738   1712
4   1147   1221   1738   1519
4   5248   1456   1100   6059
4   2699   6268   1514   1744
4   6268   1744   1714   1724
4   4413   1139   1236   3565
4   1714   1183   1493   1744
4   1095   3472   1195   1200
4   1531   1522   1168   1497
4   1133   1497   1725   1711
4   5216   1570   1473   1127
4   1157   1212   1299   1228
4   1095   1144   1141   1143
4   1170   1117   1439   1441
4   6100   1439   6531   5376
4   1427   1287   3730   1286
4   1427   6038   6350   1286
4   1427   1302   5508   1287
4   1427   5831   1428   1422
4   1095   1141   1097   1122
4   1100   6059   1130   6058
4   1156   6059   1456   5719
4   1158   5025   4145   1331
4   1093   1144   5378   1095
4   1129   5268   4181   4740
4   1158   6642   6533   3269
4   1158   6642   6643   4145
4   1344   1158   3148   3462
4   1048   1124   1602   1093
4   1142   4065   3188   1337
4   1107   1115   1106   1104
4   1121   1340   6690   1146
4   1137   1320   1321   1328
4   1137   1321   1320   1322
4   1137   1333   1455   2655
4   3886   1053   1665   1666
4   1114   3643   1244   2907
4   1151   3643   1114   2907
4   1114   2784   3099   1244
4   2847   1121   1340   6690
4   1144   1201   1202   1351
4   1144   1202   4061   4465
4   1148   5264   2682   5263
4   1660    923   1617   1066
4   1125   1634   1124   3886
4   5025   1142   1355   1331
4   1199   1241   1095   5378
4   1148   6211   1242   1668
4   2541   5921   1255   1325
4   1166   1149   1175   1153
4   1144   1201   1225   1226
4   1659   5235   1067   2845
4   2845   1617   5235   1067
4   1651   1546   4318   1597
4   1651   4318   3074   1597
4   1152   4860   4321   3681
4   1557   6362   1006   1645
4   6362   1645   1557   1644
4   6362   6751   1579   1006
4   6362   6751   1006   1645
4   1476   1475   1190   1627
4   1073   1477   1657   1637
4   1666   1003   1053   1664
4   1003   2669   1056   1543
4   1594   1039   1607   1126
4   1003   1624   1057   1666
4   1003   2669   1543   2917
4   3065   1714   1710   1161
4   1136   1714   1507   1734
4   1747   1183   1744   3220
4   1136   1734   1724   1714
4   1479   1712   1738   1511
4   1168   1712   1147   1203
4   4887   1658   1509   1745
4   1720   1203   1479   1712
4   1511   1496   4340   4575
4   1720   1511   4575   1496
4   1717   1203   1192   4575
4   1660   1066   1617   1625
4   1660   1617   1661   1631
4   1660   1625   1617   1631
4   1660   1492   1516   2978
4   1391   1159   1145   1115
4   3131   1492   1516   1660
4   1486   1237   1746   3366
4   1135   1591   1590   1140
4   1511   1479   2757   1738
4   1567   1189    994   4497
4   1189    994   4497   3160
4    994   3472   1595   3160
4   1142   1469   1120   1146
4   4861   1115   6786   1230
4   1146   1452   3029   1365
4   1152   4860   4861   1181
4   1171   1466   1254   3238
4   1114   1314   3099   1313
4   3650   3563   1153   3365
4   1153   4918   3365   1380
4   1137   1455   1318   2655
4   1124   1586   1611   1543
4   1153   4836   1175   3918
4   6113   1099   2786   1281
4   1163   1398   1401   1250
4   1440   1170   1261   1401
4   1449   1448   1163   6035
4   1164   1109   3462   1158
4   1164   1258   1343   1254
4   1158   1342   6642   1258
4   1142   1347   1364   6443
4   1110   1099   5268   1265
4   1099   6113   4742   1101
4   1110   1342   1259   1262
4   1166   1149   1150   1175
4   1099   1100   1129   3442
4   3643   1114   2761   1391
4   1497   1531   1136   1168
4   1147   1221   1479   1738
4   1147   2772   1214   1208
4   6713   1130   1128   1162
4   1147   1523   1722   1519
4   1511   4575   4340   1479
4   4575   1192   1717   1501
4   1638   1067   1631   1661
4   1633   1666   3886   1632
4   1666   1624   1633   1053
4   1003   1124   2917   1543
4   1541   1057   2669   1056
4   1095   1195   3472   1032
4   1056   1541   1606   2669
4   1056   2669   1606   1543
4   1171   1153   1164   1254
4   1095   1614   1032   1609
4   1095   1141   1122   1143
4   1097   1119   1209   4832
4   1093   1614   1609   1042
4   1095   1094    996   1614
4   1592   1039   1599   1145
4   1591   1037   1152   1135
4   1135   1607   1608   1037
4   1164   1153   1259   1254
4   1280   1153   1099   4742
4   1129   1106   1100   1099
4   3148   1158   3269   1164
4   6312   1150   1185   1169
4   1554   4772   1564   1014
4   6786   1115   4332   1230
4   1225   1351   1144   1356
4   1145   1592   1536   1537
4   4065   1141   1142   1451
4   1129   1130   1278   3442
4   1544   1002   1634   1124
4   1124   1634   1053   3886
4   1136   1733   1731   1732
4   1165   1000   1125   1065
4   1660   1617    923   1629
4   2845   1661   1660   1617
4   2978   4176   1660   1492
4   4176   1492   1178   1474
4   1499   1489   4885   1500
4   4584   1134   1231   1139
4   1475   1186   1060   4859
4   1475   1186   1627   1060
4   1406   4238   1444   1412
4   3781   4238   1412   1465
4   1569   1472   1567   1578
4   5354   1468   1458   3620
4   1111   1468   6535   1349
4   1468   5354   5355   2503
4   1406   1444   4848   1445
4   1174   1445   1444   1286
4   1176   1294   1306   5934
4   1169   1174   1464   6505
4   1103   1169   1150   4019
4   1169   1370   6505   5206
4   1174   6505   5678   1464
4   1662   1663   1051   1628
4   1158   4145   6643   5289
4   1158   1344   1361   3005
4   6717   1331   5523   1129
4   1146   1365   5604   1340
4   3462   6527   1109   1164
4   1154   2396   1121   1222
4   1142   6224   1357   1361
4   1361   1142   6224   6533
4   1128   4421   1129   6712
4   1132   1544   1002   1542
4   1109   2568   1358   1417
4   6690   2821   1121   1146
4   1171   2541   1257   3361
4   2541   4261   1392   1171
4   1255   4261   1392   2541
4   1251   1255   5921   1325
4   1251   1255   1256   5376
4   1151   3367   1096   1145
4   1519   1221   2755   1524
4   1391   1114   2761   1245
4   1114   2785   2784   2761
4   1114   1247   2907   1244
4   1095   1195   5782   1196
4   1141   2919   1197   2045
4   1278   6713   1130   1128
4   2845   1629   1617   1660
4   1003   1057   1056   2669
4   1606   1600   2668   1605
4   1543   1586   1003   1124
4   1022   1023   1233   1127
4   1584   1028   1027   4577
4   1141   1097   1122   1120
4   4577   1028   1027   1570
4   1119   4832   1482   1209
4   1127   4832   1119   4577
4   1057   1666   1664   1003
4   1570   4577   1127   1027
4   1085   1644   1564   1555
4   1564   4772   1061   1555
4   1557   4772   1014   1564
4   1665   1161   1664   1124
4   1147   1519   2771   1221
4   4585   1491   1160   1139
4   1240   1665   1161   1664
4   1664   1124   1003   1053
4   1536   1033   5550   1574
4   1145   1536   1038   1601
4   3157   1047   5119   1605
4   1035   1040   1052   1649
4   1718   1147   1161   1523
4   1475   1060   1627   1652
4   1161   6267   3886   3065
4   1136   1507   1715   1734
4   1136   1133   1711   1497
4   4585   1139   3565   1491
4   1152   1180   1596   4070
4   1495   1490   1139   1491
4   1491   3565   2715   1490
4   1564   1557   1644   1015
4   1114   2784   3643   2761
4   1111   1138   1108   1291
4   1155   1288   1375   5125
4   1112   5835   2624   1438
4   1426   1422   1112   1155
4   1098   1115   1292   1411
4   6751   3032   1579   1547
4   6535   1458   1138   5351
4   3472   1199   1047   3157
4   1111   1349   1430   3059
4   1714   1493   1183   3065
4   1104   1138   1458   1332
4   1106   1166   1099   1110
4   3059   1349   1104   1111
4   1409   5831   6038   1155
4   1111   1430   6535   1429
4   3886   1632   3887   1615
4   6535   1138   1468   1111
4   1493   3065   1710   1728
4   3059   1426   1422   1112
4   1450   1291   1113   1114
4   1147   1519   1722   2771
4   1174   6311   5678   6505
4   5831   1155   1409   1408
4   1167   1302   3191   6773
4   1427   1287   6350   1302
4   1427   1287   5508   3730
4   1167   1302   6350   1287
4   1167   1169   1174   6350
4   6038   1155   1169   1409
4   1174   1294   5934   1372
4   1174   1289   1409   3601
4   1289   6038   1174   1409
4   6350   5831   1427   1422
4   1427   3730   4133   6038
4   6038   3730   4133   3487
4   6658   1176   1385   6458
4   1106   1166   3503   1442
4   2541   3361   2633   3613
4   2541   5921   1325   2633
4   1343   1164   4552   3269
4   1155   5125   1112   1098
4   1155   6068   2563   1305
4   1368   5454   1167   6311
4   1150   1185   6770   1367
4   2870   1550   1243   4826
4   4885   3565   1704   1489
4   1489   1704   1490   3565
4   1070   1165   1069   1139
4   1139   1236   3565   4885
4   1179   4015   1013   1177
4   1470   4015   1012   6266
4   1470    914   1556   6503
4   4015   1013   1550   1234
4   4015   1550   1013   1012
4   1470   1177   1012   4015
4   4465   1095   1241   1144
4   1643   1558   1553   2576
4   1554   1061   4772   1551
4   1643   1554   1553   1558
4   1552   1553   6243   6244
4   1140   1591    998   1546
4   1140   4321   1588   1546
4   1139   4586   4583   4413
4   4076   1035   4070   1588
4   1569    940   1473   1472
4    924    940   1473   1570
4   1027   1570   1007   1127
4   1578   1567   4497   1472
4   3833   5076   1574   1576
4   3833   1574   5076   5439
4   1013   1179   1021   1233
4   4015   1234   1550   6266
4   4015   1233   1013   1234
4   1013   1177   1012   1563
4   1022   1233   1023   1021
4   1130   1708   1498   1134
4   1726   1478   1231   1713
4   1134   4884   1231   1485
4   2978   1492   1509   4886
4   1514   3132   1492   1474
4   1034   1132   1603   1126
4   1133   1721   1504   1725
4   1130   1216   1227   1498
4   1134   1484   5719   1232
4   1133   1721   1533   1708
4   1131   1000   1004   1001
4   1125   6267   1136   6268
4   1168   1133   1497   1533
4   1133   1725   1520   1711
4   1133   1533   1721   1725
4   1115   1107   1114   1104
4   1136   1531   1497   1711
4   4885   1489   3123   3565
4   3123   2715   3565   1490
4   1171   1164   3504   5265
4   1170   4998   5497   1397
4   1116   5693   1462   5532
4   5693   1021   1177   1179
4   1119   5532   1179   5693
4   1470   6503   1559   6244
4   1568   1118   1119   1583
4   1470   1177   1563   1012
4   1470   1559   6503   1556
4   6014   1233   1234   1548
4   4015   1012   1013   1177
4   1013   1023   1233   1021
4   1119   1577   1022   1566
4   1165   1133   1729   1735
4   1119   1022   1584   1566
4   1584   1022   1127   1027
4   1129   1143   1142   1144
4   1095   1141   4719   1197
4   1098   6429   1283   6411
4   6507   1103   1150   1156
4   1098   1463   1283   1253
4   1100   1101   6610   5248
4   1154   1223   2404   2378
4   2907   1151   1247   1114
4   1300   1112   6411   1113
4   1430   1420   3059   1349
4   1509   1516   1492   2978
4   1169   6773   1150   4019
4   1175   4741   6532   4742
4   1101   1367   6610   6030
4   1169   1288   1370   5206
4   1150   6770   1185   6507
4   1099   1272   1274   5240
4   1156   6507   1301   1371
4   3886   3887   1051   1615
4   1176   1383   1377   5934
4   1101   1367   1150   6770
4   1150   6532   1368   1376
4   1158   3005   3462   1344
4   5212   1622   1059   1636
4   3269   1344   1158   3148
4   3148   3462   1164   6527
4   1643   6244   2576   1553
4   1158   1262   6643   1342
4   1169   1174   6505   6311
4   1169   6507   1150   1185
4   1158   6642   4145   6533
4   1158   1343   6642   3269
4   5289   1129   6717   1346
4   1170   1378   4419   5497
4   1153   1110   1259   1265
4   2418   1349   1425   1104
4   1320   1137   1322   1107
4   1097   1016   1026   1189
4   1399   4824   1276   1172
4   1176   1402   1172   1431
4   5376   1439   6531   1392
4   1171   4824   1298   5266
4   1101   6770   6610   1367
4   1298   6222   4261   1171
4   1171   3238   3361   1257
4   1392   6222   5266   1171
4   1170   6531   4998   1441
4   1113   1450   1411   1284
4   1150   4742   1175   6532
4   4180   1641   5391   1560
4   1150   1166   1175   4742
4   1099   1265   1272   5268
4   1300   1113   5451   1112
4   1112   2624   1437   3167
4   1421   1252   1104   1348
4   1105   5689   2594   1348
4   3337   4734   6466   1273
4   1171   1388   3337   1270
4   1728   3065   1710   1702
4   3782   1263   1466   1267
4   3238   1270   1171   1466
4   1308   1270   1171   3238
4   3782   2600   1390   3238
4   3337   1267   1466   1270
4   1443   6081   1260   1255
4   4261   2454   2453   1260
4   1260   6222   4261   1298
4   1553   6244   1562   1559
4   2635   1255   1256   6081
4   6014   1243   1548   1234
4   1243   1234   6266   1550
4   1243   1550   6266   4826
4   1233   6014   1007   1548
4   6014   4374   1007   1548
4   1271   1113   1291   1111
4   1098   1283   6429   1253
4   1112   1300   6411   1382
4   1426   1098   1112   3059
4   1153   3504   1164   1110
4   1104   1138   1108   1111
4   1114   1314   3098   1247
4   3886   1054   1623   6267
4   3886   1615   1623   1633
4   1634   1635   3886   1054
4   1589   1650   1180   1648
4   1650   1648   1589   1075
4   1650   1052   1040   1649
4   4738   1589   5439   1648
4   1650   1075   1040   1052
4   1180   6140   1536   1033
4   1650   1040   1075   1589
4   6140   1589   1180   1648
4   1571   2564   2565   1647
4   1118   2564   1571   1647
4   1177   2564   1646   1571
4   1571   5693   1177   2564
4   1233   4015   1013   1179
4   1470   1177   1646   1563
4   6373   1641   1561   4152
4   6362   1011   6373   1644
4   4180   1560   6374   6373
4   6373   4152   1561   1011
4   1611   1543   2668   1124
4   1516   1735   1125   1165
4   6267   1059   6268   1622
4   1625   1125   1619   1055
4   1279   3729   1165   1655
4   1064   1628   1059   1663
4   1071   2959   1062   1165
4   1071   2959   1655   1618
4   1618   1062   2959   1620
4   1636   1625   3131   1630
4   1157   1228   4333   1229
4   1477   1637   3729   1618
4   1657   1477   1618   1637
4   1657   2959   1620   1618
4   1611   1602   1124   1093
4   1125   1124   1148   1161
4   3131   1636   1066   1625
4   2917   2669   1664   1003
4   1606   1543   2668   1600
4   1109   1105   1417   1146
4   1105   1146   1106   1107
4   1152   4070   1596   1588
4   4076   1035   1598   1044
4   1596   1035   1588   4070
4   1035   1649   1052   1044
4   3472   1047   1199   1032
4   1041    994   3472   1595
4   3472   1032   1195    994
4   1120   1121   1340   2847
4   1121   1118   3735   3032
4   1125   1619   1621   1630
4   4035   1581   4034   1020
4   4035   4034   1581   1640
4   1553   2576   1562   6244
4   1553   1559   6243   6244
4   1559   1562   1646   6244
4   1107   1320   1328   5449
4   1559   6243   6244   6503
4   1622   4363   5212   6268
4   1133   1725   1504   1520
4   1125   1002   1054   1622
4   1156   1212   1134   5719
4   1030   1135   1049   1005
4   1176   5617   3588   1444
4   1136   1515   1734   1732
4   1549   1006   1645   1558
4   1492   4176   1660   3131
4   1705   1220   1217   1706
4   1168   1130   1534   1535
4   1706   1204   1220   1217
4   1216   1204   1220   1706
4   1514   1474   4363   2699
4   1709   1523   1506   1161
4   1744   1493   3220   1183
4   1147   1238   1239   3791
4   1238   1147   1239   1487
4   1487   1728   3647   6737
4   1121   2396   6879   3032
4   1161   1487   1702   3065
4   1487   1147   1239   1161
4   1487   1488   1718   1702
4   1171   4261   2454   3338
4   1101   1433   6030   1434
4   1170   1117   1261   5265
4   1170   1117   1441   1440
4   1170   1164   3361   1171
4   1171   3339   1172   1460
4   1397   1163   1170   1401
4   1405   1436   1111   2427
4   1138   1184   1277   1435
4   1138   1184   5535   4698
4   1138   1403   5535   5536
4   4429   1403   1138   6091
4   1138   4429   6091   4012
4   1138   4011   1359   1458
4   1414   5351   6535   2427
4   1403   5351   3185   1414
4   4429   4698   3091   1138
4   1414   2427   1403   5351
4   1138   4011   6091   1359
4   1138   1405   2427   5536
4   3185   1403   6091   1359
4   1138   6091   4011   4012
4   1138   4429   4698   5535
4   1138   5536   2427   1403
4   1138   1184   4698   4699
4   1138   1104   1468   1111
4   6535   1111   1429   2427
4   3059   1113   1104   1098
4   3782   3238   1466   1263
4   1158   6643   6642   1342
4   2600   3238   3613   1334
4   1390   1334   2633   3361
4   1251   5921   1255   5376
4   3613   3238   3361   1334
4   3782   1263   2600   3238
4   3238   1390   1334   2600
4   1386   1176   1447   1385
4   1176   1446   1386   1465
4   1176   6402   4091   1446
4   1176   6658   5207   1384
4   1447   1176   1412   6458
4   1176   1386   1446   4091
4   1176   1412   6458   4877
4   1153   3650   1381   3093
4   1176   5891   1383   1446
4   1569   1026   4577   1028
4   1099   1280   6113   2786
4   4742   1101   1150   1099
4   1153   1272   1379   1380
4   1101   1376   1367   6030
4   1115   1151   1107   1146
4   1169   1370   6312   6505
4   1142   1355   1356   1339
4   1158   1331   4145   5289
4   4261   1392   6222   1255
4   1164   1170   5686   5265
4   1170   6527   1336   3652
4   4552   1170   3652   6527
4   1164   1158   1110   1109
4   1164   4552   3148   6527
4   1170   1393   1336   3680
4   3237   1170   3652   4552
4   2600   3238   1263   1308
4   1151   1218   1310   4422
4   1248   1141   1142   4065
4   1104   1348   1252   2570
4   1107   1252   1104   1421
4   1121   1118   1123   3735
4   1154   2821   2383   1415
4   1142   5400   1120   1469
4   1116   1119   1482   1209
4   1154   3920   1454   1173
4   1415   1107   1323   1322
4   1154   2383   2821   2609
4   1146   1452   1340   6690
4   1131   1139   1165   1133
4   1114   1115   1245   1391
4   6879   1118   1193   1121
4   1108   1138   4698   4699
4   3588   4238   1465   1412
4   1174   5678   1293   1374
4   1406   1412   3781   4238
4   1174   1289   3601   6863
4   1174   1374   4319   1369
4   1444   4238   3588   1412
4   4848   1373   1444   5617
4   5835   4908   1297   1422
4   1112   5835   5345   2624
4   1176   1172   1402   1384
4   1172   1384   5937   5468
4   1099   5240   1274   2786
4   1426   1288   1103   1169
4   1174   6038   6350   1169
4   1569   1189   1472   4577
4   1286   1174   6038   6350
4   4742   1366   1280   1153
4   1153   3337   1388   1273
4   1153   6400   3650   3093
4   1176   3919   1387   1306
4   1280   1099   6113   4742
4   1101   2834   6113   1434
4   3061   5937   1172   1153
4   1101   6532   1150   1376
4   1281   1100   1101   1099
4   1116   1462   5693   1193
4   1151   1154   1310   1137
4   1131   1132   1126   1130
4   1132   1004   1542   1131
4   3886   1623   1054   1635
4   1119   1583   1577   1568
4   1121   6690   1269   2609
4   1165   1638   4889   1658
4   3886   1633   1623   1635
4   4419   1163   1170   1397
4   1151   1218   3367   1102
4   1161   1727   1136   1532
4   1167   1174   1286   6350
4   1146   3149   5604   1365
4   1146   1340   1452   1365
4   1165   2959   1062   1656
4   1423   2570   1108   3317
4   1277   1111   1291   1138
4   1137   1327   5562   1328
4   1107   1395   5449   3317
4   1726   1134   1713   1231
4   4885   1713   1500   1489
4   1140   1131   1134   1139
4   1125   1732   1136   1133
4   1130   2963   1204   4183
4   1130   1533   1534   1708
4   1148   1125   1162   1132
4   1705   1220   1219   1217
4   1161   1147   1239   1240
4   1705   1502   1535   1217
4   1141   2919   1248   4719
4   1132   1045   1544   1542
4   1097   1209   4028   1092
4   1356   1351   1144   1352
4   2991   1178   1492   3132
4   4176   2978   1178   1492
4   1492   3131   1515   1474
4   4886   2978   1191   1509
4   1121   1193   4423   1194
4   1647   6879   1118   1193
4   1118   6879   1647   3032
4   1116   1224   1211   1461
4   1121   1122   1116   1120
4   6267   1161   1125   1136
4   1116   1462   1461   5532
4   1119   1584   1127   4577
4   1666   5035   1057   1072
4   1003   1057   2669   1664
4   1123   1580   1573   1540
4   1624   1666   1003   1053
4   1656   1165   3366   1658
4   1658   1638   1656   1165
4   1164   1158   3462   3148
4   1165   3366   1746   1495
4   1618   1655   1071   1070
4   1499   1739   4885   1489
4   4318   1546   1140   1653
4   1647   1549   2576   2565
4   1647   1571   1549   2565
4   1122   1123   1029   1538
4   6751   1647   1549   2576
4   2564   1118   1571   5693
4   1121   1194   1116   1193
4   1118   5693   2564   1193
4   1121   1269   1194   2609
4   1064   1059   1636   5212
4   1059   1622   6267   1054
4   1475   1627   1186   1190
4   1018   2880   3367   1096
4   4854    997   4859   1652
4   1165   1660   1631   1625
4   1543   1611   2668   1600
4   2668   1668   1148   1124
4   6555   1206   6794   1162
4   1124   1602   1586   1031
4   1124   1586   1053   1031
4   1564   1644   1557   4772
4   1118   1583   1017   1573
4   1161   1136   6267   1714
4   1135   1608   1594   1046
4   1145   1038   1607   1037
4   1540   1145   1123   1096
4   1135   1608   1049   1604
4   1145   1039   1607   1038
4   1126   1034   1004   1046
4   1648   1589   1075   4738
4   5439   1589   6140   1648
4   1589   1601   1180   1040
4   1033   4738   1589   5439
4   1115   6786   1245   6780
4   1470   1646   1559   1563
4   1642   3735   1579   4152
4   1561   1560   1640   1641
4   4034   1641   1561   1640
4   1154   1137   1415   2730
4   1118   1571   1583   1547
4   1547   1006   6751   1549
4   3032   1647   1547   6751
4   1142   1362   6443   1364
4   2565   1571   1549   1646
4   1134   4884   1212   1228
4   1119   1577   1566   1568
4   4034   2902   2880   1581
4   1157   3681   1229   1230
4   1157   1235   1229   3681
4   1161   1147   1240   1148
4   1157   1228   1229   1235
4   1132   1143   1048   1603
4   1567   1189   1472   1569
4   1579   1642   1008   1580
4   1518   1232   1726   2776
4   1590   1140   1005   1135
4   1518   1701   1232   1521
4   1125   1002   1621   1001
4   1161   1506   1702   1718
4   1139   1165   1160   1070
4   1125   3131   1515   1516
4   1168   1161   1162   1147
4   1535   1130   1534   1706
4   1456   1100   6059   1156
4   1168   1217   1535   1503
4   1064   5212   1074   1090
4   1188   3565   1750   1491
4   2991   1492   1178   4886
4   1064   1059   5212   1663
4   4885   3123   1489   1739
4   1232   1726   2776   1485
4   1492   2978   1178   4886
4   1514   1474   1492   1515
4   1492   3131   1516   1515
4   1514   1510   1474   2699
4   4886   1745   1509   1191
4   1169   1464   1290   5206
4   3729   1618   1655   1477
4   1476   1073   1627   1637
4   1165   1071   1070   1616
4   1279   1160   1165   3729
4   1589   1180   1601   1033
4   1070   3729   1068   1637
4   1279   3366   1495   1188
4   1217   1130   1706   1204
4   1706   1708   1498   1130
4   1705   1502   1219   1752
4   1130   6059   1227   6058
4   1439   6222   5376   6100
4   1163   2594   1448   1400
4   1448   4027   2594   2503
4   1398   1400   1163   1401
4   1113   1112   6411   1098
4   1113   4810   1271   1309
4   1113   3167   3398   4810
4   1107   2548   1395   1252
4   1109   1129   1146   1142
4   1115   1151   1391   1114
4   1108   1114   3098   2936
4   1111   1112   3167   1113
4   1098   6506   1463   1301
4   1140   1135   1131   1030
4   1113   1284   6644   1309
4   1138   4012   4011   1330
4   1161   1506   1507   1710
4   1138   1184   4699   1277
4   1108   1332   2570   1423
4   1271   1111   3398   1113
4   1114   2784   2785   3099
4   6373   1015   1011   1560
4   1104   2418   3059   4850
4   1576   3834   5076   1639
4   1305   6068   1112   1155
4   1170   1117   1440   1261
4   1163   1250   1397   4419
4   1171   2199   1266   3338
4   1171   1264   1266   1270
4   1465   1176   1412   1447
4   1174   5678   5454   1293
4   1156   1106   1103   1100
4   1175   3918   4836   3649
4   1175   6532   4595   1368
4   1176   1444   3588   1412
4   1286   1167   1287   1444
4   1175   4595   3461   1368
4   1155   5835   1297   1422
4   1175   3649   1387   3919
4   1099   1103   1101   1150
4   1169   6311   6505   6312
4   6311   1150   6312   1169
4   1451   1360   4065   1141
4   1130   1453   1204   2963
4   1095   1144   4465   1198
4   5264   1182   1242   1148
4   1141   1360   2919   1451
4   1109   6527   1163   1164
4   1417   1105   1421   1146
4   1163   1354   2569   1416
4   1400   1449   1448   1163
4   3269   1164   4552   3148
4   1170   3652   1336   1393
4   1378   4419   1163   1170
4   1161   1136   1507   1715
4   1151   2936   1137   1311
4   1161   1136   1714   1507
4   1151   1121   1096   1154
4   1108   1114   1313   1249
4   1108   4699   4698   1285
4   1108   1285   2974   2973
4   1458   1104   3620   1468
4   4908   2879   1297   1428
4   4908   1428   1394   2879
4   2879   1394   1424   1428
4   1297   1422   1428   5831
4   1155   1408   1297   1432
4   1112   6068   5125   1155
4   1161   1239   1487   3065
4   1156   1456   6610   1371
4   1114   1314   1247   1244
4   1114   2785   1411   1450
4   1466   1270   1171   3337
4   1164   1258   1254   1259
4   3237   1170   1164   3361
4   1466   1263   3238   1270
4   1172   1153   3504   1171
4   3337   1268   4734   1153
4   1261   1401   1449   1440
4   1170   1392   1439   5266
4   3361   1164   3238   1171
4   1353   1158   6643   1129
4   3337   1466   1254   1171
4   1702   3065   1710   1161
4   1334   3238   3361   1390
4   1163   5686   1170   1261
4   1378   6527   1170   1163
4   1163   1109   1417   1416
4   1163   1416   1398   1354
4   3095   1109   6527   1163
4   1163   1354   1250   3096
4   1108   1326   1328   5562
4   1170   1392   4998   6531
4   1142   1339   1356   1352
4   1134   1485   1232   4884
4   1095   6342   1198   4719
4   1503   1215   1717   1168
4   1168   1526   1508   1522
4   3442   1129   4181   1278
4   1115   1145   1143   1126
4   1100   5248   6059   6058
4   1134   6059   1484   1227
4   1204   1130   1706   1216
4   1498   1483   1227   1484
4   1134   1228   2948   4884
4   1093   1095   1614   1094
4   1141   1248   1142   1352
4   1146   1109   2925   1335
4   1097   1189   1026   4577
4   1158   1110   1109   1129
4   1569   1472   1473   4577
4   1140   5726   4584   1235
4   1027   1023   1127   1007
4   1570   4577   1028   1569
4   1241   1095   5378   1144
4   3472   1471   3157   1041
4   3157   1605   5119   2967
4   3157   5378   1605   2967
4   1231   1139   4885   4584
4   3472   3157   1047   1041
4   3472   1032   1041   1047
4   3157   1605   5378   1047
4   1145   1536   6140   5550
4   1033   5439   6140   5550
4   1660   1661   2978   1516
4   5212   3131   1622   1636
4   3131   4363   1622   1125
4   1125   1165   1625   3131
4   4176   1474   3131   1492
4   1125   1515   3131   4363
4   1515   4363   1474   3131
4   1638   1658   1626   4889
4   1165   1638   1631   1661
4   2959   1165   3366   1656
4   1157   1145   1135   1152
4   1596   1591   1037   1152
4   1156   1299   1296   5136
4   1152   1230   4860   3681
4   1657   1618   1655   2959
4   1476   1637   1477   1073
4   1118   1583   1582   1547
4   1118   1647   1547   3032
4   1737   1521   1232   2908
4   2565   1549   2576   1646
4   1558   1645   4772   1014
4   6373   6374   1644   1015
4   6362   1011   1006   1579
4   6362   1011   1644   1557
4   6362   4152   1579   3032
4   1130   1216   1453   6058
4   4034   1020   2880   1639
4   1561   4034   1581   2902
4   2902   1641   1561   4034
4   2902   1019   1581   1008
4   2902   1019   1642   2880
4   4152   1008   1642   2902
4   1632   1624   1633   1666
4   1628   6267   3886   1623
4   1617   1661   1631   1067
4   1070   1160   1068   3729
4   1004   1135   1046   1030
4   1139   1187   1545   1068
4   1133   1707   1494   1504
4   1128   6712   1205   4421
4   1149   3504   2780   1172
4   1069   1140   1005   1545
4   1133   1528   1719   1504
4   1133   1716   1528   1504
4   1140   1588   1591   1546
4   1616   1070   1165   1069
4   1068   1637   1190   1545
4   1068   1187   1545   4335
4   1139   1160   1165   1495
4   1134   1521   1484   1232
4   1476   1190   3729   1637
4   1059   6268   1663   6267
4   1661   1638   4889   1165
4   1143   1094   1612   1538
4   1475   4859   1060   1652
4   1131   1030   1004   1000
4   1657   1618   1477   1655
4   1637   1545   1627   1190
4   1166   1149   3504   4903
4   3190   1149   3504   2780
4   1132   1544   1045   1048
4   1149   1172   2780   3191
4   1113   1309   1271   1450
4   2668   1144   5378   1093
4   1095   1198   4465   1200
4   1167   1169   6773   1150
4   1093   1610   1611   1602
4   1093   1600   1610   1609
4   1569   1473   1570   4577
4   1153   1099   4742   1166
4   1097   1094   1539    996
4   1095   1199   3472   1200
4   1165   1055   1058   1065
4   1166   1149   1153   3504
4   1120   1451   2872   1404
4   1611   1600   1610   1093
4   2668   1609   5378   1047
4   1605   2967   5378   2668
4   1600   1047   2668   1605
4   1667   1543   2669   2917
4   1124   2917   1667   1668
4   3367   1576   1018   1537
4   3131   1074   1066   5212
4   1536   5550   1033   6140
4   1018   1540   1096   3367
4   1540   1537   3367   1018
4   3833   1576   3834   5076
4   1033   1574   1575   5439
4   4772   1644   1557   1645
4   1113   6644   6429   1300
4   1558   1549   2576   1645
4   1554   1014   1558   4772
4   1160   1165   3729   1070
4   1186   1545   1187   4335
4   1190   1545   1627   1186
4   1190   1068   4335   3729
4   1545   4586   1140    999
4   1160   1165   1495   1279
4   1140   1235   3681   5726
4   1658   1165   1191   4889
4   1064   1628   1663   2072
4   4321   5726   1546   1140
4   1195   1097   1189    996
4   1097   5782   1189   3788
4   3160    994   3472   1195
4   1189   1567    994    996
4   1097   1016   1189    996
4   4577   1026   1569   1189
4   3565   1704   1490   1139
4   1491   1188   1751   1750
4   1139   1490   1707   1704
4   1134   1726   1485   1231
4   4885   1489   1704   1713
4   1139   1490   1495   1707
4   1133   1707   1504   1719
4   4583   1139   4585   1187
4   4887   1746   1509   1658
4   1661   1191   1509   1165
4   1509   2978   1191   1661
4   1479   1221   2757   1738
4   1213   1162   6794   1203
4   1134   1527   1701   1528
4   1134   1232   1701   1521
4   1134   1484   1498   1227
4   1498   1484   2908   1483
4   1216   1706   1498   1130
4   1130   1204   1217   4183
4   6533   1142   6224   5025
4   6112   1513   1498   1706
4   1134   1498   1527   1708
4   1484   1521   1134   1498
4   1491   4585   1160   1188
4   1495   3366   1746   1751
4   1139   1491   1160   1495
4   1491   1751   1188   1495
4   1491   1495   1188   1160
4   3123   1490   3565   1489
4   1165   1191   1509   1658
4   1237   1751   1188   1750
4   1165   1729   1495   1723
4   1509   1658   1191   1745
4   1133   1716   1721   1708
4   1219   1215   1480   1502
4   1705   1217   1219   1502
4   4889   1165   1191   1661
4   1165   1516   1509   1661
4   1660   1516   3131   1165
4   1514   2699   4363   6268
4   1744   2699   6268   1183
4   1638   1661   4889   1067
4   1659   1661   2845   1067
4   1165   1661   1660   1516
4   1101   1433   1376   6030
4   1098   6429   1292   1253
4   1149   1153   4836   1175
4   1113   4810   5451   3167
4   3735   1154   1173   1096
4   1130   1100   3442   1129
4   1149   3191   1176   1172
4   1167   3191   1302   4878
4   2105   4027   5355   2503
4   1155   1169   1290   5206
4   1104   4850   3059   1098
4   1098   1288   1103   1426
4   1104   1348   3620   1425
4   2845   1067   1661   1617
4   1098   5125   6411   1283
4   1155   5125   1375   6068
4   1651   4321   1588   1043
4   1420   1394   4908   1428
4   1420   5345   4908   1394
4   5835   1422   5345   4908
4   1176   3191   4878   1431
4   1465   1176   3588   1412
4   1176   1167   3919   1294
4   1176   1172   5937   1149
4   1140    999    998   1545
4   1176   4877   6458   1431
4   1172   1276   1399   2780
4   1172   1276   1431   1282
4   1155   3601   1169   1409
4   1545   1139   1069   1140
4   1176   1465   5891   1446
4   3191   1176   1172   1431
4   1176   4904   1275   1387
4   3781   1465   1412   1447
4   1282   4824   1410   1172
4   1276   4878   3191   1431
4   1172   1431   1276   3191
4   1410   1172   3339   1282
4   1176   5207   1385   4091
4   6100   1255   1443   6222
4   1392   5921   5376   1255
4   1170   1392   1393   3680
4   1170   5266   1117   5265
4   6531   1396   6100   3335
4   1171   2541   1170   1392
4   1110   1109   1105   3503
4   1172   3191   1276   2780
4   1384   1460   1402   6658
4   1152   1140   1591   1135
4   5937   3093   1153   3061
4   1149   3191   2780   3190
4   4836   1149   4904   1153
4   1172   5937   3061   5468
4   1174   1374   1293   4319
4   1175   4595   4741   3649
4   1174   1372   1293   1294
4   3461   1368   5454   1167
4   1174   1293   5454   1294
4   1155   1295   6448   1408
4   1176   1306   1387   1275
4   1101   1150   1367   1376
4   1150   1376   1407   1367
4   4903   1103   4019   1442
4   1149   1172   5937   1153
4   1409   6448   1155   3601
4   2427   1111   1429   1436
4   2427   5351   6535   1138
4   1138   1359   5351   1458
4   1142   1248   1337   1339
4   1134   1719   1528   1529
4   1120   1338   1404   5400
4   4740   1346   1129   1353
4   1100   2963   3442   1281
4   1097   1197   5782   3788
4   1148   1144   1226   5264
4   1131   1069   1139   1140
4   1139   1545   1069   1068
4   1142   1357   1337   3188
4   1139   4413   1140   4586
4   5400   1142   1120   1338
4   1163   1164   1170   5686
4   1141   1360   1248   2919
4   6643   1129   1346   1353
4   1142   4426   1339   1337
4   1170   1164   4552   3237
4   1141   2045   1451   2919
4   1095   1197   4719   1196
4   1129   1099   5268   1110
4   1312   1108   2979   1317
4   1137   1322   1333   1321
4   1137   1321   1327   1328
4   1154   2383   2730   1415
4   1154   1310   1137   3920
4   1114   2784   1244   3643
4   1108   1107   1104   1114
4   1145   1151   1102   3646
4   1582   3032   1118   1547
4   1114   1151   1391   3643
4   1108   1138   1332   1330
4   1468   1458   1138   6535
4   1146   1151   1107   1154
4   3317   1326   1328   1108
4   1151   1107   1154   1137
4   1435   1271   1111   3398
4   1098   1292   6429   1284
4   1113   1309   1450   1284
4   1152   1588   4321   4070
4   1145   1039   1038   1592
4   1105   2858   6035   5689
4   1451   1141   1120   4028
4   1121   1269   6690   2847
4   1101   1281   6113   2834
4   1151   1311   1246   1247
4   1098   5125   6506   1288
4   6507   1098   6506   1288
4   3238   1164   1254   1171
4   1409   1174   3601   1169
4   1098   6506   1283   1463
4   1101   1156   6610   6770
4   1175   3461   4595   3919
4   1098   1113   6429   6411
4   1113   6644   5451   4810
4   1122    995   1538   1029
4   1172   1460   3339   1402
4   1153   1149   4904   5937
4   1171   1460   1389   3339
4   1110   1353   1265   5268
4   5289   1129   1346   6643
4   3337   1267   6466   4734
4   1151   1145   1096   1121
4   1115   1292   6786   1253
4   1101   6610   5248   6030
4   1153   3365   3563   1366
4   5268   1129   1110   1353
4   1164   1343   4552   3237
4   4261   1257   2541   1255
4   1171   1172   1399   3504
4   3503   1109   1105   1163
4   1152   1115   1157   1145
4   1139   1134   1713   1719
4   1163   1400   1398   2594
4   3361   3652   1170   1393
4   1111   1436   1437   1429
4   1109   3095   1345   2569
4   1153   1254   3337   1259
4   1604   1135   1591   1590
4   1142   1158   1129   1331
4   1128   4023   3193   1226
4   1107   2548   1307   2663
4   1129   5239   1319   1225
4   1258   1164   1158   1110
4   1600   2668   1093   1611
4   1719   1139   1704   1713
4   1143   1612   1587   1538
4   1478   1231   1713   1500
4   1228   1157   1134   1235
4   1149   1172   1153   3504
4   1154   1137   1455   3920
4   1153   3918   6400   4836
4   1154   1454   1223   1222
4   1154   1223   1455   2404
4   4261   1255   1260   2453
4   2570   1108   3317   1107
4   1108   1137   1114   2936
4   1140   1236   1653   4413
4   2105   2503   5355   5354
4   1148   6555   1206   2682
4   1110   1158   1262   1353
4   1205   1128   6555   1162
4   4742   1153   3563   1366
4   1161   1523   1506   1718
4   1098   5125   1283   6506
4   1526   1531   1168   1727
4   1128   6713   1162   1205
4   6311   1150   1167   1368
4   1093   1610   1602   1042
4   1139   1187   1160   4585
4   1153   3564   1379   1268
4   1121   2821   6690   2609
4   1187   1160   1068   1139
4   1545   1068   4335   1190
4   1073   1627   1652   1475
4   6373   1015   1560   6374
4   1171   1170   5266   1392
4   3729   1637   1190   1068
4   1476   3729   1477   1637
4   4859    999   1186   1060
4   1186   1545    999   4586
4   1476   1637   1627   1190
4   1155   6448   4455   1290
4   5562   1108   2979   1312
4   1139   1545   4586   1140
4   1146   1340   5604   5319
4   1119   1179   5532   1482
4   1095   1097   1197   5782
4   5693   1118   1571   1119
4   1646   2564   2565   1571
4   1142   1347   1338   5400
4   1587   1145   1123   1599
4   1243   1234   1550   1548
4   1142   1364   1347   5400
4   1116   1462   1224   1461
4   1128   1278   6713   6712
4   1135   1037   1145   1607
4   1269   1121   1116   2847
4   4422   1096   1154   1151
4   1120   1457   1211   2847
4   1155   1375   4455   2563
4   1146   1452   1329   3029
4   1133   1735   1730   1729
4   1153   3564   4918   1380
4   1146   5604   1469   5319
4   1126   1145   1135   1157
4   1146   1154   1107   1329
4   1064   1074   5212   1066
4   1151   3646   2907   1102
4   1135   1126   1046   1594
4   1151   1218   1102   1246
4   1439   1392   6222   5266
4   6527   1164   4552   1170
4   5550   1537   1574   5076
4   1176   1383   5934   1306
4   4586   4413   1140   1653
4   1159   1115   1391   6780
4   1427   4133   1428   5831
4   1536   1537   1574   5550
4   6038   5831   1427   6350
4   1294   1167   3919   3461
4   1607   1126   1135   1594
4   3131   5212   1066   1636
4   6268   1622   1059   5212
4   1135   1049   1608   1046
4   1093   1036   1094   1042
4   1146   1335   2925   3149
4   1493   3066   1183   3647
4   1625   1125   1630   1619
4   5212   1059   6268   1663
4   1154   1173   1454   3735
4   1064   1090   1663   5212
4   1108   1317   2936   1315
4   1108   3091   4012   1330
4   1171   2454   1298   5474
4   1154   1415   1107   1329
4   1138   1359   6091   1403
4   1136   1133   1732   1731
4   1237   3366   1188   1751
4   1148   5263   1206   2772
4   6715   1130   6713   1162
4   1162   1132   1128   1148
4   1136   1711   1733   1531
4   1618   1637   3729   1070
4   1158   1361   1344   6533
4   1146   1121   1340   1120
4   1168   1508   1512   1522
4   1166   1442   4903   3503
4   1110   1166   3503   1106
4   1645   4772   1014   1557
4   1554   1061   1564   4772
4   1085   1644   6374   1015
4   1162   1205   6713   1213
4   1666   1632   1057   5035
4   3886   1615   1633   1632
4   1628   6267   1663   1051
4   2967   2668   1606   4973
4   1072   1666   1664   1057
4   1666   3887   1632   5035
4   1664   1057   2669   1072
4   1123   1017   1029   1573
4   1539   1122   1585   1025
4   1069   1131   1030   1140
4   1165   1058   1055   1625
4   1164   1259   1110   1258
4   1068   3729   1160   4335
4   1125   1133   1131   1165
4   1723   1165   1746   1495
4   1135   1608   1604   1037
4   1186   4335   1190   1545
4   6350   1167   1287   1286
4   1062   1165   1638   1071
4   1237   1751   1746   3366
4   1114   2785   1450   1291
4   1658   1656   1638   1626
4   1139   1133   1134   1719
4   1125   1131   1002   1001
4   1125   1634   3886   1054
4   3503   1166   1110   3504
4   1133   1130   1708   1533
4   1165   1616   1638   1071
4   1156   6084   5719   1456
4   1094   1614   1539    996
4   4152   1008   1011   1579
4   1194   1121   1116   1269
4   6527   1170   1163   1164
4   1094   1614   1042   1539
4   1120   1404   1457   5319
4   1095   4719   1198   1196
4   1119   1584   1024   1566
4   1032   1095   1195    996
4   3095   3462   6527   1109
4   1094    995   1036   1613
4   1047   1600   2668   1609
4   1013   1234   1548   1550
4   1644   1015   1557   1011
4   1189    996    994   1195
4   1279   2959   1165   3366
4   1150   1166   1099   1103
4   1097   4577   4578   1189
4   1609   1199   1047   1032
4   1656   1165   1638   1062
4   1097   1585   1016   1539
4    996   1095   1195   1097
4   1097   4832   1209   1092
4   3886   1666   3887   1632
4   1147   1208   1214   3791
4   3160    994   4497   1595
4   1126   1587   1034   1594
4   1199   1047   3157   5378
4   4973   1606   1541   2669
4   1113   1112   3059   1111
4   1093   1609   1610   1042
4   4035   1639   3834   1020
4   1536   1180   1601   1145
4   1165   2959   1655   1071
4   1103   1166   4903   1150
4   1442   1166   4903   1103
4   1722   2771   1519   1524
4   1020   1576   2880   1639
4   1020   1019   2880   1576
4   2902   1008   1642   1019
4   2880   3367   1576   1018
4   1650   1649   1040   1180
4   1537   3367   1576   5076
4   5550   5076   1574   5439
4   1019   1018   2880   1576
4   1704   3565   4885   1139
4   1113   1098   1284   1411
4   1020   1019   1581   2880
4   3646   1145   5550   1102
4   1547   1579   6751   1006
4   1011   1557   6362   1006
4   1026   4577   1028   1565
4   2663   1107   3029   1307
4   1097   3788   1092   2045
4   1288   1155   1426   1098
4   1108   1313   4699   1285
4   1107   1415   1323   1329
4   1553   1558   1562   2576
4   1562   2576   1549   1646
4   6751   1006   1645   1549
4   4832   1119   4577   1097
4   1562   2576   1646   6244
4   1645   1557   1014   1006
4   2576   1558   1645   4772
4   1118   1568   1122   1017
4   1124   1668   1667   2668
4   4973   1606   2967   1541
4   1019   2880   1018   1096
4   1142   1158   1109   1129
4   1141   2045   4028   1451
4   2902   2880   1581   1019
4   1019   1642   1580   1008
4   1025   1122    995   1539
4   1208   1148   2772   1207
4   1580   3735   1579   1642
4   1053   1666   3886   1633
4   1127   4374   1007   6014
4   4152   1011   1008   1561
4   1186   4586   1187   1545
4    999   1140   1546   1653
4    999   1653    997   4859
4   4885   1231   1500   1713
4   1060    999    997   4859
4   1121   2609   1194   4423
4   1107   1137   1322   1415
4   1108   1111   1114   1104
4   1055   1125   1619   1001
4   1230   1115   4332   1157
4   1491   4585   1188   3565
4   2845   1617   1629   5235
4   1714   1136   6268   1724
4    998    999   1140   1546
4   1100   1434   1101   5248
4   3565   1139   4583   4413
4   1034   1004   1542   1132
4   1493   3647   1728   3066
4   1102   1145   5550   5076
4   1493   3647   1183   3065
4   3065   3647   1728   1493
4   1123   1599   1540   1572
4   1183   6268   1744   1714
4   1148   1147   2772   1162
4   1596   4070   1180   1649
4   1168   1203   1192   1717
4   1518   1737   1521   1232
4   1134   1716   1708   1527
4   1135   1591   1037   1604
4   1134   1701   1529   1528
4   1713   1139   4885   1231
4   1180   1145   1152   1593
4   1102   3367   1145   5076
4   1130   1216   6058   1227
4   1134   1719   1529   1713
4   1137   1322   1415   2730
4   1000   1125   1065   1001
4   1134   1227   1130   6059
4   1116   1194   1462   1193
4   1529   1726   1134   1713
4   1726   1232   1518   1701
4   1159   1180   1145   1152
4   1033   5439   1589   6140
4   1151   1218   4422   3367
4   1177   1021   1571   1563
4   1726   1478   2776   1485
4   1125   1136   1732   1515
4   1153   1272   1380   1274
4   1115   1100   1156   1126
4   1468   3620   5354   2503
4   1107   5449   2663   1323
4   1325   2541   1257   1255
4   4585   1139   4583   3565
4   1139   1707   1495   1729
4   1165   1069   1000   1616
4   1651   1597   3074   1087
4   1109   1362   2925   1345
4   1168   1712   1203   1720
4   1165   3729   1070   1655
4   1119   1577   1571   1021
4   1129   4181   1350   4740
4   1168   1712   1526   1727
4   1147   1214   3602   1221
4   1142   1361   1357   6443
4   4363   1514   6268   1515
4   3602   1162   6794   1206
4   1203   1720   1717   1168
4   6112   1513   1681   1483
4   1113   1098   6429   1284
4   1113   3398   1271   4810
4   1144   4061   1182   1241
4   6373   1644   1011   1015
4   1128   3193   4421   1205
4   1099   5268   5240   3442
4   1143   1124   1048   1093
4   1129   4740   1353   5268
4   1168   1533   1497   1522
4   6112   1706   1498   1216
4   4152   1642   1008   1579
4   1161   1665   1239   3065
4   1147   1525   1727   1709
4   1133   1721   1716   1504
4   1147   1168   1203   1162
4   1134   6059   5719   1484
4   1165   1516   1735   1723
4   1215   1717   1517   1505
4   1511   4340   2757   1479
4   1147   1214   2771   3791
4   1168   1720   1508   1712
4   4183   6715   1130   6713
4   1479   1720   1511   4575
4   1158   1258   6642   1343
4   1162   1147   2772   3602
4   1141   6342   4719   1248
4   1130   1217   1535   1168
4   1518   2776   1737   1232
4   1142   4426   1355   1339
4   1129   4421   1319   1350
4   1171   1270   1308   1264
4   1164   1153   1110   1259
4   2633   2541   3613   1325
4   1132   1128   1130   1162
4   1325   2541   3613   1257
4   1045   1034   1132   1603
4   2541   3613   1257   3361
4   1147   1718   1238   1722
4   1062   1620   1626   1656
4   1147   1712   1738   1479
4   1638   1626   2804   4889
4   3366   1495   1188   1751
4   1168   1161   1727   1136
4   1139   1165   1133   1729
4   1625   3131   1630   1125
4   1660   1625   3131   1066
4   1638   1067   4889   2804
4   1165   1638   1616   1058
4   1659   5235   2804   1067
4   1171   3338   1389   2199
4   1172   4824   1410   1171
4   1120   2872   1210   1457
4   1643   2576   4772   1558
4   1171   5265   3504   1399
4   1559   1562   1563   1646
4   1119   1584   1565   1024
4   1171   1266   2199   1388
4   1176   4877   1431   4878
4   1137   1318   3920   1310
4   1013   1563   1021   1177
4   1153   1268   1265   1259
4   1172   1384   5468   1460
4   1460   1172   1171   5468
4   1171   2199   1389   1460
4   1410   3339   1171   6117
4   1116   1461   1209   1482
4   1142   1364   5400   1469
4   1142   1339   1352   1248
4   1110   1258   1259   1342
4   1139   3565   1491   1490
4   1176   1384   1402   6658
4   1162   1213   6713   6715
4   1150   1407   1376   1368
4   1172   1384   1460   1402
4   1137   1324   1333   2655
4   1154   3920   1455   1454
4   1161   1162   1147   1148
4   1448   4027   1400   2594
4   1392   5921   1255   2541
4   1171   5468   2199   1460
4   1163   5689   6035   1448
4   2105   2503   2594   4027
4   1103   1100   1101   1156
4   1348   1105   1418   2594
4   1163   1354   1398   1250
4   1448   5689   2503   2594
4   1176   1444   1167   1174
4   1165   1065   1063   1000
4   1163   1418   1398   1416
4    997   4859   1652   1060
4   1163   1109   2569   3095
4   1730   1735   1133   1732
4   1112   5345   5835   1422
4   1140   4584   5726   1236
4   1136   1530   1532   1531
4   3091   1138   4012   4429
4   2879   1297   1428   5831
4   2879   1428   4133   5831
4   1142   1144   1356   1129
4   3565   1750   1491   2715
4   4133   2879   3487   1424
4   1152   1593   1596   1180
4   4318   1546    997   1597
4   1107   1395   3317   2570
4   1176   5938   6402   1275
4   1170   1441   1397   1440
4   1165   1065   1058   1063
4   1128   1130   1278   1129
4   1129   4740   1350   1341
4   1147   3791   1240   1208
4   1170   5497   4998   3680
4   4028   1097   1120   1210
4   1161   1709   1727   1532
4   1171   1153   3337   1388
4   1147   3791   1239   1240
4   1338   1142   1120   1451
4   1146   1115   1106   1107
4   2948   4584   1235   1134
4   1712   1720   1511   1479
4   1125   6267   1622   1054
4   1161   1240   1239   1665
4   1129   1356   5523   5239
4   1167   1149   1175   1150
4   1523   1147   1161   1709
4   1167   1294   5454   3461
4   1095   5782   1197   1196
4   1120   1457   1404   2872
4   1097   1119   4577   1565
4   1133   1708   1134   1716
4   1174   1303   1445   1286
4   1174   1445   1467   1373
4   1174   1467   1445   1303
4   1122   1094   1538    995
4   1174   1286   1289   1303
4   1138   1435   1405   1184
4   1286   1289   6038   1174
4   1174   1467   6863   1369
4   1176   1444   1412   4877
4   4848   1445   1373   1467
4   1348   1421   1105   1104
4   1174   6863   1467   1303
4   1146   1142   1469   2925
4   1176   6402   1446   1383
4   4848   1445   1444   1373
4   1149   4903   3190   3504
4   1142   1158   1331   5025
4   4917   1153   4918   1381
4   4734   1153   1273   3337
4   1166   1099   4742   1150
4   1129   1319   4023   1225
4   1153   1381   3061   3093
4   1172   5468   3061   1388
4   1140    998   1005   1545
4   1377   5617   3588   1176
4   5468   1172   1171   1388
4   1167   1149   1150   6773
4   1176   1167   4877   4878
4   1298   2454   1413   5474
4   1387   1175   1149   4836
4   4584   1235   1134   1140
4   1167   1175   3461   1368
4   2963   1100   3442   1130
4   1170   1393   1392   2541
4   1174   1374   1369   1304
4   1174   1372   1373   4319
4   1174   1373   1369   4319
4   1163   2569   1354   3096
4   1109   3639   1363   2568
4   1171   5266   1298   6222
4   1148   1240   1208   1147
4   1129   4023   1319   4421
4   1145   1592   1537   1540
4   1171   1298   2454   4261
4   1171   1264   1308   1257
4   1142   3188   1338   1347
4   1136   1711   1133   1731
4   1142   1357   1347   6443
4   1164   3504   5265   5686
4   1713   1139   1704   4885
4   1124   1665   1053   1664
4   1175   1167   1150   1368
4   1151   3643   2907   3646
4   1142   1337   1248   4065
4   1179   1119   5693   1021
4   1142   1338   3188   4065
4   1098   1112   3059   1113
4   1163   6035   5686   1261
4   1147   1238   3791   2771
4   1174   1303   1289   6863
4   1104   1106   4850   1098
4   1155   1112   1305   1438
4   1143   1094   1036   1613
4   1108   1423   1326   1330
4   1109   2568   2569   3639
4   1137   1312   1327   1324
4   1095   4719   1141   6342
4   1098   1106   1156   1115
4   3886   1053   1633   1635
4   1129   1158   6643   5289
4   1152   4860   1181   4070
4   1151   1115   1107   1114
4   1146   1307   1363   3029
4   3886   1628   1615   1051
4   1114   1244   3099   1314
4   1106   1129   1100   1115
4   1174   1167   1294   5454
4   1154   1107   1415   1137
4   1118   1122   1123   1017
4   1116   1211   1210   1461
4   1156   1371   6770   6507
4   1107   1328   1108   3317
4   1106   1129   1146   1109
4   1163   4419   3096   1250
4   1207   1240   1208   1148
4   1137   3645   1318   1310
4   1170   5686   5265   1261
4   1137   1316   1318   3645
4   1137   1317   1316   3645
4   1107   5449   1328   3317
4   5376   1255   1256   2635
4   1154   2404   2730   2383
4   1154   2378   2404   2383
4   1170   1378   1336   6527
4   1171   5474   3338   2454
4   1137   1324   2655   1316
4   1146   2821   1329   1452
4   1251   5376   1256   5377
4   1171   5266   5265   1399
4   1171   1298   1410   6117
4   1174   1377   5617   1372
4   1174   1290   1464   1304
4   1406   4848   1444   4238
4   1151   1218   1311   1310
4   1149   3190   6773   3191
4   1175   3919   4595   3649
4   1176   1385   1386   4091
4   1153   1172   3061   1388
4   1167   4877   4878   1287
4   1176   5207   5938   1384
4   1101   1376   1433   6532
4   1153   5937   4904   3093
4   1155   6448   1409   1408
4   3442   1100   1281   1099
4   1174   5617   1444   1373
4   1171   5474   1389   3338
4   1155   1375   5206   4455
4   1112   5451   2624   3167
4   1155   1438   1305   1432
4   1155   1422   1297   5831
4   1108   1326   5562   1330
4   1104   1468   1425   3620
4   1155   1169   5206   1288
4   1104   2418   4850   2858
4   6644   1300   1113   5451
4   6780   1115   6786   4861
4   1145   1537   1536   5550
4   1169   1155   1426   1288
4   1290   3601   1169   1155
4   1157   4333   4332   1229
4   1157   1156   1212   1134
4   1104   2570   3620   1348
4   3620   1425   2503   1468
4   1419   5354   1468   1458
4   6267   6268   1714   1136
4   1424   1428   4133   2879
4   1116   1209   1210   1097
4   1115   6786   4332   1253
4   1108   1291   1313   1114
4   1495   1188   1160   1279
4   1137   1327   1312   5562
4   1108   1330   1332   1423
4   1174   1304   3601   1290
4   1103   4019   4850   1426
4   1155   1432   1295   1408
4   1103   1169   6507   1150
4   1167   1169   6311   1174
4   2105   1348   2594   2503
4   1101   6030   5248   1434
4   1105   5689   1348   1425
4   2594   2503   1348   5689
4   1105   1348   1418   1421
4   1106   1110   1099   1129
4   1004   1126   1132   1034
4   1155   1375   1288   5206
4   1174   6311   5454   5678
4   1149   6773   3190   4903
4   1138   1330   4011   1332
4   1154   2730   2404   1455
4   1167   5454   1174   6311
4   6411   1112   6068   5125
4   1121   6879   4423   1193
4   1101   1433   1434   6113
4   1142   1362   1364   2925
4   1107   3029   1329   2663
4   1103   4850   4019   1442
4   6112   1220   1681   1706
4   1155   4455   6448   1295
4   1146   1365   3029   1363
4   1176   5934   1174   1294
4   1169   1174   1290   1464
4    999   4586   1140   1653
4   1149   1167   1175   1387
4   1153   1268   4734   3564
4   4734   4917   1153   3564
4   1466   1263   1270   1267
4   3337   1270   1273   6466
4   1133   1134   1719   1528
4   1108   1249   1313   1285
4   1468   1138   1458   1104
4   1156   5136   1157   1299
4   4734   1273   4917   6466
4   1110   1262   1265   1353
4   5400   1120   1469   5319
4   1420   3059   1422   5345
4   1155   6350   1169   1426
4   1111   1113   1104   3059
4   1036   1143   1048   1093
4   1609   2668   1093   1600
4   1112   1305   1438   1382
4   1420   1422   4908   5345
4   1110   1265   1262   1259
4   1108   3098   1249   1315
4   1430   1111   1437   1429
4   1176   1167   3191   1149
4   1101   1433   6113   4742
4   3337   1270   1388   1273
4   1257   3238   3361   3613
4   1267   1263   1270   6466
4   1094    995   1612   1538
4   1583   1118   1119   1571
4   1134   1130   1227   1498
4   1120   1457   2847   5319
4   1145   1096   1121   1123
4   1114   1247   3098   2936
4   1712   1203   1479   1147
4   1140   3681   1152   4321
4   1645   1014   1558   1006
4   5562   1108   1137   1328
4   1271   1450   1291   1113
4   1327   2979   1312   5562
4   1108   5562   2979   5563
4   1107   1323   1320   5449
4   2378   2396   1121   1154
4   1137   1324   1316   1312
4   2418   3059   1349   1104
4   1108   1114   1249   3098
4   1207   1242   1148   5263
4   1144   1241   1182   6211
4   1168   1192   1213   6715
4   1137   2936   3645   1311
4   1348   1425   5689   2503
4   1140   1152   1588   4321
4   1212   1156   6084   5719
4   1154   1455   1223   1454
4   1401   1170   1261   1163
4   1108   1137   1312   5562
4   1108   5562   3091   1330
4   4152   2902   1561   1008
4   1641   2902   1561   4152
4   1121   2378   1154   2609
4   6362   6751   3032   1579
4   1145   1536   1592   1038
4   1116   1211   1224   2847
4   4034   2880   1020   1581
4   1146   1105   1421   1107
4   1137   1310   1311   3645
4   1123   1573   1580   3735
4   1222   1223   1154   2396
4   4180   1560   6373   1641
4   1107   1137   1328   1320
4   1145   5550   6140   3646
4   6751   1647   1547   1549
4   4152   1579   3032   3735
4   3735   3032   1118   1582
4   2821   1121   1146   1154
4   3646   1159   1145   1391
4   1137   1318   1455   3920
4   1564   1644   4772   1555
4   1154   3735   1454   1222
4   1154   3920   4422   1310
4   1137   1333   1322   2730
4   6373   1561   1641   1560
4   1158   3005   1362   3462
4   1154   1455   1137   2730
4   1147   1525   1709   1523
4   1154   3920   1173   4422
4   1108   2973   2974   5563
4   1121   4423   6879   2396
4   1116   1269   1224   1194
4   1443   1255   1260   6222
4   2396   1223   1154   2378
4   1122   1119   1097   1585
4   1137   1333   1324   1321
4   1123   1599   1572   1538
4   1150   4019   6773   4903
4   1105   2858   3503   6035
4   1122   1025   1029   1568
4   4429   3091   4698   2974
4   1147   1525   1712   1727
4   1311   1247   1151   2936
4   1123   1029   1538   1572
4   1291   1111   1114   1108
4   1108   2974   3091   5563
4   1168   1526   1712   1508
4   1138   4011   1458   1332
4   1317   1137   1312   1108
4   3472    994   1041   1032
4   1505   1503   1215   1717
4   1128   6555   1162   1148
4   4699   1138   1277   1313
4   1138   5536   5535   1405
4   6211   1144   1148   1182
4   1108   1285   2973   1249
4   1148   1124   1093   2668
4   1136   1530   1715   1532
4   1137   1316   1317   1312
4   1147   1148   2772   1208
4   1240   1664   1148   2917
4   1128   2682   3193   6555
4   1171   1392   6222   4261
4   1351   6342   1144   1352
4   1171   4824   1410   1298
4   1153   1274   1099   1272
4   1147   1525   1519   1738
4   1200   4465   1095   1199
4   1108   5562   5563   3091
4   1121   1146   1154   1151
4   1121   1116   1122   1118
4   1655   3729   1070   1618
4   1133   1729   1707   1139
4   4887   1658   1486   1746
4   1165   1660   1625   3131
4   1135   1140   1005   1030
4   3442   1099   5268   1129
4   1097   4832   4578   4577
4   1119   1021   1022   1577
4   1119   1127   1022   1233
4   1144   5264   1201   1226
4   1143   1612   1613   1050
4   4577   1473   1570   1127
4   5216   1127   1007   1570
4   1141   1360   4065   1248
4   1189   1472   4497   1567
4   1151   1137   2936   1114
4   1537   1574   5076   1576
4   1115   1463   5136   1156
4   1143   1603   1050   1048
4   1121   1120   1146   1122
4   1129   1356   5239   1225
4   1134   2948   1231   4884
4   1152   4070   1181   1180
4   1105   1163   1417   1418
4   1140   1135   1152   1157
4   1245   1114   2761   1411
4   1596   1649   1035   4070
4   1163   1448   2594   5689
4   1163   5689   1105   6035
4   1343   1258   1164   1158
4   1109   2569   1345   3639
4   1170   1441   1439   6531
4   1163   6035   3503   5686
4   1132   1045   1542   1034
4   1123   1145   1122   1121
4   2600   3613   3238   1308
4   1109   3462   1362   1345
4   1174   1374   1304   1464
4   1150   1185   1367   1407
4   1505   1480   1215   1502
4   1064   1090   2072   1663
4   1053   1665   1666   1664
4   1136   1734   1715   1530
4   1171   1266   1264   3338
4   1064   1636   1066   5212
4    999   4586   1653   4859
4   4318   1546   1653    997
4   4318    997   1653   4854
4   1653    997   4859   4854
4    999    997   1653   1546
4   4335   1160   1068   1187
4   3366   1165   1746   1658
4   1470   6266   1012   1556
4   1549   1571   1563   1646
4   1422   1155   6350   5831
4   1427   3730   5508   4133
4   1444   3588   4238   5617
4   3032   1579   1582   3735
4   1442   1106   1105   3503
4   3918   4742   1153   3563
4   1645   1549   2576   6751
4   6362   1011   1579   4152
4   1562   1549   1563   1646
4   1153   3918   3563   6400
4   1139   1160   1068   1070
4   1582   1118   3735   1573
4   1121   3735   1222   3032
4   1106   1105   1109   1146
4   1110   1342   1158   1258
4   1134   1726   1232   1485
4   1129   1350   4181   6712
4   1219   1215   1502   1217
4   1154   1329   2821   1415
4   3601   6448   1155   1290
4   1166   1106   1103   1442
4   1140   1152   3681   1157
4   1146   1145   1143   1115
4   1382   1305   6068   1112
4   1133   1134   1528   1716
4   1135   1607   1594   1608
4   6610   1100   1456   1156
4   1427   1286   3730   6038
4   1125   1622   1630   1621
4   1125   3131   1630   1622
4   1125   1621   1619   1001
4   1176   3588   1377   5891
4   3886   6267   1161   1125
4   6140   1159   1145   3646
4   1174   1377   1372   5934
4   1112   1382   6411   6068
4   1622   3131   1630   1636
4   1219   1502   1480   4424
4   1125   1516   1165   3131
4   1121   1145   1146   1151
4   1174   1369   6863   1304
4   4363   5212   3131   1622
4   1219   1502   4424   1752
4   1164   5686   3503   3504
4   3096   1378   4419   1163
4   3564   4917   1153   4918
4    923   3131   1074   1066
4   1658   1165   1746   1509
4   1516   1661   2978   1509
4   4885   1236   4584   1139
4   1110   1262   1158   1342
4   1168   1133   1136   1497
4   1156   1371   6084   1456
4   4742   1175   3918   1153
4   1154   1121   1096   3735
4   1059   1054   6267   1623
4   1628   6267   1059   1663
4   1628   1059   6267   1623
4   1136   1530   1733   1734
4   1274   1153   1099   1280
4   6400   3650   3563   1153
4   1120   1457   1210   1211
4   1142   1357   6224   4426
4   1153   3365   1274   1380
4   1199   4465   1095   1241
4   1153   1099   1110   1265
4   1141   1197   2919   4719
4   1144   1356   1129   1225
4   1167   1169   6350   6773
4   1153   1099   1265   1272
4   1153   1381   4917   1273
4   1143   1050   1613   1036
4   1340   1120   5319   1146
4   1171   4261   1264   1257
4   1273   4734   4917   1153
4   1460   1402   6658   3339
4   1167   1176   1387   1149
4   1171   1172   4824   1399
4   2847   1269   1224   1116
4   1105   2858   4850   1442
4   1121   1123   1096   3735
4   1498   6112   1227   1483
4   1145   1601   1593   1180
4   1123   1587   1599   1538
4   1157   4333   1299   5136
4   1140   1139   1236   4413
4   1031   1544   1124   1048
4   1168   1130   1133   1533
4   1125   1634   1054   1002
4   1144   4465   4061   1241
4   1166   1150   1149   4903
4   1171   4261   3338   1264
4   1153   1366   1280   1274
4   1171   3361   1170   2541
4   1144   5378   1241   6211
4   4261   1260   1255   6222
4   1144   6211   2668   5378
4   1144   1202   1198   6342
4   1146   1363   1109   1335
4   3157   5119   1047   1041
4   1121   1154   1222   3735
4   1031   1048   1124   1602
4   1072   1541   1057   2669
4   4261   1298   2454   1260
4   1171   1257   2541   4261
4   1093   1095   1094   1143
4   1142   1338   4065   1451
4   1128   3193   4023   4421
4   1101   1156   6770   1150
4   1131   1001   1542   1002
4   1168   1136   1133   1162
4   1132   1143   1124   1048
4   1148   1143   1128   1144
4   1439   1441   1396   6531
4   1392   6222   5376   1439
4   6100   3335   2635   5376
4   1170   2541   3361   1393
4   1134   1528   1716   1527
4   1121   2396   2378   4423
4   1128   1129   4421   4023
4   6222   5376   6100   1255
4   1260   2453   1255   6081
4   1124   1634   1031   1053
4   1168   1512   1535   1534
4   1128   1205   6712   6713
4   1140   1591   1590    998
4   1651   1588   1546   1597
4   1134   6059   1156   5719
4   2635   1255   1443   6100
4   4586   4859    999   1186
4   1596   1649   1180   1040
4   1155   1432   1305   1295
4   3157   1471   5119   1041
4   1605   2668   5378   1047
4   1426   1103   1098   4850
4   5216   1473   1570    924
4   1112   1382   1438   5451
4   1020   1639   3834   1576
4   1576   2880   1639   5076
4   1152   1159   1181   6780
4   1576   2880   5076   3367
4   1019   1096   1018   1580
4   1123   3735   1580   1096
4   1169   6350   4019   1426
4   1143   1587   1126   1145
4   3735   1096   1642   1580
4   3735   1580   1579   1582
4   6373   1560   1011   1561
4   1150   1103   4019   4903
4   1111   1138   2427   6535
4   3237   3361   3652   1170
4   1163   1378   3095   3096
4   1560   1640   1641   5391
4   1550    914   6266   4826
4   1401   1250   1397   1163
4   1110   3504   1164   3503
4   2870   1548   1243   1550
4   1019   1580   1642   1096
4   1158   3269   6533   1344
4   1411   1115   1245   1114
4   1142   1158   1361   3005
4   1643   1554   1558   4772
4   1170   4998   1397   1441
4   1640   4034   1581   1561
4   1170   1378   5497   1336
4   1170   1336   5497   3680
4   4318   1597    997   3074
4   1651   5726   4318   1546
4   2105   5354   1348   2503
4   1165   1509   1516   1723
4   1167   6773   6350   1302
4   1515   1734   1724   1136
4   6038   5831   3487   4133
4   1169   1174   6038   1409
4   1660   3131    923   1066
4   1100   6058   1130   1453
4   1165   1058   1616   1063
4   1163   1418   1416   1417
4   1104   2570   1332   3620
4   1155   2563   4455   1295
4   1436   3398   1111   3167
4   1111   1437   1436   3167
4   1235   1157   1134   1140
4   1165   1638   1058   1631
4   1420   1428   4908   1422
4   1161   1147   1727   1709
4   1155   1426   1422   6350
4   1112   5345   1437   2624
4   1155   1432   5835   1438
4   1661   1165   1660   1631
4   1161   3065   1714   6267
4   3886   1124   1665   1053
4   4908   1297   1422   1428
4   1207   1148   1668   1240
4   3059   1430   1437   5345
4   1439   1396   6100   6531
4   1735   1133   1732   1125
4   1444   1174   1286   1167
4   1622   6268   1125   4363
4   1125   1515   4363   6268
4   1152   4861   4860   1230
4   3366   1279   1495   1165
4   5345   1420   3059   1430
4   5831   2879   3487   4133
4   1133   1134   1708   1130
4   1155   1297   5835   1432
4   1133   1520   1494   1730
4   1496   1501   4340   4575
4   1392   5376   6222   1255
4   1168   1508   1717   1503
4   1468   5354   1419   5355
4   1168   1720   1717   1508
4   1143   1124   1093   1148
4   1531   1168   1727   1136
4   1420   1394   1430   5345
4   1126   1046   1594   1034
4   1717   4575   1496   1720
4   1168   1162   6715   1213
4   1162   1168   1203   1213
4   1155   1098   1288   5125
4   1168   1717   1192   1215
4   1139   1165   1729   1495
4   1155   1112   1438   5835
4   1176   4877   1167   1444
4   4741   4742   1175   3918
4   1150   1156   6770   6507
4   1168   1215   6715   1217
4   1169   1174   3601   1290
4   1168   1503   1512   1508
4   1192   1215   1717   1517
4   1147   1519   1525   1523
4   1167   1175   3919   3461
4   1169   4019   6350   6773
4   2757   2755   1738   1221
4   1363   2568   1358   1109
4   1100   1281   1453   2963
4   1113   6644   4810   1309
4   1100   1281   2834   1453
4   1151   1137   1310   1311
4   1155   5206   1290   4455
4   2668   1148   1144   1093
4   1484   1232   1521   2908
4   1176   1402   1431   6458
4   1107   2548   1252   1421
4   1302   4878   5508   1287
4   1407   1368   1150   6311
4   1172   1282   1431   1402
4   3065   1487   1702   1728
4   1487   3647   1728   3065
4   1714   3065   1710   1493
4   1714   3065   1183   6267
4   1100   1126   1115   1129
4   1359   5351   3185   1403
4   1138   1405   5535   1184
4   1411   1113   1098   1114
4   1104   1425   1105   1348
4   1129   1110   1353   1158
4   1332   1104   3620   1458
4   1094   1539   1042   1036
4   1144   1201   5264   4061
4   5535   4429   1403   1138
4   1108   4698   3091   2974
4   1142   1158   6533   1361
4   1155   2563   1295   1305
4   1349   1111   1430   6535
4   1163   3096   3095   2569
4   1168   1133   1130   1162
4   1144   1202   4465   1198
4   1148   2772   1207   5263
4   2594   1105   1418   1163
4   6531   3335   6100   5376
4   1144   5264   1182   4061
4   6411   1113   6429   1300
4   1586   1611   1602   1124
4   1093   1042   1602   1036
4   1153   3365   4918   3650
4   1109   1164   3503   1110
4   1140   1139   1134   4584
4   6211   1668   1148   2668
4   1169   6311   1150   1167
4   1165   1729   1723   1735
4   3919   1176   1387   1167
4   5891   1465   1176   3588
4   1176   1447   1385   6458
4   1168   1534   1533   1512
4   1098   1426   1112   1155
4   1100   6058   1434   5248
4   1176   6402   1306   1275
4   1130   1534   1706   1708
4   1176   6402   5938   4091
4   1176   5938   4904   5937
4   1149   1387   4904   1176
4   1156   1157   1212   1299
4   1100   2834   1101   1434
4   1100   1453   2834   6058
4   1168   1130   1533   1534
4   1668   1207   1242   1148
4   1141   1120   1142   1451
4   1588   1140   1591   1152
4   1144   1202   6342   1351
4   1156   1103   1301   6507
4   1182   1144   1148   5264
4   1093   1036   1602   1048
4   1148   5264   1226   2682
4   1151   1102   2907   1246
4   1144   1201   1351   1225
4   1095   1196   1198   1200
4   1146   2821   1452   6690
4   6362   6373   1011   4152
4   1121   4423   2378   2609
4   1562   1558   1549   2576
4   1154   2609   2378   2383
4   1168   1727   1147   1712
4   1133   1520   1731   1711
4   1109   3639   1335   1363
4   1135   1049   1046   1030
4   1169   6505   1464   5206
4   5617   1174   1176   1377
4   1176   1167   4878   3191
4   1220   1216   1706   6112
4   1125   1165   1055   1625
4   1176   1386   1447   1465
4   1130   1278   2963   4183
4   1281   1099   2786   3442
4   1100   1156   1134   6059
4   1106   1115   1100   1156
4   1593   1180   1601   1040
4   4848   1444   4238   5617
4   1176   5938   5207   4091
4   5207   6658   1176   1385
4   1142   2925   1364   1469
4   1109   1345   2925   3639
4   1171   3337   1153   1254
4   1171   1172   3339   1410
4   1105   2858   1442   3503
4   1651   1043   1087   1654
4   1125   1621   1002   1622
4   1468   1111   1104   1349
4   1114   1113   1098   1104
4   1145   5076   1537   5550
4   1146   1363   3149   1365
4   6535   2427   1429   1414
4   1352   1142   1144   1356
4   1546   4321   1588   1651
4   5351   1419   6535   1458
4   1173   4422   1096   1154
4   2503   3620   5354   1348
4   1033   1180   1601   1536
4   1130   1132   1126   1128
4   1171   6117   5474   1298
4   1171   6117   1389   5474
4   1040   1589   1650   1180
4   1145   1038   1037   1601
4   1108   1137   2936   1317
4   1033   4738   5439   1575
4   1140   4321   5726   3681
4   1104   1107   2570   1252
4   1137   2730   1455   1333
4   1121   1118   3032   6879
4   1107   1395   2663   5449
4   1134   1212   4884   1232
4   1130   1278   4183   6713
4   1519   1524   2771   1221
4   1702   1718   1487   1161
4   1217   1168   1130   6715
4   1493   1183   3066   3220
4   1108   4698   2974   1285
4   1112   6411   1098   5125
4   1348   1425   2503   3620
4   1147   1221   2771   1214
4   1435   1436   1111   1405
4   1108   1317   1315   2979
4   1458   1419   6535   1468
4   1155   1375   2563   6068
4   1114   1249   1314   1313
4   1246   2907   1151   1247
4   1170   1117   5266   1439
4   2635   5377   1256   5376
4   1255   5376   6100   2635
4   1260   2453   1413   2454
4   1726   1231   1478   1485
4   1260   1298   2454   1413
4   1535   1502   1503   1217
4   6081   1443   2635   1255
4   2635   5376   3335   5377
4   1498   2909   1483   2908
4   1498   1216   1227   6112
4   1125   1124   1161   3886
4   1146   1154   1329   2821
4   1126   1587   1603   1034
4   1134   1232   1726   1701
4   1131   1004   1542   1001
4   1163   1109   1416   2569
4   1156   1299   6084   1296
4   1498   2908   1484   1521
4   1175   3649   4741   3918
4   1136   1531   1532   1727
4   1156   1103   1150   1101
4   1147   3602   1479   1221
4   6715   1168   1130   1162
4   3337   6466   1267   1270
4   1171   4824   5266   1399
4   1174   1467   1369   1373
4   1128   6555   3193   1205
4   1172   1282   1402   3339
4   1176   1172   1384   5937
4   1176   6658   1402   6458
4   1167   1149   6773   3191
4   6555   1148   1128   2682
4   1624   1666   1632   1057
4   1738   1221   2755   1519
4   1153   3061   1381   1273
4   1176   5937   1384   5938
4   3093   1153   4836   4904
4   1176   6402   1383   1306
4   1164   1158   3269   1343
4   1153   1259   3337   1268
4   1238   1722   3370   2771
4   1161   1506   1710   1702
4   1150   1175   1368   6532
4   1172   2780   1399   3504
4   1161   1709   1532   1715
4   1175   1387   3649   4836
4   1174   5678   1374   1464
4   1153   3093   4836   6400
4   1176   1174   5934   1377
4   1206   1148   1162   6555
4   1299   1156   6084   1212
4   1187   1139   4586   4583
4   4332   1463   5136   1115
4   1000   1131   1030   1069
4   1503   1217   1502   1215
4   1168   1203   1213   1192
4   1156   1101   6610   1100
4   1156   1296   6084   1371
4   1163   5689   2594   1105
4   6532   1101   1150   4742
4   1156   6610   6770   1371
4   1174   1304   6863   3601
4   1097   1209   1210   4028
4   1487   1702   6737   1488
4   1161   1718   1487   1147
4   1163   1105   3503   6035
4   1540   1580   1096   1123
4   1146   1358   1363   1307
4   3647   1728   3066   6737
4   1724   1136   6268   1515
4   1107   1252   1395   2570
4   1114   1314   1249   3098
4   4742   1166   1175   1153
4   1163   1109   1105   1417
4   1418   1105   1421   1417
4   1125   1165   1735   1133
4   1238   3370   1722   1718
4   1170   4419   1397   5497
4   1238   1718   1487   1488
4   1168   1727   1161   1147
4   1240   1161   1148   1664
4   1417   1307   1146   1421
4   1145   1115   1157   1126
4   1130   1216   1204   1453
4   1129   1341   1319   6717
4   1129   1346   4740   1341
4   1134   1232   5719   1212
4   1238   1718   1488   3370
4   1147   1722   1523   1718
4   1732   1516   1735   1125
4   1129   1158   5289   1331
4   1722   3370   2771   1524
4   1147   1238   2771   1722
4   1125   1132   1124   1002
4   1129   1319   1341   1350
4   1161   1506   1715   1507
4   1136   1733   1530   1531
4   1136   1731   1733   1711
4   1065   1125   1055   1001
4   1168   1217   1503   1215
4   1128   1226   1225   4023
4   1706   1217   1535   1130
4   1513   1681   1483   2909
4   1094   1612    995   1613
4   1129   1346   1341   6717
4   1144   1202   1201   4061
4   1270   1263   3238   1308
4   1005   1135   1049   1590
4   1100   1130   2963   1453
4   1133   1504   1494   1520
4   1104   2418   2858   1425
4   1133   1731   1520   1730
4   1139   1131   1134   1133
4   1358   1307   1146   1417
4   1494   1133   1729   1707
4   1109   1416   2568   1417
4   1487   1728   6737   1702
4   1109   2568   1416   2569
4   1634   3886   1635   1053
4   1163   1164   3503   1109
4   1147   1718   1487   1238
4   1099   1281   6113   1101
4   1129   1350   6712   4421
4   1526   1522   1168   1531
4   1168   6715   1215   1192
4   1162   1147   3602   1203
4   1501   4575   1496   1717
4   1109   2925   1335   3639
4   2570   1332   1108   1104
4   1134   1126   1157   1156
4   1136   1733   1732   1734
4   1171   1266   1388   1270
4   1168   1533   1522   1512
4   1069   1165   1000   1131
4   1093   2668   1124   1611
4   3613   1308   1257   3238
4   1161   1709   1715   1506
4   1161   3886   1665   3065
4   1714   6268   6267   1183
4   1132   1162   1130   1125
4   2917   1664   1124   1003
4   3361   1334   2633   3613
4   1168   1503   1535   1512
4   1108   1137   1107   1114
4   1137   1317   3645   2936
4   1133   1494   1729   1730
4   1151   1107   1137   1114
4   1165   1746   1509   1723
4   1291   1108   1313   1138
4   1137   2655   1318   1316
4   1139   1134   1231   1713
4   1134   4584   1231   2948
4   1125   1162   1130   1133
4   1030   1140   1005   1069
4   1492   1178   1474   3132
4   1108   2973   5563   2979
4   1108   1138   4012   3091
4   1137   1324   1327   1321
4   1747   1744   1183   2699
4   1133   1732   1731   1730
4   1108   1138   1330   4012
4   4318    997   4854   3074
4   1651   5726   1546   4321
4   1108   1315   1249   2973
4   1108   2979   1315   2973
4   1152   1181   1159   1180
4   1139   1719   1704   1707
4   1115   1253   4332   1463
4   1115   1391   6780   1245
4   1103   1426   1169   4019
4   1151   3367   4422   1096
4   3237   3361   1164   3238
4   1167   1174   1294   1176
4   1387   1167   1175   3919
4   1175   4741   4595   6532
4   1152   1596   1593   1037
4   1135   1049   1590   1604
4   1136   1125   1133   1162
4   1652    997   3074   4854
4   1099   2786   3442   5240
4   1331   1129   6717   5289
4   1114   3099   2785   1291
4   1156   5136   1296   1301
4   1189   1026   1569   1567
4   1125   3886   6267   1054
4   1097   2045   4028   1141
4   6014   1459   4374   1548
4   1119   1482   4832   1127
4   1234   1548   1233   1013
4   1157   1299   4333   1228
4   1470   1556    914   6266
4   1144   1226   1225   1128
4   1417   1109   1146   1358
4   1106   4850   1103   1442
4   1156   1463   1098   1115
4   1097   1092   4578   4832
4   3472   1471   1041   1595
4   5268   1129   4181   3442
4   1177   1179   1021   1013
4   1156   1463   5136   1301
4   1550   6266    914   1556
4   1470   1563   1559   1556
4   1550   6266   1556   1012
4   4015   1012   6266   1550
4   1459   1243   2870   1548
4   1176   1294   3919   1306
4   1174   1373   1444   1445
4   1022   1021   1119   1233
4   1007   1233   1023   1127
4   1427   1286   6350   1287
4   1119   1568   1566   1024
4   1176   1377   1383   5891
4   1174   1373   1372   5617
4   1132   1124   1148   1125
4   1167   1287   1444   4877
4   1019   1096   1642   2880
4   3833   5439   1575   1574
4   1155   5831   6038   6350
4   1427   4133   5831   6038
4   5937   1149   4904   1176
4   1444   1174   1176   5617
4   1030   1131   1004   1135
4   1470   1556   1012   1563
4   1470   1559   1646   6244
4   1486   3366   1746   1658
4   1186   1060    999   1627
4   1132   1045   1603   1048
4   1653   4318   1236   1140
4   1165   1616   1000   1063
4   1069   1131   1139   1165
4   1107   1323   2663   1329
4   4035   1020   4034   1639
4   1171   1172   1153   1388
4   1153   3504   1171   1164
4   1171   1170   5265   5266
4   1116   1118   1119   1122
4   1153   1380   1379   3564
4   1126   1100   1156   1134
4   1153   3650   4918   1381
4   1129   6712   4181   1278
4   1116   5532   1461   1482
4   1125   1002   1131   1132
4   1121   1222   2396   3032
4   1143   1587   1612   1603
4   1143   1612   1050   1603
4   1099   1106   1100   1103
4   1037   1601   1593   1145
4   1123   1573   1572   1540
4   1131   1125   1000   1001
4   1186   1545   1627    999
4   1176   5938   1275   4904
4   1164   3237   1254   1343
4   1141   1352   6342   1248
4   1145   3367   1096   1540
4   1171   1170   1164   5265
4   1033   5550   1574   5439
4   1153   3061   1273   1388
4   3238   1308   1257   1171
4   1114   1411   2785   2761
4   1142   1357   3188   1347
4   1118   1583   1568   1017
4   1021   1119   5693   1571
4   1646   1571   1563   1177
4   1097   4578   1092   3788
4   1548   1233   1013   1023
4   3160    994   1195   1189
4   5025   1158   6533   1142
4   1139   1545   1187   4586
4   3442   1130   1278   2963
4   1153   1265   1268   1379
4   1095   1200   1195   1196
4   1142   3005   1362   1158
4   1141   1142   1144   1352
4   1119   1565   1585   1024
4   1142   3005   1361   6443
4   1095   1614    996   1032
4   1109   3462   1345   3095
4   1121   2609   1154   2821
4   1158   1262   1353   6643
4   1549   1647   1547   1571
4   1225   1128   1129   1144
4   1166   4903   3504   3503
4   1050   1036   1143   1048
4   1018   1540   1580   1096
4   1123   1572   1573   1029
4   1162   1213   6794   1205
4   1153   3365   1366   1274
4   1116   1210   1209   1461
4   1094   1036    995   1539
4   1122   1029   1017   1568
4   1116   1224   1462   1194
4   1166   1110   1153   1099
4   1162   6794   6555   1205
4   1119   1024   1025   1568
4   1623   1628   1615   3886
4   1146   1107   3029   1329
4   1169   6507   1370   1288
4   1002   1132   1124   1544
4   1099   5268   1272   5240
4   1115   1292   1411   1245
4   1100   2834   1434   6058
4   1103   1106   1166   1099
4   1140   1590   1005    998
4   1151   1391   3643   3646
4   1032   1095   1609   1199
4   1107   2548   2663   1395
4   1157   4332   4333   5136
4   1152   3681   1157   1230
4   2682   1148   1128   1226
4   1156   1126   1157   1115
4   1108   1315   2936   3098
4   1138   4698   3091   1108
4   1752   2023   1705   1502
4   1752   1753   1705   2023
4   1500   1748   1692   1713
4   1478   1726   2776   1749
4   1478   1749   1748   1726
4   1726   1518   1742   1701
4   1726   1742   1692   1529
4   1500   1692   1748   1670
4   1704   2022   1719   1692
4   1704   1707   1719   2022
4   1726   1518   2776   1742
4   1518   1742   1876   2776
4   1731   1711   1520   1676
4   1714   1686   1507   1734
4   1714   1507   1686   1710
4   1714   1724   1744   1669
4   1669   1724   1734   1714
4   1724   1669   1678   1744
4   1724   1678   1691   1514
4   1509   1687   1745   2025
4   1500   1713   1478   1748
4   1509   4887   1687   1746
4   1721   1698   2012   1697
4   1721   1725   2012   1504
4   1721   1708   2026   1533
4   1714   1710   1669   1493
4   1507   1710   1506   1686
4   1714   1710   1686   1669
4   1710   1506   1679   1702
4   1710   1669   1493   1690
4   1710   1679   1506   1686
4   4887   2794   1687   1746
4   2794   1486   1746   4887
4   1478   1748   1713   1726
4   1726   1749   1748   1742
4   1722   1673   3370   3371
4   1705   1706   2004   1481
4   2757   1677   2009   2007
4   2003   2024   2013   1717
4   4886   2025   1509   1745
4   1496   2024   1677   2003
4   2024   1712   1508   1720
4   2024   1720   1511   1712
4   1717   1880   1505   2013
4   2003   1496   1501   1741
4   1699   2019   1503   1512
4   1534   1533   1512   1699
4   1699   1533   1522   1700
4   1512   1699   1533   1522
4   1528   1698   2012   1716
4   1716   1528   1504   2012
4   2757   2007   2009   1738
4   4424   1753   2023   1671
4   1752   1502   4424   2023
4   1752   1481   1705   1753
4   4424   1671   1502   1480
4   1480   1505   1517   1880
4   1726   1692   1748   1713
4   1742   1701   1682   1529
4   1726   1748   1692   1742
4   1736   1746   1486   1237
4   1746   2794   1687   1736
4   1705   1753   1481   2004
4   1535   2004   2023   1705
4   2004   2018   2929   1706
4   2004   2019   1706   1535
4   1691   1669   1724   1734
4   1669   2010   1493   1690
4   1515   2027   1691   1732
4   1691   1515   1514   2016
4   1691   1515   2016   2028
4   1703   1491   1751   1750
4   1703   1750   1751   1237
4   1688   1491   1751   1703
4   1705   1753   2004   2023
4   2009   2007   1672   1738
4   2003   1717   1517   1501
4   2003   1496   1741   1677
4   2757   2007   1738   2755
4   3024   1491   1750   2715
4   3024   3124   1688   2715
4   1510   1514   3132   2016
4   1510   1678   2015   6841
4   1524   3371   3455   1674
4   4887   2794   1745   1687
4   1736   2005   1237   1703
4   2010   1493   3220   1744
4   1714   1734   1669   1686
4   1669   1493   2010   1744
4   2777   1521   2908   1740
4   1489   1689   3123   1490
4   1498   1527   1695   1521
4   3455   1519   1672   2755
4   1524   1722   1674   1519
4   2757   1677   4340   1511
4   2009   2024   1712   1684
4   1532   1530   2011   1531
4   1532   1727   2011   1709
4   1711   1497   2020   1531
4   1731   1711   2006   1733
4   1676   1711   2006   1731
4   1711   1497   1725   1694
4   1711   2020   1497   1694
4   1497   1725   1697   1533
4   1530   1715   1686   1734
4   4886   2837   2991   2017
4   2006   1531   2011   1530
4   1532   1727   1531   2011
4   1530   1715   2011   1686
4   1711   1694   1520   1676
4   2020   1531   2006   1711
4   1531   2006   1711   1733
4   1530   1531   1733   2006
4   1730   1680   1729   1735
4   1730   1735   2027   1680
4   1730   2027   1735   1732
4   1494   1520   2012   1676
4   1730   1494   1676   1520
4   1729   1676   1680   1730
4   1693   1676   1680   1729
4   1494   2012   1520   1504
4   1728   6737   6255   3066
4   1728   6737   2014   6255
4   1710   1728   1690   1493
4   1518   1521   2777   1695
4   1728   1702   2014   6737
4   1498   1527   1708   1696
4   1498   2018   1696   1708
4   1534   2018   1708   2026
4   1721   2026   1698   1697
4   1721   1708   1698   2026
4   2003   5456   1501   1517
4   1494   1504   1693   2012
4   1725   1520   2012   1504
4   1497   1700   1533   1697
4   1711   1694   1725   1520
4   1731   1732   2006   2027
4   2010   3066   3219   3220
4   1699   1508   1685   1522
4   2010   2014   6255   1728
4   2010   3220   1493   3066
4   1669   1734   1691   1686
4   1744   1514   1747   1678
4   1724   1514   1744   1678
4   1723   1746   1687   2005
4   1723   1516   2028   1509
4   1508   1526   1685   1522
4   1699   1503   1508   1512
4   2024   1685   1508   1712
4   1496   1720   2024   1717
4   1508   1503   2013   1717
4   1729   1683   1707   1495
4   1723   1729   1680   1735
4   1680   1516   2028   1723
4   3123   3124   1490   1689
4   3124   3123   2008   1689
4   2715   1688   1491   1490
4   1730   1494   1729   1676
4   1729   1495   1680   1683
4   1707   1490   1495   1683
4   1704   2022   2021   1707
4   1707   1693   2022   2021
4   1523   2029   1709   1506
4   1523   1722   1519   1674
4   1527   1695   1701   1528
4   1498   1521   1695   1740
4   1740   2908   2909   1498
4   1498   1696   2018   1740
4   1509   1687   4887   1745
4   1527   1701   1695   1521
4   1498   1708   1706   2018
4   1726   1529   1701   1742
4   1518   1737   2777   1521
4   1701   1682   1529   1528
4   1742   1682   1701   1695
4   1505   1503   1717   2013
4   1517   1880   1505   1717
4   1531   2020   2011   1727
4   1532   1530   1715   2011
4   1525   1727   1684   1712
4   1525   1672   1738   1684
4   1684   1727   1685   1712
4   3370   1718   1488   6484
4   1508   1712   1685   1526
4   1508   1720   1717   2024
4   1526   1531   2020   1522
4   1702   1488   2014   6737
4   1497   1725   1694   1697
4   1497   1522   1700   2020
4   2027   1516   1680   1735
4   1525   1523   1675   1709
4   1731   1676   1730   2027
4   1723   1746   2005   1495
4   1723   1735   1680   1516
4   4886   2017   1509   2025
4   1509   1492   2028   2017
4   1509   1723   1687   2028
4   1735   1732   2027   1516
4   2757   2009   1511   1738
4   1497   1533   1700   1522
4   1505   1671   2013   1880
4   1523   1674   1519   1675
4   1524   3370   3371   1722
4   1524   1674   1722   3371
4   1738   2755   1672   1519
4   2019   1535   2004   2023
4   1534   1706   2019   1535
4   1708   1696   2026   2018
4   1877   1740   2908   2909
4   1534   1706   2018   2019
4   2009   1738   1672   1684
4   2757   1511   2009   1677
4   2009   1712   1738   1684
4   2010   1493   1728   3066
4   1534   1708   2018   1706
4   1677   1496   1741   4340
4   1727   1685   1712   1526
4   2009   1712   2024   1511
4   1703   1237   1751   2005
4   3024   2715   1688   1491
4   1489   1739   2008   1499
4   1689   2008   1489   3123
4   1489   2008   1670   1499
4   1704   1489   1490   1689
4   1496   1741   4340   1501
4   1489   1670   2008   1689
4   2008   1489   3123   1739
4   1500   1670   1489   1692
4   1500   1692   1489   1713
4   1726   2776   1749   1742
4   1518   1742   1701   1695
4   1498   1527   1696   1695
4   1529   1528   1682   1719
4   1704   1689   1490   2021
4   1500   1489   1670   1499
4   1704   1489   1689   1692
4   1704   1713   1489   1692
4   2009   1511   1738   1712
4   1525   1675   1523   1519
4   1525   2011   1684   1727
4   2007   2755   1672   1738
4   1523   1506   1673   2029
4   1524   3455   2755   1519
4   1523   1722   1673   1718
4   1532   1715   1709   2011
4   1731   2027   1730   1732
4   2020   1526   1727   1531
4   1709   2029   1715   1506
4   1523   1675   1709   2029
4   1715   1506   2029   1686
4   1530   2006   1686   2011
4   1523   1506   1718   1673
4   1507   1715   1686   1506
4   1715   2011   1686   2029
4   1736   1237   2005   1746
4   1736   1486   1746   2794
4   4886   1509   2017   1492
4   4886   2991   1492   2017
4   2794   1687   2025   1745
4   2991   2016   1492   2017
4   1503   1502   1535   2023
4   1503   2019   1535   1512
4   1699   1685   1508   2013
4   1699   1522   1512   1508
4   1503   2023   1535   2019
4   4424   1671   2023   1502
4   1698   1708   1696   2026
4   1721   1533   2026   1697
4   1698   1695   1528   1682
4   1698   1528   1695   1527
4   1721   1725   1533   1697
4   1721   1725   1697   2012
4   2012   1528   1504   1682
4   1701   1528   1695   1682
4   1726   1713   1529   1692
4   1731   1676   2027   2006
4   1729   1693   1707   1683
4   1516   2028   1515   2027
4   1749   1742   2776   1876
4   1698   1527   1695   1696
4   1698   1527   1708   1716
4   1497   2020   1531   1522
4   1699   2026   1533   1700
4   3455   1672   1519   1674
4   2024   1685   1712   1684
4   1525   1712   1684   1738
4   1711   1694   2006   2020
4   1733   1734   2006   1732
4   1699   1700   1522   1685
4   1509   1516   2028   1492
4   1494   1729   1693   1707
4   1731   1733   2006   1732
4   1717   1496   2003   2024
4   1524   3455   1519   1674
4   1523   1722   1674   1673
4   1682   1693   1719   1504
4   1511   1496   2024   1677
4   2009   2024   1677   1511
4   2991   3132   2016   2837
4   2013   2003   1717   1880
4   1698   1527   1716   1528
4   1503   2019   2013   2023
4   1518   2777   1876   1742
4   2777   1737   2908   1521
4   1742   1682   1692   1529
4   1515   1492   2016   2028
4   1515   1514   2016   1492
4   2991   3132   1492   2016
4   1723   1680   1729   1495
4   1724   1734   1515   1691
4   3132   2016   2837   2015
4   1751   1688   1495   1491
4   2005   1751   1688   1495
4   3124   1490   1689   1688
4   1750   3024   1703   1491
4   2022   1719   1692   1682
4   1704   2021   1692   1689
4   1490   2021   1688   1683
4   2715   3123   3124   1490
4   1491   1495   1490   1688
4   1751   1746   1495   2005
4   1237   1746   1751   2005
4   1723   1495   2005   1680
4   1676   1494   1729   1693
4   1707   2021   1683   1693
4   1731   1676   1520   1730
4   2028   1723   1687   1680
4   2006   1732   1734   1691
4   1510   2015   1678   2016
4   1518   1876   2777   1737
4   1506   1702   1718   1679
4   1728   2014   1702   1690
4   1525   1738   1672   1519
4   1702   1488   1718   1679
4   1488   6484   1718   1679
4   1722   3370   1673   1718
4   1525   1684   2011   1675
4   3370   6484   3371   1673
4   2010   1728   1493   1690
4   2010   3066   1728   6255
4   1710   1690   1686   1669
4   1724   1514   1691   1515
4   1714   1493   1669   1744
4   1507   1686   1715   1734
4   3124   1688   2715   1490
4   1685   1526   1727   2020
4   1699   1508   1503   2013
4   2024   1508   1685   2013
4   1705   1502   2023   1535
4   1497   1697   1694   1700
4   1522   1685   1700   2020
4   1534   2019   1699   1512
4   1721   1708   1716   1698
4   1498   1513   1740   2018
4   1498   1740   2908   1521
4   1498   1740   1695   1696
4   3370   1673   1718   6484
4   1722   1674   1673   3371
4   1534   1699   2026   1533
4   1709   2011   2029   1675
4   1523   1675   1673   1674
4   3455   2007   2755   1672
4   1704   1490   1707   2021
4   2010   3220   3218   1678
4   2010   3066   6255   3219
4   1702   1690   2014   1679
4   1669   2010   1678   1744
4   1506   1673   2029   1679
4   1514   3132   2016   1492
4   1519   1672   1675   1674
4   1709   1715   2029   2011
4   1744   1678   1747   3220
4   2010   3219   3218   3220
4   2777   1740   2908   1877
4   1526   1522   2020   1685
4   1721   1716   1504   2012
4   1528   1719   1504   1682
4   1727   2020   2011   1685
4   2929   1481   1706   1681
4   1740   2909   1877   1743
4   1681   2018   1513   1706
4   1505   1502   2013   1671
4   2018   2929   1681   1743
4   1743   2018   1513   1681
4   1518   1737   2776   1876
4   1719   1692   1682   1529
4   1498   1513   2909   1740
4   1498   1706   1513   2018
4   1704   1692   2021   2022
4   1534   1699   2019   2026
4   2777   1695   1521   1740
4   1740   2018   1513   1743
4   1740   1743   1513   2909
4   2004   2929   1481   1706
4   2004   2929   1753   1481
4   1518   1521   1695   1701
4   1721   2012   1698   1716
4   2004   1706   2019   2018
4   1518   1742   1695   2777
4   1682   1698   2012   1528
4   1480   1505   1671   1502
4   1491   3024   1703   1688
4   1490   1495   1683   1688
4   1525   1709   1675   2011
4   1707   1683   2021   1490
4   1736   1687   1746   2005
4   1495   1688   2005   1683
4   1730   1680   2027   1676
4   1510   2015   2016   3132
4   2991   2837   2016   2017
4   1724   1678   1669   1691
4   3220   3218   1678   1747
4   1523   1675   2029   1673
4   1710   1686   1690   1679
4   1530   1734   1686   2006
4   1525   1684   1675   1672
4   1534   2026   2019   2018
4   2022   1682   1693   1719
4   1520   2012   1676   1694
4   1525   1727   1709   2011
4   1694   1676   1711   2006
4   1497   1694   2020   1700
4   1504   2012   1682   1693
4   1699   2013   1503   2019
4   2028   2027   1516   1680
4   1691   1732   1734   1515
4   1723   1680   2005   1687
4   1510   6841   1747   1678
4   1729   1683   1680   1693
4   1511   1720   2024   1496
4   2003   1496   1717   1501
4   1506   2029   1686   1679
4   1727   1684   1685   2011
4   1717   2024   2013   1508
4   1732   2027   1691   2006
4   1691   1686   1734   2006
4   2020   2006   1531   2011
4   1530   1733   1734   2006
4   1494   1676   2012   1693
4   1506   1679   1718   1673
4   1880   2003   1717   1517
4   1525   1519   1672   1675
4   2014   1679   1488   1702
4   4340   1511   1677   1496
4   1728   1690   2010   2014
4   6484   2014   1679   1488
4   1510   1514   2016   1678
4   1678   6841   1747   3218
4   1492   2016   2028   2017
4   1691   2028   2027   1515
4   1718   1679   6484   1673
4   1710   1690   1728   1702
4   2010   1678   1744   3220
4   4886   2017   2025   2837
4   1510   1678   1747   1514
4   1503   2023   2013   1502
4   1710   1702   1679   1690
4   1502   2013   1671   2023
4   1752   2023   4424   1753
4   1725   1697   2012   1694
4   1533   1700   2026   1697
4   1705   1535   2004   1706
4   1480   1880   1671   1505
4   1743   2909   1681   1513
4   1534   2026   1708   1533
4   1704   1713   1692   1719
4   1529   1713   1719   1692
4   1495   1680   1683   2005
4   1516   1732   2027   1515
4   1509   1746   1687   1723
4   1707   1719   2022   1693
4   1707   1504   1719   1693
4   2003   1880   5456   1517
4   1691   2016   1514   1678
4   1703   2005   1751   1688
4   1509   1687   2017   2028
4   1490   1689   1688   2021
4   2003   5456   1741   1501
4   1534   1535   2019   1512
4   1509   2025   2017   1687
4   1489   1689   1692   1670
4   1698   1696   1708   1527
4   1706   2929   1681   2018
4   1516   1515   2028   1492
4   1725   1520   1694   2012
4   1494   1707   1693   1504
4   1505   2013   1502   1503
4   1754   1965   1934   1986
4   1755   1754   1985   1934
4   1754   1964   1756   1930
4   1757   1930   1916   1996
4   4815   1756   1980   1906
4   1756   1759   5469   4077
4   4077   1759   1827   1756
4   1754   1760   1796   1761
4   1981   1930   1916   1757
4   1981   1762   1931   1756
4   1763   1765   1766   3507
4   1996   1754   1985   1755
4   1767   1759   1757   1760
4   1760   1768   1755   1767
4   1760   1796   1761   1793
4   1754   1760   1761   1755
4   6262   1768   1868   1761
4   1768   1869   1761   6262
4   1767   1754   1755   1760
4   1768   1769   1755   1767
4   1884   1766   3278   1768
4   2010   1831   6255   1765
4   1760   1768   1869   1761
4   1770   1759   1757   1767
4   1759   1770   3456   4191
4   1770   1768   4191   1759
4   1771   4380   1867   1829
4   1760   1756   4078   1827
4   1772   1761   1866   1868
4   1772   1761   1801   1866
4   1773   1771   1761   1772
4   1769   1773   1771   1761
4   1772   1771   5224   6005
4   1772   5078   1771   6005
4   1765   1831   6255   1826
4   1774   1963   1892   1820
4   1894   1963   1892   1774
4   3028   3738   1812   1909
4   1775   1777   1977   1963
4   1894   1774   1893   1775
4   2014   1765   6255   1826
4   1775   1991   1993   1977
4   2010   1765   6255   2014
4   1778   1763   1766   1767
4   1911   1927   1779   1926
4   1885   1678   1763   3218
4   1680   1780   1781   1782
4   2006   1763   1766   1778
4   1782   1778   2006   1676
4   1782   1763   1691   2006
4   1781   1782   1691   2028
4   1766   1763   2006   1686
4   1947   1783   1946   1970
4   1770   1884   1766   1675
4   2013   2024   2003   1882
4   1770   1685   2020   1778
4   1784   2013   5756   1882
4   1775   1757   1767   1778
4   1893   1968   1922   1757
4   1775   1757   1784   1774
4   1757   1940   1767   1987
4   1782   1683   1785   1693
4   1757   1983   1762   1774
4   1757   1968   1922   1921
4   1756   1762   1757   1981
4   1757   1774   1762   1784
4   1773   1769   1910   1755
4   1763   1691   1669   1678
4   1773   1786   1910   1994
4   1994   1786   1939   1773
4   1773   1904   1859   1937
4   1773   1851   1912   6627
4   1895   1787   1888   1769
4   3683   1771   1773   6627
4   1895   1970   1946   1787
4   1769   1755   2002   1910
4   1768   1763   1769   1767
4   1781   1769   1788   1787
4   1768   1769   1771   1761
4   1873   1951   1824   1929
4   1754   1757   1767   1996
4   1770   1762   1757   1759
4   1774   1784   1820   2689
4   1774   1892   1967   1918
4   5276   1822   1878   1777
4   1984   1983   1762   1757
4   1882   1784   5757   5756
4   1774   1921   1757   1983
4   1790   1785   2021   1779
4   1790   1785   1780   1683
4   1790   2021   1785   1683
4   1790   1779   1951   1952
4   1785   2022   1693   2021
4   1777   1785   1693   1778
4   1785   1777   1682   1779
4   1790   1688   3124   1689
4   1790   1688   1860   3124
4   1785   1780   1971   1923
4   1790   1780   1785   1923
4   1792   1971   1991   1785
4   1949   1792   1971   1991
4   1991   1777   1775   1785
4   1763   1782   1778   2006
4   1778   1777   2012   1693
4   1784   1777   1820   1696
4   1784   4804   2004   6614
4   1888   1788   1989   1992
4   1697   1777   1698   2012
4   1893   1757   1922   1940
4   1770   1757   1778   1767
4   1778   1785   1792   1775
4   1780   1973   1800   1957
4   1972   1897   1802   4459
4   2004   1784   2023   4804
4   2026   1777   1698   1697
4   1780   1804   4888   1805
4   1772   1771   1868   5224
4   1771   1868   1768   1761
4   1768   1755   1769   1761
4   1772   1771   5078   1834
4   1772   1773   6627   6020
4   1755   1978   1979   2001
4   1755   1767   1997   1996
4   1773   1769   1970   1969
4   1754   1843   3687   1965
4   1771   3017   1886   6553
4   1761   1754   1755   1871
4   1755   1786   2000   2001
4   1763   1781   1769   1788
4   3703   1802   1972   1780
4   1788   1792   1780   1976
4   1788   1992   1769   1767
4   1768   1766   1763   1767
4   1785   1792   1780   1782
4   1992   1769   1888   1788
4   1820   1777   1878   1696
4   1964   1980   1756   1924
4   5276   1820   1777   1878
4   1756   1757   1762   1759
4   1820   1963   5276   1777
4   1907   1820   1963   5276
4   1777   1889   1809   1927
4   1784   2018   1696   1820
4   2666   2667   1784   1762
4   1760   1768   1767   1759
4   1785   1991   1777   1779
4   1777   1889   1963   5276
4   1991   1775   1956   1792
4   1757   1762   1984   1981
4   1754   1794   1760   3299
4   1767   1792   1955   1940
4   1788   1782   1767   1763
4   1765   1766   3507   1679
4   1768   1763   3507   3561
4   1770   1768   1767   1766
4   1788   1767   1792   1955
4   1817   1964   1980   1756
4   1760   1755   1768   1761
4   1755   1767   2002   1997
4   1755   1871   1786   1761
4   1686   1766   1690   1679
4   1771   1886   1885   6553
4   1770   1884   3195   3456
4   1768   1766   3507   1763
4   1770   1768   1766   1884
4   1760   1768   1759   4191
4   1786   1939   1938   1942
4   1772   1773   1786   1761
4   1939   1773   1937   1994
4   1862   1939   1938   1786
4   1786   1801   1761   1811
4   1772   1761   1786   1801
4   3082   1843   5230   1944
4   1886   1678   6841   2015
4   1903   1852   1948   2580
4   1781   1678   1886   2016
4   1787   5923   1957   1800
4   1772   4818   1862   1859
4   5038   1771   6553   3017
4   1865   1771   6553   5038
4   1784   2018   2019   2026
4   2004   2018   1784   6614
4   1777   1696   2026   1698
4   2018   1878   1820   6614
4   2018   1743   1740   1878
4   2023   1879   2013   1671
4   1784   1879   2023   4804
4   2003   1677   3929   2024
4   1770   1685   2024   1684
4   1770   2024   2009   1684
4   1831   1763   1771   1832
4   1763   3382   2010   1831
4   1755   1966   1978   2001
4   1754   2000   1986   1934
4   1755   1978   1997   2002
4   1784   1762   1776   2666
4   1762   1776   1791   5757
4   1759   4341   1828   1833
4   1759   4341   1882   5757
4   2013   1770   1882   1784
4   1784   1850   1837   5756
4   1930   1756   1757   1981
4   1759   1828   1758   1833
4   1907   1892   1820   4428
4   2001   1755   1934   2000
4   1786   2000   2001   1942
4   1907   5276   1889   1841
4   1756   1817   4078   3566
4   1762   1815   6667   1776
4   1889   1925   1809   1927
4   1907   1963   1889   5276
4   1907   4428   4851   1892
4   1972   5088   6295   4459
4   6052   1928   1839   6296
4   1855   1915   1764   1890
4   4852   1904   1851   4853
4   1900   1901   2977   1798
4   2977   1901   1902   1848
4   1900   1960   1798   1943
4   4851   1892   4428   6616
4   3041   2645   1962   3257
4   1907   4069   4851   4428
4   1759   1827   1828   4077
4   1772   6005   4819   6375
4   1964   1799   1965   1754
4   5023   1898   1929   1823
4   1823   1929   1824   1974
4   1823   1974   1914   1898
4   1775   1792   1940   1956
4   1774   1918   1967   1983
4   1815   1891   1762   5578
4   1762   1891   1983   1933
4   1760   4078   3299   1795
4   6667   5578   1762   1764
4   5578   1891   1846   1818
4   5578   1764   1932   1762
4   1682   2022   1693   1785
4   1777   1695   1698   1682
4   1695   1821   1822   2777
4   3024   1688   3124   1860
4   1777   1695   1821   1822
4   1777   1822   1740   1695
4   1740   1777   1695   1696
4   1779   1692   1682   2022
4   1824   1748   1692   1670
4   1748   3252   1692   1742
4   2013   1880   5756   2003
4   6841   3218   1678   1885
4   1672   1770   1884   3195
4   1770   3195   1881   3456
4   1688   2005   1804   1703
4   2009   1677   1881   2007
4   1741   2003   1677   3929
4   2009   2024   1770   1677
4   1772   6005   5224   4819
4   1755   1978   1966   1997
4   1985   1755   1966   1996
4   5538   1906   1845   2695
4   1802   1972   1780   1919
4   1780   1973   3703   1800
4   1780   1973   1957   1954
4   1756   1759   1827   1760
4   1754   1930   1996   1985
4   1778   2006   1676   1694
4   1774   1762   2667   1983
4   1784   1699   1700   2026
4   3082   1944   1943   1843
4   5230   1941   1944   1840
4   1944   1986   1843   1840
4   1960   1843   1965   3687
4   1960   3687   1965   1799
4   1944   1943   1843   1960
4   1960   1799   1901   1798
4   1928   1839   1857   6482
4   6296   5023   1929   1928
4   1780   1919   1975   1923
4   1928   1857   1839   1861
4   1790   1928   1961   1951
4   2644   2869   1948   2254
4   2644   1847   1947   2869
4   1920   3027   1856   1842
4   1920   1859   1937   1862
4   1920   3854   1936   1842
4   1979   1755   1786   1910
4   1769   1895   1969   1896
4   1786   1979   1994   1999
4   1870   4178   1687   2025
4   1786   1979   1999   2001
4   5519   1786   3464   1801
4   1785   1780   1792   1971
4   1779   1692   1824   3252
4   1824   1935   1779   1974
4   1774   1967   1968   1921
4   1775   1777   1963   1820
4   1770   1759   3456   1881
4   1770   2013   2024   1685
4   3195   1884   1672   3455
4   1674   3455   1884   1883
4   1883   1673   1674   3371
4   1762   5469   4341   1791
4   1673   3278   1883   1884
4   1824   5023   1873   1929
4   1773   1905   1969   1970
4   1823   1824   1825   1974
4   1773   1859   1851   6020
4   1773   1994   1995   1937
4   1815   1818   1891   5578
4   6051   1818   1891   2667
4   5648   1818   1891   1854
4   1813   3028   1812   1909
4   1813   1842   3854   1938
4   1813   1909   1938   2999
4   1891   6051   1918   1854
4   5578   1846   1891   1917
4   1771   1885   1763   3382
4   3278   1766   3507   1768
4   1771   1829   1867   1830
4   1771   4380   6005   1867
4   1843   1754   1986   1965
4   1754   1871   3687   1843
4   1769   1896   1910   2002
4   1763   1885   1886   1678
4   1760   1795   3299   1794
4   1930   1754   1757   1756
4   1773   1969   1905   1912
4   1783   5038   5924   5552
4   1763   1678   1781   1691
4   1783   1807   1863   1803
4   1783   1803   1865   1807
4   1878   1777   1740   1696
4   1878   1822   1877   1740
4   2018   2929   6614   2004
4   2667   1891   1815   1818
4   1859   1904   1851   1856
4   1762   1815   1776   2666
4   4804   2004   6614   1753
4   3455   3371   1883   1674
4   1781   1782   1763   1691
4   1897   4459   1857   1802
4   2025   1870   2017   1687
4   1781   2837   3017   1870
4   3929   1677   1881   1770
4   1784   1685   1700   1699
4   1782   1693   1676   1680
4   1780   1954   1787   1976
4   1774   1892   2689   1820
4   1760   1756   1754   3299
4   1778   1676   1693   2012
4   1824   1692   1689   1670
4   1779   2021   1692   2022
4   3252   1974   1779   1899
4   1824   1825   1974   3252
4   1779   1926   1899   1911
4   1779   1899   1926   1875
4   1779   1935   1990   1911
4   1980   1817   4815   1848
4   1771   1807   1783   1865
4   1690   1766   1765   1679
4   2014   1679   1765   3507
4   3507   3278   1883   1673
4   1768   5642   3507   3278
4   1763   3507   1826   1765
4   2010   1690   1765   2014
4   1770   1675   1684   1672
4   1784   2666   1879   4804
4   2013   5756   1880   1850
4   1772   6627   1834   1838
4   2003   5456   5756   1882
4   1767   1940   1955   1987
4   2009   3195   2007   1881
4   1674   1675   1884   1672
4   2018   1696   1820   1878
4   1784   1816   2666   4804
4   2023   1753   2004   4804
4   2929   2004   1753   6614
4   2018   1696   1878   1740
4   1952   1779   1991   1785
4   1785   1683   2021   1693
4   1780   1683   1680   2005
4   1990   1952   1779   1991
4   1781   1787   1808   1783
4   1782   1676   2027   1680
4   1913   5088   1844   1908
4   1780   1787   1957   1800
4   1790   1961   1952   1951
4   1779   1951   1952   1935
4   1779   1952   1990   1935
4   1775   1784   1778   1777
4   1873   1874   1824   1790
4   1790   1688   2005   1804
4   1754   1871   1761   1796
4   1786   1979   1910   1994
4   1755   1966   2001   1934
4   1792   1976   1971   1780
4   1780   1805   3703   1802
4   1782   2027   1676   2006
4   1754   1757   1756   1760
4   4815   1756   1819   3566
4   1756   4815   1980   1817
4   1762   1915   5077   1764
4   1756   1924   1906   1931
4   1760   1759   1827   1835
4   1915   1906   2695   1890
4   1855   1764   1915   1932
4   1788   1950   1989   1992
4   1781   2016   2028   1691
4   1775   1785   1792   1991
4   1788   1989   1950   1976
4   1678   1781   1691   2016
4   1689   1824   1874   1790
4   1915   1764   2695   5077
4   5538   1980   4815   1858
4   5538   2695   4815   1906
4   1770   1685   1784   2013
4   1786   1761   1871   1811
4   1934   1755   1966   1985
4   1754   3687   1871   1794
4   1760   1796   1836   1794
4   1760   5684   1836   5683
4   1817   4078   3299   1756
4   5133   1958   4579   1875
4   1788   1992   1955   1950
4   1773   1896   1769   1969
4   1782   2028   2027   1691
4   1762   1784   5757   1770
4   1787   1888   1989   1988
4   1770   1757   1762   1784
4   1970   1852   1863   1905
4   2869   1852   1863   1970
4   1948   1852   1905   2580
4   1948   1970   2869   1947
4   1905   1948   1970   1852
4   4191   1770   3456   1884
4   1783   1947   2869   1970
4   3561   1771   1868   1768
4   1905   1783   3683   1863
4   1771   1867   5078   1864
4   2644   1947   1948   2869
4   1905   1872   1945   2580
4   1824   1692   1779   1689
4   1790   1861   1873   1860
4   6052   1839   1928   6482
4   1861   1897   1790   1928
4   1947   5923   1962   1957
4   1851   1872   1945   6627
4   5923   1946   1783   1787
4   1773   1937   1912   1904
4   1773   1769   1783   1970
4   1972   1913   1908   5088
4   1887   1872   2580   1945
4   1773   1912   1851   1904
4   1905   6627   1912   1945
4   1851   1945   1872   1887
4   1903   2254   1948   1852
4   1905   2580   1852   1872
4   1813   1909   1812   1814
4   1873   1790   1824   1951
4   1770   2011   1675   1766
4   1775   1784   1757   1778
4   1762   1891   2667   1983
4   1774   1967   1921   1983
4   5578   1917   1891   1933
4   1774   2667   2689   1918
4   1980   1848   1902   1901
4   1906   4815   1756   1819
4   1756   5469   5077   1819
4   1756   5469   1819   3566
4   1756   1915   1906   1819
4   1980   1858   1902   1848
4   2837   2016   3017   2015
4   2019   2004   2018   1784
4   2023   1671   1753   1879
4   1784   1816   4804   6614
4   1927   1821   1926   1809
4   1822   1878   1777   1740
4   1736   4888   2794   1687
4   1736   4888   2005   1804
4   1754   1760   1794   1796
4   1771   1864   5078   1834
4   1786   1772   5519   1862
4   1780   3703   1973   1972
4   1783   1970   1905   1773
4   4852   1856   1851   1904
4   1754   1964   1985   1965
4   1787   1788   1989   1888
4   1947   1847   1962   5923
4   1920   1904   1856   3027
4   1684   1770   2011   1675
4   1970   1783   1863   2869
4   1850   2013   1784   1879
4   2667   6051   1918   1891
4   1756   1762   5077   5469
4   1767   1997   1953   2002
4   1781   1763   1769   1771
4   1823   1929   1974   1898
4   1871   1986   1840   1843
4   5230   1941   1840   2970
4   1875   4579   1899   1958
4   1770   1766   2020   2011
4   1670   1824   1874   1689
4   1779   3252   1742   1692
4   1783   5924   1808   5552
4   1787   1970   1946   1783
4   1771   1865   6553   1830
4   1763   1690   1765   2010
4   1770   1766   1778   2020
4   1763   1690   1766   1765
4   1771   1834   1807   1864
4   1771   1831   4380   1829
4   1781   4178   1687   1870
4   1771   1830   1867   1864
4   1781   3017   1886   1771
4   1781   1680   1782   2028
4   1783   1808   5924   5923
4   1886   2015   3017   2016
4   1884   1766   1673   3278
4   5756   2013   1784   1850
4   1763   3507   3561   1826
4   1768   5642   3561   3507
4   1760   1768   4191   1869
4   1768   1884   4191   3278
4   1687   1870   2017   1781
4   1766   1778   2020   2006
4   1771   5224   3561   1868
4   3507   1679   1673   6484
4   1759   1828   1827   1758
4   1928   1897   6482   1857
4   1928   1861   1897   1857
4   1928   1929   1951   1873
4   1873   1839   1928   5023
4   1756   1931   1906   1915
4   1779   1689   1790   1824
4   1899   1875   1958   1926
4   5023   1839   1928   6296
4   1823   5023   1824   1929
4   1875   1958   1926   1809
4   5133   1875   1959   1958
4   1875   1958   1809   1959
4   1779   1821   1742   1875
4   1846   5648   1818   1891
4   1770   1759   1881   3929
4   1784   2019   2023   2013
4   1983   1921   1757   1984
4   1784   2667   1816   2689
4   5757   1762   1776   1784
4   1915   1762   1933   1932
4   5538   4815   1980   1906
4   1906   2695   4815   1819
4   1762   1791   6667   5077
4   1906   1845   2695   1890
4   1754   1756   1964   1817
4   1762   1982   1931   1915
4   1786   1999   1994   1939
4   1761   1810   1871   1811
4   1761   1801   1810   1811
4   1772   6020   6627   1838
4   1938   1862   1920   1939
4   1771   1834   6627   3683
4   1773   1937   1859   1862
4   1772   1838   1834   5078
4   3561   1826   1832   1763
4   1771   1834   3683   1807
4   1948   2869   1852   2254
4   1905   6627   1872   3683
4   1773   6627   1905   3683
4   2009   2007   3195   1672
4   1770   1684   2009   1672
4   1759   4191   3456   1835
4   1884   1768   4191   1770
4   1771   1829   3382   1831
4   3195   3455   1672   2007
4   6484   3507   1883   1673
4   1760   1836   1793   1869
4   1831   1763   1765   2010
4   1768   5642   1868   3561
4   1778   1700   1694   1697
4   1757   1775   1893   1774
4   2013   1880   1671   1850
4   2666   1784   1837   1776
4   1784   2013   1699   2019
4   1743   1740   1878   1877
4   1777   1778   1697   2026
4   1963   1775   1774   1894
4   1772   1771   1761   1868
4   1770   1759   1882   5757
4   1761   4405   1793   1810
4   2012   1778   1697   1777
4   1792   1782   1778   1767
4   1880   5756   2003   5456
4   5757   1784   1882   1770
4   2026   1778   1697   1700
4   1792   1780   1782   1788
4   1773   1761   1755   1786
4   1781   5552   1870   3017
4   1775   1820   1774   1784
4   1781   2017   2028   2016
4   1773   1859   1904   1851
4   6627   1872   1945   1905
4   1783   1769   1787   1970
4   1769   1888   2002   1992
4   1773   1769   1896   1910
4   1957   1946   5923   1787
4   1773   1755   1910   1786
4   1790   1780   1802   1804
4   1781   3017   1783   5552
4   1988   1895   1787   1888
4   2666   2667   1816   1784
4   1792   1998   1956   1949
4   1781   1783   1808   5552
4   1780   1787   1954   1957
4   1736   1687   2005   4888
4   1790   1824   1951   1779
4   1790   1688   2021   1683
4   1781   1870   2017   2837
4   1778   1676   2012   1694
4   4178   1781   4888   3222
4   1679   6484   3507   2014
4   1883   6484   1673   3371
4   1766   2029   2011   1675
4   1781   1886   3017   2016
4   1766   1679   1673   3507
4   1766   1673   1675   1884
4   1770   1685   1684   2011
4   1677   2024   1770   3929
4   1674   1672   1884   3455
4   3218   1678   1763   2010
4   2014   1690   1765   1679
4   1886   1885   6841   1678
4   2010   3218   3382   1763
4   1766   2011   1686   2006
4   1790   1780   2005   1683
4   2021   1689   1790   1779
4   1670   2008   1689   1874
4   1693   1680   1782   1683
4   3024   1860   1703   1688
4   1779   1935   1899   1974
4   1781   1780   1687   4888
4   1782   2006   1691   2027
4   1781   3017   2837   2016
4   1871   1754   1755   2000
4   2017   2837   1870   2025
4   1886   2016   1678   2015
4   1911   1991   1779   1977
4   1821   1777   1927   1779
4   1785   1777   1775   1778
4   1782   2027   2028   1680
4   1790   1785   1779   1952
4   1778   1694   1700   2020
4   1778   2020   2006   1694
4   1780   1923   1975   1971
4   3278   1766   1673   3507
4   1949   1792   1976   1971
4   1784   2019   1699   2026
4   1778   2012   1697   1694
4   1683   1680   1782   1780
4   1693   1777   2012   1682
4   4888   1805   3222   1781
4   1762   2667   1891   1815
4   1778   1784   2026   1777
4   4888   1687   4178   2794
4   1756   1759   1762   5469
4   2000   1986   1942   1797
4   2022   1779   1785   1682
4   3017   1783   1771   1781
4   1777   1698   2012   1682
4   1792   1949   1956   1991
4   1780   1680   1687   2005
4   1766   2029   1675   1673
4   1787   1783   5923   1808
4   1779   1821   1926   1927
4   1770   1675   1672   1884
4   1687   2025   4178   2794
4   1763   1669   1690   2010
4   1770   1759   5757   1762
4   1891   1762   5578   1933
4   1783   1807   3683   1863
4   1761   4405   1868   6262
4   1760   1761   1869   1793
4   1695   2777   1742   1821
4   1790   1919   1961   1897
4   1940   1775   1893   1757
4   1768   1869   3278   4191
4   1780   1787   1800   1808
4   1879   1850   1837   1784
4   1780   1973   1954   1975
4   1782   1778   1676   1693
4   1899   1875   3252   1825
4   1899   1974   1825   3252
4   1911   1977   1779   1927
4   1822   1877   1740   2777
4   2018   1878   6614   1743
4   1875   1926   1779   1821
4   1748   1742   1749   3252
4   1749   1876   1875   1742
4   1775   1993   1894   1977
4   1786   1811   1797   3464
4   1761   1810   1801   4405
4   1772   1866   1801   5519
4   1761   4405   1801   1866
4   1790   1919   1897   1802
4   1801   1772   5519   1786
4   1862   1773   1937   1939
4   1769   1781   1783   1787
4   1910   1978   1979   1755
4   1786   1811   3464   1801
4   1769   1755   1767   2002
4   1786   1814   1797   1942
4   1920   1862   1842   1859
4   1920   1859   1856   1904
4   1920   1904   1937   1859
4   1781   2028   1687   1680
4   1773   1783   1769   1771
4   1757   1987   1922   1940
4   1790   1780   1919   1802
4   1772   6564   4819   1866
4   1769   1896   1888   1895
4   1773   1912   1937   1995
4   1770   1778   1757   1784
4   1781   1771   1886   1763
4   1755   1978   2002   1910
4   2001   1755   1786   1979
4   1754   1986   2000   1871
4   1786   2001   1999   1942
4   2869   1847   1947   1783
4   1781   2017   2016   2837
4   1851   1904   1912   1945
4   1772   4818   1859   6020
4   1767   1955   1953   1987
4   1871   1840   1986   1797
4   1757   1987   1996   1916
4   1760   5684   5683   1835
4   1792   1955   1950   1788
4   1755   1966   1996   1997
4   1792   1955   1940   1956
4   1775   1894   1956   1893
4   1773   1969   1912   1995
4   1953   1767   2002   1992
4   1780   1919   1972   1973
4   1757   1916   1984   1922
4   1792   1998   1955   1956
4   1781   3222   1870   5552
4   1771   1830   1885   1829
4   1689   1692   1779   2021
4   1785   1991   1952   1971
4   1951   1935   1779   1824
4   1760   5683   1869   4191
4   1780   1976   1975   1954
4   1768   6262   5642   1869
4   1928   1861   1873   1790
4   1935   1929   1824   1951
4   1824   3252   1974   1779
4   1685   1784   1778   1770
4   1763   1686   1691   2006
4   1786   1871   1797   1811
4   1921   1774   1757   1968
4   1774   1983   2667   1918
4   1774   1967   1892   1968
4   1774   1968   1892   1894
4   1781   1763   1886   1678
4   2000   1755   1934   1754
4   1784   2023   1879   2013
4   1774   1918   2689   1892
4   2667   1784   1762   1774
4   1770   1685   2011   2020
4   1980   1799   1901   1964
4   1901   1964   1799   1965
4   1980   1901   1799   1848
4   1770   1766   1767   1778
4   1944   1843   1986   1965
4   1960   1965   1901   1799
4   1754   1965   3687   1799
4   1770   1882   1759   3929
4   1900   1798   1960   1901
4   1960   1943   1843   1798
4   1760   5684   1795   1794
4   1756   5077   1762   1915
4   1775   1894   1993   1956
4   1778   1685   2020   1700
4   1780   1683   1785   1782
4   1777   1977   1963   1889
4   1787   1989   1954   1946
4   1787   1954   1989   1976
4   1968   1774   1757   1893
4   1899   1825   1974   4579
4   3252   1824   1748   1692
4   1958   1809   1925   1926
4   1823   1914   1974   1825
4   1875   1809   1926   1821
4   1768   3561   1771   1763
4   1809   1889   6299   1925
4   2010   3382   3219   1831
4   1958   1959   1925   1809
4   1998   1792   1955   1950
4   1760   1793   1836   1796
4   1925   1926   1809   1927
4   1962   3257   1957   3041
4   1783   1847   1947   5923
4   1962   3041   1957   5923
4   1996   1930   1754   1757
4   1852   1948   1970   2869
4   1783   5924   1806   5923
4   2644   2645   1947   1847
4   1847   3041   2645   1962
4   2000   1871   1786   1755
4   1986   1941   1942   1840
4   1759   1833   1882   4341
4   1915   2695   1906   1819
4   1756   1981   1930   1931
4   1761   1871   1810   1796
4   1786   1797   2000   1942
4   1772   4819   6564   6375
4   1812   1942   3738   1840
4   1944   1840   1941   1986
4   1986   1840   1942   1797
4   1790   2021   1688   1689
4   1756   1915   1762   1931
4   1781   1805   3222   1808
4   1769   1888   1896   2002
4   1771   1832   6005   4380
4   1754   1934   1965   1985
4   1773   1910   1896   1995
4   1754   1930   1985   1964
4   1771   1865   1864   1807
4   1783   5038   1865   1803
4   1942   1786   1814   1938
4   1773   1771   3683   1783
4   1773   1912   1905   6627
4   1773   1994   1910   1995
4   1762   1983   1982   1933
4   1762   5469   1791   5077
4   2667   1918   6051   2689
4   1754   1817   1964   1799
4   1915   1819   5077   2695
4   1762   6667   1791   1776
4   3929   1770   1882   2024
4   1687   1680   1780   1781
4   1777   1682   1779   1742
4   5023   1929   6335   6296
4   1790   1874   3124   1873
4   1928   5023   1929   1873
4   1772   1773   6020   1859
4   1974   4579   1825   1914
4   2869   1783   1863   1806
4   1780   1971   1975   1976
4   1767   2002   1992   1769
4   1788   1767   1955   1992
4   1973   1800   1957   1913
4   1787   1957   1946   1954
4   1775   1778   1767   1792
4   6335   5023   1898   1929
4   1889   4069   1841   6299
4   1777   1977   1889   1927
4   1756   4078   4077   3566
4   1976   1792   1950   1788
4   1759   1827   1835   1758
4   1882   2013   5756   2003
4   1949   1976   1792   1950
4   2000   1797   1871   1986
4   1775   1893   1956   1940
4   1757   1981   1984   1916
4   1762   1815   5578   6667
4   1767   1996   1953   1997
4   1944   1965   1960   1843
4   1790   1923   1785   1952
4   1876   1875   1742   1821
4   1777   1821   1742   1779
4   1993   1991   1775   1956
4   1779   1682   1692   1742
4   1779   1899   1875   3252
4   1777   1821   1695   1742
4   5276   1777   1889   1809
4   1925   1809   5936   6299
4   1790   1928   1951   1873
4   1781   2017   1687   2028
4   1757   1767   1996   1987
4   1787   1895   1988   1946
4   1780   1805   1802   1804
4   3703   1972   5088   1913
4   6627   1771   1773   1772
4   4852   3027   1856   1904
4   1947   1962   1847   2645
4   1945   6627   1912   1851
4   1772   1773   1862   1786
4   1847   1806   1783   2869
4   1770   2009   1881   3195
4   1938   1786   1814   1862
4   1773   1851   6627   6020
4   1871   1843   1754   1986
4   1772   1789   6020   1838
4   1813   2999   1938   3854
4   1909   1938   1942   1814
4   1813   1938   1909   1814
4   1905   1872   1852   3683
4   1842   1862   1920   1938
4   1762   4341   5757   1791
4   1813   2999   3028   1909
4   1759   5469   1828   4341
4   1909   3738   1812   1942
4   1918   6616   4428   1892
4   1784   1696   2018   2026
4   1756   1980   1906   1924
4   1775   1784   1777   1820
4   1820   1775   1774   1963
4   1759   1833   1758   1881
4   1918   1854   6051   5188
4   1907   1841   4069   4428
4   1907   5276   4428   1820
4   1767   1996   1987   1953
4   1784   1820   2689   1816
4   1792   1950   1998   1949
4   1919   1802   1972   1897
4   1784   6614   2018   1820
4   5642   6262   1768   1868
4   1759   1881   3929   1833
4   1882   2024   2003   3929
4   1968   1894   1774   1893
4   1783   1806   1803   1863
4   1700   1784   1778   1685
4   1915   1764   1890   2695
4   1781   4178   1870   3222
4   6051   6616   4428   1918
4   1788   1976   1787   1989
4   1762   1982   1915   1933
4   1759   5757   1762   4341
4   1957   1913   1800   3041
4   1788   1769   1888   1787
4   1972   6295   5088   1908
4   1773   1969   1995   1896
4   1782   1693   1785   1778
4   1771   1783   1807   3683
4   1771   1886   1763   1885
4   1883   1884   1674   1673
4   2010   6255   1831   3219
4   1765   3507   1826   2014
4   1763   3218   3382   1885
4   2024   1770   1882   2013
4   1766   1686   2011   2029
4   1786   1999   1939   1942
4   1741   5456   2003   3929
4   1897   1790   1928   1961
4   2013   1671   1879   1850
4   1784   5757   5756   1837
4   1768   1769   1763   1771
4   1787   1989   1946   1988
4   1757   1987   1916   1922
4   1770   1677   1881   2009
4   2003   1882   3929   5456
4   1700   1784   2026   1778
4   1766   2029   1679   1686
4   1809   1777   1927   1821
4   1742   2777   1876   1821
4   1977   1779   1927   1777
4   1695   1740   2777   1822
4   1825   1875   4579   1899
4   1779   1899   1935   1911
4   1790   3124   1860   1873
4   1790   1802   1897   1861
4   1777   1742   1695   1682
4   1779   1742   3252   1875
4   1689   1790   1874   3124
4   1689   3124   1874   2008
4   1788   1976   1780   1787
4   1763   1669   1691   1686
4   1757   1984   1921   1922
4   1682   1785   1693   1777
4   1688   1860   1703   1804
4   1771   4380   1831   1832
4   1775   1767   1940   1792
4   1783   5038   5552   3017
4   1780   4888   2005   1687
4   1790   1861   1804   1802
4   3017   1783   5038   1771
4   1761   1868   4405   1866
4   1761   6262   1793   4405
4   3703   4459   5088   1972
4   1780   1919   1973   1975
4   1780   2005   4888   1804
4   1980   4815   1858   1848
4   1960   3687   1798   1843
4   2018   1743   6614   2929
4   2689   1774   1784   2667
4   1762   1982   1984   1981
4   1756   1915   1819   5077
4   1854   1818   1891   6051
4   1756   1817   3566   4815
4   1980   1848   1799   1817
4   1941   1840   2970   3738
4   1980   1964   1817   1799
4   1759   3456   1758   1835
4   1942   3738   1840   1941
4   5230   1840   1944   1843
4   1920   1939   1862   1937
4   1772   4818   6020   1789
4   1920   1842   1936   3027
4   1920   1842   1938   3854
4   1785   1782   1778   1792
4   1897   6482   1857   1853
4   1773   1783   3683   1905
4   1785   1923   1971   1952
4   1770   2009   3195   1672
4   1897   6295   1849   4459
4   3703   1972   1802   4459
4   1790   1804   1861   1860
4   1897   1849   1857   4459
4   1780   1800   3703   1805
4   1897   1853   1857   1849
4   3257   1844   1957   3041
4   1932   1762   1933   5578
4   1918   5188   6051   6616
4   1851   1945   4853   1904
4   1761   1793   1796   1810
4   4428   1918   2689   6051
4   1925   5936   1809   1959
4   3703   1913   5088   1800
4   1947   1957   1946   5923
4   1813   1938   1814   1842
4   1783   5924   5038   1803
4   1772   1773   1859   1862
4   1772   6005   6375   5078
4   1767   1788   1792   1782
4   1773   1786   1939   1862
4   1781   3222   5552   1808
4   1773   1769   1755   1761
4   1913   3041   5088   1800
4   1771   3382   1829   1885
4   1772   1838   5078   6375
4   1763   1690   1669   1686
4   1771   1865   1830   1864
4   1839   1928   1861   1873
4   1761   1869   1793   6262
4   1763   1669   2010   1678
4   1786   2000   1797   1871
4   1768   5642   3278   1869
4   1905   1852   1863   3683
4   1790   1923   1952   1961
4   1841   1809   1889   6299
4   1760   1757   1767   1754
4   2977   1848   1798   1901
4   1862   1786   3464   5519
4   1782   1781   1788   1780
4   1790   1860   1688   1804
4   1762   1984   1982   1983
4   1784   2026   1777   1696
4   1760   1835   1827   5684
4   1771   1769   1781   1783
4   1790   1780   1804   2005
4   1805   1780   1781   4888
4   1897   1802   1857   1861
4   1974   1929   1824   1935
4   2021   1779   1785   2022
4   1790   1688   1683   2005
4   1771   5224   6005   1832
4   1763   1686   1766   1690
4   1771   3561   5224   1832
4   1767   1782   1778   1763
4   1790   1919   1923   1961
4   1771   1783   5038   1865
4   1920   1856   1859   1842
4   1763   1826   1832   1831
4   1772   1868   1866   5224
4   1674   1673   1884   1675
4   1960   1799   1798   3687
4   1790   1780   1923   1919
4   3218   2010   3382   3219
4   1767   1953   1955   1992
4   1913   1844   5088   3041
4   1772   4819   5224   1866
4   1788   1769   1763   1767
4   1771   6005   5078   1867
4   1771   6553   1885   1830
4   1982   1981   1762   1931
4   1772   1834   6627   1771
4   1957   1913   3041   1844
4   1772   1866   5519   6564
4   1772   6564   4818   1789
4   1832   1763   1771   3561
4   1788   1763   1781   1782
4   1759   4341   1762   5469
4   1766   1679   2029   1673
4   3299   1756   1754   1817
4   1907   1841   4428   5276
4   1889   1841   5276   1809
4   1784   2013   1685   1699
4   1777   5276   1822   1809
4   1777   1695   1696   1698
4   1760   4191   1835   5683
4   2019   2004   1784   2023
4   1759   1768   1767   1770
4   1756   1760   1757   1759
4   1784   6614   1820   1816
4   1775   1894   1963   1977
4   1784   1837   1879   2666
4   1779   1990   1991   1911
4   3252   1875   1742   1749
4   1892   4428   2689   1820
4   1776   1784   1837   5757
4   1756   4078   3299   1760
4   1756   1964   1924   1930
4   5578   1917   1933   1932
4   1766   2006   2020   2011
4   1759   3456   1881   1758
4   1760   1827   1795   5684
4   1756   1924   1931   1930
4   1781   1788   1780   1787
4   1907   1963   1820   1892
4   1775   1757   1940   1767
4   1762   1764   5077   6667
4   1762   1764   1932   1915
4   1892   1918   2689   4428
4   1991   1779   1977   1777
4   1972   1897   4459   6295
4   1777   1822   1821   1809
4   2667   1983   1891   1918
4   1762   2667   1815   2666
4   1907   1889   4069   1841
4   2023   4804   1879   1753
4   1772   4818   6564   5519
4   1840   1812   1942   1797
4   1909   1812   1814   1942
4   1760   5684   1794   1836
4   1808   1780   1781   1805
4   1862   1814   1938   1842
4   1812   1797   1814   1942
4   1760   1759   1835   4191
4   1769   1969   1895   1970
4   1781   1780   1808   1787
4   1771   1763   1831   3382
4   1957   3041   1800   5923
4   1827   1756   4078   4077
4   1962   5923   1847   3041
4   5923   1806   1783   1847
4   1947   5923   1946   1783
4   1736   1703   1804   2005
4   1996   1754   1755   1767
4   1970   1769   1787   1895
4   1783   5924   1803   1806
4   1863   1970   1905   1783
4   1754   1799   3687   3299
4   1759   1833   3929   1882
4   1772   1838   6375   1789
4   1787   1800   1808   5923
4   1772   4818   5519   1862
4   1772   1789   6375   6564
4   1851   1887   4853   1945
4   3703   1973   1913   1800
4   3703   1913   1973   1972
4   1687   4178   1781   4888
4   1786   1862   3464   1814
4   1977   1777   1775   1991
4   1826   1763   1765   1831
4   1756   3566   4077   5469
4   1760   5683   1836   1869
4   1759   4077   1828   5469
4   1786   3464   1797   1814
4   1754   3299   3687   1794
4   1754   1796   1794   1871
4   1760   4078   1795   1827
4   1780   1805   1808   1800
4   1901   1848   1798   1799
4   1754   1799   3299   1817
4   2031   2032   2034   2035
4   2031   2035   2036   2037
4   2038   2036   2039   2040
4   2041   2031   2034   2035
4   2042   2031   2043   2038
4   2044   2046   2047   2048
4   2038   2046   2049   2044
4   2046   2050   2051   2052
4   2046   2053   2054   2055
4   2057   2059   2060   2061
4   3220   1183   1662   1663
4   2035   2063   2064   2057
4   2035   2057   2064   2037
4   1662   1663   2072   3220
4   2032   2065   2035   2061
4   2046   2048   2066   2067
4   2032   2048   2068   2066
4   2048   4667   2069   2553
4   6402   1446   4094   2070
4   2046   2066   2032   2053
4   2071   2031   2034   2073
4   2032   2048   2071   2075
4   2044   2048   2076   2031
4   2031   2032   2035   2037
4   2031   2048   2071   2032
4   2079   2080   2081   2082
4   2079   2083   2084   2085
4   2086   2087   2079   2088
4   2079   2084   2083   2089
4   2080   2081   2087   2079
4   2065   2034   2071   2032
4   2048   2031   2044   2046
4   2090   2041   2031   2034
4   2032   2057   2053   2091
4   2092   2093   2065   2094
4   2065   2092   2035   2061
4   2095   2097   2050   2098
4   4741   2099   4595   6532
4   2100   2101   6400   2099
4   2099   1433   4742   2102
4   2099   2100   4742   3563
4   2099   3919   2103   2104
4   3649   2099   2106   2104
4   2107   2108   2109   1352
4   2107   2111   5523   2112
4   2107   2113   2108   2111
4   2107   2115   2112   2116
4   2033   6427   5902   2094
4   2093   4284   4639   4283
4   2094   2065   2034   2117
4   2117   2093   2094   2065
4   2093   2117   2094   2033
4   2054   2060   5496   4611
4   2054   4611   5739   2057
4   2054   2118   3917   4144
4   2054   3917   2119   3916
4   2060   2057   2054   2120
4   2120   2060   5496   2054
4   2054   2120   4144   5496
4   2053   2119   2054   2055
4   2055   2046   2123   2054
4   2120   2054   2064   2057
4   2118   2123   2064   2054
4   2124   2125   2126   2127
4   1365   2128   1340   2127
4   2127   3029   2130   1329
4   2127   2821   2131   1452
4   2132   2133   2843   5208
4   2134   2133   6892   2843
4   2531   2618   2372   2135
4   2134   2136   2698   2133
4   2135   2136   2649   2134
4   2134   2136   2649   5490
4   2134   2137   2617   2618
4   2137   2134   2135   2618
4   2134   2138   2136   2133
4   2139   2141   2142   2143
4   2141   2143   4064   3105
4   2141   2143   3105   3302
4   2141   2142   2144   2145
4   2141   2145   2144   2146
4   2142   2147   1209   1210
4   2148   2149   2150   2151
4   2152   2153   2148   2036
4   2148   2153   2149   2154
4   2155   2152   6475   2136
4   5317   5661   2156   6489
4   2141   2144   2143   3302
4   2139   2142   2141   3786
4   2141   2146   6489   6018
4   2141   2146   6018   2147
4   2139   1209   3786   1092
4   5321   5820   4286   5821
4   2139   3786   2141   4725
4   2139   2142   1451   2143
4   2142   2144   2145   1457
4   5317   2144   5663   2146
4   2141   2146   2147   2145
4   2125   2131   2146   2144
4   2157   5140   2071   5034
4   3220   1663   2072   1090
4   2157   2069   5750   4044
4   2157   6467   2076   6388
4   2076   5386   2073   2071
4   2157   2071   5140   5386
4   2157   2069   6468   5750
4   2157   2076   6467   6468
4   2158   1338   5400   2144
4   2159   2160   2161   2162
4   2160   2161   2162   2158
4   2163   4013   2156   6522
4   2163   6447   2164   5366
4   2163   2164   5367   5366
4   2163   2161   2158   2165
4   2163   2156   2164   6447
4   2166   5121   2167   1878
4   2166   1878   2167   1743
4   2167   2168   4368   2166
4   2166   2168   4368   3853
4   2150   2151   2133   2138
4   2150   6891   2133   2169
4   2169   6891   5106   2150
4   6111   2169   6891   5106
4   2150   2169   2762   5106
4   2762   2150   4995   2169
4   2150   2151   2149   2170
4   2150   2697   2136   2698
4   2171   2172   6494   2173
4   4442   2172   6494   2171
4   4094   3633   1446   5252
4   2174   2175   5503   2176
4   4423   2176   1194   2174
4   2591   2115   5932   6408
4   2177   6413   2178   2179
4   2111   2178   2112   2179
4   2179   2115   2535   6408
4   2179   2180   2595   3113
4   2179   2177   2180   2111
4   2177   2180   5748   2179
4   3173   3195   3455   6324
4   2179   2595   2180   5748
4   2181   2062   4257   2535
4   5288   2116   6695   2115
4   2115   2116   5675   5288
4   2111   2113   2115   2107
4   2179   2181   6355   2535
4   2179   2115   2181   2535
4   2182   3730   1286   2183
4   2184   2182   2185   4133
4   2186   2185   2187   2184
4   2182   2188   2189   2186
4   2191   2192   2193   4810
4   2192   2194   3167   1436
4   2195   5451   2193   3167
4   2191   1271   2192   4810
4   2196   2197   4960   6438
4   2198   2200   2194   2201
4   2202   5438   4905   2201
4   4823   2202   4905   2201
4   2196   2204   2878   4936
4   2110   1432   2205   1295
4   2206   2196   2200   2207
4   2198   1430   1437   1429
4   2208   2209   2210   2212
4   2213   2209   2210   2208
4   2215   4065   2108   2158
4   2108   2216   1248   4065
4   2108   2158   2162   2215
4   2217   2218   2220   2221
4   1357   2158   2162   2108
4   1248   1339   1352   2108
4   2222   2215   2113   2108
4   2224   2222   2215   2113
4   2225   2226   5354   2227
4   2225   2228   2229   2230
4   2231   1398   2232   1401
4   2227   2231   2230   2233
4   2225   2232   2594   2234
4   2233   2235   2236   2230
4   2231   2232   1398   2594
4   4726   2237   2239   2087
4   4027   2105   2227   2231
4   2231   2240   4027   1400
4   2241   2243   2246   2097
4   2247   2248   2249   2246
4   5430   6574   5437   2247
4   2251   2249   2074   5510
4   2251   2255   3258   3397
4   2251   2256   2255   2249
4   2249   2251   3397   2255
4   2074   2251   3397   2249
4   2257   2258   5111   4534
4   6349   6357   6612   2171
4   4685   2721   6581   6810
4   2259   2360   5162   3081
4   2259   2078   2260   2258
4   2260   2102   2103   2258
4   2261   1371   1456   2262
4   2160   2158   2144   2163
4   2160   2263   1362   2264
4   2160   2164   2266   2267
4   2222   2264   2086   2162
4   2089   2222   2264   2086
4   2162   2086   2159   2264
4   2162   2222   1361   1357
4   1244   3267   2268   2907
4   6443   2264   1361   2162
4   2164   2159   2160   2161
4   2269   5756   5456   1882
4   2270   2269   1882   2272
4   2956   2269   1677   2270
4   2273   2270   2590   2275
4   3192   2269   5429   4994
4   2270   2269   2272   2275
4   2760   3267   3646   2276
4   2234   1307   2548   2130
4   2127   2277   2130   1363
4   1322   1415   2278   2279
4   2279   2280   2281   2282
4   2127   2124   2277   2126
4   1417   2277   1307   2234
4   2280   2130   2234   2548
4   2280   2663   2130   2548
4   2280   1323   2130   2663
4   4420   2283   5734   2281
4   2130   2124   2284   2283
4   6723   2156   6719   2285
4   2156   6719   2285   2266
4   2266   6447   2156   6719
4   2266   2286   2285   2156
4   2160   2266   2156   2286
4   2266   2164   6447   3813
4   2266   2287   3813   3150
4   2288   2125   2126   2124
4   3220   1662   1051    943
4   6782   2124   6118   2125
4   2289   5869   6094   6783
4   2283   2234   2289   2229
4   2124   2234   2277   2289
4   2124   2288   6782   6783
4   2288   2277   2289   2124
4   5358   4443   2258   6259
4   2290   2288   2277   2289
4   2095   2067   2554   2291
4   5423   2496   2292   6703
4   2291   2293   2958   2095
4   3643   3646   3267   2907
4   2296   3390   2097   2095
4   2046   2095   2298   2051
4   3643   2760   3267   3646
4   2299   3171   2301   6099
4   3172   2299   3171   2302
4   2299   2297   2302   3172
4   2303   2301   6755   2882
4   2299   2293   2098   3170
4   2299   2302   2188   3171
4   2050   2293   2299   2306
4   3170   2293   4813   2299
4   2086   2309   2181   2224
4   2310   6746   2313   6740
4   2310   2313   2314   2608
4   4514   2315   4047   2310
4   2310   2315   4047   6007
4   2316   5251   2315   6007
4   2035   2041   2153   2317
4   3756   3758   3757   6423
4   2310   2313   2608   6740
4   2316   2188   2310   2189
4   2141   2144   3302   6489
4   5663   2144   2125   2146
4   2141   2144   6489   2146
4   2156   2144   3302   2163
4   2156   5317   2144   5663
4   2224   2181   5101   3726
4   2107   1355   2108   1339
4   2224   2215   3724   3536
4   2086   2162   2224   2222
4   2224   3724   2161   3911
4   3911   2309   3725   6105
4   5423   6838   2292   2496
4   2052   2233   2235   2236
4   2235   2227   2230   2233
4   2258   4301   5358   2318
4   2152   2041   2319   2153
4   2231   4027   2233   2227
4   2227   4027   2233   5355
4   2207   2206   2185   1424
4   2238   2302   4416   2197
4   2161   2215   2162   2158
4   6459   2197   4416   2320
4   2315   1406   4241   5251
4   2185   2207   2322   2206
4   2302   2320   3892   4416
4   2320   2183   2322   2185
4   2315   2316   2182   2183
4   2322   2320   2197   6663
4   2197   2320   6459   6663
4   1178   1629   4176    923
4   2168   6112   1216   1220
4   1753   2168   2323   1752
4   2168   2102   2213   1216
4   2168   2324   2102   2325
4   2051   5627   2298   3895
4   2095   3390   2051   2296
4   2958   2098   3961   2095
4   2095   2067   2291   2046
4   2301   2050   2314   2187
4   2050   2095   2051   2296
4   1446   3633   4094   4093
4   2095   3962   2051   3961
4   2095   2051   5627   2298
4   2095   3961   2051   3390
4   2051   3391   2296   3390
4   4415   3391   2296   2051
4   6450   2194   2195   2193
4   6753   2194   3022   2327
4   2200   2246   1429   2327
4   2198   2194   2200   1429
4   2194   2327   2328   3022
4   2192   2194   2327   2328
4   2192   5535   1405   1184
4   6450   2328   2194   2193
4   2195   2201   6501   5093
4   2194   6501   2201   2122
4   2161   2224   2162   2215
4   2260   2167   5248   2102
4   2162   2108   2222   1357
4   4678   2329   5651   2330
4   2330   6183   2331   2332
4   2333   2334   2335   2336
4   2330   2337   2079   2338
4   2334   2338   2333   2220
4   2339   2340   2341   2342
4   2339   2343   2342   2101
4   2339   2344   2345   2346
4   2339   2347   2341   2348
4   2339   2346   4918   4917
4   2339   4918   2346   3365
4   2168   2324   4327   2208
4   2324   3651   2208   2810
4   2324   2343   2809   2208
4   2324   5363   2101   4052
4   2343   2324   5363   2101
4   2101   2343   5362   5363
4   2349   6134   2350   2337
4   2097   2206   2098   2351
4   2089   2330   2354   2331
4   2079   2080   2082   2356
4   2079   2337   2357   2358
4   2338   2640   2350   2336
4   2079   2337   2332   2357
4   2092   2359   6683   5259
4   2092   2359   5259   3213
4   2129   2361   3122   5901
4    943   1747   3220   1090
4   2093   2092   6252   3546
4   2093   2065   5003   3117
4   2093   2092   3546   5028
4   5901   2093   2094   3589
4   2093   5028   5900   5901
4   2035   2092   2361   2359
4   2035   2061   2092   2359
4   2048   5031   5099   6079
4   2147   5287   3786   4793
4   2139   2143   4065   2216
4   1451   1404   1338   2142
4   2147   5501   4793   2140
4   1482   2147   4793   2140
4   1482   4832   2932   1209
4   2362   5532   1179   1482
4   2147   5501   2140   3666
4   2175   2147   2145   1461
4   2147   2145   1461   1210
4   2364   2081   2082   2079
4   2082   2085   2361   2364
4   2083   2365   2364   2366
4   2111   2179   2112   2115
4   2364   2081   2366   2368
4   2165   2215   5997   3973
4   2163   2161   4867   5367
4   1338   2143   2144   2158
4   2158   2143   4065   1338
4   2165   4065   2215   2158
4   2216   2143   4065   2165
4   5997   3972   2215   2165
4   2108   2222   1355   2111
4   2165   3105   4064   2143
4   6227   2165   3105   4064
4   2165   2143   4064   6228
4   4867   2165   4179   2161
4   5053   2369   4901   2370
4   1313   2371   3099   1291
4   2369   2373   2374   2370
4   2347   2369   2373   2374
4   2370   2376   4436   3812
4   2370   2376   5897   4436
4   2370   2976   2377   4104
4   2370   2377   4901   4104
4   2370   2379   2369   2373
4   2281   2380   2691   2381
4    396    395    268   5766
4   3126   2791   4792   2855
4   2381   2255   6694   6534
4   2381   2382   2835   6491
4   2381   2255   2226   2380
4   2381   2380   2691   5485
4   2381   2380   5485   6694
4   2286   2128   2126   2125
4   2125   2286   2156   2285
4   2288   2286   2266   2263
4   2286   2288   2125   2126
4   2286   2263   2925   1364
4   2160   2286   2144   5400
4   1469   5400   5319   2128
4   3953   3952   5521   3950
4   1469   2128   5604   2126
4   2286   2925   2263   2126
4   2276   3921   2384   3922
4   2227   2248   2256   5351
4   2256   4011   2226   1458
4   2256   5351   2248   3185
4   2248   2241   2227   2249
4   3185   2256   2385   2248
4   2218   2386   5883   4844
4   2386   2387   2341   2388
4   2386   2389   2221   2218
4   2218   2217   2390   5876
4   5876   5872   6673   2390
4   2218   2217   6325   3052
4   2221   2387   2341   2386
4   2208   2345   3441   3340
4   2345   2212   5375   2208
4   2208   3441   2345   2343
4   2391   1389   2392   2393
4   2391   6658   2392   1460
4   2394   2391   1385   2395
4   2397   5937   2394   2391
4   2391   2392   1389   1460
4   2391   2199   2398   5468
4   2399   2263   1345   2401
4   2399   2263   2401   2402
4   2403   2399   2267   2264
4   2225   2227   5354   2105
4   2280   1348   2226   2570
4   2280   2234   1348   1252
4   2226   2405   1332   4011
4   1252   2234   2548   2280
4   2279   1323   2130   2280
4   2226   2405   2570   1332
4   2226   2227   1458   5354
4   2380   2281   2226   2381
4   2225   2280   2229   2234
4   2381   6813   2382   6491
4   2381   2380   6694   2255
4   2282   5449   2279   2280
4   2406   2088   2332   2079
4   2212   2209   2210   2407
4   2408   4183   2209   6713
4   6713   6715   2408   4183
4   2209   6712   2408   6713
4   2209   1281   2213   2786
4   2209   2213   2963   1204
4   2209   2786   2213   2210
4   2209   2963   2213   1281
4   2232   2401   2409   1354
4   2225   2105   2231   2227
4   2225   2594   2231   2105
4   1250   1401   1397   2409
4   2232   2409   1250   1354
4   2232   2234   1416   1418
4   2232   2594   2234   1418
4   1401   2232   2409   1250
4   2231   2240   1400   1401
4   2409   2231   1401   2240
4   2163   2156   4013   3302
4   2144   3302   2163   2143
4   2144   2145   1457   5319
4   2156   2285   6723   5655
4   2160   1364   2286   5400
4   2410   2411   4034   1641
4   2266   2164   2156   6447
4   2163   2156   6447   6522
4   2280   2234   2283   2229
4   2275   2273   2270   2269
4   2281   4041   6818   4043
4   2281   4041   4043   2282
4   2289   2290   2402   2277
4   6783   2288   2290   2289
4   2289   6783   6093   2290
4   2290   6783   6093   5928
4   2290   2288   5928   3506
4   2402   2289   2468   2290
4   2052   4136   2236   5244
4   2290   6093   2289   2468
4   2290   2468   2402   5513
4   4881   4334   1235   2413
4   1229   2414   1230   4881
4   6551   3226   4165   3757
4   2414   2413   5623   2190
4   2414   5624   3246   5623
4   4332   2414   1230   1229
4   2415   2416   2413   5136
4   5136   2413   1299   2416
4   2233   2241   2249   2227
4   2184   2417   1427   1428
4   2419   2420   2187   2233
4   2206   1424   2246   2241
4   2184   2206   1424   2185
4   2391   2394   5207   1384
4   2082   2364   2361   2081
4   2395   2421   1385   2422
4   2395   2423   2422   2394
4   2391   2393   2199   1389
4   2392   1460   3339   1389
4   2391   2392   2395   2393
4   2392   2393   5474   2138
4   2392   2395   2393   2138
4   2424   2740   2425   2693
4   2424   2365   2426   2536
4   2409   2428   2429   2402
4   2430   2424   2402   2428
4   2424   2430   2365   2428
4   2424   2425   2740   2402
4   2425   2428   2402   2424
4   2270   2275   2272   3773
4   6559   3968   2379   2275
4   2275   2379   2273   2431
4   2275   6559   2376   2379
4   2275   3352   2272   3773
4   2376   2275   2379   2273
4   6558   2275   2376   2273
4   2275   2273   6558   6557
4   2269   2275   2273   2408
4   2275   2273   6557   2211
4   2275   2431   2408   2272
4   6412   2177   2432   2180
4   6412   2177   6187   6188
4   2177   2434   4636   2214
4   2123   2037   2054   2046
4   4187   6413   6414   2178
4   2177   4636   2434   5040
4   2177   2435   2111   2178
4   2177   2434   2331   2435
4   2178   5040   4187   2177
4   2219   2178   5040   4187
4   4046   6279   2223   2071
4   2436   2437   5484   2533
4   2436   2438   3143   2071
4   4046   2437   6279   2071
4   2071   6279   2223   5482
4   5484   2436   5482   2437
4   2436   2071   5037   5141
4   2436   2071   5141   5482
4   2222   2086   2089   2088
4   2079   2439   2440   2087
4   2406   2432   2332   2088
4   2357   2337   2332   5667
4   2331   2079   2089   2330
4   2079   2083   2364   2087
4   2079   2349   2358   2356
4   2163   5367   2164   2161
4   2165   3973   4179   2161
4   2160   2164   2163   2156
4   2160   2162   2159   2264
4   2164   2159   2161   5367
4   2163   4867   2165   6444
4   5937   2441   2397   2070
4   1381   3093   2342   2441
4   2441   2388   2387   2390
4   2442   1270   2387   2441
4   2441   2341   2342   1381
4   2441   2397   2443   2444
4   2410   2445    791   4035
4   2388   2341   2342   2441
4   2442   2335   4261   2151
4   2441   2442   2446   2387
4   2448   2445    791   2410
4   5070   2445    791   2448
4   2342   2443   4490   2340
4   2340   2443   4490   3009
4   2340   2388   3009   4516
4   2242   5880   2244   2348
4   2339   2340   2342   2343
4   2438   4923   2090   3419
4   4296   2438   4621   3419
4   3250   2073   3143   2438
4   4035   2445    791   5070
4   2436   5037   2071   3143
4   2436   5822   3249   2250
4   2436   2438   4797   6238
4   2438   2034   2437   2790
4   5386   2071   3143   2073
4   2071   3143   2073   2438
4   2438   2090   4923   2073
4   2436   2437   2438   2071
4   2436   2437   2473   2438
4   4797   2436   2253   2438
4   2034   2073   2438   2071
4   4475   2344   3848   2348
4   4475   2344   2981   5360
4   2981   2344   2348   2379
4   2369   2348   2347   2373
4   2344   2212   2346   2407
4   2344   2345   2242   2343
4   2339   2348   2344   2346
4   2343   2340   2348   2339
4   2373   2348   2347   2346
4   2344   2373   2407   2346
4   2446   2442   2449   2169
4   5369   2449   6104   2450
4   1903   2452   2933   2906
4   2449   6104   2450   2169
4   2449   5744   2444   5745
4   2449   5369   6653   5745
4   2233   2249   2243   2235
4   2233   2227   2249   2235
4   1428   2241   6535   1394
4   2420   2184   1276   2187
4   2233   2187   2419   2296
4   2503   2184   1448   2233
4   2231   2240   2233   4027
4   2233   2296   2243   2097
4   1424   2184   2241   2206
4   2227   1419   5355   2233
4   2230   2228   2240   2231
4   1416   2232   2401   2234
4   2401   2234   2277   1416
4   2131   2284   2125   4376
4   2289   2229   2234   2228
4   2289   2283   2124   2234
4   2234   2277   1416   1417
4   1852   2452   2933   1903
4   2455   1367   1407   2260
4   2262   2171   4392   2257
4   2172   2171   2265   2262
4   2172   2947   2413   5190
4   6411   2456   1283   5125
4   2386   2388   4516   5269
4   4846   2218   2386   2388
4   2388   2218   2386   2387
4   2457   2389   2221   2386
4   2435   4145   6533   2222
4   2111   5289   2435   4145
4   1225   2107   1356   2112
4   2108   2109   2215   2113
4   2162   2222   2264   1361
4   2179   2111   2180   2181
4   2177   2180   2111   2435
4   2179   2115   2111   2181
4   2403   2428   2430   2429
4   2458   5813   2366   2589
4   2458   2460   5007   2589
4   2458   2426   6734   4399
4   2365   2403   2428   2430
4   2430   2458   4399   2426
4   2310   2461   2462   4514
4   4031   2452   2933   1852
4   2271   4681   5426   2316
4    438   4118   4115   4730
4   4238   2315   4379   5448
4   2315   4238   5612   5448
4   2315   4379   5448   2274
4   2316   6540   2320   2183
4   2315   2189   3781   1412
4   2182   2189   2315   1412
4   2315   2274   4241   4379
4   4365   4701   2964   3362
4   5547   2183   5251   1406
4   2408   2269   2463   2273
4   3442   2209   4181   5240
4   2209   4181   5240   2407
4   2906   2452   2933   4031
4   2408   2464   2463   1205
4   2408   2407   1205   6712
4   2408   2463   1192   1213
4   2408   2463   1213   1205
4   2408   2407   2431   2273
4   4368   4391   2167   2522
4   2339   2341   2347   4917
4   2339   2347   2348   2346
4   2374   2369   2457   2347
4   2347   2373   3564   4734
4   2347   6466   2374   4734
4   2335   1264   1270   2442
4   2442   2335   2220   1270
4   2335   2220   1270   1263
4   2335   2600   2334   1263
4   2335   2334   2154   2336
4   2335   4261   2154   1255
4   2442   4261   2335   1264
4   2442   2220   2335   2446
4   2260   2257   5248   2167
4   2102   6059   1227   2167
4   2522   4368   2166   2167
4   2168   2325   2102   2167
4   2324   4327   2325   2168
4   2168   2102   2324   2213
4   2102   2258   2167   2325
4   2213   1434   2834   6058
4   3258   2385   2256   2251
4   2355   6202   2243   2247
4   2241   2249   2246   2243
4   2249   2255   2235   2227
4   2320   2197   4416   2302
4    746   5070   2276   6862
4   2197   2206   2302   2320
4   2351   2206   2299   2302
4   2097   2187   2098   2206
4   4309   2302   2297   5803
4   2302   2320   5105   3892
4   2188   2206   2320   2302
4   2077   2260   2078   5111
4   3171   2188   2304   2305
4   2302   2188   5105   2320
4   2344   2244   2311   3848
4   2345   6258   2431   2344
4   2345   2308   5375   2212
4   2308   6258   2431   2345
4   2345   2343   3441   2560
4   2344   2379   2981   5360
4   2345   2212   2210   2346
4   2344   2345   2346   2212
4   2345   2242   2343   2560
4   2242   2244   2311   2344
4   2216   2109   3972   2215
4   2109   3826   3972   3822
4   3972   6228   2143   2165
4   2215   2113   2321   3536
4   2222   2111   5025   1355
4   1361   1344   6533   2222
4   3822   2113   2321   2215
4   5836   6645   2202   4431
4   2581   2317   2547   6097
4   2340   2386   2388   4516
4   2386   2457   2348   2341
4   2389   5690   2457   6416
4   2389   2217   3052   5516
4   2389   2465   5516   4663
4   2387   2218   2386   2221
4   2221   2457   2292   2389
4   2457   2374   2221   2292
4   2137   2313   4106   2466
4   2137   2466   4106   6744
4   2466   2137   2625   6744
4   2466   2314   2467   2421
4   2135   2137   2625   2466
4   2131   2128   2144   2125
4   2126   2128   5604   1365
4   2232   2409   2231   1401
4   5919   2288   2285   2266
4   2126   1469   2128   2286
4   2164   2160   2266   2156
4   2341   2457   2347   2221
4   2417   1448   2184   2420
4   2218   2220   2221   2387
4   2389   2292   2221   2465
4   2221   2386   2341   2457
4   2221   2220   2465   2354
4   2221   2465   2220   2217
4   5866   5826   2437   3599
4   2387   6466   1263   2221
4   2221   1263   2220   2354
4   2330   2354   2220   2334
4   2335   2220   2333   2446
4   2337   2350   2349   2338
4   2446   2220   2390   2387
4   6690   1269   2131   2847
4   2183   2316   2182   2185
4   2182   2189   6458   2186
4   2186   1276   4824   1282
4   2316   2271   2188   4306
4   2398   2391   2442   2393
4   4616   6540   5539   2320
4   2182   2183   1445   1406
4   2046   2050   2470   2040
4   2037   2054   2046   2057
4   3497   6573   4196   6583
4   2048   2075   5830   2071
4   2037   2064   3335   2123
4   2061   2093   2065   2092
4   2419   2635   6100   3335
4   2046   2067   2066   2471
4   2472   2041   6077   2968
4   2041   2090   6043   2034
4   6043   2041   4506   2090
4   2041   2968   2472   2317
4   2317   2041   2034   2035
4   5044   6413   2179   2056
4   2041   6044   2474   3489
4   2380   2229   5487   2475
4   2041   4506   2090   6044
4   2477   2255   6534   3258
4   2479   2480   2477   4110
4   2479   2382   1327   4001
4   2382   1321   2282   1328
4   2382   2405   5562   1328
4   1205   2407   2408   2464
4   2463   5247   5246   2481
4   2273   5247   5246   2463
4   2482   5406   3838   2587
4   2464   2484   3837   2485
4   2485   2464   2481   3837
4   5247   5406   3838   2482
4   2376   2464   2484   2482
4   2464   2376   2407   2273
4   2402   2263   2287   2430
4   2403   2399   2430   2267
4   2402   2428   2429   2430
4   2486   3906   2230   2380
4   2475   2380   6691   5487
4   6813   2282   4680   2381
4   2380   6694   2255   6092
4   2475   2380   2229   2230
4   2230   2227   2380   2225
4   2380   2235   2255   2227
4   2235   2380   2230   2227
4   2127   2126   1363   1365
4   2477   2381   2405   2382
4   2225   2280   1348   2226
4   2249   3617   2243   6828
4   5509   3391   3393   2097
4   2097   2247   4745   2355
4   4449   2044   4450   5742
4   2247   2097   4745   2447
4   2249   6828   2243   2235
4   2247   2351   5050   2204
4   2247   2251   5510   2249
4   2243   2246   2097   2247
4   2233   2241   2243   2249
4   2160   2286   1364   2263
4   2249   2246   2243   2247
4   3395   4414   3394   2235
4   2235   2255   6536   4414
4   3483   2296   2235   2052
4   2255   2249   6536   3397
4   2249   2235   2255   6536
4   2261   2415   6507   2416
4   2257   2171   2077   2260
4   4301   2259   4302   2318
4   2260   2261   2257   2171
4   5162   2259   5454   5455
4   2257   2258   4534   2167
4   2363   6259   2325   2258
4   2363   4391   2367   2258
4   2258   4533   2367   4534
4   2446   2598   2217   2333
4   2446   2390   5875   4432
4   2170   2151   2335   2446
4   2148   2150   2138   2151
4   2152   2319   4303   2487
4   2031   2152   2041   2474
4   5505   2488   5010   2489
4   1256   2148   1255   2154
4   2153   2154   1256   2085
4   3497   3793   3498   3496
4   2153   2349   2154   2085
4   2031   2034   2032   2071
4   2044   2031   2038   2046
4   2490   2491   2176   6877
4   3031   2278   6876   2489
4   3031   6875   5011   2491
4   2491   4112   2176   6877
4   2730   2491   2383   2489
4   2491   2131   2284   2821
4   2490   2491   2609   2176
4   2492   4553   4880   5850
4   2609   2491   2131   2176
4   2348   2386   2574   2457
4   2221   1263   2374   6466
4   2373   2379   2369   2348
4   2389   2457   2292   6416
4   2386   4846   5269   4844
4   2395   2449   2397   2442
4   2449   2395   2397   4474
4   4474   2423   3384   2395
4   2578   2566   6134   2493
4   2395   2151   2138   2133
4   2395   2169   2151   2133
4   1306   6402   2104   2106
4   2132   2133   2395   2138
4   2132   2423   2422   2395
4   2395   2394   2397   2423
4   2494   2323   2212   2209
4   2272   2408   2275   2269
4   2431   2308   2212   4409
4   2210   2407   2346   2212
4   5691   4430   2212   2272
4   2408   2212   2431   2407
4   2212   2431   4409   5691
4   2117   4250   4249   3283
4   2364   2081   2087   2366
4   2364   2064   2428   5376
4   2059   2035   2057   2063
4   2364   2064   2365   2428
4   2368   2035   2059   2365
4   2046   2049   2050   2040
4   2064   3335   2428   5376
4   2037   1256   2635   5377
4   2064   2054   2037   2057
4   2061   2035   2057   2059
4   2067   4210   6216   2048
4   2046   2053   2471   2066
4   2090   2073   2438   2034
4   2120   2063   2060   2057
4   2340   2386   5421   2348
4   2340   2386   2341   2388
4   2348   5880   2244   5421
4   2221   2341   2387   2347
4   4917   2347   6466   2387
4   2387   2347   6466   2221
4   2346   2344   2373   2348
4   2339   2341   1381   2342
4   2390   2220   2218   2387
4   2218   2387   2388   2390
4   2195   2202   2201   5438
4   2339   2341   2340   2348
4   2339   2343   2344   2348
4   3305   4821   2342   6028
4   2340   5880   2242   2348
4   4917   2387   2441   2341
4   2411   4152   1454   1173
4   2488   2396   1222   3032
4   2488   3032   6879   2396
4   2495   2489   5091   4874
4   6362   2488   1644   2495
4   2404   2489   1223   1455
4   2489   1223   1455   2495
4   2493   2349   5882   6135
4   6134   2350   4834   2349
4   2493   2358   6101   4496
4   4239   2094   4499   2034
4   2493   2547   2577   6873
4   6400   3918   2099   4836
4   2097   2098   2412   3253
4   2412   2097   3390   2098
4   2256   2226   4011   2405
4   2050   2097   2296   2187
4   2299   2187   2301   2206
4   2247   2351   2204   2206
4   2464   2407   2497   4421
4   2407   2497   4421   1350
4   2464   1205   2407   4421
4   2417   1425   1349   1468
4   2417   2418   1349   1425
4   2417   2420   6035   1448
4   2417   2503   2184   1448
4   2246   2200   2247   2248
4   2498   2327   1414   2246
4   2498   3185   2248   1414
4   2327   1414   1403   2498
4   2427   2327   1414   1403
4   3497   6573   2901   4196
4   2352   2327   2385   2498
4   2200   2498   2433   3256
4   2498   2327   2433   2352
4   2446   2170   2151   2169
4   4263   2444   5369   2450
4   4595   2103   3919   3461
4   2450   4996   2169   6104
4   6290   2833   2152   6771
4   2450   4263   2390   3062
4   2444   2446   2450   2390
4   2449   2446   2450   2444
4   5853   5854   2042   5187
4   2450   3062   2390   6733
4   2398   2391   2441   2442
4   2228   3917   4288   3977
4   3977   2228   3978   3355
4   4209   2289   3094   2228
4   2228   2289   2409   2232
4   4073   2289   4209   2228
4   5039   2356   2317   3211
4   2228   2475   2499   3978
4   3978   2228   5515   3355
4   2136   2500   2697   2150
4   5515   2229   4073   2228
4   2405   2256   2381   2477
4   2229   2289   5735   4073
4   2098   2351   3330   2097
4   2351   2204   4308   3891
4   2247   2251   2249   2248
4   2096   2351   3330   2098
4   2351   2204   3891   5050
4   3330   2097   3253   2098
4   3310   2251   2248   6640
4   2462   2313   6745   2802
4   2137   2313   2802   6478
4   2625   2135   2618   2137
4   2467   2135   2466   2421
4   2137   2462   2802   2313
4   2137   2462   2313   2421
4   2462   2422   5889   4050
4   2462   2423   5751   5889
4   2132   2137   5751   2617
4   2391   5937   2394   1384
4   1273   2398   2441   1270
4   1270   6466   1263   2387
4   2441   2390   2444   2388
4   2151   4261   2453   2148
4   2148   2151   2138   2453
4   2151   4261   2393   2454
4   4261   2154   2148   2151
4   2240   2419   2055   2052
4   2148   2043   2039   2138
4   2446   4996   2450   6733
4   2151   2138   2454   2393
4   2150   2136   2138   2133
4   2151   2154   2149   2170
4   2395   2138   2151   2393
4   2501   2216   4714   4719
4   1198   1202   4465   5879
4   1202   2501   5879   1198
4   2502   2501   4062   3293
4   2502   2109   6342   1352
4   2501   2109   2622   3064
4   2501   4063   5879   1198
4   2504   6644   1300   6429
4   2216   2215   4065   2108
4   2504   6514   4743   3845
4   2415   2172   4638   2413
4   2241   2097   2246   2206
4   2413   4334   5190   4882
4   2288   2277   2126   2263
4   2127   2128   1340   2131
4   2288   2125   5917   2285
4   2288   2125   6782   5926
4   2422   2462   2421   2461
4   2126   2124   2277   2288
4   2127   2128   2126   1365
4   2143   4065   2165   2158
4   4027   1448   2233   2503
4   2224   2215   2161   3724
4   2113   2181   4257   5104
4   2181   2224   3536   2113
4   5101   2224   3536   2181
4   2113   2505   4868   5777
4   2222   2224   2181   2113
4   6434   2309   5364   2506
4   2228   2475   5515   2229
4   2283   2229   2289   5735
4   2285   6719   5919   2266
4   2425   2228   4287   3094
4   2228   2289   3094   2425
4   2425   3094   2468   2289
4   5649   5578   1846   1818
4   2469   2425   3094   2468
4   2124   2289   2288   6783
4   2364   2064   5377   2507
4   2079   2085   2364   2083
4   2081   2366   6765   4253
4   3112   2082   3110   2081
4   2476   2081   2368   3749
4   3749   2081   2368   3995
4   2366   2403   2083   2365
4   2364   2035   2507   2085
4   2081   3995   2366   2368
4   2368   2483   3751   3994
4   3994   2365   2426   2458
4   2426   3994   6734   2483
4   2179   6408   2534   2596
4   2063   2064   2057   2120
4   2426   2430   4400   4399
4   2426   2430   2424   4847
4   2458   2460   4858   5007
4   2403   2430   2458   2267
4   2365   2403   2083   2428
4   2064   2063   2365   2428
4   2349   2350   4834   6757
4   2337   2358   4147   2357
4   1323   1329   2279   2130
4   2338   2350   4729   4294
4   2350   2336   2640   6757
4   2338   4729   2350   2640
4   2395   2393   2442   2391
4   2397   2394   6859   3146
4   2449   2397   2444   5744
4   2395   2133   2423   3384
4   2446   2449   2450   2169
4   2397   3146   2423   2394
4   2449   2395   2133   2169
4   2136   2500   6475   5939
4   2136   2500   5939   2697
4   2133   2134   6892   2698
4   5490   2136   2698   2134
4   2132   2137   2421   2462
4   2138   2132   2134   2135
4   2135   2831   2649   2043
4   2649   2134   2648   2135
4   2508   5071   6776   6699
4   1313   2509   3099   2371
4   2191   2508   3844   2371
4   2371   2191   3903   3844
4   6673   3632   5871   2390
4   2338   2640   2336   4727
4   2337   2338   2330   4294
4   2218   2217   5876   6325
4   2217   2390   5876   2598
4   2389   2465   2217   5516
4   2330   4294   4155   2337
4   2329   5858   2333   5416
4   2338   2350   2349   2336
4   2217   5516   2465   5696
4   2329   2217   2465   5696
4   2446   2170   2169   4995
4   2446   2390   2598   5875
4   2442   1270   2220   2387
4   2217   5416   2333   2598
4   2389   2221   2217   2465
4   2390   2444   2388   5370
4   2446   2390   4432   6733
4   2335   2170   2446   2333
4   2442   2151   2169   2446
4   2446   2333   5875   2598
4   2442   2220   2446   2387
4   2446   2170   5747   5875
4   2388   4846   5269   2386
4   2144   2125   2286   2156
4   2292   2434   5940   2377
4   2292   2465   4663   2562
4   2292   2562   2510   2465
4   2496   6703   5419   2377
4   2389   2292   2465   4663
4   2347   2341   2387   4917
4   5423   2292   2457   6416
4   2292   2434   2377   2374
4   2296   2095   2097   2050
4   2205   6550   6451   5834
4   2511   1305   1438   1432
4   2511   2195   2193   5092
4   2126   2277   3639   2263
4   2115   5288   5675   5142
4   2116   4071   6212   6353
4   2127   2126   2277   1363
4   2124   2288   2125   6782
4   5637   2394   6859   2397
4   2395   2423   2397   4474
4   2133   2169   6111   6652
4   2132   2423   2395   2133
4   2391   2397   2395   2394
4   2070   6144   5870   4094
4   2133   2423   3384   5208
4   2132   2134   2843   2133
4   2138   2135   2467   2421
4   2135   2138   2136   2134
4   2395   2392   2421   2138
4   2160   2161   2163   2164
4   2164   2287   3815   3813
4   2267   2264   2237   2403
4   2237   2403   2264   2083
4   2159   2267   4131   4206
4   2159   4582   5367   2164
4   2615   3359   4581   2086
4   2164   2159   4206   2267
4   2615   4582   5367   2159
4   2200   2247   3169   3928
4   2417   1468   1420   1428
4   2233   2187   2097   2206
4   2184   2417   1302   1427
4   5834   2202   2205   5438
4   2241   2246   2249   2248
4   2200   2206   2246   2204
4   2200   2246   1430   1429
4   2241   5351   2246   2248
4   2207   1394   2246   1424
4   6535   1414   1429   2246
4   5351   2248   1414   2246
4   2391   5468   1460   2199
4   2132   2422   2462   2421
4   2186   4824   2187   1298
4   2186   2392   3339   6117
4   2194   6450   6501   5481
4   1402   2392   3339   2186
4   2314   2187   2186   2188
4   2421   2189   2461   2313
4   2391   1384   5468   5937
4   2461   4051   4514   4513
4   2484   2115   2058   6695
4   2111   2497   2112   2178
4   2407   2373   2497   4740
4   2497   2112   1319   6717
4   6555   2464   3193   1205
4   2407   2273   2379   2431
4   2346   2210   1274   5240
4   2212   2323   2208   2209
4   2323   2212   2208   5374
4   2346   2210   3365   1274
4   2508   3844   2371   2509
4   3564   2347   4917   2346
4   2347   2346   3564   2373
4   2221   2465   2292   2374
4   2339   2345   2210   2346
4   2339   2100   3365   2210
4   2346   1379   1380   3564
4   2339   2342   1381   3650
4   2340   2342   4491   4490
4   2261   1456   2257   2262
4   2257   2777   2167   5274
4   2257   6059   2167   1484
4   2257   5248   2167   6059
4   2262   2416   6084   1212
4   2192   1271   2371   1277
4   1371   2416   2262   2261
4   2262   1371   1456   6084
4   2267   3815   2287   6433
4   2267   5672   2460   4131
4   2164   2267   3815   2287
4   2202   4431   4823   5836
4   2430   2263   2287   2267
4   2428   2403   3680   2429
4   2164   2267   4206   3815
4   2460   4131   2237   2267
4   2267   2399   2430   2263
4   2430   2458   2365   2403
4   2325   2167   2168   4368
4   2193   5447   6449   6450
4   2166   1820   1816   5120
4   2102   2213   4742   2100
4   2195   2198   2194   2201
4   4742   1433   6113   2213
4   2188   2189   2186   2314
4   4514   2461   2462   5470
4   2137   4106   2313   6478
4   2137   2421   2313   2466
4   3894   2053   4477   2471
4   4137   2055   2119   2512
4   2512   2055   4692   4137
4   2298   2512   4136   3896
4   2052   2055   2236   2512
4   2046   2471   2053   2512
4   2070   2441   2342   5937
4   2054   4456   4691   2053
4   3894   3980   2512   2471
4   2512   2298   2471   3896
4   2471   3980   2512   3896
4   2138   2393   5474   2454
4   2149   2500   2152   2136
4   2513   5852   2831   2043
4   2136   2149   2150   2148
4   1325   2085   1255   2335
4   2148   2151   2154   2149
4   2150   2133   2151   2169
4   2138   2135   2039   2467
4   2132   2843   2134   2617
4   2228   2231   2409   2240
4   2240   2233   1449   2420
4   2379   2431   4812   6511
4   2379   2431   6511   5878
4   2379   2369   2981   6439
4   2327   5536   2427   1405
4   2370   2379   3641   2369
4   2407   2376   2379   2273
4   2344   2379   2407   2373
4   4619   2344   6258   2345
4   2379   2497   2373   2370
4   1362   2399   3462   2264
4   2925   2126   3639   2263
4   2286   2126   1469   2925
4   2162   2158   1357   1347
4   2402   2266   2287   2263
4   2429   2399   3096   2409
4   2409   2429   4419   3096
4   2263   2399   2430   2402
4   2160   2264   1362   6443
4   2500   2149   2150   2136
4   2043   6474   2155   4448
4   2138   2043   2039   2135
4   2135   2466   2513   2049
4   2135   2467   2466   2049
4   4136   2298   5243   2052
4   2050   2187   2419   2514
4   2057   2053   2054   2046
4   2052   2512   4136   2298
4   2046   2512   2298   2471
4   2055   2236   2512   4692
4   2812   2052   5626   2051
4   2095   6684   2291   2554
4   2397   4474   2423   3146
4   2391   2393   2398   2199
4   2392   2421   2138   1413
4   2148   2453   2138   2039
4   2442   2393   4261   3338
4   2446   6733   2450   2390
4   5474   2138   1413   2392
4   1384   2391   6658   5207
4   2335   2151   2154   4261
4   2249   5510   2243   3617
4   2200   2207   1394   2246
4   2206   2187   2188   2185
4   2187   2097   2296   2233
4   2420   2187   2233   2184
4   2186   2187   4824   1276
4   2355   5509   3393   2097
4   1468   2184   1428   2417
4   2184   2185   1424   4133
4   5344   2191   4234   2193
4   2371   2192   1184   2515
4   2371   2328   3532   6662
4   3763   2066   6175   2067
4   2069   2044   2048   2076
4   2071   2048   2076   5705
4   2032   2066   2068   2091
4   2048   5128   2075   2068
4   2048   4005   5127   5128
4   2048   2069   2558   2553
4   3639   2277   1363   2568
4   2401   3096   2409   1354
4   2399   2430   2402   2429
4   2264   2263   1362   2399
4   2399   2263   2267   2264
4   2399   2401   3095   3096
4   2399   2263   1362   1345
4   2144   1338   5400   1404
4   2125   5318   2131   4376
4   2288   5917   2125   5926
4   2283   2279   2280   2281
4   1421   2234   1307   2548
4   2195   5451   3167   2624
4   2229   4073   2228   2289
4   2131   2127   1452   1340
4   6489   5661   2156   4013
4   3167   2198   2624   1437
4   2232   2401   2289   2409
4   2288   2285   5917   5927
4   2213   1216   1453   1204
4   2099   2324   2325   2102
4   2809   2208   2810   2324
4   2102   2167   1227   6112
4   2258   6259   2325   5358
4   2213   6058   2834   1453
4   1256   2148   2036   6081
4   2148   6081   2039   2036
4   2153   2507   2085   1256
4   2153   1256   2148   2036
4   2376   2484   2112   2178
4   2178   2112   2179   2484
4   2497   2373   2370   2374
4   2374   2497   2178   2370
4   2178   2377   2434   2374
4   2370   2178   2377   2976
4   2178   2559   2976   2370
4   5040   2178   2976   2434
4   2177   2434   2178   5040
4   2178   2434   2435   2374
4   2111   2088   2435   2180
4   2916   2482   2376   2484
4   2120   2783   2693   2118
4   2424   2540   2536   2426
4   2063   2424   2120   5271
4   2085   2083   5921   2364
4   2424   2693   2120   5095
4   2538   4841   2063   2365
4   2537   2424   2540   2536
4   2064   2118   2120   2428
4   2428   2123   2064   2118
4   2160   2158   2162   1347
4   2458   2366   5813   3994
4   2198   2624   1437   5345
4   2288   5920   3506   2290
4   2266   2287   2164   3813
4   2160   5400   2158   1347
4   2160   2158   2163   2161
4   2434   5940   2377   6698
4   2292   2374   2465   2510
4   5940   2292   4267   2434
4   2177   6379   2180   6187
4   2331   2354   2374   2510
4    654   4648    753   4652
4   2434   6151   2510   4267
4   2434   2331   6151   2214
4   2079   2337   2358   2349
4   6131   2330   4155   2337
4   2220   2465   2330   2329
4   2337   2332   2854   6131
4   2088   2332   2079   2331
4   2318   5358   2325   4053
4   2318   2099   2325   2103
4   2168   2324   2208   2213
4   2318   2099   2104   4052
4   3650   2101   6400   2100
4   2100   2210   1280   1366
4   2100   2210   1366   3365
4   2099   2324   2100   2101
4   2213   2100   2210   1280
4   2394   5938   1384   5937
4   3563   6400   3918   2099
4   2152   2155   6239   2474
4   2150   2500   2697   4630
4   2148   4261   2453   1255
4   2195   5094   5093   5092
4   2263   2290   2402   2266
4   2155   2031   2152   2043
4   6475   2155   6240   2152
4   6532   1433   4742   2099
4   4091   1446   4093   3147
4   2358   6101   5039   2493
4   4293   2337   4294   4833
4   2449   4474   6654   3384
4   2189   2313   2314   2310
4   2316   4681   5426   6657
4   2316   2188   2320   4306
4   2310   4048   4047   4514
4   4355   2188   2314   2608
4   2189   6458   2421   1385
4   2310   4517   6657   6007
4   2316   2188   2185   2320
4   2491   2278   5314   3031
4   2278   4735   5237   4042
4   2225   1348   2280   2234
4   2225   2226   2380   2229
4   2225   2380   2226   2227
4   2281   2380   5487   2691
4   2405   3317   1328   2282
4   2146   6018   2147   2779
4   2146   6689   5323   2131
4   2394   1384   5938   5207
4   2439   4280   5408   6679
4   2542   2080   2543   2439
4   2230   4425   6693   4454
4   2439   5409   2440   6679
4   2462   3088   5108   2451
4   2079   2080   2439   2087
4   2440   2406   2357   2079
4   2439   2357   6543   5444
4   2439   2080   5444   2542
4   3776   2516   2517   3265
4   2384   3645   1311   2518
4   2936   3645   1311   2384
4   2517   1247   2268   2384
4   2517   1247   2384   2936
4   3098   2268   1249   2517
4   5837   2516   2479   2519
4   2168   2325   4368   2961
4   2103   1294   3461   5454
4   2318   2104   4300   4052
4   2259   2258   4441   2078
4   2318   2258   4301   2259
4   2934   5035   6671   1666
4   2318   2104   1294   5526
4   5526   4058   2544   2318
4   2318   4058   2544   4300
4   2399   3462   2264   6527
4   2458   2366   2365   2403
4   2486   2236   3905   3618
4   2235   2236   2486   3618
4   2486   2230   3906   4138
4   2280   2381   2282   2405
4   2234   2283   2124   2130
4   2251   2256   2249   2248
4   2243   2296   3483   4415
4   2235   4414   3394   2380
4   2380   3394   2486   3315
4   2240   2233   2236   2230
4   2380   2235   2486   3394
4   2480   2385   2256   3258
4   4091   1386   1446   3147
4   2317   4024   3841   4025
4   2317   2356   5922   3211
4   2356   2317   5922   2082
4   2358   4320   2357   2080
4   2493   3118   6461   2546
4   2356   2082   5922   5445
4   2111   5289   1331   6717
4   2082   2079   2356   2317
4   2358   5414   2080   5445
4   2493   2547   6873   4025
4   2228   2055   2240   2118
4   2118   3917   4288   2228
4   2226   2380   2255   2227
4   1385   2421   2392   6458
4   2118   2499   2228   2055
4   3733   3734   5035   6671
4   2499   6693   2119   4689
4   2499   2230   4454   4453
4   2475   2230   2499   4453
4   3917   2499   2228   2118
4   2499   2119   3917   4689
4   2230   6693   2119   2499
4   2499   2055   2118   2119
4   2625   2466   4224   2135
4   2135   2513   2770   2832
4   2466   2049   3312   2513
4   2466   2513   2769   2770
4   2770   4223   2549   2135
4   2043   2513   2135   2831
4   2423   2422   3146   3144
4   2049   2135   2039   2038
4   2085   1255   1251   1325
4   2153   2085   2317   2349
4   2330   2079   2089   2334
4   2035   2364   2365   2368
4   2082   3112   5407   2081
4   2633   2085   2083   5921
4   5061   2088   4986   2506
4   5061   2088   4258   5062
4   2088   2180   2592   6435
4   4167   2088   2406   2506
4   2088   4167   4986   2506
4   3065   3733   1666   6671
4   4198   2088   4167   4986
4   2088   2432   2180   2641
4   6529   2239   6434   2506
4   2309   5102   6452   2239
4   2088   2086   2089   2079
4   2089   2435   2088   2331
4   2088   2180   2331   2435
4   2046   2050   2049   2047
4   2031   2046   2048   2032
4   2053   2066   2091   6768
4   2048   2067   4210   4926
4   2054   2119   4691   3916
4   2052   3895   5243   5626
4   2057   6061   2091   5740
4   2032   2053   2066   2091
4   4033   2091   4866   2057
4   2050   2098   2299   2293
4   2046   2052   2051   2298
4   6106   4630   5004   2149
4   4822   2443   2342   2397
4   2298   2067   4445   2555
4   2298   2095   2067   2554
4   2069   2558   2553   6082
4   2048   2553   2557   6649
4   2067   2291   6711   2203
4   2048   2069   4135   4203
4   2048   4669   2556   4668
4   2048   2557   2558   5458
4   2048   2556   5036   4668
4   2501   3293   5537   4062
4   2500   6387   6290   2152
4   2487   2520   5008   2571
4   2132   2134   2135   2137
4   2154   2349   2520   2336
4   2398   1264   1266   3338
4   2335   2154   2170   2336
4   2152   2148   2043   2036
4   2101   2343   3092   5362
4   2339   2346   2210   3365
4   3650   2100   2339   2101
4   2111   2497   2178   2374
4   2161   2086   2162   2224
4   2180   2181   2111   2088
4   2484   2115   2116   2112
4   2163   2158   2143   2165
4   2109   4868   3822   2113
4   2224   2113   2215   3536
4   2107   2113   2115   2505
4   2457   2348   5688   2574
4   2370   2497   2178   2376
4   2407   6712   2408   2209
4   1541   4980   1072   2775
4   2370   2369   4901   2377
4   2379   3641   2369   6439
4   2348   2379   2369   2981
4   2457   2980   5688   2348
4   5375   2208   3340   2345
4   4663   2292   6416   2389
4   2369   2377   3642   4901
4   2348   2980   5688   2981
4   2370   5897   2376   2915
4   2342   2343   4864   3092
4   2343   3092   5362   6403
4   2168   2167   2102   6112
4   6400   2101   2106   2099
4   3502   2196   2202   6646
4   2322   6438   3502   2561
4   1406   2182   1444   1445
4   3487   2521   6038   3730
4   2184   2182   2186   2185
4   2204   2196   2878   2200
4   2187   2098   2206   2299
4   2196   2204   4936   4961
4   2206   2302   2351   2197
4   2206   2301   2188   2187
4   2188   2185   2187   2186
4   2184   2206   2185   2187
4   2221   2354   2374   1263
4   2435   1267   3337   2374
4   1466   2435   1267   3337
4   3782   2354   1267   2435
4   2354   1267   2435   2374
4   2111   2374   2178   2435
4   2510   2331   2434   2374
4   2434   2510   6151   2331
4   2330   2354   2510   2465
4   2330   2332   6131   3718
4   2292   5016   2510   2562
4   2510   6151   2331   5333
4   2510   2562   5694   2465
4   2329   2465   2510   5694
4   2338   2337   2350   4294
4   2332   3479   4580   6183
4   4708   2510   2562   5694
4   2510   2331   6183   5333
4   2450   2390   4263   2444
4   2390   3632   5871   4846
4   2089   2354   2334   2600
4   2083   2264   4552   3652
4   2216   4719   2919   1197
4   2354   2334   2600   1263
4   2510   2374   2465   2354
4   2334   2330   2354   2089
4   2329   2217   2220   2465
4   2225   2234   2594   1348
4   2419   2052   2233   2296
4   2066   2091   4612   2068
4   2032   2061   2091   2065
4   2364   2361   2081   2035
4   2057   5740   2091   4866
4   2091   2068   6809   4612
4   2502   2501   2109   2505
4   2068   3831   3912   4626
4   4136   2236   5244   4692
4   2095   2554   2298   5627
4   2057   2060   4611   4866
4   2037   2032   2035   2057
4   2340   2388   2443   3009
4   3505   2443   4490   2342
4   2796   1240   1239   3791
4   2443   5492   5372   2444
4   2443   2388   2729   3009
4   2391   1385   2395   2392
4   2968   2472   3486   3485
4   2153   2152   2149   2319
4   2487   2149   6106   5004
4   2523   2516   2517   3776
4   3621   2319   6629   2472
4   2520   5159   2567   2336
4   2336   5159   2567   6757
4   2349   2520   5159   3621
4   2350   2349   2336   6757
4   2154   2334   2349   2336
4   3556   6257    284   5553
4   2149   2319   2520   2153
4   2040   2046   2049   2038
4   2050   2314   2187   2467
4   2049   2039   2514   2040
4   2050   2049   2467   2514
4   2135   2513   2038   2049
4   2339   2101   2100   2343
4   2341   2387   2441   2388
4   2397   4822   5492   5637
4   2441   2444   2443   2388
4   2441   3093   2342   5937
4   2070   5870   4093   4094
4   2443   2444   5372   2729
4   5421   2340   6510   2386
4   2449   2395   3384   2133
4   2519   2974   5563   3091
4   2381   2256   2226   2255
4   2229   2475   5515   5514
4   2425   2228   2289   2409
4   2284   2283   2124   6118
4   2234   2232   2401   2289
4   2135   2466   2770   2513
4   5854   2042   5187   2043
4   5853   2513   3311   2038
4   2043   2136   2138   2148
4   2513   2042   5854   2043
4   2043   4448   2155   5187
4   2043   5854   2513   5852
4   2135   4223   2549   4224
4   2132   2133   5208   2423
4   2832   2513   5852   2831
4   3734   5035   5090    799
4   2453   1260   2138   2039
4   2502   1351   6342   1202
4   2038   2135   2039   2043
4   6454   6474   6475   2136
4   6290   2500   2152   5202
4   2135   2513   2832   2831
4   2040   2031   2038   2036
4   6671   3733   1666   5035
4   2148   2138   2150   2136
4   2149   2170   2572   4469
4   2399   2409   2401   3096
4   1378   2399   3096   2429
4   2409   2429   1397   4419
4   2225   2228   2232   2234
4   2409   2425   2428   2402
4   2230   2055   2240   2228
4   2234   1417   1416   1418
4   2281   3316   2691   5487
4   2277   1358   2568   1417
4   2409   1397   2429   2428
4   2425   2402   2289   2468
4   2289   2409   2402   2425
4   2228   2231   2225   2232
4   2127   1363   2130   3029
4   5712   2466   3495   2314
4   2038   2042   2513   2043
4   6136   2047   2044   2049
4   2467   2049   2039   2514
4   2036   2031   2038   2043
4   2031   2042   2155   2474
4   2049   2038   2039   2040
4   2044   2038   5305   3960
4   2038   2042   5305   5853
4   2081   2366   4253   2087
4   2081   2087   4253   5443
4   2366   2087   3851   4253
4   2081   6765   2366   3995
4   5407   2087   5408   2439
4   2364   2366   2365   2368
4   2364   2428   2083   1392
4   2035   2081   2364   2368
4   2329   2217   5416   2333
4   2181   4257   5101   6354
4   2347   2457   2348   2369
4   2333   2170   4121   6390
4   2333   4121   2170   5875
4   2338   2336   2333   4727
4   2337   2332   6131   2330
4   2980   2369   2348   2457
4   2341   4917   1381   2441
4   2457   2292   6838   2377
4   2501   1198   1202   6342
4   5919   5920   3506   2288
4   2216   4714   5778   4715
4   2429   4998   2428   1397
4   2399   2409   2429   2402
4   5604   2126   3149   1469
4   2424   2120   2425   2428
4   2123   6531   2428   3335
4   1396   3335   2123   2419
4   2376   2916   4664   2915
4   2485   2484   6695   2116
4   2056   2179   2115   2484
4   2108   2222   1357   4426
4   2222   2111   2113   2181
4   3973   2215   2161   2165
4   2111   2107   2115   2112
4   2111   2497   6717   2112
4   2269   2408   2463   1192
4   2111   2374   2435   5289
4   5700   4922   3872   4921
4    785   5507   5700   3871
4   2361   2094   5895   5029
4   2084   2633   2083   1390
4   2493   2578   2546   6083
4   5922   2317   5881   2361
4   4595   3649   3919   2099
4   4554   2411   2495   5238
4   2153   2520   2154   2349
4   2317   2361   2094   5895
4   3872   6500   4922   5700
4   2493   2472   2349   6135
4   2317   5881   2361   5895
4   2269   1741   3929   5456
4   2273   2269   2463   3192
4   2275   4811   2431   5692
4   2270   5270   3773   5457
4   5932   2179   2115   2056
4   3297   3872   3202   4922
4   1882   2272   2269   5756
4   2037   2470   2635   2040
4   2061   2057   4033   2060
4   2120   2783   2118   4144
4   6681   2554   2555   2067
4   2048   2066   6175   5127
4   2048   2044   2069   2047
4   2064   2123   2428   3335
4   2054   2055   2119   2118
4   2048   2047   4667   6217
4   2055   2499   2228   2230
4   2055   2512   2053   2119
4   2296   2051   2052   4415
4   2052   2055   2240   2236
4   2501   2622   2505   4062
4   2502   2116   5417   2505
4   4714   2501   1198   4063
4    724   6502   4140   5548
4   3063   2109   2946   2216
4   2501   2216   3063   4714
4   2502   2107   2116   2505
4   2108   2222   4426   1355
4   2108   2109   1248   2216
4   2485   1226   2481   4023
4   2485   2107   2112   2116
4   2108   1339   1352   2107
4   2109   2216   6342   1248
4   5118    781    782    143
4   2104   5526   5934   1294
4   2106   4057   5870   6144
4   4595   2099   3919   2103
4   2099   4595   6532   2103
4   2324   2325   4052   2099
4   2106   1275   1387   1306
4   2104   1387   3649   3919
4   2449   2397   5744   4474
4   2446   2217   2598   2390
4   2444   2388   5370   2729
4   5369   2444   2449   2450
4   2449   2442   2446   2441
4   6853   2061   2065   5100
4   2374   2434   2510   2292
4   5548    723   3202   3298
4   2273   2270   2269   3192
4   5247   2464   2463   2273
4   3026   3201    623   4402
4   2376   2587   6558   2273
4   4260   2376   2587   6558
4   2482   2376   2273   2587
4   2273   2463   5246   3192
4   5548   3297   3202   4922
4   3192   2270   2590   2273
4   2107   2111   1355   5523
4   2502   5401   2585   5724
4   2107   2505   2115   2116
4   2502   1352   2107   2109
4   6633   2180   5748   2177
4   2107   2108   1355   2111
4   2112   2376   2497   2464
4   2485   4023   2464   1319
4   1225   2112   1319   2485
4   2115   2056   2058   5932
4   6707    528   4140   5792
4   2520   2154   2170   2149
4   2221   2387   2220   1263
4   2150   2149   4630   4843
4   5325   2170   2520   2336
4   2170   6390   2336   5325
4   2333   2170   6390   2336
4   2330   2338   2334   2220
4   2446   2169   2450   4996
4   2446   4995   2169   4996
4   2048   4669   5099   4095
4   2441   2398   1273   3061
4   2346   2347   4917   2339
4   2347   2221   2374   6466
4   2050   2040   2049   2514
4   2314   2466   2524   5712
4   2049   2513   2038   3312
4   2138   2421   2467   1413
4   2039   1260   2514   6081
4   2346   3564   1380   4918
4   2138   2467   1260   1413
4   2132   2134   2137   2617
4   2449   2169   6652   6104
4   2449   3384   2395   4474
4   1385   2394   5207   2391
4   2423   2422   2394   3146
4   2070   5937   2394   2397
4   2390   5370   2388   5371
4   5441   2368   2359   2551
4   2359   2368   5441   2476
4   2081   2476   2359   3213
4   2031   2037   2046   2032
4   2061   6683   2359   5737
4   2092   2361   2359   3213
4   2061   2093   6252   4613
4   3258   2251   4839   2385
4   6684   2291   2958   2095
4   2809   2324   5363   2343
4   2302   2351   4309   2299
4   2235   3619   2236   3618
4   2247   2243   2355   2097
4   2231   1401   1400   1398
4   2127   2130   2124   2284
4   2364   1251   2085   2507
4   2084   2085   2083   2633
4   2317   2079   2356   2349
4   2406   2079   2440   2088
4   3262   5238   3263   2495
4   2089   2435   2354   3782
4   2435   3269   1343   2089
4   2442   2335   2151   2446
4   2191   6662   2371   3903
4   2222   2435   2089   3269
4   2337   4507   4496   5815
4   2403   1392   3680   1393
4   2180   2641   6435   2088
4   2458   3994   6734   2426
4   2458   2267   4858   2460
4   2430   6430   2402   4847
4   2424   2365   2430   2426
4   2054   2118   2120   2064
4   2290   2288   2263   2277
4   2693   2118   2425   2120
4   2441   2387   2446   2390
4   2298   3895   5243   2052
4   2123   6531   1441   4998
4   3924   2516   4000   3259
4   2517   2523   1315   2516
4   6272   4460    251   5806
4   1268   1262   1353   1265
4   2918   2268   3921   2384
4   2523   2973   1249   1315
4   2373   5240   1272   5268
4   2464   2481   3193   4023
4   2275   3968   4811   6064
4   6680   2358   6101   5039
4   2373   2374   6643   3337
4   2408   2209   1217   2494
4   2457   2803   2980   2369
4   2379   2344   2348   2373
4   2213   2323   1220   1204
4   2346   1380   1274   3365
4   2333   4727   2336   5158
4   2329   2220   2217   2333
4   2335   2333   2336   2170
4   1270   2398   2441   2442
4   2336   2567   2520   5325
4   6415   2616   3764   2337
4   2365   2063   2064   2035
4   2409   2428   2123   1397
4   2053   4477   2066   6768
4   2091   2068   5307   5309
4   2046   2048   2067   2291
4   2272   5019   5427   6441
4   2063   2060   3636   4869
4   2068   2065   2091   5307
4   2035   2064   2364   2507
4   2031   2044   2073   2076
4   2444   5372   6651   5745
4   2053   2512   3894   5258
4   2524   6229   6146   2303
4   2303   2301   5991   6755
4   3843   2524   2303   6229
4   2046   2050   2052   2419
4   4518   2524   2314   2303
4   2406   2432   6153   6152
4   2331   2432   3214   3478
4   2113   2062   4257   2181
4   2089   3782   2600   1390
4   2264   3148   6527   3462
4   2086   2237   2083   2087
4   5746   2518   3667   3262
4   2340   4516   5373   6509
4   6454   2043   2136   2649
4   2133   2169   6891   6111
4   2152   2474   6239   6772
4   2155   6239   2474   6476
4   2155   6799   4911   6476
4   2136   6474   6475   2155
4   2487   2149   2571   6106
4   2135   2049   2039   2467
4   2043   2513   2038   2135
4   2314   4106   4634   2313
4   2365   2368   4842   2059
4   4842   2483   3751   2368
4   2087   2460   4262   2237
4   2366   2368   3995   3994
4   2336   2338   2334   2349
4   2284   1415   2491   2821
4   4347   4433    514   4390
4   6236   2082   3112   5407
4   2458   2366   2460   2589
4   2059   4842   2551   2368
4   2237   2460   2366   2087
4   2370   4104   6556   2976
4   2316   2189   2182   2188
4   5050   2247   2447   2351
4   2197   2238   2302   4308
4   2185   2182   2186   2188
4   2187   4824   2420   5266
4   2183   2182   2315   1406
4   2521   2183   3730   3487
4   2197   2302   2351   4308
4   2040   2039   6081   2036
4   1443   2419   6100   6222
4    934    922    924   2894
4   2218   4188   3052   6325
4   3495   4106   4634   2314
4   5990   2301   4356   2188
4   4518   2524   2303   3843
4   2049   2050   2314   2303
4   2442   2449   2397   2441
4   2187   2419   2514   6222
4   2379   6439   6440   4812
4   2046   2123   2419   2055
4   2635   2419   6100   1443
4   5981   5714   2466   2524
4   2067   2298   4445   2471
4   2235   2486   3395   3618
4   2052   2236   2235   3619
4   2095   2098   3961   3390
4   2409   2118   2228   2240
4   2322   4059   2561   3502
4   2385   2480   6091   4429
4   3895   2051   2052   2298
4   2320   2206   2322   2197
4   2202   2322   2207   2196
4   3147   2394   4091   2422
4   2446   2441   2444   2449
4   2422   2132   2462   2423
4   2310   2313   2462   2461
4   2462   4733   2451   5108
4   2392   6458   6658   1385
4   2394   2395   1385   2422
4   2132   2462   2423   5751
4   2449   2133   3384   6652
4   2443   4822   5492   2397
4   2127   2130   2277   2124
4   2128   2145   5319   2847
4   2821   2609   2491   2131
4   2131   2176   4112   5323
4   2125   2131   5318   6689
4   5655   2125   5917   2610
4   2283   4420   3334   3239
4   2444   5744   5372   5745
4   2194   1405   1436   2192
4   2427   1405   1436   2194
4   2327   5098   2515   2328
4   2035   2153   2507   2085
4   2092   2129   2361   3213
4   2061   2093   2092   6252
4   2094   6427   5902   3589
4   2046   2050   2047   2291
4   2306   6146   5713   2303
4   2044   3976   5741   6136
4   2406   4809   5665   4169
4   2044   6136   5741   6759
4   2421   2135   2466   2137
4   2314   2303   2301   5991
4    934    922   6720   5217
4   2466   2513   3312   2769
4   2233   2241   2206   2097
4   2031   2073   2044   2042
4   6699   2508   3844   2191
4   2040   2036   6081   2635
4   2091   2068   5304   6809
4   2037   5377   2635   3335
4   2470   2046   2123   2419
4   2444   5745   6651   5369
4   2067   2554   2555   2298
4   2050   2314   2467   2049
4   2299   2306   2301   2050
4   4449   2073   4450   2044
4   2044   2076   4003   4004
4   2044   2073   2076   4449
4   2048   4926   4210   2556
4   4560   2306   6146   5713
4   2069   3974   2044   4003
4   2272   4130   5052   6441
4   2037   2470   2123   3335
4   2048   4135   2069   5705
4   2048   6649   5036   4210
4   2327   2200   2246   2498
4   2515   2328   5201   6249
4   2515   2328   5098   5201
4   2239   2087   2440   4100
4   2061   2092   2359   6683
4   2283   2281   2229   5734
4   2283   5734   2229   5735
4   2083   2541   2633   5921
4   2079   2440   2439   2357
4   2079   2439   2080   2357
4   2335   3613   1325   2334
4   3482   2060   4837   2063
4   2053   5258   3894   6767
4   2079   2364   2081   2087
4   2401   2263   1345   3639
4   2424   2365   2536   2538
4   2269   2463   1479   1203
4   2438   2073   4923   3250
4   2438   4296   2631   2253
4   2438   2789   2611   2632
4   4502   4605   6752   2041
4   2090   4506   2789   2632
4   5915   6796   5916   2474
4   2090   2073   4297   4923
4   2031   2474   2090   2042
4   2558   2069   2048   5458
4   2042   2474   2090   4297
4   2031   2041   2090   2474
4   2359   2059   5737   2551
4   2060   3637   3638   4866
4   2057   2060   4866   4033
4   2335   2600   1308   3613
4   2272   5427   5019   3846
4   2424   2538   5271   2063
4   2061   2065   4613   6853
4   6651   4263   2444   5369
4   2314   2188   4355   4356
4   4412   2291   2293   2958
4   2306   2291   4412   4411
4   2098   3170   2096   2299
4   2036   2152   2153   2035
4   5135    644   3492   4492
4   2299   2293   4813   2306
4   4924   3170   2096   2098
4   2293   2098   4924   2957
4   2306   2047   6138   6256
4   2095   2098   2293   2958
4   2524   2306   4561   6760
4   2050   2098   2187   2299
4   2299   2351   4309   2096
4   2050   2303   2306   2301
4   2050   2293   2095   2098
4   2510   4267   5016   2292
4   4320   2358   4147   2614
4   4169   2440   3475   6544
4   2502   2585   6212   4071
4   2085   1255   2335   2154
4   2337   5815   2493   6382
4   2357   6415   5478   4507
4   2357   5667   2406   5664
4   2084   3613   2600   2334
4   2264   2237   2083   2086
4   2217   2446   2220   2390
4   4496   2358   4147   2337
4   2337   6382   3764   6415
4   5667   2357   2406   2332
4   2337   2616   3764   5667
4   2330   2220   2329   2338
4   2330   2510   2354   2331
4   2344   5878   2379   5360
4   2032   2065   2091   2068
4   4297   2042   2073   2090
4   6134   2493   2349   2578
4   2306   2524   6146   2303
4   2061   2057   2035   2032
4   2474   2031   2152   2155
4   2441   1381   3061   1273
4   2031   2152   2043   2036
4   2513   2038   3312   3311
4   1325   2334   2085   2335
4   2357   2439   4633   2440
4   2130   2283   2279   2280
4   4613   2093   2619   2065
4   5489   3832   2065   2075
4   2065   3775   4124   5489
4   2065   3775   3283   5002
4   2065   5100   5307   6853
4   2032   2091   2061   2057
4   2091   5100   5307   2065
4   2160   2144   2156   2163
4   2158   2165   2161   2215
4   2161   3973   4179   3724
4   2109   2505   2622   2623
4   5756   2272   2269   2494
4   2482   2464   2273   2376
4   2090   2042   2073   2031
4   2198   5345   5835   2624
4   2423   5889   3144   3089
4   2466   3453   2549   2769
4   3114   6705    551   6795
4   6099   2299   2882   2301
4   2067   2552   4210   4926
4   2306   2882   2303   2628
4   2303   6755   2628   2882
4   2299   2627   2882   6852
4   2240   2419   2123   2055
4   2306   2628   2688   4813
4   2299   2297   2096   4309
4   2293   3170   4813   4446
4   2928   2849   5597    762
4   2928   2849    762   3236
4   2928   2621    294   6493
4   2928   2621   3236    294
4   3552   3811   3663   2937
4   2849   3236   5596    756
4   2849    755    762    756
4   2928   5596   2849   3236
4   2849   3307    755   5993
4    762    489   3307   5597
4   4349   4526   4757   4825
4   4349   4540   4523   4597
4   2798   4963   4259   6569
4   2346   1380   1272   1274
4   2209   3442   4181   1278
4   4181   2373   5268   5240
4    180   4567   2989   5829
4   4567   4090   5829    180
4    689   4943    180    688
4   3270   3344   4597    559
4   3270   3344   4781   4540
4    559   3270   3344   4781
4   3270   3874   4825   4540
4   3270   3874   4463   6568
4   3270   4781   4463   4540
4   3307    762   2849    755
4    755   3226   6276   5993
4   6551   3757   6276   3226
4    755    489   3307    762
4   2508   1411   5071   2761
4   1309   1450   1284   2504
4   3507   3539   3277   4406
4   3539   2014   4406   3507
4   3539   1487   1238   3805
4   3539   1238   3370   6485
4   1488   3539   1487   1238
4   1917   5754   5578   6401
4   5069    218    691    591
4   5985   5983   4983   4089
4   4089   2989    261   5600
4   4089   4983   5985    210
4   4089   5983   5600    261
4    937   6503   6364   6243
4   6243   6503   6364   4920
4   6503    935   6363    914
4   1764   5754   5578   1932
4   5593   5980   5256   5948
4   5170   3109   3108   3107
4   1446   4092   5611   5891
4   5891   1446   1465   5611
4   5567   3699   3289   3774
4   1446   4092   3633   3147
4   5891   5252   1383   1446
4   1446   4094   2070   4093
4   1377   5891   6210   1383
4   6210   5934   6728   1377
4   6730   6210   5934   6728
4   1377   1372   5934   6728
4   1377   5617   6209   3588
4   5252   3633   1446   5891
4   1377   6209   6728   6210
4   1377   3588   6209   5891
4   4254   6578   2728   6125
4   5891   5252   5890   6210
4   5890   5891   6210   6209
4    517   4754   2883   4345
4    517   2806   4345   3135
4    517   5339   4686    516
4   3342   3134    517   2883
4    517   5339   3135   4686
4   5608    757   2792   2897
4   6687   6050   3432   2896
4   6050    757   2792   5608
4   4054   5137    384   3465
4   2325   4052   2099   2318
4   6402   2104   2106   6144
4   2193   4233   5450   4234
4   2708   2707   2884   2709
4   6098    538   2938   4208
4   6098    536    537   2939
4   6098    531   2938   4483
4   6098    531   4483    526
4   2060   3637   4033   2875
4   2060   3637   2875   3636
4   2145   1211   1457   2847
4   2263   1362   1345   2925
4   2176   2131   2175   5323
4   2126   1335   3639   1363
4   3771   5935   6749   2525
4   1647   6879   1193   2492
4   3032   6879   1647   2488
4   4054   5753   3466    384
4   5753    384   6022   5695
4   6266    914   1470   6504
4   6266   1470   4015   6504
4   6266   2658   1234   1243
4   3977   2499   2228   3917
4   2380   3315   2486   3906
4   5657   6345   3803   6344
4   2869   1847   3661   3426
4   5592   5280   5282   5886
4   5592   5297   5886   5283
4   3998   3997   1471   3157
4   3998   5214   5262   1471
4   3998   5118   5117    781
4   3998   5118    781    913
4   5069   2764    691   5066
4   2126   3639   2277   1363
4   5920   2266   2288   5919
4   2401   3639   1345   2569
4   2119   3916   4689   3915
4   5592   5281   3414    558
4   4522    692    560   5557
4   4522    578   3869   4521
4   4522    560   4386   5557
4   4522    560   4521   3411
4   3603   5949   5477   2905
4   3603    363   5949   2905
4   3603   3517   2905   3965
4   3603   5477   3965   2905
4   2796   1240   6671   1239
4   2796   1240   1208   4830
4   2796   4978   1240   4830
4    657   3964   5950   5211
4    657    478   5211   3966
4    657   3517    478   3966
4    211   4937    677   3440
4   6166   5908   6170   3806
4   6166   5204   5908    677
4    211   3672   4588   3877
4   5908    211   3672   4588
4    211   3877   4588   3806
4   2884    767   5816   2885
4   2709   2885   2884   2708
4   2884   2707   3719   6603
4   2708   3719   2884   2707
4   2884   2647   3719    767
4   2647   3012   2706   6603
4   5564    606    608   6215
4   5245   3288    758    642
4   6834   3426   2869   3661
4    758    369    642   3288
4    758   4909   3288   3287
4    758    639    426   3287
4    447   3208    432   3592
4    447   4762   3209   3592
4    447   3209   3127   3208
4    447    656   3209   4762
4   2630   3587   5466    611
4   3598    611   5467   2629
4   2630   3945    611   2629
4   3587   2630   3945    611
4   2906   2644   2869   3426
4   1753   2166   6614   4804
4   2166   4804   5544   1816
4   4804   1879   3852   2666
4   5118    143   5117    781
4   5118   5262    782    913
4   4758   5118    143   5117
4    383   4610   3678    387
4    383   5571   4893   6023
4   2290   6093   3708   5928
4   4149   3947    459   3948
4   4149   3209   3631   3127
4   4149   2583   3127   3631
4   4149   3631   5310   2583
4   3209    656   5311   4762
4    447    656    459   3209
4   3948   4149   2583   3127
4   3209   3631   3127   3208
4   2015   6841   1091   1510
4   2015   2837   1629   2846
4   2015   2837   2846   3017
4   4790   5825    291    770
4   4790    766    770   3235
4   4790   5825   5992    291
4   4790   6499    766   3235
4   1386   4092   5611   1446
4   4904   2106   1387   4836
4   5611   5890   5891   4092
4   1446   3147   1386   4092
4    634    750   5348    636
4    634    750    683   6870
4    655    660   5067   3070
4   3859   5067   5462    655
4   3604    474   4289   5462
4   3604   3070    655   5462
4   2647   3012   6603   3719
4   5816   3333   6789   4275
4   3373    585   6345   6344
4   2647   4276   3012   3719
4   2708   2885   2884   5816
4    767   4276   5816   4275
4   6481   2990   6480   4186
4   2990   5984   6481   4089
4   6198   6526     36   3878
4   6604   3878   4589   6526
4   6604   6526   4588   3877
4   5982   4835   6329   6650
4   3420   3422    898   5632
4   4892   4763   4268   4264
4    404   5575   4890   6292
4    404   5575    418   4890
4   5936   5020   1809   5461
4   5936   5463   5020   5461
4   5020   5461   5021   1809
4   2069   3780   5458   2558
4   4342   6285   6213   6287
4   2112   2485   1225   2107
4   3035    671   4750   3045
4    546   3045   3035   3046
4   3044   3043   6707    528
4   2502   1352   1351   1356
4    546   3035   6885   3046
4   3046    547   6885    546
4    547    544   5179    548
4   3114   3046    547   6885
4    547   3114    550   5179
4    547    544   3272   2656
4   6274   4791   6248    761
4    231   6248    266   6070
4   6248    266   6070   6274
4   6274   2713    266   3386
4   2315   4241   3579   5251
4   3543   4916   4915   3956
4   3543   6595   4915    523
4   3543   6595    525   5720
4   2630   5788   5466   3587
4    611   5465    306   2629
4    611    610   3945   3587
4   2848   2706    764   3346
4   2848   6603    763    764
4    617   5564    604   3801
4   5547   1406   4241   4848
4   2753   3941    615   2994
4   3941   5114   5564    615
4   6339    735   3664   3717
4    437   5945   5163   5957
4    437   5945   2940   5163
4    437   3377   4020   2940
4   2437   6280   3711   4114
4   2552   2067   4210   6216
4    451   4270   4895   4892
4    451   6597   4299   4270
4    451   4299    330    734
4   2269   4340   1741   1501
4   3847   2272   5691   2431
4   1882   5227   4341   1833
4   2269   1741   4340   1677
4   2362   2147   3666   5500
4   2146   2147   2175   2779
4   6456   2146   6689   5323
4   2141   2142   2147   3786
4   2141   5287   6310   3786
4   2362   4515   4271   5499
4   5532   5693   1462   2175
4   2362   2710   5499   4913
4   2362   2659   4913   5499
4   2362   5532   5693   1179
4   4163   2176   6880   2174
4   2119   4691   3916   3915
4   4241   1406   4379   4848
4   2283   5869   2289   2124
4   2054   3916   4855   5502
4   2251   2256   3258   2255
4   2119   3915   6692   4691
4    383   4893   5571   4895
4    383   4895   5571   4264
4   2424   2120   5271   5095
4   2277   2401   1416   2568
4   2424   4847   2740   2540
4   3639   2263   1345   2925
4   5258   2053   2119   4691
4   5920   2266   2287   2402
4   2401   2569   1345   3095
4   2266   5920   2287   3150
4   2417   2420   3504   5686
4   2417   5689   2503   1448
4   2417   1442   4850   2858
4   2296   2187   2419   2050
4   2417   3059   1420   1349
4   2417   1349   2418   3059
4   2417   1425   1468   2503
4   2068   4626   3913   2075
4   2048   5458   4668   2557
4   2069   4203   5652   4135
4   5109   2091   4612   6768
4    306   6392   4494   6736
4   2629   6392   5465    306
4   4036   2629   6392   5465
4    306   6736   4494   2375
4   6197   2375    306   5467
4   5467   6197   2629    306
4    611   2629    306   5467
4    611   2630   3598   5466
4    519   3342   4754   4229
4    519   3545   3342   4229
4    517   4345   2883   3135
4   3342    517   3134    516
4   4389   5892   6727   4848
4   2193   4234   5450   6361
4   6162   5946   3804   6890
4   6162   5946   3570   3804
4   6834   2869   1852   1863
4   5867   3023   3422   3802
4   5867   3023   3802   2889
4    519   4229   5670   3545
4    519    518   5631   3542
4    519   5669   3542   5670
4    518   3542   4236   6672
4    518   6672   4236   5999
4    518    775   6000   4236
4    519   5669   4754    518
4    518   4279   5669    775
4    518   5669   4279   4236
4   1117   2240   1449   2420
4   2402   5920   5513   6431
4   2402   2740   5513   2468
4   2069   4667   2047   4666
4    567    566   4369   4337
4   2467   2187   2186   2314
4   4272   4641   5955   4394
4   4272   4644   2892   5770
4   2480   5365   5929   3727
4   2479   5365   4110   4290
4   2850   6154   6620   4657
4   2850    450   5342    455
4   2850   3326    455   6620
4   4602   3415   5914   6154
4   6154   3327   4602   3415
4    447   3209    459   3127
4   3209    656    459   3743
4    656   5311   4762   2886
4    656   3743   4196    459
4    656   5311   2886    454
4   5681   1467   5614   4389
4    203   3931    174   2586
4   2586   3931    174   3611
4    174   6358   3931   6647
4   3611    174   4367   6269
4    174    590   3611    207
4   5547   4848   4241   5887
4   4331   4916   3956   4910
4   6881   3956    555   4910
4   3956    555   4910   4916
4   5663   2125   2156   5655
4   4207   4202   3956   4331
4   3956   4915    555   4916
4   4618   3956   4915    555
4   2841    255   3142   6270
4   3163   2841   4246   2842
4   2175   5323   2146   3304
4    256   4246   3698   2841
4   2841   3162    255   2842
4   6877   2490   2491   6875
4   2526   5807   6034   5157
4   2526   6034   6455   4154
4   1295   2526   4455   5157
4   2526   6068   2563   1375
4   4219   3037   3036   4218
4   4219   6718    320   4218
4   2300   6624   2276    748
4   4851   6615   4428   4069
4   4906   3830   4785    565
4   4906    727    565    571
4   4906    727   4788   4907
4   4906   3830   6419   4785
4   2125   5925   5318   5918
4   3992    568   4786   6376
4    570   6376   3992   4788
4   4788    570    571   3992
4   3992    283   6419   4786
4    283    568   4786   3992
4   4906   3992    571   6419
4   6766   4794   4165   6541
4   6541    504   3273   6766
4   2146   5663   5662   6456
4   6766   6541    495   4794
4   6495   6766    504   6297
4   6766    504   3273   6495
4   2472   5056   3842   4627
4   2283   2124   6118   5869
4   2317   4025   3841   3840
4   5735   2283   5869   2289
4   2968   2041   2034   2317
4   6422   5228   5231    502
4   6422   3897   6600   2828
4   2806   4345   5630    769
4   2806   5630   3135   2747
4    514   5630    769   2806
4   2806   2746   2747   6810
4   2806   2746   6810   5339
4   5630   2747    514   2748
4   2125   4376   5431   5918
4   4347   2746   4390    514
4    514   2746   4390   2747
4   2806   2746    514   2747
4    174    203   6647   3931
4    590   5335   2586   3611
4    174   2586    590    203
4   3816   3426   3817   1847
4   6791   2586    203   3076
4    590   3080   5555   3076
4   2735   4659   4266   4265
4   2735   4352    352   4265
4   2448    746   5070   2276
4   2735    352   4352   4353
4   3649   2106   4836   1387
4   2104   1387   3919   1306
4   2510   4708   2562   6702
4   2510   4708   4678   5694
4   6421   5597    299   5580
4   2435   6643   4145   5289
4   2179   2596   2534   2595
4   2435   4145   6642   6533
4   2806   3135   5630   4345
4   5630   5383    769   4345
4   5630    769   4969   2748
4   5842   5565   4126   2702
4   2703    641   6127    700
4    641   6127    700    317
4   4126    317    641    337
4    337   4128   4126    317
4    641    652   5565   4126
4   6835   3959   4016   5886
4    392   6561    675   4946
4   3525    407    436   3086
4    675   4946   4466    392
4    392   6561   4599    357
4   4944    392   4599   5390
4    392    475   5390   4944
4    484   3576    475    392
4   4649   3245   5126    329
4    484   4466   4946    392
4   5786   6874   5776   5783
4    511    510   6160    329
4   3649   4836   2106   2099
4   6028   2106   2101   4057
4   2284   3030   5431   4376
4   6028   2070   2342   2106
4   3836   2916   2484   2482
4   2112   6717   5239   1319
4   2115   2505   5677   5675
4   5593    280    358   3374
4   5593    358   5948   3374
4   5593   3372   3376   5594
4   5593   3376   6596   5594
4   5593   3376   5948   5256
4   2519   4509   5301   3777
4   3166   4367   3611    207
4    590   5198   5335    207
4   2277   2568   1416   1417
4   6835   5885   4016   6055
4   3344   6204    575   4985
4   3344    575   4597    559
4   2278   5236   5237   4735
4   3344   4523   4597   6204
4   3869    563   4687    578
4   5314   3031   2278   6876
4    578    563   4687   5599
4   2377   4104   2976   4971
4   4489   4967   3189   4805
4   6323   6352   5123   3078
4   6323   6351    485    701
4   6323    485   6351   6352
4   4649   3245   3189   5126
4   2494   1671   1879   2323
4   1879   2781   4325   3852
4   2457   4675   6838   6513
4   2323   1671   1879   1753
4   2071   2437   6279   5482
4   2437   6279   5484   3627
4   2410   2518   2384   1102
4   5823   4452   4045   2117
4   2117   5475   4134   3750
4   4964   3165   4951   4950
4   4950   3224   4964   6352
4   4950   3224   6352   4898
4   5461   5274   1821   6087
4   5461   1822   5021   1809
4   5461   5463   6087   1809
4   5936   5461   1809   5463
4   3243   3223    661   6308
4   6308   6328   6348   3243
4   6308   6328    669   6348
4   6308    669   6328   3223
4   6479   2034   4640   2041
4   2968   2041   6077   4640
4   2034   6774   4640   5905
4   6322   4387   6343    230
4   3245   4805   3189   5126
4   6552   4380   1867   4385
4   4385   1867   5079   4524
4   4385   6005   4066   4380
4   2410   3858   2660   6858
4   2041   4620   6073   4605
4   2364   5376   1392   5921
4   1334   2084   3613   2600
4   2237   4581   4107   3359
4   2309   5061   4258   5364
4   4488    661    345   3243
4   4954   3631   2583   5310
4   4954   3430   3429   3006
4   4954   3631   3429   2583
4   4954   3006   6115   3430
4   3535   5840   5420    391
4   3535   6286   5420    371
4   3535   6041   5420   6286
4   3535   5420   3583    391
4   3535   5420   5840    371
4   2146   5662   5534   3151
4   6037    391   3583   3322
4    934   3445   2895   5217
4   5840   6037   3322    391
4   2282   2382   6813   6812
4   2497   4740   1350   2407
4   5809   6863   5681   2975
4   5809   2975   6032   6863
4   2975   5453   6866   1369
4   2975   1369   6863   1467
4   2975   5681   1467   6863
4   6863   5681   3731   5809
4   3741   3783    521   5328
4   3741   4259   5682   4439
4   2943   5046   6775   3741
4   3741   5328   3742   3409
4   3358    242    235   4305
4   3142    257    243   3140
4   2841   6270    256    255
4   3142    225   3162   3141
4   3142    225   3141    243
4    655    474   5462    473
4    473   5462   5068    474
4    473   5068    631    474
4   3859   3158   6686    754
4    473   2792   5608   3158
4   2157   6388   4040   6467
4   2071   5899   6470   5482
4   2500   2152   5202   5004
4   2094   4499   4500   2686
4   4521   5599   4383   4992
4   4522   3411   4386    560
4    577   3411   5599    560
4   3411   5599    560   4521
4    578   5599   4521    560
4   2802   4733   2451   2462
4   5599    578   4521   4687
4   4687   5599    563    564
4   5599   4383   4687   4521
4   4383   5599    564    565
4   4383    565    564   3830
4   4383    564   3900   3830
4   1411   2191   2504   1450
4   2191   6699   6776   5205
4   1245   1292   3562   6786
4   1245   5071   1391   5332
4   6787   1292   1411   2504
4   1245   6432   5332   6780
4   1411   5071   2761   1245
4   2504   1411   1284   1292
4   1245   1292   1411   6787
4   2191   6779   5205   6776
4   2504   6514   3845   3562
4   2041   2153   2317   2472
4    537   2921   3434   2937
4    537   3434   2939   3605
4   3605    537   2937    536
4    537    526   5195   2921
4   2845   1178   2991   1629
4   2845   4176   1629   1660
4   5235   1629   2845   2991
4   2787    489    299   5597
4   2787    299    699   3309
4   2787   3306   2788   3689
4   2787   3309   3306   5597
4   6421   3309    299   5597
4   5630   4345   3135   5383
4   2748   5630    769    514
4    514   2748    773    769
4    514   2748   2747   3217
4   2514   1443   6081   1260
4   4279    775   2883   5669
4    517   3135   5339   2806
4    769   4969   6396   5383
4   4279    775   5383   2883
4    775   5383   2883   4345
4   3992    570    571    568
4   2379   3968   6560   3967
4   2275   6559   6064   4671
4   4331   4570   4569    532
4   3956   4331   4570   4207
4   4207   2938   4208   4331
4   2067   2203   2552   2996
4   4687   4199    563   3899
4   4521   4992   3411   5599
4   2992   4016   3959    322
4   2479   5562   2477   3091
4   2973   2479   5563   2979
4   2385   4129   3258   2480
4   5786   5776   3528   5783
4   2479   2516   2973   2519
4   2411   4034   1641   2902
4   2263   2277   2401   2402
4   2403   2429   1378   1336
4   5708   5975    326   5947
4   2277   2290   2402   2263
4    537   2939   5195    526
4   5195    540   5194   6372
4   5195   2921    526    540
4   4896   6142   4157   3364
4   2294   6142   5763   4157
4   2294   3274   5733    300
4   2477   3778   4531   2835
4   2477   4531   4110   3186
4   2480   4110   5365   3727
4   4001   5873   3280   2382
4   4160   2509   3721   2523
4   2259   5113   2360   3081
4    495   6297   4794    433
4   6766   4794    495   6297
4    495    433   4794   3690
4   6766    504    495   6541
4    495   5273   4794   6541
4   3869   4690   6130    580
4    580   3869    692    578
4   4522    692    578    560
4   3208   3468   4761    432
4   3208   3592   3468    432
4   3208   4761   3429    432
4    447   3592    432   3630
4   3631   3127   3208   3429
4   3042   4556    553   5603
4    447   3208   3592   3209
4    447   3592   3630   4762
4   2401   1416   2568   2569
4   5556   2676   3554   3471
4   2288   5927   3506   5919
4    586   6330    588    587
4   6605    425   3828    431
4    587   4277   6346   2673
4   6135   2472   5056   6097
4   2838   4178    969    881
4   3017   2838    751   5552
4   2838   1870   5552   3017
4   2479   4290   2836   4291
4   2385   2498   3185   2248
4   2479   4291   5365   4290
4   2519   2480   2385   4429
4   2519   5929   5349   3090
4   2479   4751   4001   5841
4   2519   5349   5930   3090
4   1864   5082   4528   5079
4   4385   1867   4528   5079
4   4524   1867   5079   5078
4   5078   6005   4524   1867
4   5998   3926   6000   3925
4   5998   5996   5999   3926
4   5998   5996    603   5999
4   6000   5998   5999   3926
4   2054   2120   2118   4144
4   2082   6236   5704   3480
4   2506   2440   2406   6544
4    684   4080   4482    800
4    684   4482   4231   4230
4    684   4232   4482   4230
4    684   4482   4080   6315
4    684   6315   4080    745
4   3320    684   4230   4232
4   5588    714   6747    666
4   5588   4467    714    666
4   6819    666    403   3128
4   6600   3799   3521    503
4   6422   5229   3799    673
4   3799   3521    314   3520
4   2070   4093   4091   1446
4   1306   1383   2104   6402
4   4345   5383   6396    775
4   2070   5870   6028   4821
4   1936   3767   1842   3854
4   1842   3027   1856   2844
4   1842   2844   1859   6012
4   2462   5470   4050   3088
4   2493   3118   6382   5815
4   4147   2337   4507   4496
4   2080   5407   6176   2543
4   2332   6462   5667   2854
4   2080   6677   4320   5444
4   4685   4684   2824   2721
4   4685   6827   6666    512
4   3048   4032   3047   6814
4   3048    436   5977   3696
4   5952    605   4625   6219
4   2344   2311   5888   3849
4   2150   2136   2133   2698
4   2031   2037   2036   2040
4   2042   2474   6799   2155
4   2750    849   6580   5760
4   2750   6580   2986   5760
4   2750   2986   5048   3354
4   2876   2060   4033   2875
4   2059   2550   2551   3482
4    785    964   1552   5507
4    785   6245    937   5700
4    785    937    786   5700
4    785   6243    937   6245
4    325   4150   6750    694
4   2067   6216   2552   6711
4   2291   4563   2203   6681
4   1823   3313   1914   3268
4   1823   1914   3313   1898
4   1914   3313   1898   3314
4   1823   5023   1898   3313
4   1823   1824   3313   3268
4   4577   4578   1189   3586
4   5466   3739   5074    747
4    747   2801    319   2606
4   4794   5273   3690   2602
4    495    433    505   6297
4   3108   5219   3109   5801
4   3197   5168    780   3108
4    216    523    265   4476
4   5219   3109   5801   4694
4   5479    617    620   3154
4   5479   3018   5480   3154
4   5479   5114   3941   3940
4    511   3969   4462   3368
4   1661   1659   1191   4889
4   2845   2978   1661   1659
4   1191   4886   1745   1659
4   6155   4577   4578   4832
4   3788   3785   5785   5787
4   2344   4619   2311   2242
4   6415   2357   2337   4507
4   2356   6680   6147   5039
4    430   3499   3790   6193
4    430   3790   3499   5963
4   6194   3498   3793   3499
4   6194    430   3499   3793
4   2062   2115   2181   2113
4   2482   3838   3836   3410
4   4893    402   4377   3955
4    383   4893   3678   6023
4   5571   4377   4893   6023
4   3793   3498   6864   6583
4   3497   3496   6573   3793
4    430   5963   3499   3496
4   6194   6337   3498   3499
4   6194    467   6193    430
4   4403   6247   6502   3026
4   6502   3026   4140   4403
4   3026   4403   6247   4402
4   3026   6247   6502    724
4   2259   2260   2455   1407
4   5113   2455   2171   6357
4   2455   6505   6312   1370
4   2523   4509   5530   5531
4   5230   1843   3057   3058
4   5230   2970   1840   3056
4   5230   3057   3056   3058
4   5757   4341   1882   4587
4   5757   1791   4341   4535
4   5757   1776   1791   4535
4   5757   6567   1837   1776
4   2392   3339   6117   1389
4   3339   1282   2186   1410
4   2392   3339   6658   1402
4   5130    693   5556    695
4   6862   2276   1575   3833
4   2448    746   3857   5070
4   2195   5835   1297   1432
4   2448   3858   4396   2661
4   5282   6808   4016   5886
4   3160   4497   1189   5780
4   3160   1195   3472   3473
4   2313   4106   4634   4105
4   2527   2517   3634   2384
4   2188   2301   3171   5990
4   2137   4733   6478   2802
4   5207   2391   6658   1385
4   2393   2398   2199   3338
4   4822   2342   4821   2070
4   2313   4105   4634   6660
4   3678    402   3713   3712
4   3712   3678   4893   6023
4   3678    378   6025   6024
4   2292   6703   5940   5016
4   4610    378   3678    404
4    404   4610   5575   6292
4    652   4127   5960   4126
4    652    515    334   4358
4    652   6231   5565   5960
4    652   5565   4126   5960
4   4794   4165   5273   2602
4   5273   6541    682   4165
4   4794   5273   4165   6541
4   5273   2602   4768   3690
4   5273   3689   2602    682
4   6541   3757   3758   3273
4   5225    572   3411   3007
4   5225    569   6207    572
4   6207   5225   6288    569
4   5225   6288    569   4907
4   6595    523   4476   4915
4   2259   2455   2171   5113
4   2318   6404   5525   4302
4   2527   3881   2517   3923
4   2102   2258   2325   2103
4   2103   1368   4595   6532
4   3919   2103   1294   3461
4   2518   2527   3923   5746
4   2798   4259   5682   3783
4   2480   4110   3727   3186
4   2480   4429   3091   4012
4   6194   6864   3793   3498
4   3498   5736   6337   6864
4   5225    572   6207   3343
4    569   4907    727    565
4   2313   2189   2461   2310
4   2422   3144   3145   3146
4   6215   6214    607    609
4   4300   2104   2318   4058
4   2318   2544   5525   3004
4   4052   2325   4053   2318
4   2104   5526   6726   5934
4   5934   2104   1383   6144
4   2104   4057   4058   4300
4   2318   2099   2103   2104
4    497   2718   6445   3406
4   6594   3233   3406    396
4   6442   2718   6445    497
4   6594   2718   3234   4221
4   2718   6594    497   6442
4    507    506   3055   6442
4   3055    476   5953   6442
4   6442   6445   2718   5953
4    497    507   4274   6445
4    497   4274   3406   6445
4   3406   6594    497   2718
4   6594   2718   4221   6442
4   3136   6581   6316   5352
4   2377   4182   4104   4971
4   2218   5883   4188   4845
4   3848   2348   2344   2244
4   2070   4093   5870   4821
4   4094   5253   1383   6144
4   2875   2059   2876   2060
4   2068   5131   6809   5308
4   4911   2155   2042   6799
4   2042   4911   4298   5187
4   2135   4224   2372   4223
4   2075   3914   4438   4437
4   2068   3913   6469   5308
4   2065   5306   2619   4613
4   2069   5750   3975   5805
4   2075   4626   3913   3914
4   3136    512   6581   5352
4   2195   6450   5092   6501
4   2521   6417   3731   6656
4   2455   6357   3081   6356
4   6356   6357   2173   2455
4   2173   6505   1370   5206
4   4394    244   5522   6788
4   4641   5495   3748    353
4    930    820   3446   1578
4    930    771   3446    744
4   2141   2144   2142   2143
4   2175   3304   3553   5323
4   2491   6784   3030   5011
4   2176   1224   2175   2131
4   1837   4325   2781   6567
4   1879   1837   4325   2781
4   1879   1837   2781   2666
4    458   4676   4677   4999
4    458   5249   4677    712
4    458   5249    464   4999
4   2982   4497   3784   1595
4   2982   3784    824   1595
4   1372   5617   2969   6728
4   6728   6730   4315   1372
4   6730   5934   1372   6728
4   4687    564   4199   3900
4   2150   5106   2762   4997
4    564   4383   4687   5599
4    564   3900   4785   3939
4   5989   4975   1649   1044
4   4897   1079   1044   4975
4   1079   5989    792   1044
4   1079   4897    420   4975
4   6098   4208   2938    531
4    538   4208   3405   2938
4   6098   3011   2939   2938
4   6098    538    536   3011
4    538    269    536   3011
4    538   3405   4208    527
4   6098   2938    538   3011
4   2938   4569   4331   4207
4   5342   5945   3676    720
4   3314   1914   3313   3460
4   6605    425    456   3671
4   6246   3276    525   4228
4   6050   3158   3484   5608
4   2896   3484   5608   6050
4   3276    523    525    524
4    683   3432    760   6050
4   2896   3432   3484   6050
4    216    270    351   5338
4   3668    316    282   5529
4   3412    524    523   3276
4   6393   6398   3025   5529
4   6874   4654   5529   4647
4   5529   6398   3025    513
4   4647   6874   4654   5776
4   2970   3736   3056   2971
4   2970   3056   3736   1840
4   5230   3058   3056   1840
4   3474   1304   6496   3540
4    510    605   6161   6579
4    511    329   6160   4649
4    602   3368   4462   4346
4    511   3969   6160   4462
4    602   4346   4462    605
4   6302   3358    242    235
4   1959   5134   6087   1875
4   3020   3324    253   3635
4   1959   5463   1809   6087
4    437    718   3658   5312
4   5342   3676   5945   5163
4   5342   3675   5163   5945
4   1914   3313   3460   3268
4   5332   2626   5331   1159
4   2760   2508   3267   3097
4   2626   5988   1181   6780
4   5224   5910   3561   5380
4   5224   6001   5910   5380
4   5224   4849   5910   6001
4   5224   5910   1832   3561
4   4405   6262   4148   6003
4   4405   4551   6003   4148
4   4405   4407   4551   1801
4   1866   4407   4405   1801
4   1319   2485   2112   2464
4   2481   5264   3752   6066
4   2485   4023   1225   1226
4   4347   4390   3284   4433
4   5139   4784   5172   6854
4   4784    633   5024   3828
4   4784    635   5172    636
4   4784   5024    636   5348
4   1446   5252   1383   4094
4   2982   3784    820   2983
4   3160   5780   1595   4497
4   3160   5780   1189   1195
4   3702   2982   5780   4497
4   3702   4497   1578    820
4   2982   1595   5780   4497
4   3702    820   3446   2983
4    709    708   6384    707
4    930   3446    820    744
4   2292   2434   2510   4267
4   2518   2527   2410   2384
4   2370   2559   2976   6556
4   2752     61   3597   3519
4   2448     61   3597   2752
4     61   4197   2448   3597
4   2448   3656    746    748
4    748   4197   2448     61
4   2448   2527   4235   3922
4    379   5728   4990   4778
4    379   5838   3103    441
4    379   3103   5838   5839
4    379   4990   5838   4778
4    379   5839   5838   5730
4    750   6685   6870   3159
4    750    760   6685   3159
4    750   6688   5348   5024
4    750   5024   4194   6688
4    750   3559   4817   3159
4    634   6870    683    462
4    634   4765   2795   5348
4    750   6688   6870   5348
4    389   4466   5633   5635
4    389   4644   4642   5770
4    389   5635   5633   4644
4   4642   6122   5055    389
4   2526   1382   1305   6068
4    788    970   2868   6370
4   3412   3276   3275    524
4   2099   3649   4741   4595
4   4058   2104   2318   5526
4   2101   2104   4052   4056
4   5134   5132   1875   5133
4   5736   4966    742   5494
4   5736   6864   4965   5494
4   5736   4966   3524    742
4   5736   6839   6817   6636
4   6817   5736    742   6839
4   5736   4966   5494   4965
4   4965   5913   4966   5494
4   2518   3667   3262   2411
4   5913   3551   4196   4965
4   3497   3793   6573   6583
4   3497   6573   3496   2901
4   1235   2413   1229   4881
4   1228   2413   1229   1235
4   4584   4885   1231   4856
4   4584   1236   4885   4856
4   1235   4334   5511   4856
4   2948   4856   1235   4584
4   4584   4323   1236   4856
4   4584   1236   4323   5726
4   6436   5765   5764   3034
4    580    578    563   3869
4    238   4339   4800   6710
4    238   4339   6710   4387
4    238    693   5554   4339
4   4123    456   5232   5583
4   5583   4118   4123    438
4   5583   4123    456    717
4   5583    438   4123    717
4   6025    378   3678   4610
4    457   6648   4769   4934
4    457   6648   4930   5049
4    457   4769   6648   4111
4   6729   4567    267   4090
4   4567    261   5600   5601
4   5600   4090   5829   4567
4   4567   4090    180    267
4   5829   2989   6481   5600
4   5829   6481   2989    688
4   2348   5688   4475   2981
4   5600   4089   2989   6481
4   2348   4475   6143   3848
4    180   4943    689    267
4    688   4943    180   5829
4   5829   4567   2989   5600
4   4311   4312    422   2830
4   2830   4312    419    592
4   2830   5591   4311   5731
4   2830   4404   5731   4929
4   2830   4404   4929    448
4   2344   5360   3849   5878
4   5550   5076   5439   2276
4   3834   3833   5076   5070
4   2448   3922   4235   4197
4   5674   2276   6624    748
4    527   2994   3699   5567
4   2994    269    527   5759
4   3406   3407    396   5766
4    538    269   3405    527
4   3011    269    614   5759
4    614   3011   3225    536
4   3597   2752   2661   2448
4   6862   1086   2276    746
4     61    618   3597   3519
4   4197   3518     61    748
4   1898   3314   3313   6334
4   6386    376    374   6385
4   6386    376   4683   3134
4   6386    376   6385   4683
4   2313   6746   6745   2802
4   2115   2591   2058   5288
4   2390   5872   6673   3632
4   2493   6133   5815   4496
4   2337   3764   6382   2604
4   2357   5478   6415   2616
4   3124   3319   2715   3024
4   2715   1652   3024   3319
4   3241    736   3319   3024
4   5571   4270   4264   4895
4    504   6495   6297   3356
4    797   6053    736   3319
4    736   3319   3024    797
4   5452   2709   6423   2885
4   1089   3024   1073    797
4   6811   4935   2910   5975
4   2857   6811   4935   2910
4   5975   4933    326   5947
4   4950   3224    664   4964
4   5390   4599   3700    331
4   5390   4944    348   2827
4   5390   3700   4944   2827
4   5390    475    348   4944
4    392   3576    475   4944
4   2235   3618   4872   4871
4    475    348   4945   3762
4    476   3576    475    484
4   4944   4946    392   3576
4    475   4944   4945    348
4   3583   4128   5799   5420
4   5420    371   6286    342
4   5420    342   6041    317
4   1644   4554   6492   6373
4   2488   1644   2495   4554
4   4555   1644   2488   5504
4   3175   3174   1758   3173
4   3991   4938   5396    600
4   3991   4360    595    628
4    595   4361   4360   3991
4   3989    595   4361   4360
4   3991   3990   4938   4360
4   5396   3079   5197    594
4   3991    600   4361   4938
4   4774   5229    673   2912
4    600   3079   4938   5396
4   2067   3983   3985   3982
4   2067   3983   3981   4566
4   2067   3984   3983   3763
4   2299   2351   2096   2098
4   2247   4745   4153   2447
4   5390   2827   5394   3700
4    475   4945   4944   3576
4   5390   4599   4944   3700
4    508   3889   4783   3888
4    508   3522   4783   3889
4    508   4783    598   5570
4    508   5607   3888   4783
4   5303   2494   4325   2323
4   2323   4326   4325   5303
4   2208   2212   5375   5374
4   1204   2323   1220   1217
4   2213   2100   1280   4742
4   3844   2268   6661   2509
4   2504   1450   1284   1411
4   5071   1391   5073   3643
4   6699   2508   2191   6776
4   2508   5071   6699   3097
4    402   4377   3955   6283
4    383   6023   3678   4610
4   4893   3955   4377   5176
4   3955    388    372   3745
4    402   3712   3678   4893
4    402    372   6283   3955
4   4893   4377   3712   6023
4   3955    372   6283   3745
4   3955   4377   3746   3745
4   3955   4377   5176   3746
4   2471   3984   3993   3985
4   2067   3983   3984   3985
4   2471   4477   3984   3763
4   2067   3983   3982   3981
4   3597    613   3518   4197
4   1823   3268   1914   1825
4   3460   1914   1825   4579
4   6334   1898   5023   3313
4   3198   3863   6145   6149
4   3200   6145   4962   4968
4   4962   4968    332   4999
4   2827   5394    424    348
4   5390   5394    331   3700
4    424   2827   3469   4343
4   2827   5394   3700   3303
4   2827    348   3469   3470
4   2621   6493   5944    541
4   2495   6373   1644   6362
4   2495   3263   3262   3261
4   2495   3263   3261   4748
4    533    678   4330   3298
4   6886   3298   2988    533
4   3760   6886   3298   2988
4    533   3298   3202    723
4    533    723   6397   3298
4   4030   5196    228    562
4   4030    235   5337    236
4   2758   4338   4116    228
4   2758    235   4116    697
4   2758    235    697   4305
4   3274    336    287   4010
4   2294   4010   3274    287
4   2415   6086   5625   4638
4    388   6282   4545   3745
4    720   5343   5644   3676
4   6049    622    632   3072
4   6049    629   2799   2800
4   6049   6884    632    622
4   6049   2800   3936   3072
4   2313   6746   4105   6740
4   3175   1758   3425   6326
4   5714   2466   2524   2049
4   2157   2069   2076   6468
4   2514   2467   2187   1260
4   2314   6039   6823   6223
4   2315   5448   4513   2274
4    604   3801    624    617
4   3522   3889   4799   3508
4   6317   3825   4026   4286
4   3522   3508   4799    278
4   3522   4256   5859    278
4   3025    513   6398    668
4    157   1808   5552   3222
4    157   5552   1808   5924
4   2838   5552   3222    157
4   3274    419   4976   4312
4    336   4976    419    420
4    336   6664    765   3512
4    336    765   6664   4975
4   3274    336    419    592
4   2068   6469   4626   3912
4   6641    213   4940    239
4   6270   6641    255   4940
4   6270   4939    240   6641
4   6641    213   4991   4940
4   2448   2661   3597   4235
4     61   3518   3597    618
4   3519   2752   2661   3597
4   3518   3739    748   4197
4   5466   5788   3739    613
4   3739   5788   4197    613
4    747   5674   3739   5074
4   3518   4197    613   3739
4   4887   2804   1626   1658
4    865   4887   2804   1626
4   4887   1658   1626   1486
4   4887   1658   1745   2804
4   3811   2937   6562    539
4   2937   6562    539   2921
4   2921   2937   6562   3434
4   5195    540   6372   2921
4   5394   5389   5393   5791
4   5394   3700   3303   5185
4   2827    424   5394   3303
4    348   3470   4945    356
4   5390   5394   2827    348
4   4944    348   2827   4945
4   2314   6223   6823   4518
4   6600   3369    399   6599
4   2256   1458   1359   4011
4   2974   2973   1285   2509
4    497   5979   3406   4274
4   6594   3406    497    396
4   3422   2995    898   3424
4   3802    268   3424    898
4   2217   6325   2598   5876
4   1872   1887   2579   2865
4   1872   3682   3683   2705
4    531    529   4483    526
4   1872   3682   1852   3683
4   1872   1887   2865   1851
4   1872   6627   2705   3683
4   2458   2924   2589   5007
4   1263   2387   2220   1270
4   2340   2386   2348   2341
4   2153   2472   2349   2317
4   1270   1264   1266   2398
4   2370   2376   4664   2915
4   2465   5696   5516   5694
4   2218   2389   2217   3052
4   6493    487   4364   5944
4   2217   5415   5696   5416
4   4334   5191   4856   2948
4   2413   5190   4334   1228
4   2261   1371   6770   6610
4   2416   1301   1371   1296
4   3224   6352    669   4964
4   6352   6348    667    669
4    669   6328   3223   6307
4   6307    669   4964   4899
4   6450   5447   2328   2193
4   5583   5103   4677    712
4    657   3964   6592   5950
4    458   5103    712   4677
4   5572   3130   5176   5965
4    546   3046   3115   3045
4    671   3043   3044    221
4   3035   3046   3045   4750
4   3035   3885   6885   3046
4   1180   1650   4975   5331
4   4975   1650   1052   4434
4   5331   1648   1180   1650
4   3955   3746    377   3745
4   6140   5331   1648   1180
4   1649   1052   1044   4975
4   1075   4434   1052   1650
4   4576   6393   6398   3025
4    306   6736   2629   6392
4   4156   2415   5005   4170
4   2414   5624   5233   4177
4   2527   3922   2384   2918
4   3634   2384   2918   2527
4   2413   4638   5623   4879
4   2415   2172   2173   6494
4   2172   4637   4638   2947
4   2830    422   4311   5591
4    419   3348    794   4976
4    419    422    794   3348
4   2830    592   5732   4312
4   2848   5596    763   3227
4   2527   3634   2517   3881
4   2471   3984   4477   3993
4   2518   2495   2528   1318
4   2067   3981   3982   2996
4    518   5669   4236   3542
4    519   3275   3542    524
4   3542   5631    524   6246
4   2113   2321   3536   3823
4   3517   3071   3965   3514
4   3966   3604   3070   3517
4    657   3966   2905   3517
4   3604   5462    655    474
4   3863   6145   6149   3200
4   4962   4310    332   4929
4   3200   6145   4968   3863
4   3863   4968    413   6145
4   4968   6145    332    364
4   6149   4962   6145   6587
4   3085   3596   3083    619
4    618   3657   3083   3085
4   3527   3240    273   4336
4   2448     61   2752   3656
4   3597    613   5788   3587
4   2509   2508   3844   2268
4   2508   2784   3099   2785
4   1096   1642   2880   3367
4   1084   6635   1085   1010
4   1084   1010    534   6371
4   1084   6185   6371   3662
4   1084    970   6635   6185
4   2218   6325   5876   5872
4   2390   5876   5875   4432
4    793    794   4976    792
4    793   5989    792   4976
4   1044   1598   3349    793
4    793   3348    794   1077
4   5452   2709   2885   2884
4   2317   5039   4024   2493
4   2493   6135   6083   6097
4   2213   6113   1281   2834
4   2497   4740   1346   1341
4   4740   2373   5268   4181
4   2332   6152   6462   5856
4   2331   3478   3479   6151
4   2331   6152   3479   3214
4   4633   2357   3476   6543
4   2528   2495   3261   2655
4    602    510   4462    511
4   4346    605   6219   4462
4   4346    607   6215   6214
4   2897   2799   2792   5608
4   2799    631   6883    629
4   2799    629    632   2792
4   2310   2461   4514   2315
4   2315   2274   3579   4241
4    679   5222   3529   3493
4    679   5135   3493    645
4   3493   3492   5135   3491
4   6306   6613    672    674
4   2495   4875   5091   4554
4   2332   2406   6462   6152
4   2406   6152   2332   2432
4   2496   2292   6703   2377
4   2370   4901   5053   4103
4   2292   5422   6703   5016
4    567   4337   3347    298
4    567   4702    252   3979
4    567   4702   6304    252
4    567    309   6304   3693
4   2377   6698   5419   4971
4   2275   4670   6557   4671
4   2273   6557   2587   6558
4   5479   3940   4564    625
4   4564    620   3154   5479
4   5479    625   5114   3940
4    626    620   3154   4564
4   2048   6216   6217   6649
4   2554   2291   2067   6681
4   2291   4565   6420   3050
4   2131   2175   5323   2146
4   2291   4563   4565   6711
4   2067   2996   4926   3981
4   2291   6216   3050   6217
4    765   3512   6664    749
4   3582   4948   3952   3950
4   3950   3582   3951   3953
4   3582   4948    370   5840
4   2518   6858   2410   2527
4   3951   3954   5992   3582
4   3582   4948   3954    370
4   3829    581   3939   2805
4   3865   2805    581   3829
4   3829    581   4785   3939
4   4519   3829   2805   3865
4   3900   3939   3829   4785
4   2224   3725   3536   3724
4   2239   2309   6434   2506
4   5873   4771   1333   5874
4   2224   3911   3725   3724
4   2160   2144   2286   2156
4   2163   2165   4072   6444
4   2237   4108   2086   3359
4   2113   3823   3536   5104
4   2083   2089   4552   2264
4   2181   5101   3726   6354
4   2437   3624   3626   2700
4   4077   3550   5291   4078
4   4077   5469   5460   1828
4   2201   5438   6027   5093
4   4077   5460   5469   4079
4   2356   2080   2082   5445
4   2406   2088   4167   4168
4   2175   2146   2131   2145
4   2357   2080   4320   5444
4   2154   2085   2349   2334
4    788   2868    970    787
4    970   6635   6185   6370
4   1084   6635    970   6374
4   6215   3774    606   4228
4   6215   4228   6246   3774
4   2518   4422   1310   1218
4   2461   1465   3781   1447
4   5619   5890   5891   5611
4   5891   5611   1465   5619
4   2461   3781   1465   5612
4   2345   2560   4619   2242
4   2449   6653   6104   6652
4   2472   2349   4295   3621
4   2450   6104   5749   4996
4   3633   1446   5891   4092
4   5467   4468   6197    665
4   5890   3633   5252   5891
4   2743   3048    311    312
4    311   2742   1803     20
4    311   2742    296   3216
4    311   2743    662   1803
4    311   5977   2743   3216
4   2191   2371   6662   2328
4   2509   1285   2974   4698
4   5342   3675    720    450
4    437   5957   5163   3658
4   3658   2940   5312   3659
4    437   2940   5312   3658
4   3596   4195    626    610
4   1079    420    792   4976
4    765   4897   4434   4975
4   1649   1650   1052   4975
4   1052   1044   4975   4897
4   2340   2343   4864   2342
4   2346   4918   1380   3365
4   4271   2779   5658   2175
4   2339   3365   3650   4918
4   2345   4619   2560   3441
4   3559   6688    750   4194
4   1415   2491   2383   2730
4   1415   2279   1329   2284
4   2278   5237   5236   5314
4   2131   2284   2821   2127
4   3267   2276   3921   2268
4   5797   2900   5299   5300
4   5359   5299   5797    274
4   5797   5300   5299   3372
4   5593    280   3372   5797
4   6687   3458    760   6021
4   6687   6050    757    760
4   6687   5755    757   2896
4   5753    685   5695   6021
4   3422   3399   5632   3421
4   3802   3422   3399   5632
4   2414   1253   1283   1463
4   6586   3198   6587   6149
4   2798   6569   4259    743
4   3783    521   5328   6195
4   2997    743   3783   6195
4   2528   1312   1316   1324
4   2176   2175   1462   2174
4   2710   2175   5503   2174
4   2362   4014   4015   2659
4   2609   2378   2383   2491
4   2525   5693   1193   2564
4   5935   2525   2174   2492
4   2284   2279   2130   2283
4   2382   1328   5562   1327
4   2479   2477   2480   3091
4   6805    213    297   6668
4    213   3610   6668   6805
4   5527   3610   6668    213
4    213   4940   5527   3610
4   6120    246   6805    165
4   6120    165   6805   6801
4   6805   4991   6801   6806
4    213   6805   4991   3610
4   1324   1333   2655   5874
4   4346   5996   6215    607
4   6672    607   5631   6246
4   3542   5631   6246   6672
4    518   6672   5631   3542
4   5998   3925   6000   5322
4   5874   6738   4771   1333
4   2753   6215   3774    606
4   4382   2677   3555    710
4   4382   3555   3375    730
4   3479   2331   2332   6152
4   2510   5333   6548   6702
4   2221   2374   2354   2465
4   2374   1263   1267   6466
4   2510   4708   6548   4678
4   2174   2362   2710   2175
4   4038   3877   6198   3672
4   3672   4038   4039   3204
4   4038   6198     36   3876
4   4038    250   3204   6300
4   4038   3204    250   4039
4   3074    796   5685   4322
4   2629   2630   3598    611
4   6054    796   5697   5685
4   3999   6738   5874   2655
4   2362   2175   2147   4271
4   2578   3779   2349   6134
4   2349   2085   2317   2079
4   4835   3616   3614   5199
4   2175   2176   5323   3553
4   2493   2358   2356   5039
4   5815   2337   2493   4496
4   2350   6134   4834   4833
4   2317   5922   2082   2361
4   2493   3118   5815   6461
4   2493   2577   2547   6097
4   4346   6219    605   6214
4   5952    609    605   6214
4   5063    510   6161   6579
4   2633   3613   2084   1325
4   2154   2170   2151   2335
4   2350   4834   6757   5042
4   2350   6757   2640   5042
4   2148   1255   2453   6081
4   2032   2048   2075   2068
4   5937   2106   4904   3093
4   2149   6106   4843   4469
4   3467   5169   5621   4084
4   3467   5868   5864   4716
4   3467   5868    622   3465
4   2085   2361   2364   2035
4   2549   2135   2466   2770
4   2456   6075   6418   2459
4   2526   6075   6418   2456
4   1854   5646   1818   4537
4    669   6307   3223   4899
4   6308   3223   6328   3243
4    669   6348    667   6308
4   6627   6020   1851   2867
4   6627   2867   1851   2705
4   4802   1834   5645   5215
4   2675   4193    886    777
4   2675   4763    777   6178
4   3224    667    669   6352
4    889   6588   4931   4694
4   6588   4931   6008    889
4   3571   3573   3572   3695
4   3573   3695   3571    648
4   2527   4285   3835   3881
4   3573   3695    648   6115
4   6115   3006   3695    648
4   6115   3594   5166   5956
4   3573   6233   3574   5166
4   2889   3023   3802    776
4    776   6253   2889   3023
4   3023   3802   5279    268
4   6495   2851   3356   2852
4   3023   6253   2889   5867
4   3424   3802   3422   3023
4   6495   6766   3758   3273
4   3023   5279    776   5278
4   3023    776   6253   2696
4   3023   2696   5278    776
4   5297   5278   3023   2696
4   2097   3391   3393   3390
4   2384   1311   1246   1218
4   2241   6535   2246   5351
4   2227   1419   5354   5355
4   2186   4824   1410   1282
4   2417   2418   4850   3059
4   2182   1412   2315   1406
4   2417   1420   1468   1349
4   2380   2475   6691   3906
4   2241   1419   1468   6535
4   6587   4962   6145    448
4   3198   5733    448    300
4   6586   5733   3198   4157
4   3863   5609   3198   3549
4   3198   6149   5610   5609
4   4157   3198   5610   3548
4   2481   2464   2463   5247
4   5724   3294   2502   5401
4   4758   5285   2818   4526
4   1843   3058   3509   3510
4   5230   1840   1843   3058
4   1843   3509   3058   1871
4   2526   6075   3541   4457
4   1843   1798   3510   3687
4    355    333   2966   3036
4   6356   3081   2455   5162
4   6572   6718    320   4358
4    355    347    515   4357
4    355    333   4222   2966
4   2517   2268   1249   2523
4   2517   1315   2936   1317
4   5503   2176   4163   2174
4   3835   2527   3634   2918
4   2410   2935    790    789
4   2384   1247   1311   2936
4   2276   6140   5550   3646
4    384   3500    672   3501
4    362   4736   3295   3709
4   2484   6695   5353   6065
4    362    385    315   3295
4   6263   3769   2728   2727
4    362   3295   3769   3040
4   6263   3769   2727   3040
4    362    470   3769   3295
4   2518   2411   6860   3667
4   3103   5403    441   5838
4   3103   5838   5839   4172
4   3103    441   5403   2674
4   2059   5737   2550   2876
4   4837   2063   4841   3482
4   4802   2705   5645   6627
4   5708    702    326    327
4   4802   6627   5645   1834
4   1834   5645   5215   1838
4   4802   4891   1834   5215
4    652   5960    334   6231
4   5565   6889   5842   5960
4   2178   4664   6414   2219
4   2205   5679   6347   5808
4   5679   5812   6448   5811
4   2521   4317   5679   3601
4   5809   6033   6863   6032
4   6032   3601   6033   6863
4   3273   6495   2851   3758
4   3023   3802    776   5279
4   6801    165   6805   6806
4   2076   4449   2073   5184
4   2511   5327   2529   6822
4   2205   1297   2198   2879
4    422    795    794   3348
4    419   3348   4312    422
4   5590    400   4007   5731
4   5590   5591   5731   4311
4   4726   6452   2239   4108
4    422   5590   4311   5591
4   5167   4084    661   3223
4   5167   5169   4084   5621
4   5167   3243   3223    661
4   5167   5621   3223   6307
4   6328   5167   3243   3223
4   5167   4084   5169   4488
4   3467   4084   4716   5169
4   3467   5864   5169   4716
4    651   3383   3491   2636
4    651   3528   2636   3491
4   4722   3706   3705   3401
4    651   5786   5790   2636
4   5988   6780   6432   4075
4   5332   2626   1159   6780
4   2626   5988   5989   1181
4   1837   2781   2666   1776
4   5757   4587   5756   6567
4   1837   5756   2494   6567
4   5757   5756   4587   1882
4   2494   5756   1850   1880
4   4225   1293   5455   5162
4   2123   2064   2054   2037
4   2291   3392   4563   6681
4   2031   2044   2038   2042
4   2261   1371   6610   1456
4   2053   2057   5739   6061
4    679   3493   5135   3383
4   5135   2704   3199   4492
4   5135   2704   4492   3492
4    679    645   6613    401
4   5135   3530   3383   3491
4   6826   6825   4433   4347
4   3531    284   4942   6700
4   2325   4391   4368   6234
4   3756   2709   3230   6423
4   3756   5452   6423   3757
4   3756   3226   3228   6276
4   3756   3758   4165   3757
4   3756   2709   5452   3228
4   3604   3070   3694    660
4   3603    657   2905   3517
4   3694   3071   2814   3070
4   2256   3258   2477   2480
4   3694   2814    659    660
4   3431    462   5818   3861
4   3082   5230   1843   3057
4   2970   1840   3736   3738
4   5059   4615   4574   4720
4   5059   2725   5058   5793
4   2083   1392   2541   5921
4   4759   6670   4530   5250
4   4759   2860   6670   5250
4   4759     42   2862   2860
4   2862   4759   5639     42
4   2287   4857   5920   6430
4    581   3865   4703   4706
4    581   3360   4787    583
4   2331   3479   3478   3214
4   2180   6187   6379   6380
4   2357   6748   4146   5478
4   2406   6544   4169   4168
4   2432   4993   2641   4168
4   4201   2065   2068   5307
4   2117   3750   4134   5819
4   2065   4200   6674   5002
4   2093   3591   3117   3590
4   2093   3591   3546   2620
4   2053   2091   6061   6768
4   2067   3982   6681   2996
4   3960   3976   5741   2044
4   3206   6300    250    220
4   1256   2507   2037   2036
4   1789   6020   1838   2639
4   2639   5078   5215   1838
4   4887    865   1486   1626
4   1658   1745   2804   4889
4   1191   1658   4889   1745
4   6778   5161   3164   5047
4   6778   3909   5384   3549
4   5398   5174    598   5173
4   5398    302   5774   3363
4   5398   5173   4256   5397
4   3342    516   3134    376
4   6386    516   4686    350
4    376    351   6385   4683
4    647    513   2716   3742
4   4654   4648    513   4647
4   6687   2896    757   6050
4   5065   3484   3432   6050
4   6021   4817   3560    760
4   3431   6685   6870    683
4   5065   3484   3158   5064
4   5065   3861   6686   3158
4   2897   6049    632   2799
4   3458   3159   6685    760
4   6685    683   3432    760
4   5065    683   3432   6685
4   6687    685   5753   6021
4   3468   4761    432   3691
4   3468   3629    432   3592
4   4362   3629    432   3468
4   3468   6174   4761   3691
4    386   3901   6114   3468
4   3468   6114   4362   4068
4   3382   4398   3218   3219
4   3133   6255   3219   1831
4   4810   6644   2504   1309
4   3183   3133   6255   3182
4   3133   4398   3219   3182
4   3133   4384   4378   1831
4   5479   3941   5114   5480
4   6255   3183   3182   3325
4   1826   6255   3183   1831
4   1831   6255   3183   3133
4   6737   6255   3325   2014
4   2171   4442   6611   6612
4   2014   3183   1826   6255
4   6255   3182   3219   3066
4    280   6159   3373   3374
4   5593   3372   6278   5797
4   5797    274   5299   3039
4   5359    274    280    308
4   5593   3374   3372    280
4   5593   5980   5948    358
4    358   5980   5948   5657
4   5657    358   3373   3374
4   3373   5657   6344   6345
4   3643   2760   2508   3267
4   2261   1185   1367   6770
4   3539   6737   2014   1488
4   3539   3277   6486   6484
4    522   6128    535   5192
4    522   5849    787   3663
4    522   5849   5192   5848
4   3552   5192    522   5849
4   5079   1864   5078   1867
4   4528   1864   1867   1830
4   4755   5687   4085   5707
4   5707   5687   4085   4525
4    582   4525    568   6289
4    582   4525   6289   5687
4    582   5706   4787   4525
4   2511   2526   6822   2529
4   2529   5330   5329   6820
4   5342    450   5978   3675
4   3675    450   5978   5124
4   5978   5957   6625   5163
4   5957   3675   5978   5933
4   2218   2390   2388   4846
4   2388   4846   3673   5269
4   5519   6437   3511   6564
4   5377   2064   2037   2507
4   2220   2334   2354   1263
4   4084   2744   4495   3937
4   4055    622   3465   3466
4   5167   5621   4084   3223
4   5169   4488   4084   4495
4   5167   6307   2694   5621
4   5621   3223   6307    649
4   3467   5622   5621   5864
4   4084   4495   4488    661
4   6328   6307    669   4964
4   2299   3170   2096   6852
4   2524   6136   5715   3976
4   2315   3579   2274   4047
4   5708   5709    702   6230
4   2490   2491   3031   2489
4   2490   4164   2174   6406
4   2514   1443   2635   6081
4   2373   1272   1265   5268
4   2260   2259   2103   1376
4    248   6318   4342   4737
4    248   6213   4342    276
4    248   5220   6318    694
4    248    694   5152    385
4    480   4933   5709    344
4   5842   5569   5565    480
4    480   6714   5961   5569
4   5565   6714   5569   6889
4   2103   6532   1376   1368
4   2047   6203   6139   4562
4   2047   4562   6139   6256
4   2047   6203   4562   2690
4   2157   2069   5032   5705
4   2704   6192    645   3199
4   4989   2506   4099   4098
4    514   3623   3217   2739
4   6637   4861   4075   5723
4   6637   1181   4860   4070
4   6637   5988   4861   1181
4   6637   5723   3349   4070
4   6605    639    456    425
4    425   3671   4658    456
4   2344   2242   2345   4619
4   2370   2369   2377   2374
4   2491   2378   2383   2489
4   2490   5010   2489   3031
4   2379   4812   3968   3967
4   6385   3904    270    374
4   6385   3904   5338    270
4   6385    351   5338   3544
4   6385   4683    351   3544
4   3720   6316    708    350
4   3720   3904    681   6578
4   3622   3623   4970    774
4    647   4654   4648    513
4   4647   3025   2716    513
4   3741   2717   6775   3409
4   4647    513   2716   4648
4   3174   3456   4191   1835
4   3174   1758   3456   1835
4   3175   1758   3174   5471
4   3174   3457   1835   3686
4   3457   5684   6119   5540
4   3309   3308    699   3306
4   2852   3273   6495   2851
4   2849    756    762   3236
4   3758   3273   3757   6423
4   6766   3758   6541   4165
4   2851   5636   4600   3273
4   5636    499   2892   4600
4   2852   4600   2851   5635
4   4600   2851   5635   5636
4   5636    499   4600   6423
4   3212    691   2764   5066
4   3356   5633   5635   2851
4    541    226    487   5944
4   1510   1091   1090   1747
4   1510   5212   2699   1747
4   5958    343   6163   6174
4   3218   3382   1885   5638
4   3219   3133   3382   4398
4   5638   4398   3218   3382
4   3218   3220   4398    943
4   1747   3220   3218    943
4   3218   1885   6841      7
4   1091   6841   1886      7
4   1886      7    798   1091
4   6888   6163    318   6890
4   1091   2015   1081   1886
4   1663   3220   1183   1747
4    943   3220   3182   1051
4   1091    943   1747   6841
4   4222   4362    347   6114
4   3688   1900   2653   1798
4   6493    294    293    487
4   5396   3990   2965   4938
4    593   2964    594   4701
4    593   3363   5774    302
4    593   5774   3363   2965
4    593   3363   2964   4701
4    593   2965   3990   5774
4   2489   6876   3031   5295
4   2869   3661   1863   6834
4   6834   2906   2869   3426
4   4801   1863   6834   3682
4   3661   2742   1806   1863
4   4802   1807   4801   3683
4   4801   1863   3682   3683
4   1872   1852   3682   4031
4   3866   3864   3938   4372
4   3866   3864   4520   3938
4   2144   2163   2158   2143
4   2141   6490   3302   3105
4   1862   4818   6012   1859
4   2141   3152   6490   3105
4   1338   2142   2143   1451
4   5466   5074   2801    747
4   3597    613   4197   5788
4   5466   3587   5788    613
4   5074   5788   3739   5466
4   2630   3587   3085   5788
4   3759   4125   3952   3322
4   4886   1745   1659   5235
4   5235    969    859   2025
4   1191   1659   1745   4889
4   3558   6177    343   2683
4    645   3199   6192    646
4   2704   5771    645   6192
4   3493    645   2704   6613
4    645   3789   6613    401
4   2389   2457   5690   2575
4   2464   2485   2112   2484
4   2587   2273   2482   5406
4   4933    344    326   5709
4   5975    321   4933   5947
4   2495   3263   4875   4554
4   4832   2932   6155   2930
4   4832   3787   6155   2932
4   1482   4793   2932   2140
4   2932   1209   4793   1482
4   3787   1209   4793   2932
4   2568   2401   3639   2277
4   2283   3334   5869   6118
4   3334   4420   2283   5734
4   2278   5314   3260   5237
4   5221   6410    520   4652
4   5161    520   6410   5047
4   3549   5047    644   5384
4   2230   4143   4425   4138
4   2626   1181   1159   6780
4   2626   1180   1181   5989
4   1245   5332   6787   5071
4   5332   1159   5073   1391
4   6637   5989   1181   4070
4   6780   1245   6432   4075
4   6780   4861   6786   4075
4   3622    774   6314   3623
4   6826   3328   6314   5865
4   6826   6314   2739   2745
4    774   3623   4970    773
4    514   2748   3217   3623
4   1745   2025   5235   4886
4   1658   4889   2804   1626
4   4887    865   2804   2794
4   2407   2497   2373   2379
4   2210   1366   3365   1274
4   2324   4327   2208   3651
4   3470   2951   6606    356
4    348    356   3469   3470
4   2456   2415   1288   2173
4   1178   4886   2845   2991
4   5235   2837   1629   2991
4   2804   2025   5235   1745
4   2846   2015    923   1629
4   1629   2015    923   3132
4    859   2846   3017   2839
4   5235   2991   4886   2837
4   4219   3037    320    355
4   2654   2653   1848   1798
4   2977   2652   2653   1848
4   2488   5010   2489   2490
4   3896   2298   2471   4445
4   2207   2185   3487   1424
4   2207   1424   2246   2206
4   2512   4136   3896   3980
4   2298   3895   3896   5243
4   2066   4005   2068   4612
4   2057   4611   5739   5740
4   6208   2306   2291   4873
4   2206   2207   2322   2196
4   3896   3993   2471   3980
4   3701   5962    338   4067
4   2471   3894   3993   4477
4   2298   4445   3895   2555
4   2094   4239   2117   2034
4   2518   5746   3923   4512
4   3552    522   5192   6128
4   3373   6344   3374   6159
4   5660   3373   6344    585
4   2052   2233   2236   2240
4   2048   6217   2553   6649
4   2048   2557   2553   2558
4    372   5833   3679   6283
4   6154   3327   3819   3326
4    604   5114   5564    617
4   3285   2850   3326    450
4   3819   2850   3326   3285
4   2050   2051   2052   2296
4   2052   2233   2296   2235
4    372   3745   4544   6283
4   6209   5617   2969   5618
4   5619   3588   5891   6209
4   6209   5617   5618   3588
4   2506   6530   4989   6529
4   2357   4507   4146   4147
4   2439   3247   2542   5292
4   2439   3247   5408   2543
4   2641   2432   2180   4984
4   2082   3480   6176   6236
4   2081   3111   2478   2476
4   2435   1466   3782   3238
4   2439   4633   5409   5292
4   2357   6543   5444   6103
4    651   5790    701   2636
4   2724   6323   5123   2725
4   5790   2724   5786   5058
4   5123   2725   5793   2724
4   6323   5790   2724   6351
4   6351   2724   6323   5123
4    313   5793   5123   2725
4   5059   2725   5793    313
4   6323   6351    701   5790
4   2048   4669   4668   5459
4   2046   2050   2291   2095
4   2048   5388   5459   4135
4   2069   6082   3975   5653
4   4203   3780   5458   2069
4   2031   2040   2046   2037
4   2046   2052   2298   2512
4   2069   6082   4667   4666
4   2082   2317   2361   2085
4   2157   4505   4151   5814
4   2438   4621   3419   2090
4   4640   2041   6077   6479
4   2117   5629   3711   2437
4   3711   4114   2117   2437
4   2372   2625   2135   2618
4   6171   1819   2954   2695
4   2135   2372   4224   2625
4    734   6599   5965   4299
4   2422   2394   4091   1385
4   2392   2186   1413   6117
4   2090   2034   2790   6043
4   2157   5034   5814   4151
4   2073   4622   4623   4297
4   6747   6743   5589   6201
4   2038   3311   5853   5305
4   4626   2075   2068   3831
4   2073   5184   6471   6388
4   2093   2620   3546   6252
4   4885   4862   1739   1499
4   4885   1500   1231   4856
4   4885   1739   4862   3123
4   4885   1236   4862   4856
4   2008   4862   1499   1739
4    280    358   3374   3373
4    640   6623   5717   3827
4    640   6623    423   5717
4   6641   4940   4991    257
4    257   5234    243   3140
4    257   3439   5234   3140
4    257   3439   4937   5234
4   2643   2644   2906   3426
4    257   4940   4991   3439
4   2300    765   6664    749
4    765   4975   4434   6664
4     66    748   3332    749
4   1804   1703    882   1860
4   5588   5589   6747    714
4    747   2606    319   3332
4   3174   3173   6324   3456
4   3456   1884   6324   4191
4   3456   3195   1881   3173
4   4511   6803    360    411
4   6804   6802   3526   4511
4   4511    417    360   5764
4   4511    417   5764   4709
4   3079   5198   3077    594
4   5396   3079   5198    600
4   3079   5198    600   5335
4    600   5335   4902   3079
4   5335   3079   5198   3080
4   5396   5198   3079    594
4   3374   5657   6344   3373
4   2376   4410   2482   2916
4   2141   5399   5287   6018
4   5080   4819   6001   4849
4   2180   6412   2177   6187
4   2131   6689   5323   5318
4   6489   2144   3302   2156
4   5400   2286   2128   1469
4   2796   3791   3805   6485
4    285   6804   5180    288
4    285    288   5180   5966
4   2828   4806   5180   5181
4    502   4220   5966   2828
4   3829   3865   4703    581
4    493   4508    370   5595
4    493   4508   5595   6284
4    493    370   3954   4947
4   4152   1222   3735   3032
4   2495   4152   6362   1222
4   2411   4554   2495   6373
4   4152   1173   3735   1454
4   1861   1857   1839   6871
4   5063   3244   6161    329
4   1849   6871   1853   1857
4   3045    671   4750   4329
4   5138   3706   6619   4573
4   2983   5558    744   3446
4   5220   4388    263   6318
4   5220    325   6750    694
4   6318    694   5152    248
4   1304   3474   6496   2950
4   6032   6863   1304   3601
4   2233   2206   2184   2187
4   6824   5051   2247   5050
4   2098   3963   4924   2114
4   2361   3213   2129   3110
4   2157   4505   5385   4040
4   6222   2514   1443   2419
4   6222   2419   1439   2187
4   2314   4634   3495   6823
4   2137   6744   4106   6478
4   2111   2179   2177   2178
4   2484   4665   5676   2056
4   2161   2615   2086   3106
4   2345   2343   2100   2208
4   2370   2915   4664   2559
4   2916   2484   2178   4665
4   2497   1341   6717   1319
4   2482   3836   2916   3410
4   2047   6759   6760   6136
4   2243   3483   2296   2235
4   1439   2187   5266   6222
4   4374   4373   1459   4480
4   4374   4480   2931   3388
4   5511   5726   4323   1651
4   1235   3681   5726   5511
4   3313   5023   6334   4074
4   3313   3268   1824   4883
4   2306   6256   6138   2613
4   2272   5052   5457   3352
4   2272   5052   3352   6441
4   2437   2790   4798   2438
4   2438   2611   2253   2631
4   1884   4191   5666   6324
4   3455   5656   6324   1884
4   3194   3455   5656   6324
4   3174   1835   4191   3686
4   1884   3278   1883   5666
4   5656   3455   3371   1883
4   3456   6324   1884   3195
4   4077   3566   5291   4079
4   5291   4079   3566   5290
4    859   1870   2025    969
4   2978   1178   4886   2845
4   1629   3132   1178   2991
4   5582   5589   3403   3402
4    859   2837   2846   1629
4   2728    469   2726   6263
4    469   4212    707    709
4    469   2728   4212    709
4   5082   4173   1864   1865
4   1834   5078   1838   5215
4   1867   6005   4524   4385
4   5078   6005   6375   4524
4   2052   4415   3483   2296
4   2437   3626   5629   3711
4   2052   3619   2235   3483
4   2046   2470   2050   2419
4   2090   6043   2789   4506
4   6463   5579   6200   6089
4   2437   4273   2250   2473
4   2050   2187   2301   2299
4    399   3746   3369    377
4   5180   5967   5966    288
4   5180   6802   6804   4806
4   4853   1887   1851   2866
4   2130   1363   1307   3029
4   2430   2287   2402   6430
4    487   6278   5300   2900
4   3254   2229   5487   2281
4   2283   3334   5735   5869
4   2475   3254   2229   5487
4   2616   2357   2337   6415
4   2357   4146   4507   5478
4   1850   1880   1671   2494
4   2407   4181   4740   1350
4   2347   2374   2373   4734
4   2328   6249   3532   2926
4   2371   3903   3532   2972
4   2328   5200   5201   6249
4   2275   2211   6557   4670
4   2997   6195   6250    743
4   6142    650   4313   3581
4   5172   5139    472   3827
4   3827   4784   5172   5139
4   5784   5789   5786   6874
4   5789   2724   5058   5786
4   2385   2327   4429   1403
4   2327   6753   5727   3022
4   2497   1341   1346   6717
4   2370   2376   2379   2497
4   1475   1186   4585   4335
4   1475   3565   1186   4859
4   6374   6370   6373   6492
4   6493   5300    487   6278
4   2411   6492   4554   6373
4   2098   2412   3963   2114
4   2098   4932   3963   2412
4   2218   3632   4846   4844
4   2348   4475   6508   6143
4   2370   3812   4436   4103
4   2574   2348   5688   6508
4   5643   3415   5914   4602
4   6154   4602   6620   4657
4   3327   3819    732   3415
4   6826    774   6395    772
4   4192   4485   3935    340
4   5865   4192    390   4486
4   4553   2488   2492   5505
4   5847    983    259   4373
4   5797   3372   6278   5300
4   4374   3388   3585   4373
4   4373   3585   5847   3388
4    983   4080   4482   5847
4   4373   1459   4480    983
4   2508   6699   3844   3097
4   2508   5071   3643   2761
4   2191   5205   4234   6662
4   6776   1411   2504   6787
4   2508   5071   2760   3643
4   2329   5416   5696   2599
4    461    445   4354    415
4    461   5413    434   5410
4   6367    308   2679   4660
4   6367   2679    308   2662
4   2526   4154   6455   2877
4    211   3205   4039   4937
4   3440   4991   3439   4937
4   6168   3440   4991   3439
4   4937   3205   5234   3439
4    211   5908   3440    677
4   4077   5291   3566   4078
4   5542   1817   5291   4078
4   3547   5542   1817   5291
4   2884   5816    767   3719
4    764   6603    763   2647
4   2436   6762   2680   4503
4   2812   4415   3483   2052
4   2438   2632   4621   2090
4   2438   3251   3250   4923
4   2139   2920   2944   3153
4   5048   3760   2987   2986
4   3760   6886   2988   5048
4   5048   2987   2823    542
4   2639   6375   5078   1838
4   2722   6020   5518   4818
4   2722   5518   3511   4818
4   5044   5748   2179   5045
4   2181   2086   2222   2088
4   6413   2178   2179   2056
4   2502   2116   6212   5417
4   2374   2354   1267   1263
4   2528   2517   4458   3923
4   3218   4398   3220   3219
4   3133   3382   1831   3219
4   3133   6255   3182   3219
4   6552   3382   1831   3133
4   1829   6552   3382   1831
4   3133   6552   3382   5638
4   6841    943   1747   3218
4   6322   4568    230   6343
4   6343   4568   6071   3116
4   6322   6343   4571   4568
4   6343   2914   4568    230
4   4912   3364   4157   3548
4   4912   3364   3548   6080
4   2516   2528   2517   4458
4   2145   1211   1210   1457
4   4933   5709    326   5947
4    344   3438    702   5709
4   5342    450   3285   5978
4   1092   3785   5785   3788
4   1092   3153   3786   2139
4   5617   5618   3588   4238
4   1372   5617   1373   2969
4   5617   4848   1373   6727
4   6209   5619   3588   5618
4   5617   1373   2969   6727
4   1186   4859   3565   4583
4   1186   1187   4585   4335
4   1186   4583   1187   4586
4   4697   3653   6008   4931
4   6011   3653   6008   4697
4    452   5049   4158   4930
4   1085   1555   1009   5654
4   1085   1010   6635   5654
4   1644   1085   6407   1555
4   2283   3334   6118   3239
4   2230   2231   2225   2228
4   2280   2548   1395   2663
4   1320   2282   5449   2279
4   2518   2527   2517   3923
4   6322   4305    230    242
4   5407   2081   2087   2080
4   2655   1324   5874   3999
4   3110   2081   3111   3112
4   3475   4809   3476   2440
4   2031   2071   2076   2073
4   6200   5579   5587   6294
4   2357   4320   4147   6103
4   5666   3278   1883   3277
4   3278   3684   1869   5642
4    487   4364   5944    226
4   3278   3507   6488   5642
4   6488   3278   3684   5666
4   3174   4191   6324   3686
4   2414   2413   2415   5625
4   2172   5012   6085   4637
4   3889   4799   4796   3888
4   5359    280   6159    308
4   6367    308   4660    274
4   4796   4662   3888   4799
4   6367   4660   4113   4796
4   4796   3888   4662   4113
4   3420   5634   5743   4344
4   3422   3423   3420   5743
4   3423   5743   4344   3420
4   3420   5743    778    898
4   3420    779    778   5634
4   2419   2514   1443   2635
4   2466   4224   2549   3454
4   6171   5077   5402   2953
4   2530   3578   6821   4177
4   2530   6418   2877   3578
4   2530   6411   1283   6429
4   2456   6411   6068   5125
4   6032   3601   1304   3474
4   6033   3474   5811   3601
4   3474   5811   3601   1290
4   5679   3601   6033   5811
4   3540   6496   6498   1464
4   3540   1290   5738   3474
4   2436   6762   5037   2245
4   2436   4503   2680   2863
4   2436   6762   4503   5484
4   3864   2805   3677   3865
4   4372   3864   2805   3677
4   3865   3677   4706   2805
4   3865   3677   4703   4706
4   6619   6201   6743   6294
4   3866   3867   4705   6320
4   3866   4372   3938   6320
4   3864   2805   3938   4372
4   3865   4519   3864   2805
4   2168   3853   2960   2961
4   2339   2345   2344   2343
4   3999   3261   2655   2528
4   2324   2100   2208   2213
4   1217   4183   2209   2408
4   2323   2168   3852   2960
4   2323   1753   1879   3852
4   2823   4330   6878   3176
4    533    678   3298   6397
4    533   4330   2823   6886
4    533   2823   4330    678
4   2823   2987   5048   6886
4   5048   6886   2988   2823
4   5761   3176   2823   6878
4   2921    542    540   6372
4    540   6878    543   5194
4   5195   5194    540    526
4   5195   6372   6562   2921
4   2921    542   6265    539
4   2470   2514   2635   2040
4   4573   6743   3402    335
4   2369   3642   6515   3640
4   2835   2381   4688   2477
4   4307   2282   2382   3279
4   3778   2479   2890   2382
4   2405   1328   1326   5562
4   2477   4531   4688   2835
4   2479   3091   5563   5562
4   3279   1321   2382   5873
4   2382   5873   3280   3279
4   2382   1328   1327   1321
4   2479   2891   4751   2890
4   3091   2519   4429   2480
4   2479   2891   4001   4751
4    355   3037    333   3036
4    333   3701   4067   2966
4    333    380   2966   4067
4   5761   6372    540    542
4   6878   4330    543   5796
4   5195    526   4483   5194
4   5761   6372    542   6265
4   5761   2823   3176   2987
4   6887    534   6371   6265
4   2142   2147   3786   1209
4    411   5181   6282    377
4    372   6031   5833   3958
4   3745   6282   3746    377
4   6166    211    677   5908
4    377    388   6282    411
4    290   3955   3746    377
4   3369   5181    399    377
4   4787   2714    583   3360
4   4787    283   4786   3360
4   4787   2714   4525   5706
4    283   4785    571   6419
4    581   6419    283   3360
4   4787   4525   3360   4786
4   2067   2552   4926   2996
4   2042   5853   5187   2312
4   3166    591   5069   2764
4   3166    207   4902    600
4    590   3080   2586   5335
4   5198   3077    594   5555
4    207   5335   4902    600
4   2516   1315   2517   1317
4   2261   2260   2257   1456
4   2349   2319   2520   3621
4   2337   4155   6131   4293
4   2361   2082   6241   5894
4   2261   2257   2171   2262
4   2094   2092   5901   2361
4   2081   2672   5443   6765
4   2081   2672   5407   5443
4   2047   3051   5387   6189
4   2291   4873   6420   6208
4   2053   2054   5739   2057
4   2047   4667   6189   6218
4   2258   2260   2102   2167
4   2048   2556   4095   2634
4    402   6283    372   3679
4    387   4265    428    352
4   3678   4610   6023   3713
4    387    428   4265   6292
4    404   6292    387   4610
4    383   4264   6023   4610
4   2735    352    428   4265
4    428   6292   4890   4213
4    387    352   4264   4265
4    387   4895   4264   4892
4    404   5575   4610    378
4   2455   3081   6357   5113
4    245   6790   4395   3351
4   4394    244   5955    245
4    244   6788   5495   5522
4    245   3351    244   3949
4   4394   5521    244   3351
4   4394   5522    244   5521
4   3542    524   3275   3276
4    519   3275   5670   3542
4   5631   6246   4228    524
4   5631   6246    607   4228
4   1484   6059   5719   2262
4   2291   6420   4565   6208
4   2306   6138   4873   2687
4   2047   4873   6139   5387
4   2262   6059   5719   1456
4   2306   3890   6138   2687
4   2166   3853   4368   2522
4   2517   3265   4458   4451
4   3698   3163   2841   4246
4   4781    222   3271   4464
4   3163   4779   4781    222
4   3163   3698   4245   4246
4   4557   5603   6846   4556
4   5603   6846   4556    553
4    553    698   4556    552
4   3043    553   3042    528
4    553    528   3043    221
4   5668   6356   6357   2173
4   2265   2171   4392   2262
4   2171   5113   6612   2077
4   2261   1367   6610   6770
4   2455   1370   2173   6505
4   2261   2455   1185   1370
4   2258   2257   5111   2260
4   4690    686   4723    584
4   1500   1231   4856   5191
4    584   4723   3033   4248
4    580   4690   6130    584
4    372   3958   5833   3957
4   6031   5833   3958   3765
4    402   3679   3713   3712
4   2048   4095   5127   2634
4   2117   2071   2065   2034
4   2039   2467   2514   1260
4   5545   2492   2525   5935
4   5063   6348   3244   3243
4   1822   2167   1877   2777
4   6168   4991   6801   3610
4   6168   4991   6169   6801
4   2523   5531   2509   4509
4   6168   6169   4991   3440
4   6168   4940   4991   3610
4   3582    370   3954   3534
4   2406   4169   5665   4988
4   6367    274   4660   6366
4   6367   2662   4113   2679
4    308   2662    586   6159
4   3373   2673   2030    586
4   5359   3372   5797   5299
4   5359   6366   5299    274
4    274   5795   6366   3039
4   3455   1884   1883   5656
4   3455   3173   3003   2007
4   2025   5235   2837    859
4   5235    859   1629   2837
4   5588   5589   5587   6747
4   1178   2978   4176   2845
4   1660    923   3131   4176
4   3079    594   3077   5197
4   2216   2944   4863   4715
4   2139   2944   2920   3971
4   2109   2505   2623   4868
4   6519   4375   6516   4952
4   2139   2919   1360   1451
4    676   5946   5961   6714
4    480    344   5709   5961
4   3130   4895   5572   5176
4   5572   3746   6599   5965
4   3955   3746   5176    290
4   5572   4270   3130   4299
4   1283   2456   2415   5125
4   6599   3746   3369    399
4   5571   5176   4895   4893
4   2456   6068   1375   5125
4   5284   5084   2913   5285
4   5063   3244    345   3243
4   2644   2643   2645   3426
4   2645   3426   1847   2644
4   3816   3426   1847   2645
4   2340   3009   4490   5373
4   2443   4490   3008   3505
4    522   4397   5192   6129
4   3552   3663    522   6128
4   3552   2937   3433   3811
4   6128   4348   3607   3433
4    537   2939   3434   5195
4   2414   5625   5624   5623
4   2937   3434   3433   3811
4   2937   3434   3605   3433
4   2937   4348   3605    536
4   6275   4220   5966    277
4   5571   5572   4270   4895
4   5571   4893   4377   5176
4    216   3412   4476   3544
4    216   3412    382    523
4    216    351    382   3544
4   3199    413   2985   6192
4   2985   3549    413   3199
4   4492   3199   5384   5223
4   2472   3842   2581   3485
4   4611   2057   2054   2060
4   2080   2358   2356   2079
4   2349   3621   6002   4295
4   6757   2349   3779   4834
4   4024   3211   2317   3841
4   2472   6135   5056   4295
4   2349   5882   4295   6002
4   5882   2493   2578   2349
4   2167   3248   6617   4534
4   2048   5705   5388   4135
4    281   6304    328   3494
4    281   3494    328   5156
4    281   6304   4702    252
4    281   4702   5155   6232
4    281   4256    278   5155
4   2823    543   4330    678
4   2177   5931   6634   6633
4   2458   4399   2924   5007
4   2177   6188   2214   4636
4   2432   4993   6546   6547
4   2432   4993   4168   6546
4   2179   5748   2596   2595
4   2506   4986   6026   6675
4   6648   4111   2962    373
4    427   6338   4351   6340
4    427   3210   5728   4990
4   3210   6336   4990    427
4    427   4351    467   6340
4   6812   2282   4680   6813
4   2282   1320   1328   1321
4   4680   2381   4184   6813
4    389   5633   4466   5055
4   4946   6561    675   5055
4   5633   3907   5635   4466
4   3900   4785   3829   3830
4   3677   4372   4706   2805
4   2529   6822   5327   6820
4   3864   3938   2805   4519
4   4706   2805    581   3865
4   2805   3939   4519   3938
4   3677   4707   4372   4704
4   3864   3677   4372   4704
4   3866   3864   4372   4704
4   5988   4075   4861   6780
4   3562   2414   4075   6786
4   1245   6786   4075   6780
4   5122   4242   5378   2668
4   6262   4148   3684   1869
4   6262   4148   6003   5762
4   6262   5642   3684   5762
4   2289   2401   2402   2409
4   1417   2277   1358   1307
4   2130   2548   2663   1307
4   5280   5281    558   5075
4   6835   6055   6836   5885
4   6835   2992   6055   4016
4   5281   5286   3414    558
4   5282   6808    330   4016
4   6835   5885   5886   4016
4   6194   4351   6337   6340
4   2328   6662   6361   2926
4    427   4351   6338   3946
4   6194   6193   6340   6337
4   6267   1183   1051   3065
4   6267   6268   1663   1183
4   2214   6412   2177   2432
4   2332   5856   6462   2854
4   2332   5856   6131   4580
4   4098   6530   4989   2506
4   2422   3144   2829   3145
4   5274   3248   6617   2167
4   2230   3906   4138   4139
4   2419   3335   2123   2470
4   4408   3464   3737   1811
4   3511   3464   3855   4408
4   5178   5752   3513    483
4   5178   3449   5767    483
4   2287   2402   6430   5920
4   2257   2262   1737   5274
4   2414   6696   5624   4177
4   2401   1354   2569   3096
4   2399   3095   6527   1378
4   2401   1416   2569   1354
4   2167   1484   2908   2257
4   5006   4131   2237   2460
4   3096   2429   4419   1378
4   2908   2257   2777   2167
4   2267   6433   5671   3815
4   2267   6433   4858   5671
4   4093   2394   5637   2070
4   2106   6144   5870   2070
4   2034   5851   2790   6774
4   2117   6426   4249   5475
4   4700   4365   4701    596
4   2515   4510   6205   2519
4   2519   5365   4291   5929
4   2477   2256   2381   2255
4   5589   6743   4573   6201
4   2515   3669   6249   4162
4   2192   1277   1435   1271
4   5979   3407   4274   5512
4    497    496   5979   4274
4   5979    395   3407   5286
4   5946   6855   3557   3804
4   5946   6855   3438   5164
4   2683   6177    343   6163
4   5946   3557   3570   3804
4   4684   4226    354   2824
4   4684   4226   2721   6810
4   4685   6810   4684   2721
4   6810   4226   4390   4684
4   6317   4286   4026   5820
4   2428   3680   1392   4998
4   6783   2124   2289   5869
4   2239   5102   6434   2309
4    603   3825   6317   4650
4   2526   6034   4154   4457
4   2081   2082   2080   5407
4   2472   4295   2349   6135
4   2428   1392   5376   6531
4   2364   2083   5921   1392
4   2364   2428   1392   5376
4   2213   1453   2834   1281
4   2102   2213   1216   6058
4   2213   6113   2786   1281
4   2524   6136   2047   6760
4   4529   5084    126   6739
4   4529   5650   4530    304
4    774   6395    772   6394
4    774   4807    773   4970
4   3623    514    773    774
4    461   5413    445    442
4    442    434   5413   2898
4    442   3946    441   5412
4    442   3946   5116    445
4    442   5413    445   5116
4    442   2898   5413   5412
4   2079   2085   2317   2082
4   2493   6133   6132   3612
4   2337   5041   6382   2566
4   2239   2506   6529   2440
4   2357   2406   2440   4809
4   4831   6434   2309   5364
4   1241   4243   6211   5877
4   1241   5877   5779   4243
4   1241   6800   4465   5779
4   1241   6800   1199   4465
4    396   5979    395   3407
4   3424   3413   5766    268
4   5979    498    395   5286
4   3490   2090   2474   6796
4   4754   4345    775   2883
4   3342    376   3134   4683
4    519    382   3275    524
4   2172   6086   6085   6494
4   2041   6048   6073   4620
4   2041   6044   4502   6073
4   6796   2090   2474   5915
4   2474   3490   4204   4624
4   2368   3751   5441   3749
4   3994   2365   2368   2483
4   2180   6380   6412   6187
4   4332   2414   2413   1463
4   2406   6546   4988   5320
4   2406   5320   4988   5665
4   2434   4267   6150   6151
4   2406   6462   6152   6153
4   2332   6131   5856   2854
4   2406   6153   6546   5320
4   2332   2406   5667   6462
4   4693   4694   6588   5801
4   3674    889   6589   6008
4    452   4158   4931   4697
4   4931   6588   4158   4693
4   4931    452   4697   3653
4    700    342   6040   6868
4   5565   4126   2702    641
4    700    321   2701   2703
4   2432   6380   4984   6549
4   2088   6435   4987   4198
4   2506   4099   6675   6026
4   2180   6435   6381   2592
4   2049   2524   6136   2047
4   2406   2432   6546   6153
4   2641   2088   4198   6435
4   2180   6381   6148   2592
4   2330   6183   4678   2510
4   2050   2296   2052   2419
4   2180   2595   4166   5748
4   2976   6698   2434   2377
4   3113   2088   2180   2592
4    400   5731   5591   4541
4   5590   5591    400   5731
4    400   4541    440   5973
4   4311   3348   5577   5590
4   4312    422   2830    419
4   2830   5591   5731   4404
4   4466   3575   5055   5633
4    389   5055   4466    675
4   5636   4644   5633   5635
4    389   4644   5633   5055
4    389   6122   5055    675
4   2117   5819   4250   4452
4   5480   3801    617    501
4    501   6060   3801   5794
4   5059    501    313   5794
4   5479    625   4564    620
4    617   5480   5479   5114
4   5479   4564   3018   3154
4   4564   3018    626   4195
4   5480   3018   6060   3154
4   2180   3113   2592   6148
4   3085    618   3587    619
4   2179   6355   3113   2534
4   5748   2177   5045   6633
4   2422   2829   4050   4051
4   2422   2829   5889   4050
4   2397   3146   6859   4474
4   4331   4208   4207   4202
4   2461   5470   4051   4050
4   2462   5470   3088   2451
4   1385   2461   1386   2422
4   2422   4049   2829   4051
4   1447   1385   2461   1386
4   2423   5889   3089   5751
4   2423   3089   5208   5751
4   2422   3144   5889   2829
4   2462   5889   5751   3088
4    371   4508   6286   6285
4    371   3534    370   5840
4   4408   1801   3464   1811
4   1804   4888   2532    883
4   4408   4551   4407   1801
4   4408   1801   1811   4551
4   5519   4408   1801   3464
4   2192   1435   1184   1405
4   5461   1821   1822   1809
4   2172   2173   2261   2415
4    229   5551   4959   4952
4    229   4959   6190   4952
4    229   4959   5551   2676
4    229   4959   2676    227
4    498   2912   6598   5189
4    439    498   2912   6598
4   5592   5280    558   5282
4   5979    498   5189   5512
4   2912    305   5512    498
4   1459   6014   4481   1243
4   1459   4482   2870   4481
4    983   1459   4480   4482
4    983   4482    800   1459
4   4374   4480   3388   4373
4   5216   4374   2931   3388
4   2746   6810   4226   4390
4   4226   3537    354    361
4   2806   3135   5339   6810
4   2746   2747   6810   4390
4   2530   1292   3562   2504
4   2647   3229    764   2706
4   2647   2706    764   6603
4   2106   5870   4057   6028
4   2050   2470   2514   2419
4   2200   2433   5242   3256
4   3997   1199   5214   3472
4   3997   1199   3157   5378
4   5117   2967   3155   4980
4   1471   3997   3472   3157
4   3998   5119   3157   1471
4   5548   6502   4140   5549
4   4140   5548    723    724
4   6502    724   6247   5548
4    724   3026   4140   6502
4   3042   4140   6707    528
4    552   3042   4140   4403
4    539    534   6265   6371
4   2937   3663    539   3811
4    539   6186   6265   3811
4   6826    772   3328    390
4   5971    346   5970   3947
4   3658   5970   5971    718
4   5971   3428   3659    718
4   4149   3947   3948   5971
4   5971    718   5970    346
4   5970   5957   6625   5933
4   5970    346   5933   6313
4   2314   6823   3495   5712
4   1260   2138   2039   2467
4   2043   5852   2831   6454
4   6826    774    514   3623
4   2746   6810   5339   2721
4    517    516   4686   3134
4    516   4686    350   3136
4   3342    382    376   4683
4   3954   4948   3951   4947
4   4947    492   6742   3073
4    493    492   4947   3073
4   4948    370   4947   3954
4    493   4947   3954   3073
4   4508    370    371   3534
4   2192   1436   3167   3398
4   2406   2432   4168   6546
4   4962   4968   6145    332
4   3549   3909   2985   3863
4    679   3493   3383   5222
4   4968    364   2984    413
4   3863   4968   2985    413
4   2371   2508   3099   2191
4   2349   6002   3779   5882
4   2493   2472   2317   2349
4   4630   2149   2150   2500
4   2446   2333   2170   5875
4   2335   1257   1255   1325
4   2982    824   3784   5261
4   4497   5193   5780   3702
4   1595   3473   5780   3160
4   2982   3784   2983   5261
4   3784   5261    783    784
4    342   6040   6287   6286
4    641   2702   2703   4126
4    700    342   6127   6040
4    589   3899   3938   4520
4   6868   6040   2816    342
4   2816    342   5769   6868
4    342   6040   2816   6287
4   2177   6412   2214   6188
4   2177   6187   5931   6379
4   2050   2291   2306   2047
4   2306   2047   4873   6138
4   4168   2088   4167   4198
4   2279   4043   4735   4042
4   2278   2489   3264   6876
4   2192   1435   1436   3398
4   4042   2282   2279   4043
4   1321   2382   5873   1327
4   3736   1840   1812   3738
4   3056   3058   3736   1840
4   3785   5785   3153   1092
4   4832   1127   2931   2930
4   4692   2236   2230   2055
4   3750   2117   5629   3711
4   2333   5158   6390   4119
4   2437   6279   3627   6280
4   4523   6204    576   4597
4   4349   4523   4539   6301
4   4349   6301   4825   4597
4   4523   5650   4527    304
4   5650   4530    304   3665
4   5650    304   4523    576
4   5650   3345   5425    576
4   3596   3587   3945    610
4   3596   3587    610    619
4   3596   4501   4195    610
4   3945   5465   4036   4501
4   6388   5386   2073   2076
4   2332   4580   6131   3718
4   2423   3378   3144   3146
4   2495   5238   3263   4554
4    642    663   3450    369
4   3224    664    669    667
4   3224   6352   4596    667
4    637    643    663    642
4    663    642   3450    637
4    642   3449   3450   2759
4   5914   4657   4656   4602
4   6154   4657   5914   4602
4    642   5245   3288   2759
4    642   5245    431    639
4   2426   4847   2540   6735
4   2399   3096   3095   1378
4   2290   3506   5513   5920
4   3074   1652   3319   6053
4   3319   3074   5685   4854
4   6054   3319    616   6053
4   6887   5048   2986    534
4   1184   2515   2192   5535
4   4117    736    616   3319
4   2116   2505   5675   5417
4   2318   5455   6260   1294
4   4225   1294   5455   1293
4   1372   4225   6731   4315
4   6855   3514   5165   5164
4   6855    703   3438   5165
4   1879   3852   2666   2781
4   2781   3852   2666   5544
4   1837   6567   2781   1776
4   2781   6567   5382   1776
4   2323   1220   2168   2213
4   1217   2209   1204   2323
4   2168   2102   1216   6112
4   2166   3852   4804   1753
4   2166   3853   5544   3852
4   2781   5544   2666   2665
4   4325   1879   2323   2494
4   3964   4972   5620   3232
4   3964   6593   5950   5211
4   3964   3232    621    630
4   2328   5201   5200   5097
4   2193   6449   5447   5450
4   2192   2327   2515   2328
4   2192   2371   2328   2515
4   5524   3063   3064   2109
4   6552   1831   4380   4384
4   4384   1831   1832   4378
4   4384   3584   1832   4066
4   4385   4384   4380   4066
4   6127    317    641   4126
4    317   4128   6127   6041
4    317   4128   4126   6127
4   4373    259   5847   3585
4   4080   5847    983    259
4    983   4482   4080    800
4   4080   6315    259   6460
4    259   6460   6315   6721
4    259   5847   5703   4498
4   6315   6460    745   3069
4   6722   2671   3807   6721
4   4017   6460   6721   2671
4   2177   5045   6634   4187
4   2177   6634   5045   6633
4    379   4990   5728   5730
4   4990   3210   5728   3533
4   5728   3533   3210    446
4   5728   4990   4782   5730
4   6186   6371   6185   3662
4   2437   2071   4045   2117
4   2509   3099   2371   2508
4   5866   2034   5851   2437
4   2473   2436   2253   6473
4   2117   5819   3711   3750
4   2438   2790   2090   2034
4    388    360   4545    411
4    388   5765   3957   4544
4    388    411   4545   6282
4    784   2983    744    820
4   5780   5193   4497   1189
4   5780   1189   5781   5787
4   5780   1195   5781   1189
4   4885   1236   3123   4862
4   5339   6810   3136   2721
4   4686    350   3136   6316
4   6386   4686    516   3134
4   6385   3904    374   3720
4   4055   5868    622   6884
4   4055   6884   3466   5613
4   4054   3465   4055   5137
4   4055   3466   6884    622
4   2838    881   3222   4178
4   4178   2794   2025   2804
4   2177   2180   6379   6633
4   5235   1745   1659   2804
4   2175   3553   3304   2638
4   2525   1177   5693   2564
4   2175   5532   1461   1462
4   2141   6310   5399   3152
4   2525   2565   1646   2564
4   2362   4515   5499   2710
4   3863   3549    413   2985
4   3908   3549   3909   6778
4   2109   1352   1248   6342
4   3863   3198   5609   6149
4   2090   5898   2474   6044
4   2504   4810   2191   2193
4   2438   2790   4798   2789
4   4694   3109   5801   4693
4    889   4931   6008   3674
4   3108   5170   3107   6704
4   5908   5204   3440    677
4   5679   3601   4317   6033
4   6448   5808   5157   5812
4   1295   6448   5808   5157
4   3474   5738   5811   1290
4   5808   2205   5679   6448
4   5679   3601   5811   6448
4   5811   1290   4455   6448
4   5738   5811   1290   4455
4   5811   5157   6448   4455
4   2314   4251   4356   2607
4   2098   2957   2114   4924
4   2233   2503   1468   5355
4   2248   2200   3168   2498
4   2233   2241   2097   2243
4   6221   3312   2466   5714
4   2293   4446   4813   4816
4   1396   2419   1439   6100
4   2420   2187   5266   1439
4   2240   1117   1440   1441
4   1439   1396   1441   2240
4   2495   3920   2518   2411
4   2492   5010   2488   2490
4    453   4543   3820   5057
4    453   4776   4543   6639
4    453   3525   6199   4776
4   3468   3901   6174    386
4   6816   6815   4598    434
4   6816   5411   5410   6639
4    461   5410   6816   5411
4   2930   5216   2894   1473
4   2930   4577   1127   1473
4   4832   4577   1127   2930
4   6155   2930   2894   1473
4   4488   4805   4489   3245
4   5169   5621   2694   5864
4   5167   4488   3243    661
4   4488   3243    345   3245
4    486   4370   6071   3116
4   3573   3572   3574    653
4   4370   3116   3054   6071
4   1236   4862   4856   4323
4   4318   4854   4862   5685
4   4318   4854   5685   3074
4   2511   1305   1432   1295
4   2526   1295   2563   1305
4   3877   6526     36   6198
4   1279   1655   2959   1657
4   1279   1657   2959   3366
4   1279   1188   1160   3729
4   4892    352   6056   4193
4   4193   4892   4763   4268
4   2634   2067   4566   6175
4   4892   4264    352   4763
4    404   6292   4890    428
4   4892   6056   6597   4268
4    451   6597   4892    330
4   5059    501   5794   6060
4    501   3104    313   5794
4    313   6219   5794   3104
4   5059   6060   4720   4574
4   2725   5793   2724   5058
4   3342   2883   4754   4229
4   6386    376   3134    516
4   2653   1848   1798   2977
4   2977   1848   1902   2652
4   2653   1798   2654   3688
4    672    674   6613   3448
4    674    483   3448    672
4   5178   5085   3513   5752
4    384   3500   3448    672
4   4896   5733   6586   4157
4   4896   4157   2294   5733
4   3548   4157   4912   5610
4   6080   4313    650   4161
4   6080   5043   3548   6141
4   2755   1221   2757   2754
4   3455   6167   3194   1524
4   3003   6167   3194   3455
4   2755   1221   2754   6167
4   1884   5656   6324   5666
4   3455   5656   3371   3194
4   2455   6311   1407   6312
4   2046   2067   2471   2298
4   2172   2262   2265   5012
4   2168   1681   6112   1220
4   5220    325   2914   4388
4    325   4388   6750   5130
4    325   4150   5130   6750
4    325    694    695   4150
4   2647   3229   2706   3012
4   6785   2670   2713   5994
4   2670   2713   5994   3229
4   2706   2670   3012   3229
4   3229    764   2773    761
4   2670   3229   2706   2773
4   6603   2706    764   2848
4    500   6425    763    764
4    764    768   2773    761
4   3185   2385   1403   2498
4   2200   1430   2246   1394
4   5912   5494   4966   5913
4   4564    626    481   3606
4    157   5129   5924   5346
4   5346   5129   5924   5347
4    157   5346   5974   5129
4   5974   6013    444   5129
4   5974    444   6013   6016
4   4055   5772   3465   5868
4   6884   5613   5755   3466
4   6884   3466   5755    632
4   4055    622   5868   3465
4   4055   5137   3465   5772
4   5753   5613   3466   5755
4   6271   5146   6843   3447
4   6271   5911   5146   3447
4   4247   4248   6271   5146
4   6271   4247   5146   5911
4    645   6613   3789   5771
4   3789    401   3288   6613
4   3789    646   5771   4371
4   3789    460    646   4371
4   2232   1418   1398   2594
4   2118   2428   2123   2409
4   2475   4453   2499   3978
4   3274   4312   5733    592
4    336   4975    420    765
4    336   3512   4010   6664
4    679    485   3165   3529
4   2044   4003   3974   4006
4   6587   3198   5733    448
4   3863   3549   3198   6145
4   2291   2778   2612   2733
4   2113   3823   5777   4868
4   4383    565   4992   5599
4    564   3900   3830   4785
4    577   3411   3007   5599
4   5225   3411   4992   3007
4   4992   5599    565   3007
4   6887   6265    542    534
4   4687    563   4199    564
4    419   4976    794    420
4   3348    422   5590   4311
4   5590   3348   5577    795
4    793   4976    794   3348
4   1079   4976    792   5989
4   3569   2887    339   5491
4   1044   4076   1649   3349
4   4076   1044   1598   3349
4    793   1077   3349   3348
4    794   1077   3348    795
4   2178   6414   4664   4665
4   2239   2088   2506   2440
4   2177   2180   2435   2331
4   2091   5309   5307   5100
4   2329   5694   5651   2599
4   2306   2047   6760   2524
4   2370   4664   2178   2559
4   2344   2345   2212   2431
4   2097   2351   2447   2247
4   2186   6117   1410   1298
4   2186   1298   1410   4824
4   2379   2431   3968   4812
4   1351   1201   2502   1225
4   2111   5523   6717   1331
4   2062   2505   5677   2115
4   1825   1875   3252   6047
4   1823   3268   1825   1824
4   2735   4265   4266   4352
4   2735   4266   4659   2736
4    387   6292   4265   4264
4   5480    501    617   3154
4   3018   6060   4614   4574
4   4195    610   3944   4614
4   3018   4614   4195   3944
4   2310   6746   4048   6745
4   5493   6114   4359    347
4   5712   4518   2524   2314
4   3781   2315   4238   5612
4   2310   4048   4517   4047
4   5240   2210   2209   2407
4   6152   3479   4580   2332
4   2089   2354   2435   2331
4   2235   3618   4871   3619
4   4633   2440   3477   3476
4   2432   6547   3478   6412
4   4809   2406   5665   3452
4   3319   1652   4862   2715
4   5493   6888    759    334
4   4282   4955   3015    224
4   6481   4089   2989   2990
4   3014   2677    710   2678
4   2269   1677   4340   2757
4   2269   4340   1501   4575
4   2269   2754   5429   4994
4   2048   5458   4203   5459
4   1220   1481   2168   1681
4   1220   1481   1752   2168
4   1752   2168   2323   1220
4   2323   1219   1752   1220
4   2371   2972   3532   3669
4   2515   6249   4493   4162
4   2509   3670   3669   4162
4   6760   2306   4561   6256
4   6146   4561   2524   2306
4   3160   5780   1195   3473
4   2982   1595   3473   5780
4   1195   5781   1189   5782
4   1195   4711   1200   3472
4   4966    742    721   3524
4   3698   4246   4247   4245
4   2788   2601   3308   5255
4   2788   4768   3689   3306
4   2788   3308   3306    699
4   2161   3724   4179   3911
4   2506   5364   6434   6184
4   2239   6524   6529   6029
4   2264   1362   6443   3005
4   1445   2182   1444   1286
4   2521   5679   4317   6347
4   2796   1240   3791   1208
4   2441   2442   2391   2397
4   2420   1117   1439   5266
4   5493   3901   6114    759
4   2042   2073   4623   4297
4   2521   6417   6656   2605
4   2320   4306   4616   2316
4   2320   5105   3892   3893
4   2521   6417   2605   6655
4   2322   3488   2561   2605
4   2320   6663   4838   5539
4   5974   6016   5346   4096
4    444   6015    292   3696
4    292   6089   6464    444
4    444   6015   3696   3216
4    444   5129   6015   3216
4   6109   2524   6229   6146
4   2068   5309   5131   3912
4   5781   1196   4714   5782
4   5780   5787   5193   1189
4   5781   5787   1189   5782
4   3721   2268   3723   2523
4   3035   3046   4750   3885
4   1465   3588   5891   5619
4   6209   5891   6210   1377
4   2839   3017   2838    751
4   6114    386   4362    759
4   5552    751   5038   5924
4   4080   6460    745   6315
4    259   5703   5847   3585
4   5703   3388   6720   5847
4   5703   6720    922   5217
4   6304    328   3494    215
4   6304    309    215   3693
4   6304   3494   4702   3693
4    458   5103   4676    460
4    458    364    460   4676
4    364   4371   2984    646
4   3789   4371   4909    460
4    758    401   3288   3789
4    460   5232   4909    426
4    460   5232   5103   4676
4   4677    712   5249   4118
4   4118    712   5583   4677
4    458    332    364   4999
4    458   4999   4677   5249
4    646    460    364   4371
4   2366   4253   3851   5030
4   2460   3851   4262   2589
4   2573   4109   2237   4262
4    464    332   4999   4310
4    458    332   4999    464
4   5591   4404   4541   5731
4    400   5731   5973   4007
4    464   4541   4404   4310
4    400    713   4007    440
4   3976   2524   6136   2049
4   2420   5266   5265   1117
4   2187   5266   6222   1298
4   2524   2049   3976   5714
4   1399   2417   2780   1276
4   2420   4824   1399   5266
4   5976   6465   3525    292
4   3525    407   4777    453
4   3525   3086   6199   4776
4   3525   3086   3087   6465
4   3525   3086    436   3087
4   2275   5692   6378   4811
4   2431   6716   3595   5405
4   6585    737   5049   3794
4   6648   5049    373   6585
4    373   6584   6585   3794
4   6865    737   4655   3138
4   3794   6584   6585   3795
4   6865   6582   3137   4655
4   6585   3795   6865   3794
4   3138   6585   6865    737
4   3794    737   4655   6865
4   6865   6582   4655    466
4   6865   3794    466   4655
4   3328    772   4486    390
4   4486   4485   4805   4489
4   4488   4485    661   4495
4   4485   5361    661   3935
4   4489   3245   4805   3189
4   5865    390   4192   3768
4   2350   5042   4294   4833
4   2237   2159   2086   2264
4   2315   3579   6007   5251
4   2137   4733   5108   5107
4   2137   5108   2617   5107
4   4733   2137   2462   2802
4   4846   2218   2390   3632
4   2397   2070   5637   2394
4   3959    322   4016   5886
4   4269   6056    330   6808
4   6365   3616   5356   6330
4   6056   5885   6808   4269
4    282   4036   3943   3942
4   3943    282   4752   5465
4   4036   5465   6392    282
4   5949   5950    363   6591
4   6499   3953   3949   3951
4   2204   5050   5051   4936
4   3169   2200   3168   2248
4   2200   3255   3927   3256
4   2247   2246   2206   2204
4   2200   3928   3927   3255
4   2194   5242   2200   2327
4   2200   3928   3255   4431
4   1857   6482   6871   1853
4   2284   5026   5431   3030
4    546   3044   3035   3045
4   2403   2399   2429   2430
4   2464   2481   3837   5247
4   2481   2464   3193   6555
4   2485   1201   1226   1225
4   5264   2485   1201   1226
4   1205   2463   6555   2464
4   4684   2721   4226   2824
4   4685   2824   4684   6827
4   6810   2721   6581   3136
4   5339   4686    516   3136
4   1524   2755   3455   6167
4   6107    716   4661   4536
4   4635    210   5018   4186
4   2041   6077   2911   6076
4   2254   1903   2452   1852
4   2869   2254   2452   1852
4   2254   2906   2644   2869
4   4388    263   3054   2914
4   5220    263   4388   2914
4    325   5130   2822   4388
4   4388   5130   2822   4387
4   5220   6318   6750   4388
4   4388   4387   2822   2914
4   4370   3116    486   6319
4   2417   2418   2858   4850
4   2417   2418   1425   2858
4   2052   5244   2236   3619
4   2202   2322   4059   2521
4   4308   2197   2204   2351
4   2247   4153   4745   5267
4   2472   4607   4627   2650
4   2319   6772   6771   5673
4    255   4940   3142   6270
4   4939   4940   6641   6270
4    213   5527   4940    239
4   6168   4991   4940   3439
4   2239   6029   6096   6524
4   2111   5523   1331   1355
4   2237   2086   2159   4581
4   2505   5277   5677   6697
4   6415   2337   5815   4507
4   6183   2331   2332   3479
4   2177   2331   2214   2432
4   2085   2507   1251   1256
4   2510   4678   6548   6183
4   2332   6152   5856   4580
4    347   6114    759   5493
4    212    728    297   6669
4   2084   2089   1390   2083
4   2087   2573   4278   4100
4   4088   4628   4086   3770
4   4088   4252   4628   6845
4   4088   3770   4086   4479
4   4088   4252    237    408
4   4088    237   6845   5721
4   2173   3541   4170   6453
4   2828    285   5180   5966
4   5966    286    277    288
4   6600   3897    503    490
4   6600   3897    490    399
4   5224   6001   4819   4849
4   3332   3739   5674    748
4    748    749   6624   3332
4   3512    749     66   4764
4   3519   4396   5561   2661
4   3597    618   3518    613
4    748     66   3332   3739
4    319   4764   5442    612
4    519   3545    382   3342
4   2054   5496   4144   5502
4   1075   1650   1648   4434
4   2276    748    746   2300
4   6664   1078    765   2300
4   1648   6664   6140   4738
4    748    749   2300   6624
4   6664   4434   4738   1648
4   6664   5331   1650   1648
4   1650   6664   4434   4975
4   4434   4975   4897   1052
4   5221   4492    644   5161
4   5221   5161    520   6410
4    644   4492   3199   5384
4   4097    644   3530    520
4   6778   5047   6777   3549
4   5161   5047   6410   3164
4   5161   5384   4492    644
4   2174   5935   6406   4164
4   2488   2378   1223   2396
4    922   3388   6720   5703
4   2894   3388   6720    922
4   5122   3997   5378   5877
4    934   2894    924   2895
4   3388   3585   5703    922
4   5703   4498   6720    258
4   1459   4481   2870   1243
4   4080   6315   5847    259
4    259   4498   6721   5847
4   6014   1127   4374   2931
4    922    924   2894   5216
4   4374   6014   4480   1459
4   2403   2083   1393   3652
4   5044   5045   2179   6413
4   6527   2403   3652   2264
4   4272   4642   4644   5770
4   4272   5770   2892   4949
4   5636   4645   4644   2892
4   5657   4547   3803   6345
4   4645   5636    499   2892
4    389   4642   4644   5055
4   4642   6571   5115    353
4    389   5115   5770   4642
4    389   2892   4644   5770
4   4272   3902   2899   4949
4   4272   3902   4949   4645
4   3902    499   6789   4949
4   4027   1449   2233   1448
4   4027   2240   2233   1449
4   2123   2118   2240   2055
4   2067   3982   2555   6681
4   2240   1401   1397   1440
4   2119   2230   2055   4137
4   2240   2419   2052   2233
4   6442    497   6445    507
4    507   3055    505   6446
4    507   6445   3055   6446
4    507   4274   6445   6446
4    497   4274    507    496
4   3356    504    505   6297
4    505    433   6446   6297
4   4484    550   5179    548
4   4484   4775    532   3067
4   4484   6795   5179    550
4   3116   6319   4571    486
4   6343   6071   2914   3054
4   6343   4568   3116   4571
4   2257   2262   5274   3248
4   1875   4579   5132   1825
4   3460   4579   1825   5132
4   1959   5133   5134   1875
4   1959   6087   5134   5463
4    254   6269   6669   2826
4   2438   4296   3251   3419
4   2790   2437   4216   5851
4   2073   3250   6471   4622
4   2069   5705   2157   2076
4   2034   4504   4499   4643
4   4995   2150   4997   2170
4   2090   4923   4297   5915
4   2188   2301   4356   2314
4   2403   2399   1378   2429
4   2157   5705   5032   5033
4   2071   4029   3809   3282
4   2071   3809   5000   5830
4   2073   4324   5184   4449
4   2093   6252   4613   2620
4   2200   1429   2194   2327
4   2299   6099   2627   3171
4   4431   2196   2200   2878
4   2049   2038   3960   3312
4   2966    380   4359   4067
4   2302   3172   5803   4417
4   2302   4309   4308   5803
4   2299   3172   2627   2297
4    886   4193   6056    777
4    886   6056   4193   6057
4   6056   6597   4268   4269
4   6056    330   6597   4269
4   2675   6057    886   4193
4   6056   4269   4193   6057
4    352   4763    777   4193
4   2675   4193    777   4763
4   6178    352    777   4353
4   5885   4269   6056   6055
4   4892   4193   6056   4268
4   4202   3956   4331   4916
4   3699   3405   5759    527
4   5568   3289   5275   4202
4   3699   3289   5568    527
4    362   6263   3769    470
4   6263   6125   2728    469
4   2509   2371   2515   3669
4   5885   4016   6055   6056
4   6833   6597   4299    330
4   4892   6597   6056    330
4    451   4270   4299   3130
4    451   4892   6597   4270
4   3400   2637   3932   4141
4   3400    393   3932    397
4   3400    398   4142    397
4   2477   2382   2835   2381
4   6185    787   2868   5849
4   2491   6784   5011   3031
4   5264   4941   1182   4061
4   5264   6066   5263   4244
4   5264   4244   5263   1242
4   5015   1821   1876   5274
4   1876   5274   1737   5015
4   2777   5274   1737   1876
4   5461   1809   6087   1821
4   1541   4979   4977   4973
4   1541   2967   4973   4977
4   2403   2399   6527   1378
4   2044   5742   4006   5741
4   4939   4460    240    251
4   2123   1397   2428   4998
4   2291   2733   4412   4411
4   6114   4359   4222   4068
4   2403   2458   2366   2460
4   6759   2047   2044   6136
4   2306   4411   4412   4816
4   2316   2189   2310   2315
4   2044   6759   5741   4006
4   3976   2049   2044   3960
4   2065   4200   3117   2619
4   2047   6760   4562   6256
4   4410   2376   2587   4260
4   2431   5878   6258   2723
4   5986   5818    462   3861
4   5986    472   2795   5817
4   1817   3566   4815   5290
4   5986    472   6851   4021
4   5818   6851   3435   2859
4   2859   6851   3435    471
4   2795   5172   4784   6854
4    634   6870   4765   5348
4    634    636   5348   2795
4    462   5817   4765   5818
4   1241   1199   5877   5378
4   3997   1199   6800   5214
4   6800   1200   4711   1199
4   5761    540   2823    542
4   3997   1199   5877   6800
4   5224   4849   6005   4066
4   4711   1199   5214   6800
4   1195   4711   3473   5781
4   4494    282   6398   6392
4   6736    479   6250   6195
4   4686   6810   6581   3136
4   4347   2746   4226   4390
4    517   3135   2883   3134
4   4955    224   6519   2678
4    711    554    232   4957
4   6457   4957   6525    232
4   6457   6709    725   6729
4   6457   4487   4957    554
4   4957    554   4487    711
4   5943   4472   6729   6457
4   6457   6792   4957   4487
4   6582    467   4655    466
4   6582   3790    467    466
4   6865   4655   3137   3138
4   6871   5087   3704   4459
4   4459   3567   3703   5088
4   3933   5087   6871   1849
4   4032   3821   5977    429
4   4802   4801   1807   4891
4   4802   1834   4891   1807
4   5979   5286   5189    498
4   5571   3746   5572   5176
4   3746   5965   5176    290
4   3955   4377   3745   6283
4   5965   3746    399    290
4   6204    575    576   4597
4    575   4386   4985   4780
4    575   4985   5909    572
4   2278   1321   2282   5533
4   3787   1092   3153   3786
4   3785   3586   5787   4578
4   4757   4526    122   4825
4   5787   1189   5782   3788
4   5785   5787   5778   3788
4   5787   4578   1189   3788
4   2982   5261   6303    824
4   3755   6396   4175   3754
4    546    547   3272   2656
4   3467   5864   5868   3465
4    384   3465   3501    672
4   5773   5622    672   3465
4   4713   5773   5622    672
4   3465    672   5773   3501
4   3465   5772   5773   5864
4   5868   3465   5864   5772
4    622   2642   2744   3072
4   5868   2642   4716    622
4   3270   4597   3344   4540
4   1661   1659   2978   1191
4   1745   1659   2804   4889
4   3755   6396   5820   6389
4   5047   6778   5384   3549
4   6777   3549   5047   3548
4   6777   5043   6141   3548
4    464   5973   5249   4730
4   4687    578   4521   3869
4   4541   4404   4310   5731
4   4404   4929    448    332
4   2830   5732    448   4929
4   4404    332   4310   4929
4   4962    332    448   4929
4   6145   6587   3198   6149
4    592   4312   5733   5732
4   4541   5731   4310   5973
4    464    712   4730   5249
4   2228   4209   4288   4287
4   2230   4454   4139   4425
4   2475   3906   4292   6691
4   2394   6659   3147   4093
4   1446   3633   4093   3147
4   6301   2913   4527   4539
4   6204    576   3345   5650
4   3344    559   4386    575
4   3344   4985    575   4386
4   6457    738   6709   6792
4    221   4329    671   3043
4   4329    738    671   3884
4   4329   6709   6708    738
4   6643   1466   2435   6642
4   2484   5353   6837   3836
4   2320   6540   5539   4838
4   2373   1268   6643   1353
4   3411    560    577   4780
4   2373   2374   5289   6643
4   2377   5419   2496   4182
4   5557   4386   4779    559
4   2422   2421   1385   2461
4   2461   2310   2189   2315
4   2046   2032   2066   2048
4   2462   4514   6745   2310
4   2461   2315   5612   4513
4   6657   2310   2316   4681
4   2314   2313   2421   2466
4   2182   5508   4133   2184
4   2189   2186   2421   6458
4   1465   5619   5611   5612
4   2042   2038   5305   2044
4   2521   2183   4838   6656
4   2189   2315   2316   2182
4   4101   2034   4643   6830
4   2183   5251   2315   2316
4   2075   3913   5031   3914
4   5008   2487   5009   2520
4    476   3576    484   3055
4   4254   6125   2727    237
4   4509   2515   4696   5531
4   2515   4696   4162   4493
4   1214   3791   3001   2771
4   3615   4835   3616   3614
4   3615    139   3614   3019
4   5982   3614   3615   6840
4   6329   4835   5846   5483
4   4835   5199   5846   3616
4   3615   3614   3616   3019
4   1843   1943   3082   3057
4   1843   1798   3688   3510
4   3446    771   3445    744
4   2983   5261    784   3879
4   2251   3397   6754   2074
4   2235   3483   4871   6828
4   2255   3397   3396   3258
4   2486   3906   3315   5488
4   2255   3396   6536   4414
4   2139   5785   3153   2944
4   2145   1211   1461   1210
4   3302   2156   4013   6489
4   2414   3246   4829   5722
4   2172   2262   5012   5014
4   2414   5624   6696   3246
4   2851   3273   4600   2852
4   6495   3273   2852    504
4   5636   2851   5635   5633
4   5636   6423   3230    499
4    970   6374   6370   4180
4    970   6370   6374   6635
4   2868   5848   6861   6860
4    788   6860   5391   6370
4   1363   2130   1307   2277
4    788   6370   4180    970
4   2868   5849    787   5848
4   6185   5849   3662    787
4   2490   3031   3772   5010
4   2490   6406   3772   4164
4   5314   2491   6784   5236
4   2491   4376   2284   2131
4   3031   2491   6784   5314
4   6875   2490   2491   3031
4   6800   4465   5779   3294
4   3472   1199   5214   4711
4    775   2883   5669   4754
4    775   6000   4236   3754
4    775   6396   3754   4175
4   4345   3135   5383   2883
4    775   5383   6396   4175
4   2251   3397   4839   6754
4   2196   6645   4431   2202
4   3408   4723   3033   6130
4   3533   3137   2657   6341
4   4523    304   4527   6301
4   6582   6336   3210    467
4   3137   6341   3138   2657
4   6529   2440   2506   6530
4   2309   5102   6434   4831
4   2239   6452   6029   5102
4   2440   3476   3475   3477
4   2082   6241   3481   3480
4   2439   5292   2542   5444
4   5517   2440   3477   4633
4   2440   6679   5409   6678
4   2080   4320   6677   5414
4   2357   5444   4320   6103
4   2440   4280   6679   6678
4    248   5220    276   6318
4   2047   6759   3974   2690
4   2041   2911   6479   6048
4   2183   2185   3730   3487
4   2090   4506   6045   6044
4   2041   6076   2911   4606
4   2041   6048   6479   6043
4    970   6185    787   2868
4   3267   3643   1244   2508
4    970   2868   6370   6185
4   5848   6861   3858   4397
4   2868   6861   5848    787
4   2413   4879   4882   2947
4   2193   5450   5326   6449
4   2193   5326   4418   6449
4   2193   5344   4233   4234
4   2511   1438   1305   1382
4   2529   5330   4233   5344
4   2927   6450   5447   2328
4   5451   2504   2193   4810
4   5481   6450   2328   2194
4   2193   4233   5326   5450
4   2529   4233   5330   5326
4   4035   3834   2445   5070
4   5076   5439   2276   3833
4   2147   3714   5501   5500
4   2147   5500   5501   3666
4   4738   5072   1078   6664
4   1648   6664   4434   1650
4   1078   2276   4738   1575
4   6862   2276   1086   1575
4   5844   5843   4017    214
4   1648   5439   4738   6140
4   1078   4434   4738   6664
4   4676   4371   2984    364
4   3198   5733    300   4157
4   3493   5135   3492   2704
4   5384   3199   3909   5223
4   3199    646    413   6192
4   4968   2985    413   2984
4    413    646   2984   6192
4    460   4909   4676   4371
4   2830   4311   4312   5732
4    364   2984    413    646
4   2175   2638   5658   4515
4   2125   6689   5318   2610
4   2125   6689   5655   5663
4   4891   1864   5861   4174
4   1803   4801   1863   2742
4   4802   6627   1834   3683
4   4801   2743   1807   4891
4   4802   2705   3683   3682
4   6701   6528   6164   6700
4   4956    711   4957   3015
4   4956   6525   4957    711
4   3789   4909   4371   5771
4    645   5771   3789    646
4   6778   6777   5047   3164
4   3199   6192   2985   5223
4   6641   4939    240    239
4   5844   6725    214   3049
4   2280   2281   2381   2226
4   2236   3618   3619   4132
4   2280   2381   2405   2226
4   6814   5148    312   3970
4   3048   6814   2743   5977
4   6814   3970    312   4174
4    458   4676   4999    364
4    712   4730   5249   4118
4    464   5249   4310   4999
4   5081   2767   2768     98
4   5081   2942     98   2766
4   5081    557   2941   2942
4   5081   5574   2768   2767
4   4012   2480   2256   2477
4   2280   2226   2229   2281
4   2280   2283   2234   2130
4   2279   4043   4420   3239
4   2282   6812   4680   4041
4   2405   1328   3317   1326
4   2280   2570   3317   1395
4   2405   3317   2570   1423
4    657   2905   5211   5950
4   2436   3357   2437   2533
4   5188   6051   6616   5647
4   2117   2437   4114   4045
4   2280   2405   3317   2570
4   2436   5334   3249   2863
4   2235   6828   4871   4872
4   2280   2229   2283   2281
4   2054   5502   4144   3917
4   2236   3618   4132   3905
4   2486   3395   3618   3905
4   6078    231    768   4337
4   2052   6537   3619   3483
4   3681   1230   5723   4881
4   3681   5723   3350   4881
4   5511   4881   3681   3350
4   5683   1869   3684   3685
4   2102   1216   1227   6058
4   4191   3686   1835   5683
4   4191   1869   3684   5683
4   3457   3685   5683   3686
4   3412    524   3275    382
4   3412   6595    523   4476
4   3412    382   3545   3544
4   3412   3545    382   3275
4    519   3545   3275    382
4    519    518   3542   5669
4   3412    523   6595   3276
4   6591   5476   5340    363
4   6591    363   6590   6592
4   6591   3537   3290   6590
4    657   5950   6592    363
4   5844   5204   6170    214
4   2720   6815    407   5144
4   6639    453   4777   6816
4   6816   4777   6639   2720
4   6263   6867   2727    237
4   2726   6263   3769   2728
4    470   6263   3769   2726
4   6263    469   2726    470
4   4254    237   2727   4252
4   6125   2728    709   6578
4   3716   6102   5145    394
4   3716   6102   4760   3664
4   5145   3716    394   5699
4   5088   6298   1844   1908
4   5347   5346   1808   5924
4   3567   5347   1808   1800
4   5347   1808   5923   5924
4   5347   1808   1800   5923
4   1843   1943   3057   3688
4   3058   1871   6196   1840
4   3446    925   1578   3443
4    771   2895   3445   5217
4    930    925   3446    771
4   2479   2382   4001   2891
4   2890   2382   3075   3778
4   1235   4334   4881   5511
4   2414   2413   1229   4332
4   2413   4881   4334   4882
4   2413   4882   2190   4881
4   2325   4391   2167   4368
4   4804   5544   2666   3852
4   2670   3012   5994   3013
4   3341   5089   4115   4122
4   3341   4141    440   4007
4   2131   5318   5323   4376
4   3317   2280   2282   2405
4   2131   4376   5323   4112
4   2609   2131   1269   2176
4   2369   2981   6439   5022
4   2379   6439   2981   6440
4   3377   2940   3676   6893
4    437   3377   2940   5945
4   2165   6444   4718   6226
4   6341   3533   4608    446
4   6341    418   4608   6010
4   3137   4655   3210   2657
4   3137   6336   3533   3210
4   6341    446   4608    418
4   6341    446   2657   3533
4   3533   4608    446   4782
4    427   4990   5702   6336
4   3533   6336   4990   3210
4   2657   6010   4609    418
4   1295   5808   2110   5807
4   1295   2205   5808   6448
4   5857   3839   3692    488
4   5857    488   3692    309
4   5857    421    215   6602
4   5857   3693   3494    215
4    216    351   3544   5338
4    376    374   6385    351
4   2472   6076   2650   3842
4   2882   2301   6755   6099
4   2299   2882   2627   6099
4   2246   1424   1394   2241
4   6194   3499    430   6193
4   3793   3496   6573   3792
4   5519   3511   4818   6564
4   2141   3786   2147   5287
4   2139   5778   5785   2944
4   1092   5785   3153   2139
4   3786   4793   3787   1209
4   2408   1205   1213   6713
4   5264   4244   4941   3752
4   5284   5117   3155   4980
4   4941   4243   1182   5779
4   5724   2485   2585   2502
4    782    129   5118    143
4   2260   6610   1456   2261
4   2173   4156   6349   5668
4   2173   5206   1370   1288
4   2173   3540   6453   6498
4   2173   5668   6498   6453
4   2410   2880   4034   2518
4   2411   2902   4152   1642
4   2495   4152   6373   6362
4   2411   5238   6370   3667
4   2411   5238   6492   6370
4   2516   1312   2528   4000
4   2518   2528   4512   3923
4   5844   5843    214   6170
4   2176   1269   1194   1224
4   2175   1462   1461   1224
4   2175   5503   3553   2638
4   2472   4627   4607   6629
4   6240   2152   6387   6475
4   2531   2135   5298   2648
4   4450   5305   2044   2042
4   2043   5187   5854   4448
4   2046   2031   2038   2040
4   2043   2831   2649   6454
4   2202   2200   2196   2207
4   2049   3312   3960   3976
4   2150   2170   4995   2169
4   2513   4925   2769   2770
4   2428   2063   2365   2424
4   2215   2108   2222   2162
4   2513   2832   6074   2770
4   2506   6529   4989   6184
4   2506   6434   6529   6184
4   2239   6096   6029   6452
4   2309   3726   3725   6105
4   2309   5102   6105   3648
4   2163   6521   6444   6072
4   2224   3911   2309   3725
4   5728   4782   5729   2737
4    379   5838   4990   5730
4   4608   4782   5729    446
4    457   4111    465   4769
4    457   4934    465   4158
4    452   4930   4158   4697
4   6585   4930   5049    737
4   1681   1481   2168   2166
4   4482   4481   4232   2870
4   1459   4481   4480   4482
4    886   6057   6055   6056
4    983   5847   4482   4480
4   4080   6315   4482   5847
4   2204   2206   2196   2200
4   2261   2262   2172   2416
4   2168   3853   2961   4368
4   2166   1681   2929   1743
4   2807   2324   4327   2325
4   2166   5120   5544   3853
4   3006   2683    343   4953
4   3570   3572   3571    659
4   6162   6163   6890   6177
4   3571   2683    343   3006
4   3570   3695   2683   3571
4   6163   6162   2683   6177
4   6162   3804   3570   3558
4   4953   3695   3006   2683
4   2683    343   4953   6174
4   1465   5612   3781   4238
4   1465   5612   4238   5619
4   2461   5611   4051   5612
4   5611   1446   1465   1386
4   5611   2422   4049   4092
4   5891   4092   5890   3633
4   5511   4322   1651   4323
4   4318   5726   1651   4323
4   1236   4318   4323   5726
4   3457   1835   5683   5684
4   3457   1827   5684   5540
4   3685   1869   4148   1836
4    581   4706   4703    583
4   3829   4785    581   6419
4   3829    581   4703   3360
4   3411   3007   5599   4992
4   3830    565   4907   4992
4   4383   3830   4992    565
4    563   3869   3899    589
4   3900   3939   4199   4519
4   4199    589   3899   3938
4    434   6816   5410   4598
4    407   3821   5144    429
4    453    414   6816   6639
4    407    436   3086   3821
4   3086    407   4777   3525
4   3086   3821    436   3087
4   6816   5410   2720   6639
4    696   3040    362   6867
4   6867   2727    237   6566
4    362   6263   6867   3040
4    237    233   6566   6847
4   6867    233   6566    237
4   4254   4628    408   4252
4   6263   3040   2727   6867
4   6867   6566    233    234
4   3615   3019   3020    139
4   3615   6840   3021   2684
4   3614   5357   3019    139
4   6298   1800   5347   3567
4   1800   3703   1805   3567
4   5346   3567   5347   1808
4   1802   4459   3704   3703
4   1800   3567   5088   3703
4   1802   6871   3704   4459
4   1861   1802   6871   6632
4   3859   3158    473   5064
4   3705   3704   3567   1805
4   3567   5087   4459   3704
4   3704   3567   3703   4459
4   1805   3705   5346   3567
4   3859   5064    473   3860
4   1802   1805   3703   3704
4   3859    473   5462   3860
4   5560    278   3508   5155
4   5560   3508    278   5795
4   5560   5951   3039   5795
4   4796   3508   5795   4799
4    508   3889   4799   3522
4   5359    308   6367    274
4   3889   4796   4799   3508
4   4796   6366   4660   5795
4    508   3888   4799   3889
4   6170   4590   5843   3806
4   2226   2570   1348   3620
4   2226   1332   2570   3620
4   2281   5734   5680   3254
4   2282   3317   1328   5449
4   5068   5620    474   4289
4   5394   5185    331   3700
4   3303   5389   5393   5394
4   5389   5185   5394   3303
4   5394   5393   3303    424
4   5185   2719   6607    331
4   2827    424   3303   4343
4   2213   6113   4742   1280
4   6594   2718   3406   3233
4   1478   1485   5191   1749
4   1478   1500   5191   1231
4   3946    441   5412   5702
4    427   3946   5702   4778
4   3946   5116   6338   5702
4    427   6336   5702   6338
4   4778    441   5702   5838
4    427   5702   4990   4778
4    441   5412   5838   5403
4   3103   5838   4172   5403
4   3946   5116   5702   5412
4    442   5116   3946   5412
4    427   3210   6336    467
4    427   6340   6336   6338
4   2276   1575   3833   5439
4   2166   2168   1753   1481
4   1575   2276   1086   1078
4   2445   1639   2410   5076
4   2300   1078   5072   6664
4   1078   2276   5072   4738
4   3512   4764     66    612
4   2276   5550   1102   3646
4   3857    791   2448   5070
4   4738   2276   5072   6140
4   2448   4396   2752   2661
4   2300   2276   6624   5072
4   2039   6081   2453   1260
4   1805   5346   1808   3567
4   1805   2532   1804   4888
4   1802   1805   3704   6632
4   1861   6632   1860   1804
4   1805   3221   3707   2532
4   6799   2042   4298   4297
4   2471   2067   3985   4445
4   5894   2361   6242   6241
4   2042   4298   4297   4623
4   2041   4502   4605   6073
4   2061   2059   2876   5737
4   2426   4847   6735   4400
4   2402   4847   6431   2740
4   2823   3176   6886   4330
4   6171   6172   5402   5077
4   2276   2907   2268   3267
4   6140   5439   4738   2276
4   2276   6624   6638   3644
4   6194    467   4351   6340
4   3497   6583   3498   3793
4   6573   2901   3792   3496
4   4965   5913   3551   6313
4    580   3868   3033   6130
4   6520    589    253   3323
4    430    467   3790    466
4   6337   6338   4351   4354
4   6582   6340    467   6193
4   6582   3137   3210   6336
4   6194   6340   6193    467
4   2388   3673   5370   2729
4   2386   5884   5269   6510
4   2200   2207   2246   2206
4   2386   2348   6508   6143
4   2347   2374   2221   2457
4   3452   2357   3451   4809
4   2202   2200   4823   4431
4   2440   4098   5517   3477
4   2878   6645   4431   2196
4   5338   4086   4628   3770
4   6385    351    374    270
4   6386    374    376    350
4   4088   3770   6845   4628
4   2200   2201   2817   5242
4   6830   2117   4101   2034
4   2117   6758   6235   5475
4   2437   4037   3600   6832
4   2093   2065   2117   4283
4   2117   4134   4249   4250
4   2117   3750   6758   5475
4   4599   6542   2719    357
4   5390    331    357   4599
4   4087   4479   6126   3770
4   2269   2956   2757   2754
4   2276   2907   3646   1102
4   2268   2276   3921   2384
4   2276   5550   5076   1102
4   2475   4453   4532   4292
4   2183   4215   5547   5546
4   2475   3906   4139   4292
4   2499   4453   4454   3978
4   3174   3173   3456   1758
4   3173   2007   2956   3003
4   3456   1758   3173   1881
4   3195   1881   3173   2007
4   2956   2754   3003   2007
4   2270   2956   6327   6326
4   3586   4577   4578   6155
4   4577   3586   1189   1472
4   4578   6155   3785   3586
4   5787   1189   4578   3586
4   4577   1473   6155   3586
4   5193   1578   4497   1472
4   5193   4497   1189   1472
4   5787   5193   1189   3586
4   5151    696   3709   5152
4   6867   3040   6566   5151
4   2267   2164   2266   2287
4   2502   2501   2505   4062
4   2109   2623   3064   5524
4   2215   2321   3973   3724
4   2222   5025   6224   4426
4   2222   1355   5025   4426
4   2319   2152   2149   2487
4   2183   2521   1303   4215
4   2350   4834   5042   4833
4   2183   2521   4215   6656
4   2440   3475   6544   6545
4   2239   6095   6096   4100
4   6545   2506   4099   6675
4   4934   4930   4697   4158
4   4934   4158   6588   4693
4    457   5049    373   6648
4   6648    373   2962   6584
4   1806   5924   6017   5923
4   1863   2742   1806   1803
4    532   4570   4569   4775
4   4570   4910    532   4331
4   4570   4910   6331   4775
4    406   4766   4604   5418
4   4766    423   5418    406
4    585   3697   3803   5659
4   4604   3128    406   4731
4   4213    428   4265   4659
4   4659    428   4265   2735
4   3604   4289    478   3966
4    352   4264   4265   4763
4   3694   3517   3071   3070
4   5425    576   3665   5650
4   6204   4985   3345   5909
4   3344   4597   4523   4540
4   4349   4526   4825   6301
4   6051   6616   5647   4538
4   3373   6159   2030   6344
4   1644   4772   4555   1645
4   1644   6374   6492   1085
4   2488   1644   1645   6362
4   1644   5504   6492   4554
4   2233   2184   2206   2241
4   2475   5487   4292   5486
4   1406   2183   5251   2315
4   2063   4869   2120   2060
4   2063   2120   2428   2064
4   2079   2086   2089   2083
4   2437   6832   3600   5629
4   2191   4810   1309   1271
4   2515   1184   4699   4698
4   2515   4696   4493   6123
4   2174   4163   5503   2712
4   6591   3537   6590    354
4   3883    354   5340    733
4   4684   4226   3537    354
4   4684   3883    354   3537
4   5476   5340    509   2825
4   5977   3696    311   3048
4   3048   6814   5148    312
4   3048   5977    429   4032
4   6814   3048   5148   3047
4    394    429   5145   3047
4   3821   3087   5977    436
4   4032    429   5144   3821
4   4891   2743   1807   4174
4   4777   3525   4776   3086
4   3087   6015    292   6465
4   4254    681   6125    408
4   4790   5825    770   3386
4   2728   6578   4212    709
4    469   4212   2728   2726
4   5952    608   6214    624
4   6386    350    376    516
4    469    707   4212   2871
4   4212   2856   2871    707
4   4212    707   6264   2856
4   2117   5826   6830   6831
4   2033   2094   4239   2117
4   2117   3600   5826   6831
4   6058   2102   6059   1227
4   3649   3919   2099   2104
4   2325   3850   6259   6405
4   2417   3190   2780   3191
4   1440   1117   2240   1449
4   2301   6099   5990   5991
4   6035   2420   1449   1448
4   4903   3504   2417   3190
4   1448   2184   2420   2233
4   2417   6773   6350   4019
4   2417   4903   4019   1442
4   2063   5271   2120   4869
4   2417   1442   3503   4903
4   3446   3445    771    925
4   3446   5558    744   3445
4   2314   5991   4356   4251
4   3446    925   3443   3445
4    744   3445   5558   4589
4    478   4289   5620   4972
4   3604   3070    660    655
4   3603   3965   2881   3517
4   3604    478   4289    474
4   2173   1464   3540   6498
4   2167   1483   1227   6112
4   2166   1816   5544   5120
4   2171   6357   6612   5113
4   1681   2167   6112   1483
4   2167   5274   1822   6617
4   2167   2908   1484   1483
4   2167   4391   4533   2522
4   1737   2257   2777   2908
4   6606    356   4221   3762
4   6606   2718   5953   4221
4   6606   3234   2718   4221
4   6606   3762   4221   5953
4   6606   2951   4221    356
4   5048   6580   2988   3760
4   2495   4748   6738   4440
4   2378   2490   2491   2609
4   2488   2495   1223   2489
4   2495   4440   4874   4748
4   2489   3031   5010   5295
4   2489   2820   5295   5315
4   2489   4874   2820   5315
4   2135   2531   5298   2372
4   2489   5010   5315   5295
4   2481   6066   2732   2731
4   2491   3030   6784   5236
4   1212   2416   5190   2262
4   1825   1875   6047   5132
4   5461   5274   1822   1821
4   2172   4442   5012   2265
4   2063   2059   2035   2365
4   2413   5625   5623   4638
4   2414   5623   2413   5625
4   5125   1283   6506   2415
4    678    543   4330   5796
4    544   5179   5796   2656
4    544   4749   2656   5796
4   5796   5083    548    543
4   3067   5796   5083    548
4    540    526   5194   5083
4    678   5796   4330   4749
4    543   5194   5796   5083
4   4837   2060   3636   2063
4   2063   2059   3482   2060
4   2509   2973   1285   1249
4   2342   2106   2101   6028
4   4091   2422   1386   3147
4   2423   3146   4474   3378
4   2167   1483   1484   1227
4   2103   1433   1376   6532
4   2166   5121   5120   2522
4   2063   2365   4842   2059
4    678   4749    544   5796
4   2258   4443   3761   2367
4   2909   2167   2908   1877
4   1743   1681   2167   2166
4   2961   2325   4327   2168
4   2258   3761   4441   2078
4   2366   2087   2460   3851
4   2240   1396   1441   2123
4   2429   4419   1378   5497
4   2424   2693   5095   2740
4   2540   2426   2424   4847
4   2426   2539   6735   2540
4   2429   1378   1336   5497
4   5969   4218    410   6571
4   5644   6158   6623   5341
4   5644   6621   6158   5343
4   3377   4020   6893    741
4    720    455   5644   5343
4   3377   5341    741   6893
4   5644   6621   6623   6158
4   6623   6158   6621    423
4   6623    741   5341   5716
4   6623    741   5716   3827
4    333   3037    731   3036
4    731   3701   6542   5968
4   5969   3037   3036    731
4   5969    731   3701   6542
4   3037    320   6309   4218
4   3037    410   4218   6309
4    333   3036   3701   2966
4   5969   3036   3701    731
4   3408   2684   6840    307
4   3033   5203    307   4248
4    584    692   4690    686
4    584    692    580   4690
4   3408   3033   6520   3868
4    584   4723   6130   3033
4   3408   3021   6840   2684
4   3408   3021   6520   6840
4   3408    307   5203   2684
4    580    589   3869    563
4    307   5146   2684   6650
4   5982   6840   3615   2684
4   5982   4835   5199   6329
4    623    687   5435   3320
4   5435   4914   4747   4402
4   3026   4402    623   4747
4    623   6500   5436   4402
4    623   6500   3201   5434
4   2325   3850   4328   2807
4   2325   4368   2961   6234
4   2213   1433   6113   1434
4   2318   2258   2325   5358
4   2209   2323   2208   2213
4   2201   2194   5242   2200
4   2509   2515   2519   4509
4   2523   2509   2268   1249
4   2327   2352   2353   5727
4   2385   1403   2498   2327
4   2327   5727   2353   5098
4   2523   2519   3777   4509
4   2385   6206   2352   3184
4   2385   2251   4839   6640
4   4075   6637   5988   4861
4   4075   2414   5722   5723
4   2626   6780   6432   5988
4   6202   5267   2247   2355
4   5723   2414   1230   4861
4   5723   2414   5722   4881
4   4070   5723   3350   4860
4   4860   5723   3350   3681
4   6637   5989   4070   3349
4   2525   2711   4913   5498
4   2525   2362   4015   2659
4   4230   1088   6363   5436
4   4230   4481   2870   4232
4   4230   4481   4826   2870
4   4482   4481   4230   4232
4   6503   6364   6363    935
4   4230   5436   4231   3320
4   6363   5434   5436   1088
4   5543   2664   1791   5077
4   1791   4341   4535   5941
4   1791   5382   2664   4535
4   1791   2664   5382   6667
4   4341   5469   1828   5460
4   5757   1837   6567   5756
4   4341   4900   5460   1828
4   2164   3813   3815   3814
4   2125   5925   5926   5917
4   2070   2394   5937   5938
4   6659   4093   2394   5637
4   2397   2442   2391   2395
4   5078   5215   5861   5863
4   1830   5082   4528   1864
4   1864   1865   4173   4174
4   1834   5861   1864   5078
4   5214   6303   5262   1471
4   1864   1807   1865   4174
4   6868    321   2864   2701
4   6868   2816   6763   5769
4   2299   2096   2297   6852
4   5975   4935    704   2864
4   5945   3676    720   3377
4   6868    704   6576   2864
4    700   2701    321   6868
4   5975    321   2864    704
4   5342   5978   5163   3675
4    704   6763   6576   3281
4   5975   2910    704   4935
4    704   6764   6763   3281
4   2506   6675   4167   4986
4   2079   2085   2084   2334
4   2358   6680   6101   2614
4   2314   6223   5991   4251
4   6543   2439   4633   2357
4   2510   5333   6183   6548
4   2439   3247   6679   5408
4   2357   5478   2616   5664
4   2440   2406   4169   4809
4   2357   3451   6748   3452
4   2439   5444   6543   5292
4   4098   2506   4099   6545
4   2406   6546   4168   4988
4   2392   6117   5474   1389
4    452   3138    737   4930
4   2053   5739   4456   6767
4   2057   5740   5739   6061
4   5758   5086   5752   5177
4   5086   5085   4194   4817
4   5138   6200   6294   6089
4   2293   2957   4412   2958
4    541   5944   6424    226
4   6465   6089   6464    292
4   6464   6465   6463   6089
4   3525   6465   3087    292
4   6464    292   6015   6465
4   2456   2459   4170   6075
4   6464   6015    444   6013
4   4030    236    228    235
4   3087   3696    436    292
4   5976   6465    292   6089
4   5976   6199   6465   6463
4   6204   5909    575   4985
4   5909    576   3665   5425
4    576   3345   5425   5909
4   3345   5424   5909   3343
4   2083   4552   3237   3652
4   2309   2086   3648   3911
4   2086   3910   3911   3106
4   2089   2435   3782   3238
4   6266   1243   4826   2658
4   1234   4481   5845   6014
4   2438   2437   2473   4798
4   2365   2063   2538   2424
4   2438   2253   2611   2473
4   2437   4273   4216   2793
4   2070   2394   5938   4091
4    562   4795   5336   3898
4   2319   2520   3621   5009
4   2397   2443   2342   2441
4   1656   1237    858   1486
4    236   5336   4795    596
4   1486    865   2794   1736
4   4887   2804   1745   2794
4   4821   2342   6028   2070
4   6793    206    203   5143
4   2237   2573   2087   4726
4   1651   4322   1087   3074
4   5511   1651   4322   4321
4   1654   4321   3350   4322
4   1236   4323   4318   4862
4   1235   1229   3681   4881
4   1087   4322   1654   3350
4   1087   5718   4322   3350
4   4322    796   5685   6254
4   6254   1087   4322    796
4   1459    800   2870   4482
4    684   6315   4231   4482
4   3569   5491   2888   3744
4   3569   2886   2887   5491
4   3569   6607   5791   3744
4   3569   2888   3568   6607
4   2903   2886   2887   3569
4   2222   6224   5025   6533
4   2886   3744   3569   2903
4    312   6814   2743   3048
4   3048    429   5977    436
4    311   2743    312    662
4   3087   3696   6015   3216
4   5974   5129   5346   6013
4    444   5129   6013   6015
4   4801   3661   6834   1863
4   1872   2705   4031   3682
4    407    429   5144   6815
4   5654   1555   5760   4550
4   1555   4555   4550   6407
4   4484   6331   6795    545
4   1644   4555   1555   6407
4   1644   1555   4555   4772
4   5784    316   6874    310
4   5786   5784   5783   5058
4    203   4795    206   3139
4   5789   4615   3753   5784
4   4615   5060   4574   3753
4   5059   4574   4615   4614
4   5789   3753   6874   5784
4   4615   5060   3753    316
4   5789   4720   3753   4615
4   5466   5788   3598   5074
4   5789   4615   5058   4720
4   5790    701   2636   6351
4   5059   4720   6060   5794
4   5123    313   6219   5794
4   5790   2724   2636   5786
4   5059    313   5793   5794
4   1848   1817   3181   3547
4   1848   2654   3181   2652
4   1848   2652   3181   1858
4   1848   1799   1817   3547
4   5542   1817   1799   3547
4   1843   3510   3688   3057
4   3547   5542   4591   1799
4    678   3272   4749   6397
4   1817   5291   5290   3547
4   1817   3547   5290   3181
4   1848   3547   2654   1799
4   3566   1817   5291   5290
4   3539   4406   2014   3538
4   3278   6488   3507   3277
4   2266   3150   6719   5919
4   2277   2568   1358   1363
4   2266   6719   3813   6447
4   3244   6160    329   4649
4   3244    345   3245    329
4   5063   6161   3244   6348
4   3784    783   5261    824
4   3129   5260   6121   4876
4   5260   5261    783   5262
4   5260   3879    783   5261
4    621   5620   6883   3232
4   3964    621   3232   5620
4    614   3941   3940   3225
4   6867   6566   3040   2727
4   5151    696   3040   3709
4    237    233   6847   5721
4    237   2727   6847   6566
4   2495   4748   4874   4875
4   4111   2962    373   5183
4    457   4111   6648    373
4   4111   5584   5393   5585
4   5185   3700   2719    331
4   3303    424   5393   5584
4   4111   2962   5393   5584
4   3303   5393   5389   5584
4   5389   2962   5392   6608
4   3470   6606   4945    356
4   5791   5185   5394   5389
4   2719   5968    331    357
4   2719    331   5968   3568
4   2719    331   3568   6607
4   5185   5791    331   6607
4   2512   3894   5258   3808
4   6356   2173   6505   2455
4   6767   3894   2053   4477
4   2455   6356   5678   6505
4   2157   5814   2904   4505
4    206   4795   3898   3139
4   5807   1295   2511   2110
4   2042   4298   4623   2312
4   4030    562   5336   3898
4   2474   6799   6476   4204
4   2075   6079   4438   5031
4   2437   2034   5851   2790
4   4358   6718    320   4219
4    320   6309   6718    366
4    320   4358    515   6572
4   4219   4218    320   3037
4   5708   5947   4935   5975
4   4219   4358    515    320
4    652   4127   4358   5960
4   2931   4480   6014   5845
4   6503    937   6364    935
4   4030    236    562    228
4   6243   4920   6245   4919
4   6243   6245   5507   4919
4   3904    408    270    681
4   5974   6016   6013   5346
4    444   6464   6016   6089
4   5129   2742    296   5924
4   3216    444    296   3696
4    236    562   4795   5336
4   5129   3216    444    296
4   6048   6043   2041   4506
4   2034   6479   6774   6043
4   4124   5489   3832   2065
4   2968   2472   3485   6077
4   3367   1642   2880   2518
4   2436   6762   5482   5141
4   2034   2790   6043   6774
4   2152   6387   6290   6772
4   4283   2065   2117   3283
4   2484   2056   2178   4665
4   6302   6842   4304   6517
4   2034   5826   3444   6830
4   2779   2147   2175   4271
4   6126   3770   4479    265
4   4087   5528    247   6869
4   6126   4618   4476    265
4   4087    247   4958   6869
4   4087   5528   6126   4479
4   4087   6869   6126   5528
4   3904   4628    270    408
4   3904   4628   5338    270
4   6544   2406   4169   2440
4   2440   5409   5517   6678
4   2357   6748   5478   3452
4    546   3046   2656   3115
4   2406   2357   3452   4809
4   2087   4278   2573   4253
4   3452   2406   5665   5664
4   2357   2337   4507   4147
4   2897    632   6049   6884
4   4152   3735   1173   1642
4   2426   6735   6734   4399
4   2429   1397   5497   4998
4   4665   2916   4664   2178
4   2500   2697   4629   5939
4   2150   5110   4843   4630
4   5082   1830   2942   1865
4   1865   1807   2743   4174
4   1865   5038   6553   6273
4   5082   1865   2942   4173
4   5082   1830   4528   2942
4   2088   4987   4986   4198
4   2337   6131   2854   2604
4   2506   4099   6026   4989
4   2177   6634   4840   4187
4   2440   6678   6530   6095
4   2434   4636   2214   6150
4   2178   6414   4187   2219
4   4262   2573   2087   2237
4   2115   2116   6695   2484
4   2479   2382   2477   5562
4   5986   5817   5818   6851
4   5817    472   6854   6851
4   2280   1252   2570   1395
4   2281   3316   3254   5680
4   2281   6818   3316   5680
4   2477   2382   2405   5562
4   2893   3777   2516   2519
4   2382   2479   2890   2891
4   1421   1252   2234   2548
4   2229   4073   5735   5514
4   2475   5514   3254   5486
4   2266   2290   2402   5920
4   5178   5085   5752   5767
4    384   5752    483   3513
4   3513   5752   5085   5086
4   2528   2495   2655   1318
4   2495   1333   2489   4440
4   2226   2405   2256   2381
4   2495   4440   6738   1333
4   2495   4748   3261   6738
4   2495   4875   4874   5091
4   2376   4260   4435   6558
4   2482   3836   3838   3837
4    508   4662   3888   5607
4   5359    274   5797    280
4   6367   4660   2679   4113
4   6365   5607    597   3988
4   6365   4662    588   5356
4   3888   5607   6365   3988
4   6365   3988    597   5846
4   2523   2509   5531   4160
4   6365   3616   5846   5356
4   5909   3343    572   4985
4    575    572   4780   4985
4   6204    576   5909   3345
4   2089   2083   3361   1390
4   2089   4552   3237   2083
4   1343   4552   3237   2089
4   2079   2332   2330   2331
4   2260   2103   2102   1433
4    501   6060   4614   3154
4   5059    501   6060   4614
4    501    617   3104   3801
4   4564   3606   4195    626
4   5059   5794   5793   4720
4    313   3104    680   6219
4   5123   6220   6219   3078
4   5614   5681   1303   1467
4   2975   6032   6863   1369
4   1303   6863   5681   3731
4   2521   3731   6069   4317
4   2282   6812   4041   4307
4   2382   6812   4746   6813
4    553   5603    221   3043
4   2431   3968   2275   2379
4   2431   3968   4812   4811
4   2273   2587   6557   5406
4   2497   1350   1341   1319
4   2217   3052   5516   5415
4   5025   2111   2222   4145
4   2376   5897   4435   4260
4   2488   6751   3032   6362
4   2244   2348   2344   2242
4   6559   6558   2275   2376
4   2379   4812   3967   6439
4   2482   3837   3838   5247
4   2180   2432   6380   4984
4   2146   3151   3304   6456
4   2497   2373   5289   1346
4   6406   5010   2492   2490
4   1821   1875   1809   6087
4   5274   1821   1876   2777
4    923   1474   1074   3131
4   2182   1431   2186   6458
4   2186   1431   1282   1402
4   2186   4878   1276   1431
4   2405   3091   4012   2477
4   1276   2420   1399   2417
4   2420   1117   5265   1261
4   2233   1419   5355   1468
4   3632   2218   2390   5872
4   2080   6173   6677   5444
4   1330   2405   3091   4012
4   2085   1251   1255   1256
4   2085   5921   1325   1251
4   2035   2153   2036   2507
4   2170   2150   4997   4843
4   2335   1263   1308   2600
4   6091   4012   2480   2256
4   2525   2492   1193   2174
4   2035   2153   2085   2317
4   2149   2572   2170   2520
4   6152   2332   2432   2331
4   1074   1474   1510   5212
4   5291   4078   1817   3566
4   2384   2907   2268   2276
4   2880   2410   5076   3367
4   2492   6406   4880   5505
4   2518   6858   2527   5746
4   2410   4035   2935   1640
4   2411   6860   6370   5391
4   2477   2255   2381   6534
4    946    943   4398   3182
4   2518   2528   3923   2517
4   1084   6374   1085   6635
4   1173   2411   2518   3920
4   2410   4034   1639   4035
4   1051   3220   3182   1183
4   2015   1074   3132   1510
4    788   5391   6860    789
4   4577   1472   1473   3586
4   3517   3604   3070   3694
4   2282   4041   4043   4042
4   5626   2051   2052   3895
4   2279   2282   1322   1320
4   2284   2283   3239   2279
4   2437   3628   3627   2533
4   2436   6237   2680   2245
4   2436   6762   5484   5482
4   1323   5449   2280   2279
4   2436   2680   6762   2245
4   2117   4452   4045   4114
4   2437   4601   5828   5822
4   2437   3357   5827   3628
4   2437   3711   2700   3626
4   2299   3170   6852   2882
4   3335   2470   2419   2635
4   2403   3680   2429   1336
4   4623   4450   2073   2042
4   2123   3335   1396   6531
4   2051   3895   5626   5627
4   2098   2412   2114   3390
4   6348   6328    669   6352
4   5123    313   3078   6219
4   5123   6220   3078   6352
4   6352   6220   3078   4898
4   2159   2161   2615   2086
4   2215   3973   2321   5997
4   2983   3784    784   5261
4    744   2983    784   3879
4   5558   3878   3879    744
4   5261    784   3879    783
4    621    629   6883    631
4    621    629   3072   2800
4   6049    632   2799    629
4   2799    629   2792    631
4   2897   6884   5755    632
4   2799    629   6883   2800
4   4208   5568   4207   4202
4    269   5759   3405    527
4   5759   2994   3699    527
4   5567   3774   2994   3699
4   6098   2939   3011    536
4   5568   5720   4202   5275
4    536    269    614   3011
4   1845   1890   5640   2695
4   1890   5640   1764   1855
4   2408   6713   6712   1205
4   1665   6671   1240   1239
4   1665   1239   3065   6671
4   6594   4221   3234   4646
4   6442   5953   2718   4221
4   6594   2718   3233   3234
4   2873   3435   2874   2582
4   3435   3126   4792   2873
4   3126   2874   2873   3435
4   2873   2874    435   2582
4   2217   5696   5415   5516
4   2218   2386   2575   5883
4   4864   5880   2242   2340
4   5872   2218   2390   5876
4   5949   2905    363   5950
4   6591    363   5340   6590
4   5950   3177   6592   6591
4   3603    363    658   5477
4    658   5477   3437   2881
4   5476    509    658   3882
4   6122   5115    389   4642
4   4641   3748   5495   5522
4   4282   4281    224   3015
4    224   4281   4487   3015
4   4870   2054   4611   5739
4   2291   3050   6711   4565
4   5235   2845   1659   4886
4   2500   5939   4629   6769
4   2036   2635   1256   6081
4   2291   4565   4563   2778
4   2329   5696   2465   5694
4   3390   2097   2095   2098
4   2048   4210   5036   2556
4   2343   6403   2242   4864
4   2386   4739   5421   6143
4   2345   2307   2308   6258
4   2329   2217   5696   5416
4   2348   2340   2343   2242
4   2931   4832   2932   1482
4   3388   5216   2930   2931
4   4373    983   4480   5847
4   3586   2894    924   1473
4   1747   1090    943   1091
4   6266   4826    914   2658
4   6363    935   1088    914
4   6339   5403   4205   4172
4   6503    914   6363   6504
4   6806   4592    165   6181
4   4937   3440   4991    677
4   6805   4991   3610   6801
4   6668    246   6805   6120
4   6805   6120   6801   6668
4   6120   4635    246    165
4    752   4217   4755   4205
4   2329   2333   2338   2220
4   2034   6774   5905   5851
4   2329   2510   4678   5694
4   2090   6796   3490   6045
4   2524   5712   2466   5981
4   4728   4294   4155   2330
4   2275   6378   3352   3353
4   5851   2437   4216   5866
4   2041   3489   4502   6044
4   2090   3419   6796   4621
4   2329   2338   5858   4728
4   5800   4769   4934    465
4   5451   1382   2511   2529
4    452    737   5049   4930
4   5801   4694   6588   5219
4    452   4930   4697   3138
4   5800   4693   4934   6588
4    889   6588   5218   6589
4    656   5311   4196   3743
4   4196   3551   5311   2901
4    447   3208   3127    432
4   4196    346   3947   5913
4   4966   5933   6313   6625
4    371    342   6285   6286
4   2201   5242   2122   5241
4   2521   6038   1289   1409
4   3166   2764   4367    591
4   5335   5198    600    207
4   3166   4789    600   4902
4   5789   5058   2724   5793
4    651   5783   5786   3528
4    247   6844   4958   6190
4   4087   5721    247   4479
4   3364   6080   4313    650
4   2526   1300   2529   1382
4   6580   2988   3760   3297
4   6580   3297   4921   2763
4   2750    849   2763   6580
4   6580   5760    849   5506
4   3684   5683   3686   4191
4   3457   3685   6119   5684
4   3175   3173   1758   6326
4   4191   6324   3686   5666
4   2489   5091   4874   5315
4   5761   2823    540   6878
4   4414   2235   2255   2380
4   2091   6768   5109   6061
4   2499   2230   2055   2119
4   2329   2338   2333   5858
4   5641   2766   6273   4173
4   5641    312   6281   3970
4   5641    312   4174    662
4   4529   4530   5250    304
4   6670    125   6739   5250
4   4759   2860   4398   6670
4   4759     42   4530   5639
4   6857    449   3659   5959
4   2275   2273   2408   2431
4   2374   2331   2434   2435
4   2259   2103   1368   5454
4   2484   6837   5676   4665
4   5240   2407   2346   2210
4   2484   5676   6837   5353
4   2259   2455   5678   6311
4   2318   2259   2103   2258
4   2180   2432   6412   6380
4   2501   2216   6342   2109
4   2373   6643   5289   1346
4   6416   5423   6513   2457
4   2373   3337   6643   1268
4   3337   1466   2435   6643
4   4819   4849   4524   6005
4   1866   6564   4819   6437
4   5224   4849   4819   6005
4   4481   5845   6014   4480
4   1234   4481   4014   5845
4   1234   2658   4014   4481
4   6266   2658   4015   1234
4   4230   4232   2870   4826
4   4481   4826   1243   2658
4   6363   2658   6504    914
4    752   4205   4172   4217
4   3552   6128   2937   3663
4   2528   4512   3999   3261
4   2517   1317   3645   2528
4   2528   3924   2516   4000
4   2528   3999   4512   6006
4   3645   2517   2384   2936
4   2205   6347   6451   5808
4   6256   2613   2306   4561
4   2259   2258   4301   4441
4   2047   6138   6256   6139
4   2318   5455   2259   4302
4   2306   4560   3890   2688
4   5678   2259   5454   5162
4   2071   2157   2076   5386
4   2193   4810   2192   3167
4   2042   4623   4450   2312
4   2046   2048   2291   2047
4   2436   3143   2245   5037
4   2512   4137   6692   2119
4   6761   2157   5033   3810
4   2090   4297   2474   5915
4   6076   2041   6077   2472
4   6476   2474   2155   6799
4   2042   2312   5187   4298
4   2117   3600   6758   5629
4   2107   1355   1339   1356
4   2505   2062   5277   5777
4   1478   1231   5191   1485
4   1485   2776   6047   1749
4    392   4599   5390    357
4   5190   4884   6047   5191
4   3303   5584   4343    424
4   5791    331   6607   3568
4   5389   5791    740   5392
4   2268   3722   3880   6661
4   2276   6638   3267   3921
4   2508   3099   1244   1314
4   2523   2517   2268   6124
4   2508   3099   2784   1244
4   2268   3100   3267   3880
4   2191   1291   1450   2785
4   1313   1314   3099   2509
4   2508   3880   3097   3844
4   2508   1244   2784   3643
4   1277   2192   1184   2371
4    453   6199   3820   4776
4   5928   2288   2290   6783
4   3820   5057   3523   4008
4   3733   1183   3182   3647
4   2431   2272   5691   2212
4   2177   2432   2180   2331
4    375   4067    338   5962
4   2379   3967   3812   3641
4   2128   2131   2847   1340
4   2147   6018   3714   2779
4   2141   5287   5399   6310
4   2146   5534   5317   6489
4   2142   1404   1338   2144
4   2141   5399   6489   6490
4   4647   5776   4654   4648
4   5784    310   6874   5783
4   6874   3753   3668    316
4   5784   3753   6874    316
4   3183   1831   4378   1826
4    700   2701   6127   2703
4    321   2864   2701   2703
4   2508   2268   3267   3880
4   2268   3267   3100   3921
4   2527   4235   3835   4285
4   2518   4422   3367   1642
4   2448   3857   3656      0
4    946   3733   3182   3732
4   1642   4422   3367   1096
4   2410   1102   5076   3367
4   1639   3834   2445   4035
4   2930   2894   5216   3388
4   1189   1472   3586   5193
4   1472    940   3443   1578
4   4357   4359    347   5493
4   2411   6370   6492   6373
4    925   2895   3443   3445
4    744    217   6526   3878
4    771   2895    925   3445
4   2193   2328   6361   5447
4   2380   3906   6691   3315
4   2486   4138   3906   5488
4   2232   1401   1398   1250
4   2380   6092   4414   3394
4   2255   6092   6694   6539
4   3576    476   5953   3055
4    496   6446   4274    507
4    505   3055   3356   6297
4   3701    338   5962   5968
4    505   3055   6297   6446
4    484    506   3055   3907
4    392    675   6561    357
4   3055   3576    484   3575
4    392   4946   4599   6561
4   2118   4144   2692   3917
4   2228   4288   2118   2425
4   2499   2230   6693   4454
4   2118   3917   2692   4288
4   2118   2692   2782   4288
4   2475   4292   4139   4453
4   2425   4288   2118   2782
4   2328   6361   6662   2193
4   2118   2692   2783   2782
4   2486   2230   4138   4143
4   6348   6579   4596    482
4   3244   6160   6161    329
4   6220   6348   6579   4596
4   6352   6348   4596    667
4   6352   6220   4898   4596
4   5794    313   5793   5123
4   6352   6220   4596   6348
4   6220    680   4898   4625
4   6220    680   3078   4898
4   2799   2792   5608   3860
4   6049    629   3072    632
4   6049   3072   3936   2642
4   3158    473   5064   5608
4   3860   2792   5608    473
4   2897   2792   2799    632
4    473    631   3860   2792
4   5225   3411    572   4985
4   5909   6207    572   3343
4   5225   4985    572   3343
4    572   4780   3411    577
4   3721   2509   6661   2268
4   2276   2760   3267   6638
4   2268   1244   1247   1314
4   2580   2579   4031   1872
4   1872   1887   2580   2579
4   1887   2865   2866   2579
4   1842   1859   2844   1856
4   3027   2819   2844   3767
4   5084   6739   4981   4974
4   4529    126   5084   4527
4   5284   5285   2913   2818
4   5084   2913   4527    126
4   4529   4527    304    126
4   6739    125    126   5250
4   6500   5434   5701    786
4   6500   6247   3201   4922
4   6500   5700    786   5701
4    623   5436   6500   5434
4    652   6572    515   4358
4    623   5436   5435   4402
4   6247   3201   4922    724
4   5693   2362   2175   5532
4    500   3236   5596   2621
4   2928   5597   6421   5580
4   6421   6596   3309   3376
4   2928   5580   6493    294
4   5596    500   6425    763
4   2621    541   3427    500
4   2928   6421   6493   5580
4   6425    500   3427   3346
4   2621    500   6425   5596
4   1465   4238   3588   5619
4   5969   4218   3037    410
4   5619   5618   4238   3588
4   2070   2394   4091   4093
4   2422   4051   5611   4049
4   5448   4238   5612   4237
4   2315   2461   4514   4513
4   1816   2667   5120   2689
4   5120   1820   4538   5121
4   2166   1820   5120   5121
4   6112   2167   1681   2168
4   2166   6614   1820   1878
4   2166   6614   1816   1820
4   2197   6438   3488   3060
4   1424   2241   2184   1428
4   1468   2241   2233   1419
4   2417   1468   2184   2503
4   4854   1652   4859   4862
4   4318   3074   4323   1651
4   6736   2375   6250    479
4   6250    743   6195    479
4   6250   2375   6251    743
4    359    410   5115   6122
4   4218   3748   6718   6309
4    515   4219   4357   4358
4   4219    355   3036   3037
4   4218   3748   6309   6571
4   5969    731    410   3037
4   5969    731    359    410
4   4641   4642    353   6571
4   4272   5955   4641   5770
4   4641    353   4642   5770
4   4641    353   6788   5495
4   4641   5770   6788    353
4   4642   6571   6122   5115
4   6455   2529   6820   6822
4   2511   2545   6822   5807
4   2529   5326   2193   4233
4   2530   6821   3578   2877
4   3103   5313   4172   5839
4   4351   6338   6337   6340
4     36    217   3878   6526
4   4038     36   6198   3877
4     36   6121   4710   3876
4   6526   6604   6198   3877
4   2196   6438   3502   2322
4   2316   2188   2182   2185
4   2207   1424   3487   2879
4   5310   3430   5956   3428
4   4954   3429   3631   4761
4   4149   3948   2583   5310
4   3430   3428   3594   5956
4   2583   3428   5310   3948
4   4954   3430   5956   5310
4   4954   4761   4953   3429
4   3573    653   3574   6233
4   4045   2117   2071   5823
4   2361   3121   2094   5029
4   1854   6051   5647   4537
4   2472   5056   2581   3842
4   6077   2472   3485   6076
4   4910   4331   4570   3956
4   2509   5531   4160   3670
4   2785   2191   1291   3099
4   2192   1435   1277   1184
4   2371   1313   1277   1291
4   1314   3099   2509   2508
4   2509   2268   1314   2508
4   1184   2371   4699   1277
4   1433   2103   2099   6532
4   2209   3442   1278   2963
4   2324   2808   2809   5363
4   2101   2104   4056   4057
4   2099   2324   2101   4052
4   2234   1348   1418   2594
4   2324   6305   2807   2808
4   2371   2328   2191   2192
4   5493   3901    759   6888
4   2324   2809   2808   2810
4   3731   6863   4317   2521
4   2183   1303   1286   1445
4   5809   3731   6863   4317
4   2322   2561   4059   6655
4   1286   2183   3730   2521
4    442   5412   2674   2898
4   5910   3584   4066   1832
4   5910   3584   3561   5381
4   4406   6631   5381   3561
4   5642   6488   3278   3684
4   3507   3561   6488   5642
4   2278   5237   3260   4042
4   2278   6876   3264   3260
4   2176   2490   4423   2609
4   5533   1333   4771   3264
4   2491   2383   2609   2821
4    375   3568   2888   5962
4   2278   3260   3264   5533
4   2489   2730   2404   2383
4   1195   5781   5782   1196
4   1200   6800   4711   5879
4   1241   5877   1199   6800
4   1200   1198   4063   1196
4   4063   1195   1200   1196
4   1195   3472   3473   4711
4   5780   5781   1195   3473
4   3473   5214   3472   6303
4   3702   3446    820   1578
4   2437   4798   4273   2473
4   2449   2133   6652   2169
4   2069   5653   3975   5750
4   2065   5306   4613   6853
4   5016   5940   2292   4267
4   2510   6702   4267   6151
4   2193   3167   2192   2194
4   2719   3568   5968   5962
4   2292   5422   2562   4663
4   2290   2402   5920   5513
4   2526   2563   4455   1375
4   6029   2239   5102   6434
4   2331   3478   6151   2214
4   4522    578    692   3869
4    572    577   3411   3007
4   4687   3869   3899    563
4   6204    575   5909    576
4   5451   2529   2504   1300
4   2060   4869   5496   3638
4   2060   4869   3638   3636
4    572   4985   3411   4780
4   5225   3007    569    572
4   2482   2464   2484   3837
4   1385   2392   2421   2395
4   2177   4636   4840   6188
4   2432   4993   6547   6549
4   2510   5333   6702   6151
4   2177   6413   5045   4187
4   2506   6544   4167   6675
4    259   5847   6721   6315
4   4374   3585   3388   5216
4   1127   4374   2931   5216
4   4482   2870   4232    800
4   4230   4232   4826   1088
4   2527   4235   4285   2660
4   4951   4964    664   4899
4   4899   3529   6307    649
4   4951    369    663    643
4    369    663   3450    674
4   3450    369   3449    642
4   2159   4582   4581   2615
4   2159   4581   4206   4131
4   2222   1344   6533   3269
4   6855   5165   3438   5164
4   5020   5021   6618   6299
4   5132   6087   1875   5015
4   2425   2693   2740   2469
4   1825   6047   3252   3268
4   5167    661   4084   4488
4   6049   3072   2642    622
4   3467   4716   4084   2744
4   6021    760    685   4817
4   2744   3936   3072   2642
4   4899    663    369    674
4   2744   4717   3937   3996
4   2800   3936   3996   3232
4   2744   3996   3936   4717
4   1450   2191   2504   1309
4   3999   1324   5874   4000
4   2268   3098   1249   1314
4   1314   2509   1313   1249
4   2517   3098   2268   1247
4   2517   2936   3098   1247
4   2268   2508   3844   3880
4   1249   2268   1314   2509
4   1249   2517   1315   3098
4   6860   2518   6858   2410
4   2850   5343    455   5342
4   2850   3285   5342    450
4   3819   3818    732   3415
4   2147   1461   1482   1209
4   2147   3714   5500   4271
4   2146   2779   5534   6018
4   2147   5287   5501   3714
4   2160   2159   2164   2267
4   2147   6018   5287   3714
4   2163   3302   4072   2143
4   2847   2145   1224   2131
4   2175   2145   1224   1461
4   2147   2779   3714   4271
4   3154   5480   5479    617
4   4574   3944   4752   4614
4   4615   4752   4614   4574
4    513    323   5529   6398
4   5059   5058   4615   4720
4   3018   4574   4614   3944
4   2493   2577   2546   3612
4   4077   3379   1828   5460
4   4077   4079   3379   5460
4   1819   5469   5543   4079
4   4079   1819   2953   5543
4   1791   2664   5941   4535
4   5469   5460   5941   5543
4   5005   2415   6494   6086
4   2530   6411   2456   1283
4   2414   5233   5624   5625
4   2382   4746   4002   3075
4   2281   2691   4184   2381
4   4680   4041   6818   2281
4   2405   1330   5562   1326
4   2382   2835   6491   4746
4   2479   2477   2382   3778
4   2191   2371   1271   1291
4   2381   2382   6813   2282
4   2280   2570   1252   1348
4   2240   2409   2118   2123
4   2118   2692   4144   2783
4   5351   2241   2227   2248
4    717   4731   4603   4658
4   2425   2782   2469   4287
4   2421   2132   2422   2395
4   2386   2574   2575   6676
4   2063   2059   2060   2057
4   2226   5354   1348   2225
4   1357   2108   1337   3188
4   2165   5997   6228   3187
4   2165   3973   5997   3187
4   6021   5695   5758    685
4   4719   2501   1198   4714
4   2111   5289   2497   2374
4   2142   1404   1457   2872
4   2141   3152   4725   6310
4   2163   5366   5367   6521
4   4718   4867   2165   4179
4   2156   6522   4013   6724
4   2163   5366   6521   6522
4   2161   3106   4867   5367
4   2525   2174   2711   3771
4   2163   6444   6521   5367
4   2163   6522   6072   4013
4   3826   2109   4868   3822
4   4065   2158   3188   2108
4   4710   3129    262   3016
4     36   4710   6121    217
4   4710   6121   3129   3016
4     36    217   6121   3878
4   4710   3129   4876   4828
4   3878   3879    744    217
4     36   6198   3878   6121
4   4876   5260   6121    217
4   6883   5620   4972   3232
4   5068   5620   4972   6883
4   6050   5608   2792   3158
4    478    474   5620   4289
4   3964   6593   5211   4972
4   5068   4289   4972   5620
4   3996   2800    621   3072
4    473    631   5068   3860
4   3964    630   6593   3232
4   2384   1246   1247   2907
4   5076   3834   2445   1639
4   2460   4262   2588   2589
4   2448   2276   4197    748
4   2384   1102   1246   2907
4   2448   2660   2410   3858
4   2268   1314   1247   3098
4   3880   2268   6661   3844
4   2276   6140   5439   5550
4   2621   6425    500   3427
4    755    682   3307    489
4   2182   1444   1412   1406
4   2422   2829   4049   3145
4   2189   6458   1447   1412
4   2132   5751   2137   2462
4   2082   6176   2080   5407
4   2035   2317   2094   2034
4   2359   2476   5440   5259
4   2082   6241   5894   3481
4   2081   2672   3112   5407
4   2082   5922   3481   5894
4   2411   3920   1173   1454
4   2411   2495   4152   6373
4   2902   1642   2518   2880
4   1096   1173   1642   4422
4   6857    449    435   4928
4   3574   6233   3125   5166
4   6857   2874    435   3593
4   3125   2874   2873   3126
4   3574   3572   6116   2855
4   3573   5166    648   6233
4   3125   5166   2874   3574
4   3574   2855   3126   3125
4   3573   6115    648   5166
4   3401   4721   4722   4142
4   1223   2489   2378   2488
4   2525   5545   6749   4919
4   2488   1223   2495   1222
4   1932   1855   1764   5754
4   1917   5754   1932   5578
4   1845   2952   2695   5640
4   5754   5578   6401   4674
4   6172   2952   2695   6171
4   1890   1764   5640   2695
4   5754   1764   5640   1855
4   4656   6621   6158    423
4    640   6179   6575   5418
4   6621    455   4657   5343
4   5644    455   6621   5343
4   6623    423   5717   6158
4   5644   5343   5341   3676
4    720   3377   3676   5644
4   6154   3327   6620   4602
4    455   4657   2850   6620
4   3309   3308   3376    699
4   6421    299   3309   6596
4   3309   3376   6596    699
4   2497   2373   1346   4740
4   2269   1501   1192   4575
4   2175   2779   5658   2146
4   6214   3801    624    604
4    647    654   4648    753
4   5845   1482   2931   2140
4   1482   5845   4014   3666
4   2362   1482   4014   3666
4   1233   1482   5845   4014
4   1209   2147   4793   1482
4   2379   5360   6511   6440
4   2345   5375   2307   3340
4   2497   2373   2374   5289
4   2497   2376   2379   2407
4   4054    384   5137   6022
4    379    441   4778   5838
4   5728   3533   4782   4990
4   6582   3790   6193    467
4   3210   3533   3137   2657
4   2493   6097   6083   2577
4   2082   5704   3110   6241
4   2361   5029   5894   3121
4    212   6358   6269    174
4    212    254   6269   6669
4    212    254   6669    297
4   6358   6669    728    212
4   5433   6358   6669    728
4   2041   6048   4506   6073
4    174   6358   6269   3611
4    254    691   4367   2764
4   2764    691   3212   2826
4    254   2826    239    251
4    254    239   5527    297
4   6672   5999   5631    607
4   6215    607   6246   4228
4   2753   5566    606   5567
4   6215    609    607   4228
4   5996   5999   3926   6672
4    606   2753   5564   5566
4   6246    525   3276   5275
4   6672   3926   4236   5999
4   2998   5520   3767   3854
4   6012   4818   1862   3511
4   4818   6012   1859   5518
4   6021   5758   4817    685
4   5645   2722   2639   6020
4   5518   2867   6020   5645
4   6714   5946   5569   6890
4   6714   5961   5569   5946
4    344   3438   5709   5961
4   2437   2117   3600   5826
4   2133   2132   2134   2138
4   2135   2132   2421   2138
4   2117   4102   5475   6235
4   3166    600    591    207
4   4902    600   3079   4938
4   2406   5665   5664   6067
4   4809   2440   3475   4169
4   2430   4847   4400   6430
4   2409   1401   1397   2240
4   3946    445   4351   6338
4   6338    445   4351   4354
4    427   4990   5728   4778
4    442   5412    441   2674
4    427   3946   6338   5702
4   6582   3137   4655   3210
4    445   5116   6338   3946
4   6194   4351   5404   6337
4   2466   3453   3454   2549
4   5554   4339   6518   4800
4   5554   5553   6518    730
4    238   4339   2822    693
4   3960   2044   5742   5305
4   4987   5061   2088   4986
4   5664   2357   3452   2406
4   2432   6549   6412   6380
4   2088   5061   4987   5062
4   2357   6543   6748   3451
4   2137   2132   2421   2135
4   2180   6379   6381   6380
4   2088   4987   2592   5062
4   2406   4988   4168   4169
4   2432   6412   6549   6547
4   6642   6533   3269   2435
4   2284   2125   4376   5431
4   2426   2539   2483   6734
4   2722   1789   4818   2813
4   2722   6020   5645   5518
4   4818   6564   2813   1789
4   5281    558    498   5286
4   4774   4773   5175   6856
4   4774   5512   4773   6856
4   4774   4770   4773    305
4   5632   3423   3420   3422
4   3423   3421   3422   5632
4   2069   5653   5750   4044
4   4408   1811   3737   3856
4   4405   4148   1793   4551
4   1793   4551   5379   1810
4   1866   5519   4407   1801
4   2399   6527   3095   3462
4   2393   3338   1389   5474
4   2442   3338   4261   1264
4   2420   1117   1261   1449
4   2333   4119   6390   4121
4   2170   4240   4121   6390
4   2152   2474   6772   3489
4   2187   2514   1260   6222
4   2446   4996   5747   4995
4   2046   2053   2032   2057
4   2500   4630   4629   2697
4   3621   2472   2349   2319
4   2287   4857   6430   6433
4   2434   4865   4636   6150
4   2446   4432   5875   5747
4   2405   3091   5562   1330
4   5837   2519   2893   2516
4   2479   4751   2836   2890
4   3316   2281   2691   4184
4   2385   2251   2248   2256
4   2272   5692   5019   6441
4   2431   5019   6716   3846
4   5021   1841   5276   5121
4   5021   5276   6617   5121
4   5020   6299   1809   5021
4   6299   1841   6618   4069
4   6299   5021   1841   1809
4   2165   4718   3187   6226
4   2158   1347   5400   1338
4   2175   3304   2146   5658
4   4899   3165   4964   3529
4   2744   3072   3936   3996
4   2744   3937   4717   4495
4   6308    482    345   3243
4   6308    482   6348    667
4   3996   3934   3936   4717
4   3996   3231   3936   3934
4    657    478   3964   5211
4    217   3879   6121   3878
4   3878    744   4589   6526
4    925   1578   3443    940
4   5976   4008   6199   3818
4    443   4009   5057   3523
4   3692   4572    566    412
4   3692   3839   6319    488
4   4370   6781   2734    494
4   6319    488    486    412
4    494    486   4370   6071
4   2437   4037   6832   5027
4   6319    486    494    412
4   2191   1291   1271   1450
4   5071   2760   3643   5073
4   2448   2410   4396   3858
4   2760   3646   5073   5072
4   3560   3559   3159   4817
4   2276   2760   6638   5072
4   2953   1819   4079   5290
4   2474   6796   5916   3490
4   5065    683   6050   3432
4   2414   2190   5623   3246
4   2413   1229   4332   4333
4   2413   2190   4882   4879
4   2456   2414   5625   5233
4   4322   4321   3350   5511
4   5723   4861   1230   4860
4   4323   1235   5726   5511
4   2172   2262   6046   5190
4   2414   2190   3246   5722
4   3681   4881   1229   1230
4   2413   1228   1229   4333
4    924   3586    940   3443
4   2113   2505   5777   2062
4   3785   4832   1092   3787
4    925    940   3443   2895
4   5758   5752   5086   4817
4   3586    940   3443   1472
4   3443    924   2895    940
4   5787   4578   3788   3785
4   2931   1482   2932   2140
4   3785   1092   4832   4578
4   1473   3586    940    924
4   1578    925   3446    930
4   1195   4711   5781   4063
4   4577   6155   2930   4832
4   2053   2066   4477   2471
4   2046   2051   2050   2095
4   2430   2426   4400   4847
4    484   3907   3055   3575
4   6297    504    505    495
4   6423   3758   3273   5636
4   3071   3965   3514   5165
4   3071   2814   5164   3515
4   2388   3673   3009   4516
4   2340   4516   3009   5373
4   2443   3008   3009   2729
4   5637   2070   2397   4822
4   2443   3008   2729   5698
4   4490   2342   4491   3505
4   2388   3673   4516   5269
4   3027   4852   1856   2819
4   3027   1856   2844   2819
4   3533   2657   3210    446
4    301   2606   4468   6622
4    319    301    409   2606
4    301   2606   6622   3580
4    301   6622   4468    665
4    301    409   3580    324
4   6051   2689   4537   2667
4   2411   4180   6370   6373
4   2667   4537   1818   2665
4   2667   4537   2665   5544
4   5120   4537   2667   5544
4   2525   4919   6244   5545
4   2488   3032   1222   6362
4   2520   5160   2572   5325
4   2520   2572   5160   2571
4   2487   6106   2571   5893
4   4449   4324   4450   2073
4   2466   5257   6221   5981
4   4630   5004   2149   2500
4   4303   2152   2833   6771
4   2035   2361   2092   2094
4   2069   5653   3780   2558
4   2046   2037   2040   2470
4   2520   2811   5008   5160
4   2155   4447   4911   4448
4   2046   2123   2037   2470
4   2362   2525   1177   5693
4   2525   2362   2174   5693
4   2525   2174   2362   2711
4   3213   3110   2361   2081
4   2146   6689   2125   5663
4   2147   1210   1461   1209
4   2175   5658   2638   3304
4   4420   2279   2283   2281
4   2362   2175   5532   2147
4   2174   1193   1462   1194
4   2362   5500   5499   4271
4   5949   5476   6591    363
4   6826   5865    390   3328
4   6317   3824   3825   6394
4    774    773   4807   5820
4   6826   2745   4433   6825
4   6317   6394    774    772
4    205   4557   6846    698
4   3042    552    553   4556
4    698   4914    272   4558
4    698   4557   6846   4556
4    698   4747    272   4914
4   4747   4403   4556    552
4    753   5776   4648   4654
4   3026    552   4403   4747
4    552   4747    698   4556
4   3026   4402   6247   3201
4   2394   6859   3146   6659
4   1383   6210   5253   5252
4   1306   5934   2104   1383
4   5891   6210   1383   5252
4   1234   6014   1243   4481
4   2931   6014   1127   1233
4    684   3320   4231    745
4   4373   4480   3388   5847
4    428   6292   4213   4265
4   2075   3436   5000   5001
4   2034   4640   2968   2400
4   2474   5915   4297   6799
4   2319   2041   6628   2472
4   2076   4004   5186   4003
4   2073   4622   4297   4923
4   2323   2212   5303   2494
4   2494   1879   1671   1850
4   5531   2515   4696   4162
4   2519   5350   2385   2480
4   2385   6206   3184   3710
4   2121   6753   2194   3022
4   2519   2515   4429   6205
4   2163   6072   4072   3302
4   2163   6521   6072   6522
4   2399   3095   2401   1345
4   2494   4424   1219   1480
4   2164   5367   5366   4582
4   2158   1347   3188   1357
4   2286   5400   1364   1469
4   2141   6490   6489   3302
4   2164   2159   4582   4206
4   2200   2498   2327   2433
4   2247   6202   2243   5510
4    546   3044   3115   5792
4   2200   3256   5242   2817
4   2851   3356   2852   5635
4   2647   3229   3012   5994
4   2884   6603   2647   6277
4   6551    682   6541   4165
4   2709   6423   2885   3230
4   3756   6423   3230   3758
4   6541   4165   3758   3757
4   4370   6319    486    494
4    325   5130    695    693
4   5551   2678   4952    229
4   6021   4817   5758   3560
4   2676    227   6563    241
4   6565    233   6844   6847
4   6565   4959   2751    227
4   6565   4959   6844   2751
4   2676   3554    241   6563
4   5556   3554    695    693
4   3601   6863   2521   4317
4   2521   3731   4215   6656
4   2521   6069   6417   6655
4   1289   2521   1303   1286
4   3716   3664   4760   3717
4   3716   4598    434   2898
4   3716   6102    394   4760
4   2525   5498   6504   4920
4   6363    935   5701   5434
4    623   3201   6500   4402
4   5436   5434   3320   1088
4   4230   3320   4232   1088
4   5693   2362   1179   1177
4   5435   4401   3069    687
4   3069    745   4231   5435
4    745    687   5435   3069
4   4402   5435    623   4747
4    687   4914   4747   5435
4   5122   3157   5378   3997
4   1241   5378   5877   6211
4   5378   6211   4242   5877
4   1541   1072   4979   2669
4   5117   4977   2967   4980
4   1541   4977   4980   2967
4   5122   2668   4977   4242
4   5122   5119   2967   3157
4   3998   3997   5214   1471
4   5214   1471   3997   3472
4   1199   6800   1200   4465
4   4973   2967   2668   4977
4   3997   1199   3472   3157
4   3560    760   4817   3159
4   4082   6577   4083    706
4   2380   2255   4414   6092
4   2494   2212   5303   4430
4   2231   1400   4027   2594
4   2475   5487   6691   4292
4   2236   4132   4143   3905
4   2230   4139   4454   4453
4   2380   3315   5485   6092
4   2498   3184   2352   5907
4   2475   5514   5486   5515
4   2385   2480   2256   6091
4   4760    561   3717    735
4   3716    394   5699   4760
4   3716   3717   4760   5699
4   4760   5699    561   5862
4   2048   5099   5128   4095
4   5043   3548   4439   4161
4   2511   2526   1305   1295
4   4207   4202   5720   3956
4   6777   3548   5047   5043
4   3908   3549   5609   3863
4   4982   5983   4983   5985
4   4089   5984   5983   4983
4   5018   6181   5985    210
4   4089    210   5984   4983
4   2293   2958   2098   2957
4   2291   6217   3050   3051
4   2067   6681   2203   2996
4   2165   3973   3187   4718
4   2107   2112   5523   1356
4   4072   2143   2165   2163
4   2139   2944   2216   5778
4   2946   3826   3972   2109
4   5767   3450    483   3449
4   5767   5616   5615   4820
4    384   5752   3513   5177
4   5178   5767   5752    483
4   5583   5232   4123   4677
4   5086   4817   4194   3559
4    384   5752   5695    685
4   5758    685   5752   4817
4   6446    433    496   6856
4    495   3690   4794   5273
4   4794   6856   3690    433
4    505   3356   3907    504
4   6317   4650   3824   5126
4   4796   4799   5795   4660
4   3508    278   5795   4799
4   3522   5859    598   4783
4   4113   6365   4662    588
4   6367   6366   4660   4796
4   3522    278   5859   3508
4   4796   4113   4662   4660
4   4899   3165    674    369
4   4951    369   3165   4899
4   3223    649   4899   6307
4    510   6161   6160    329
4   3243    482   5063   6348
4   6579   6161   6220   6219
4   4899   3165   4951   4964
4   6579   6219   6220   4625
4   5707   5711   4085    752
4   6577    706   5313    752
4   6577    556    706   5711
4   4082   3765    706   4083
4   4082    706   5313   6577
4   4227   5711   5707   5706
4   4227   2922   6798   3870
4   2714   5706    583   2922
4   3870   4227   2922   5706
4   4525   4085   5707   4227
4   6798    556   6436   5765
4   4227   6798   5711   3870
4   2460   2588   5006   5672
4   5745   2444   2449   5369
4   1816   5120   1820   2689
4    604   6214   5564    608
4   6051   4537   4538   5647
4   1854   6051   4537   1818
4   2166   4804   3852   5544
4   2166   4804   1816   6614
4   2689   1820   4428   4538
4   6051   4537   1818   2667
4   2166   1753   2168   3852
4   2411   1642   2518   2902
4   5114    614   3941   3940
4   5952    680   6219   4625
4    617    624   3104   3801
4    624   3801   6219   3104
4    624   3104   6219    680
4   4472   5943   5154   6528
4   3154   3018   4614    626
4    313   6219    680   3078
4   2448   2752      0   3656
4   6214    624   3801   6219
4   6080   3548   4161    650
4   4313   4963    650   4161
4   2798   4259   4963   5682
4   2798    743   2997   6569
4   2119   6692   3915   6693
4   2054   4855   4691   4456
4   2512   3808   5258   6692
4    750    683   6685    760
4   2054   5496   4870   4611
4   4869   2063   5272   3636
4   5065   6050   3158   3484
4   1791   4535   1776   5382
4   2160   5400   1347   1364
4   3851   2460   4262   2087
4   2237   5006   4107   4131
4   2160   2267   2263   2264
4   2087   2080   2439   5407
4   1884   3195   6324   3455
4   5120   2667   4537   2689
4   4428   4538   6616   6051
4   4428   1841   5121   5276
4   5021   1809   5276   1841
4   5021   1809   1822   5276
4   5021   5121   6618   1841
4   2260   2103   2259   2258
4   2173   3540   5206   3541
4   2455   5162   5678   6356
4   1464   2173   6505   6356
4   2276   6624   5072   6638
4    749   6624   3332   4764
4   1639   2880   2410   5076
4   6855   3515   3514   5164
4   2480   3727   3728   3186
4    934   6720    922   2894
4    546   3044   3045   3115
4    934   3445   5217   6720
4   2931   1233   5845   6014
4   3443   2894    924   3586
4    934   2894   2895   3445
4   2380   3315   6691   5485
4   2226   5354   1458   3620
4   3394   2235   2486   3395
4   5998   5322   6000    603
4    602    603   3368   5996
4   3070   3517   3071   3966
4   3458    760   3560   3159
4   3699    527   5568   3405
4   5321   5820   5821   3755
4   3342   2883    517   4754
4   3926   5999   6000   4236
4   4054   5753    384   6022
4   3755   6396   6000   5820
4    775   6396   6000   3754
4   3368   5998    603   4653
4   6246   3276   4228    524
4   6317    603   5820   4026
4   5321   4026    603   5322
4    602    603   5996   5999
4   1794   4189   4190   1796
4   1794   1795   5294   6119
4   1794   3299   3300   5294
4   4801   2742   1803   2743
4   4801   2743   1803   1807
4   3071   5165   3514   5164
4   1803   5924   5038   2742
4    311    296   2742     20
4   1806   5924   1803   2742
4   5977   3087   3696    436
4   4802   4801   3682   3683
4   2906   1903   2452   2254
4   1834   5215   4891   5861
4   4801   3683   1807   1863
4   5138   6089   6464   6200
4   5974    444    296   5129
4    157   5129    296   5924
4   5129   3216    296   2742
4   2165   6444   4867   4718
4   3724   2215   2161   3973
4   2144   2146   5317   6489
4    658   5477    363   5476
4   2079   2089   2088   2331
4   2165   6227   6226   3187
4   4401   6722   4081   6156
4   4401    687    272   4081
4   4401    272   6732   4081
4   6460   6722   3069   6315
4   2671   6156   6732   4081
4   3411   4780   4985   4386
4   5225   4992   4907   3007
4   5909   6207   3343    579
4   2719   5962   6607   3568
4   3576   4946    392    484
4   3569   3568   5791   6607
4   5389   5393   2962   5584
4   2494   2269   2408   2272
4   2408   1192   1517   1215
4   2494   1215   2408   1517
4   2270   2956   1881   1677
4   2494   1880   1517   5456
4   5006   2237   4109   4262
4   6679   2440   2439   4280
4   2135   4223   2372   5298
4   2494   4587   4430   6567
4   2493   2566   6134   2337
4   3852   4325   1879   2323
4   4606   2472   2650   4607
4   6667   5382   1815   4672
4   6248   2773    768    761
4   6248   2773   2774    768
4   3517   3071   3514   3694
4   6382   6415   2337   5815
4   2337   2604   5041   4293
4   5644    741   5341   6623
4   2509   2515   4699   4698
4   2493   3612   6461   6133
4   6545   2440   4098   2506
4   1737   2908   1232   2262
4   1212   1228   4884   5190
4   2509   4699   2371   1313
4   2172   6085   4442   6494
4   2416   1371   6084   1296
4   2172   6046   5014   4637
4   1212   4884   5015   5190
4   2262   5012   5013   2265
4   2415   2413   4638   5625
4   2317   2361   2085   2035
4   2513   4925   6797   3311
4   4561   2613   2306   6146
4   2509   2515   4162   3669
4   2306   2628   4560   2688
4   2047   5387   2291   4873
4   3514    703   5165   2881
4   3198   3548   5609   5610
4   2415   2173   4170   4156
4   5043   4161   4439   2943
4   3548   4439   4161    650
4   4912   5610   6141   3548
4   5043   4439   3548   5047
4   3199    644   5384   3549
4    676   6855   5946   3804
4   3741   5775   6775   2943
4   5043   5047   3164   4439
4   5046   4439   2943   3164
4   4439   3741   2943   5682
4   5682   4963   4161   4439
4   3549   5384   3199   3909
4   4896   4157   4912   3364
4   6777   3548   5609   3549
4   6410   3164   5046   6775
4   3138   6010   4609   2657
4   6582    467   3210   4655
4    379   2737   2738   5730
4    702   3438   6230   5709
4   6865    466   3790   6582
4   4162   2509   5531   2515
4   2081   3213   3111   2476
4   2081   2359   2476   2368
4   2082   3110   5704   3112
4   2081   2478   3111   2672
4   2082   5407   6236   6176
4   6530   2440   2506   4098
4   2440   6524   6095   6530
4   2506   6184   4989   6026
4   2239   6524   6096   6095
4   2440   6529   6524   6530
4   1578   1472   5193   3443
4    744   6526    160   4589
4    820   3784    784   2983
4   3517   3965   3071   3966
4   1472   3586    940   1473
4   6071    263   3054    260
4   3054    260   5598   6071
4   4568    486   6071   3116
4   4388   3054    263   6318
4   5398    598   4256   5173
4    281   4256   5156    328
4   2458   4399   5007   4858
4    281   5155   5156   4256
4   4256   5859   5155   5156
4   4113   6330   6365    588
4   2048   5458   5459   4668
4   3547   4591   2654   1799
4   2111   1331   5025   1355
4   2463   3192   2269   5429
4   4256   5173   5859   5156
4    281   5156   4702   3494
4   4928   4021   4927   4020
4    328   4548   5156   3494
4   2037   2040   2635   2036
4   2065   4200   4201   6674
4   3522   5859   4256    598
4   2494   4325   1837   6567
4   4942   6528   6700   4473
4   2511   2529   5327   4418
4   4342   6285   4508   6284
4   4342   6284    260    276
4   3014   2678   5551   2677
4   2243   3617   6202   6829
4   4342   6213   6284    276
4   2357   5664   2616   5667
4    439   3799   3521    314
4   2439   5409   3247   5292
4   2357   6543   6103   6748
4    342   6127   6040   6041
4   3875    219    220   4461
4    273   5660   2673   4336
4   2337   2350   4833   6134
4   4343    716    424   6108
4   2493   6461   5815   6133
4    260   5598   6071    492
4    937    935   5701   6364
4    937   5701    786   5700
4    785   6245   5507   6243
4   6363   5434   1088    935
4   6364   6243   6245    937
4   2124   5869   6783   6782
4   4149   3209   3127    459
4    401    369    674   3165
4    520   5221   4097    644
4    608    609   6214   6215
4   2753    615   5567   2994
4   4196    459   3947    346
4   5971   3948   3428    718
4   3866   4705   4704   4372
4    581    583   4703   3360
4   6172   1764   6667   5077
4   3939   4519   3829   2805
4   4706    365   4707   3986
4   3741   3409   6775   5775
4   4674   5578   4672   6667
4   5636   3758   3273   2851
4   3228   2707   2709   6277
4   2197   3060   2238   4960
4   4794   2602   3690   5175
4   2439   6679   3247   5409
4   2082   3481   5445   5446
4   2090   3490   5898   6045
4   2974   2515   2519   2509
4   2398   2199   1388   5468
4   2171   2077   6612   6611
4   2358   4320   5414   2614
4   4834   2349   3779   6134
4   2572   5325   2170   2520
4   2358   5414   6680   2614
4   2165   6227   4072   6226
4   6264   5213   6383    368
4   2161   4179   4867   3106
4   2163   6444   5367   4867
4   3379   3550   1827   3380
4   3379   5460   4900   1828
4   4077   1828   3379   1827
4   4077   3379   5291   3550
4   2306   2687   6208   4411
4   2048   2553   6217   4667
4   4547   3803   5428   3697
4    519    524   3542   5631
4   2306   2303   5713   2628
4   2291   2733   4411   6208
4   6573   3792   2901    454
4   2047   5387   6139   6189
4   2291   6420   5387   3051
4   2509   2371   3669   2972
4   1842   6012   1862   1814
4   6833    330   4299    734
4   2306   4816   2688   4411
4   2108   2215   2109   2216
4   5964    740   3796   6608
4   3526   3697    275   3102
4   2511   2526   1382   1305
4   2163   6072   3302   4013
4   6452   2309   2086   3648
4   2440   4809   3476   2357
4   3391   3389   2051   4415
4    216   5338   4476   4086
4   2048   6079   5099   5388
4   3720    681   3904    374
4   5792   5549    723   4140
4   5338   4086   3770   4476
4    224    711   3015   4487
4   1218   3367   1102   2518
4   4088   4086   4628    408
4   6302   6517   3358   5860
4    686   4723   4248   4245
4   6457   4487    738   6792
4    692   4690    686   4779
4   2495   1318   1455   2655
4    686    222   5557   4779
4    259   4498   5703    258
4   4248   4247   4246   4245
4   2382   4307   4682   6812
4   4248   5203   5146   4247
4   2370   4103   4104   4901
4   2440   2088   2506   2406
4   2377   2803   3642   6838
4   2515   2509   5531   4509
4   2758    235   3358   5337
4   3640   5053   2369   4901
4   6508   2386   2574   2348
4   2251   6754   4255   6574
4   2225   1348   2105   5354
4   6571    410   6122   5115
4    536   3010    614   4348
4   5969   3037   4218   3036
4   4054   3466   5753   5613
4   6049   2800   3072    629
4   6526   3877   3806   4588
4   3756   5452   3757   6276
4   6604   3877   4588   3672
4   3552   3663   6186   5849
4    671   3044   3045   3035
4    714   6747   6743   5589
4   4441   2259   4302   4301
4    744    784    217   3879
4   6181   6725   4592   6848
4    744   4589    160   3445
4   6604   3877   3672   6198
4   4038   3672   6198   3204
4    211   3672   3877   4039
4   4038   3876   3204   6198
4   6464   6089   6463   6200
4   5703   5217    258   6720
4   4674   6667   1764   5578
4   2745    390   3768   6825
4   3622   4807    774   4970
4   6826   2739   6314   3623
4   4089   5600   5983   5984
4   3858   4396   4397   6861
4   2493   4024   6873   6132
4   2474   3489   2152   2041
4   1845   5538   2695   2952
4   2493   2577   6083   2546
4   5667   2357   2337   2616
4   2493   2356   2349   2317
4   2337   2493   2349   6134
4    742    721   3524   6817
4   2201   4823   5241   4905
4   3573   6233    648    653
4   6833   5280   6808   5282
4   2139   4028   1092   2045
4   6363   4230   4826   1088
4   2493   3118   2546   2578
4   2440   2079   2087   2088
4   3269   2264   2222   1344
4   3652   2083   3361   3237
4   2083   1393   3652   3361
4   2089   4552   2264   3269
4   4705   3867   3286   6320
4   2366   2460   2589   3851
4   2264   3148   3269   4552
4   4581   2086   2159   2615
4   2237   4131   2159   2267
4   2237   2267   2403   2460
4   2267   4131   5671   5672
4   2177   6634   5931   4840
4   3416   5643    732   3415
4   3416   3818   3415    732
4   5212   1183   2699   1747
4   3416   5643   3415   5587
4   3820   3523   6199   4008
4   3416   3818   5579   6463
4   3816   3041   3120   3257
4   3426   2643   2645   3816
4    452   4609   3138   6011
4   2255   6092   6539   4414
4   2204   5050   4936   3891
4   2075   3914   4437   6062
4   2235   4414   6536   4872
4   2202   3502   4060   4059
4   2479   4110   3778   4290
4   2068   4005   5128   5308
4   2228   2499   2475   2230
4   2235   3618   3395   4872
4   2226   3620   1458   1332
4   2279   1320   1322   1323
4   3273   6766   3758   6541
4    384   6022   3501   5137
4   3758   6423   3230   5636
4   5636   2892   5635   4600
4    476   3762   5953   6442
4   6495    504   2852   3356
4   5221    644    520   5161
4   4466   3575   5633   3907
4   5636   4644   5635   2892
4   2704   3199   5223   6192
4   6158   4656   4766   4657
4   5519   4408   3511   6437
4   4859   1652   2715   4862
4   2205   4632   5834   4631
4   4408   5519   3511   3464
4    736    616   3319   6053
4   3074   6053   3319   6054
4   6054   3074   5685   3319
4   3319   6054   5697   5685
4   2255   3397   6536   3396
4   3397   2249   6536   2074
4   3887   3733   3065   1051
4   4197   2276   3644   5674
4   3605   3433   3010   4348
4   4839   2385   4129   3258
4   4758   5284   2818   5285
4    782   4876   3101   4828
4   4828   4876   3101   3129
4   2489   2490   2491   2378
4   6247   4922   5548    724
4   5260   3129   3101   4876
4   5262    782   4876   3101
4   4484    548    545    550
4   3241   1873   3124   6165
4   4195   3944    610   4501
4   3596    619    610    626
4   5329   2504   4743   5344
4   2063   4869   5272   5271
4   3944   4501   4752    610
4   2456   6068   2526   1375
4   2200   2327   5242   2433
4   3018   4614    626   4195
4   5519   1862   4818   3511
4   3944   3943   5060   4752
4   3944   3943   4752   4501
4   4036   4501   5465   3943
4   4501   3943   4752   5465
4   4892   4270   4268   6597
4   1798   3688   3510   2654
4   6056   6057   6055   4269
4   5885   6836   4269   6055
4   6835   3959   2992   4016
4   5168    780   3108   6704
4   2474   5898   3490   4624
4   4691   2053   2119   2054
4   2061   2060   4033   2876
4   2359   2059   2035   2061
4   2472   2650   4627   3842
4   2425   2469   2740   2468
4   2319   6391   6752   5673
4   6752   2041   2319   4502
4   5402   5077   4673   2664
4   2351   4309   3330   3891
4   2117   5302   2033   4284
4   1791   5543   5469   5941
4   2882   2306   2301   2299
4   2602   3689   3306   3307
4   2602   2603   4768   5175
4   4165   3307    682   2602
4   5078   5863   4524   6375
4   5273   2602   4165    682
4   6343   3054   3116   6071
4   5273   4768   2602   3689
4   2379   2376   3812   6560
4   2313   6660   2314   2608
4   1479   5429   2463   2269
4   2275   2211   4670   2590
4   2408   1213   6715   6713
4   2511   2195   5094   2110
4   2061   2057   2091   4033
4   2061   2091   5100   4033
4   2080   6677   5446   5414
4   2494   2408   2212   2272
4   5240   2407   4181   2373
4   2048   2556   4669   4095
4   2973   2509   2519   2523
4   2511   2526   5807   6822
4   2275   3773   2590   4670
4   2178   2376   2497   2112
4   2275   2273   2211   2590
4   2500   5004   4629   4630
4   5100   2061   2065   2091
4   5210   5008   2487   5009
4   6680   2358   2356   5445
4   2358   5445   6680   5414
4   6156   6722   4081   2671
4   2180   4166   6379   6633
4   3016   3204   3206   6300
4   2356   6147   5922   3211
4   5721   6844   6847   6845
4   3045   3115   3044   6707
4   2260   2261   1367   6610
4   3042    528    553    552
4   4225   6731   6260   1294
4   2381   5368   2691   4184
4   2167   2325   2258   4391
4   3042   4140   4403   6502
4   6833   5075   5280   5282
4   2364   5376   1251   5377
4   2390   5876   2598   5875
4   2446   6733   4432   5747
4   3242   1873   3241   6165
4   4684   6827   2824    354
4   4010    612    287   5763
4   5071   3643   2761   1391
4   3883   6827    733   2825
4   3603   5477   5949    363
4   3541   3540   1290   5738
4   2527   2276   2384   3922
4   2202   3336   4632   4060
4   5476   2825    509   3882
4   5476    363    658   5340
4   5980   4546   6570   5948
4    358   5657   5948   3374
4   5980   5256   6570    279
4   1854   5646   5648   1818
4   1299   2416   2413   1212
4   5188   5647   1854   6051
4   1854   4537   5647   5646
4   5648   5646   5649   1818
4   6401   5649   4674   5578
4   4391   4533   2367   2258
4   5248   6610   1456   2260
4   5640   6172   1764   4674
4   2173   6357   5668   6349
4   2303   6229   6756   3843
4   4674   1764   5754   5578
4   5812   5811   5157   6448
4    404   6291    428   4890
4    387   4610   6292   4264
4   5324   2285   6719   5919
4   4659    887   6293   6291
4    404    418   5575    378
4   3635   4559   4393    587
4    428   4213   4890   6291
4   2736   6293   4266   4659
4   3991   4361   6180    595
4   6293   4266   4659   4213
4   6180   5810    595   4361
4   4608   6010    418   4890
4   4382    710   3014   2677
4    383   4610    387   4264
4   4890   4695   6010   6291
4   2358   2080   5414   4320
4   4025   2493   2317   4024
4   2260   2171   2077   2259
4   4025   2547   2317   2493
4   6097   2472   5056   2581
4   2369   2803   3642   2377
4   4088   4479   5721   6845
4   5958    386   3691   6174
4   2639   6020   1838   5645
4   6386    350   3720    374
4   6263   2727   2728   6125
4   3692    412    488   6319
4   5857   6517    421   6602
4   2495   1455   1318   3920
4   2509   3844   2371   2972
4    761   2713    266   6274
4   6319   4572    412   2734
4   6010   4609   6291   4695
4   1239   3805   3733   6671
4   3221   4096   3705   3707
4   6010   6341   2657   3138
4   3729   4335   1476   1160
4    452    737   3138   4609
4   6010   6011   3138   4609
4    427   6336   6340    467
4   2251   3310   4255   6640
4   1419   2241   2233   2227
4   6640   2385   4129   4839
4   2251   3310   5430   4255
4   3362   2964    601    302
4   2498   3310   6640   3184
4   2983    744    820   3446
4   6155   3586   1473   2894
4   5217   4590    160    258
4   3388   5216    922   2894
4     36   3876   6198   6121
4   3443   1472   5193   3586
4   5217   3445   4590   6720
4   6526    160   4588   3806
4    160   4588   3806   4590
4   6526   4588    160   4589
4   5573    574   6288   6368
4   1200   4711   4063   5879
4   2458   2430   2365   2426
4   3687   4591   3510   3300
4   2128   5604   1340   5319
4   6346   3867   4393   3286
4   5964   2749   2903   2886
4    798   6553   1886   3017
4   2175   2147   2146   2145
4   2284   5236   4735   5026
4   6690   2609   2131   1269
4   3553   2176   4163   5503
4   2260   2103   1433   1376
4   4959   6190   4958   6844
4   2681   2765   6273   6553
4   4978   1207   1242   1668
4   4803    463   5576   6281
4   2174   2176   1194   1462
4   2128   1340   2847   5319
4   5787   5778   3788   5782
4   2128   2145   2847   2131
4   3019   6330   5357   3616
4    587   4559   3019    139
4   5614   1303   1445   1467
4   2523   2519   4509   2509
4   5774   2965   5174   3363
4   6565    233   6566    234
4   2456   2526   2530   6418
4   4564    625   3940   4808
4   5809   6863   6033   4317
4   4254   2727   6125   2728
4   5614   1467   4848   4389
4   2658   4230   4826   6363
4   4230   5436   3320   1088
4    747   2606   5074   2801
4    623   3320   5436   5434
4   6518    730   3556   3375
4   5435    745   4231   3320
4   4231   3320    684   4230
4   6363   6364   5701    935
4   3142    243    255    225
4   6503   1470   6504   4920
4   6363   5701   5436   5434
4   5541   4900   1833   1828
4   1241   5779   4061   1182
4   6500   5434   5436   5701
4   4747   5435    623    687
4   4230   4481   2658   4826
4   6266   6504   2658    914
4   5868   6884   2642    622
4   6298   3041   1844   3120
4   6503    914   6504   1470
4   5264   3752   4941   1201
4    669   6352   6328   4964
4   2967   2668   4977   5122
4   1199   1200   4711   3472
4   6211   4243   4242   5877
4   6211   1242   4242   4243
4   6211   1242   1668   4242
4   5729    378   6024   6025
4   5729   3766   6025   6024
4    379   5728   2737   5730
4   5729   2737   3766   6024
4   6025   4782   5729   4608
4   4608    378    418    446
4   6291    887   6293   4695
4   5728   2737   5730   4782
4   2362   4014   2659   5499
4   3596   3083    619   3606
4   2519   5930   6205   3090
4    507   6446    505    433
4   6124   2517   2268   3634
4    233   6847   5721   6844
4   5572   4270   4895   3130
4   3774    606   4228   3289
4   2489   3264   2820   4440
4   2424   2740   5095   2537
4    404   3678   4610    387
4   3063   3064   2109   2501
4   6695   2115   2058   5288
4   3678   3713   6024   6025
4   3678   4610   3713   6025
4   2340   2341   2342   2388
4    286   4547   6345   5428
4   5729   4608    378   6025
4   5108   2137   2462   4733
4   2137   4733   4732   6478
4   6744   2466   4224   2625
4   2828    285   3897   5181
4   2137   5107   2625   4732
4   4394   2899    245   5955
4   2137   5107   2617   2618
4   6070    231    289    266
4   6834   1852   4031   3682
4   6126   4476   3770    265
4   2137   2617   5108   5751
4    561   5699   3717   6601
4    519   3545   5670   3275
4    237   4252   6847   2727
4    269   3405   3011    538
4    561   5149   5150   6601
4   5149   6289   6601    341
4   6601   6289   5149   5150
4   3756   2709   6423   5452
4    755   5993   3307   3226
4   3228   3226   5993   6276
4   3307   3226   4165   6551
4   2415   6494   6086   2172
4    756   3228   6277   3227
4   6276   3228   6277    756
4   4347    361   6825   3284
4   5597    762   2849   3307
4   6265   2921   6562   6372
4   5352   5209   5213    705
4   6425   3346    764    500
4   2849   5993    756   5596
4    882   6632   3318   3068
4   2219   5040   2178   2976
4   2322   3488   2197   6438
4    553    209    221   5603
4    553   6846    209   5603
4   3512   4010    612    287
4   6707   5792   4140   5549
4   5603   3043    553   3042
4   3044    528   6707   5792
4   2466   3453   2769   6221
4   2322   2521   6655   4059
4   2466   3454   3453   5257
4   2750   6580   2988   5048
4   6078    289    231   4337
4   2466   3453   6221   5257
4   2513   4925   3311   3312
4   4366   4381   6602   4548
4   5560   3039   3038   5299
4   2514   2635   2419   2470
4    497   3406   5979    396
4    496   4773   5512   6856
4   5979   5512    496    305
4   6248   6070    231   6078
4   5953   6442   6445   3055
4    738    670   6792   4487
4   6446   6297    433   6856
4   2516   5841   4827   2893
4   2106   6400   4836   3093
4   2104   1306   3919   1294
4    749   5072   2300   6624
4   2342   2397   2070   4822
4   3354   5760   2986   5654
4   3115   3044   6707   5792
4   2349   3621   5159   6002
4   4523   6301   4597    576
4   5526   6731   5934   1294
4   6346   3286   4336   3867
4   6346   4336   3286   2673
4   2413   4879   2947   4638
4    587   4559   6346   4277
4   2471   3985   3993   4445
4   2066   6768   4477   4478
4   3166   4789   5069    591
4   1482   2140   5845   3666
4   2053   6061   5739   6767
4   1090   3220    943   2072
4   6322    242   4304   4305
4   2053   6767   4456   5258
4   5985    208   6849   4982
4   2109   4868   2623   3826
4   2113   3823   5104   5777
4   2220   2446   2217   2333
4   5524   3063   2109   2946
4   3042    528    552   4140
4   5548    724   3202    723
4   2215   5997   3822   3972
4   3823   3822   2113   2321
4   2484   2056   5676   2058
4   5151   6261    234   5153
4   5982   6843    307   6650
4   4721   3704   1805   6632
4    342   5769   6285   6287
4   2108   1337   4065   1248
4   4568    486   4571   6842
4    580   6130   3033    584
4    220   6300   3875   3206
4   5151   5152   5153    696
4   3408   3033    307   6840
4   5080   2813   6564   6375
4   6343   6071   4568   2914
4   6071   3054    263   2914
4   3992   6419    283    571
4   4511    275   3102   3526
4   2524   5714   3976   5715
4   2488   2489   5505   5091
4   2260   2257   2167   2258
4   6322    230   4305   4387
4   2126   1365   3149   1363
4   4568   3116   4571    486
4   6156   2671   6732   4018
4   2318   5358   4053   3004
4   1467   4848   4389   6727
4   1375   5206   2456   1288
4   6319    486   3839   4571
4   6343   4387   4388   2914
4   4428   4538   5121   6615
4   5757   4587   4535   4341
4   2262   2265   5013   3248
4   3350   4860   4321   4070
4   2504   6429   1292   1284
4   6319   2734    412    494
4   6071    492   5598    494
4   2183   2316   6540   4679
4   5614   2183   1445   1303
4   2183   4215   5614   5547
4   6656   2521   2605   4838
4   2521   5831   3487   6038
4   5547   2183   1445   5614
4   4485    340   5361   3935
4   6032   6866   2950   1369
4   1289   3601   6863   2521
4   2841   4246   2842    256
4   5807   1295   2526   2511
4   2524   6110   3207   6109
4   3698    256   3161   5942
4   3698   4247   4246   5942
4   3163    222   4246   4245
4   2210   1274   5240   2786
4   2461   1465   1447   1386
4   3497   4965   6583   4196
4   1235   4856   4323   4584
4   2262   5014   5013   5012
4   5969   6571    410   6122
4    731    359   5968   6542
4   2425   2409   2118   2228
4   2075   5000   5823   5001
4   2047   2690   4562   6760
4   2291   2958   4412   2612
4    333    380   4222   2966
4   2524   6225   5715   6136
4   3701   6542   5968   5962
4   2067   3763   3983   4566
4    333   4067   3701    338
4   1258   1342   3337   1259
4   4192    390    340   3768
4   3937   3934   4717   3935
4   4084   4495    661   3937
4   4485    340    345   5361
4   4488   4485   4805    345
4   5167   2694   5169   5621
4    573   5574   6369    574
4   3347    567   3979   4369
4   4488   4489   4805   4485
4   3878   6604   6198   6526
4   4710   3016   3876   6121
4   3876   3204   6198   3016
4   1180   4975   1650   1649
4   1798   1900   1943   3688
4    411   6282   4806   6807
4   3519   6129    303   5561
4   2819   4852   2867   2866
4   2410   2518   4034   2411
4   6860   3858   2410   6858
4   5139   5717   3827   5972
4   6623   6158   5717   5341
4    397   3401    335   4722
4   4992   4907   3007    565
4    539   6265   6186   6371
4   5848   4397   5561   5192
4   3324   3286   4393   3867
4   2115   5677   2062   6409
4   5848   4397    787   6861
4   5774   3987   5174   2965
4   6329    595   5483   5846
4   2411   5391   2410   6860
4   2410   1641   4034   1640
4   1644   6407   6492   5504
4    587   4559   4277   6330
4   5859   5174    598   4783
4   6492   1085   6374   6635
4    788   6861    789   6860
4    525   5275   6246   3289
4   3801   5564    604   6214
4   3776   2516   3777   2523
4   4498   5843   4590    258
4    522   5849   5848    787
4   2410    790      0   4396
4   2075   3832   6062   5804
4   2082   3480   5446   6176
4   2448   3857      0    791
4   2518   2517   2384   3645
4   2466   5981   5712   6090
4    970    787   6185   3662
4   4607   2041   4606   2472
4   2269   1882   5456   3929
4   5617   6727   5618   4848
4   5364   2506   2309   5061
4   1804   1860    882   6632
4   2861    798   1885   5638
4   2506   6523   4986   5061
4   3319   3124   6165   3241
4   3269   2089   2222   2264
4   2180   6381   6379   4166
4   5061   2506   2309   2088
4   2474   4624   6772   3489
4   2513   5852   5854   6074
4   2506   6523   5061   5364
4   2061   4613   6252   6682
4   3820   4009   5057   3524
4   4008   3818    443   3523
4   5076   2276   2448   5070
4   3523   5057    443   4008
4   2317   4025   3486   2581
4   2310   4681   6741   2608
4   6199   3818   4008   3523
4   2850   3326   6620   6154
4   2850   3326   6154   3819
4   4724    690   5432   6480
4    530   3635   3020    253
4   3819    719    443   3285
4   5976   6463   5579   3818
4   2681   6273   1830   6553
4    772   4651   4967   3824
4   3276   5275    525   5720
4   3544    216   3412    382
4    732   4008   3818    443
4   3523   4009   3818    443
4   4009   3818    443   3819
4   2071   2223   5899   5482
4   2368   4842   2551   5441
4   2076   5186   5184   6388
4   2620   4613   2093   2619
4   5976   4008   3525   6199
4   2047   6759   2690   6760
4   3110   2082   6241   2361
4   2094   5895   4500   6428
4   2368   3994   2366   2365
4   2225   1348   2594   2105
4   2127   2125   2128   2131
4   5514   2229   4073   5515
4   2281   2381   4184   4680
4   2047   6203   6218   6189
4   6094   4073   2289   4209
4   3876   6198   6121   3016
4    262   3875   6300   3016
4    262   4828    223   3873
4   3129   3873   4756   4828
4   1805   3707   3221   3705
4    157   5346   1808   3221
4    157   3221   4096   5346
4   5758   5752    685   5695
4   3221   5346   3705   4096
4    772   6826   3328   6395
4    757   2896   5608   6050
4   3221   4888    881   2532
4   4574   4752   3944   5060
4    473   3860   5068   5462
4   3942    282   4752   3943
4   3596   3945   4501    610
4   3741   4439   2943   5046
4   2371   3903   6662   3532
4   3816   1847   3817   3041
4   2519   6205   5350   3090
4   3041   1847   2645   3816
4   2515   4493   5098   6123
4   5643   5914   6819   4602
4   5976    732   3818   5579
4   2065   2075   5823   5489
4   2406   6544   4168   4167
4   2432   6547   6546   6153
4   2068   5128   3913   5308
4   2088   6435   2592   4987
4   2101   5363   5362   4052
4   2212   5303   5691   4409
4   2316   6007   2310   6657
4   2198   2194   1429   1437
4   2180   2595   3113   6148
4   2456   5233   5625   2459
4   2201   2817   5241   4823
4   2432   2641   6549   4984
4   2524   6110   3843   4518
4   2150   2149   4843   2170
4   2472   3485   2581   3486
4    269    614   5759   2994
4   5929   2480   5906   3090
4   2518   2384   1218   1311
4   6428   2317   2034   2094
4   2322   2521   2605   6655
4   3211   5039   4024   2317
4   3225   3010    614    536
4   2493   4025   6873   4024
4   2322   2197   3488   6663
4   3739   5674    748   4197
4   2322   2196   2202   3502
4   5755   3466    757    632
4   2472   3485   6076   3842
4   3336   2202   5438   4905
4   2198   5835   5345   4908
4    592    448   5732   5733
4   6134   2337   5041   4833
4   2198   5345   1394   4908
4   2493   6382   3118   2566
4   2320   6663   5539   6459
4   6097   2317   2547   2493
4   3417   1206   6066   5263
4   4075   1245   6432   3562
4   5263   1242   4244   3747
4   2682   6066   1206   5263
4   2092   5896   6683   6252
4   2430   6433   4400   4858
4   2227   5351   1458   1419
4   2491   2131   4112   4376
4   6275   2601   4220   6137
4   6124   2523   2597   3723
4   6421   6596   5580    299
4   2157   5140   4151   4040
4   2060   3636   2875   4837
4   2788   2601   5255   5254
4   2787   5597   3306    489
4   2788   3306   2601   2603
4   2068   5308   6809   4005
4   2788    699   5255   3308
4   2787   3306   3309    699
4   2047   2291   5387   3051
4   6275   3308   5255   6570
4   6275    279    277   4546
4   3362   2964   3363   4701
4   2849    756   5993    755
4   3019   3020    139   4559
4   5596    763    756   3236
4   5199   6329   4835   5846
4   3076   5555    203   3139
4    264    689   4942    249
4   5782   5778   3788   1197
4   2928   2621   5596   3236
4    755    756   5993   6276
4   3306   3689    489   3307
4   2527   4285   6872   2660
4   3248   2257   2167   5274
4   2167   1227   1484   6059
4   1484   2257   2262   2908
4   2164   3814   3815   4206
4   2524   6760   6225   6136
4   2167   5248   2102   6059
4   3990   3987   5570   5774
4   4256   5173   5156   5397
4   4700   4795    596   5555
4   2521   2205   5855   4059
4   2322   2183   2521   3487
4   2030   3373   6344   5660
4   2051   5628   5626   2812
4   2291   2203   4563   6711
4   2518   1318   2528   3645
4   2520   3621   5009   2811
4   2520   5159   2811   5160
4   2520   3621   2811   5159
4   2154   2085   1255   1256
4   4781   4386    559   4779
4   4392   2262   3248   2265
4   2456   2459   5005   4170
4   5455   5454   1293   1294
4   2195   2205   1297   2198
4   2520   5325   2567   5160
4   2276   3833   5070   5076
4   2361   6242   2129   3122
4   2480   4012   6091   4429
4   2155   6240   4447   6474
4   2475   2230   4139   3906
4   2043   5852   6454   6474
4   2155   6475   6240   6474
4   5518   6012   1859   2844
4   2951   2955   3196    356
4   5403   2898   2674   5412
4   5823   2065   5824   2117
4   6254   5718   5987   4542
4   2041   2911   6048   4620
4   2155   5187   4448   4911
4   1936   3027   1842   3767
4   2513   5853   6797   5854
4   2450   5749   6733   4996
4   1801   1811   4551   1810
4   2450   6733   5749   3062
4   2152   2155   6240   6239
4   4472   5943   6729   5154
4   3014   6525    711    710
4    362   6263   3040   3769
4   3261   2518   4512   3262
4   3338   2442   2398   1264
4   2446   6733   5747   4996
4   2390   5876   4432   6673
4   2170   5747   4240   4471
4   3883    733   6827    354
4   6827   2824    733    512
4   4685   2824   6827    512
4   4685    512   2721   2824
4   6827   2824    354    733
4   4950   3165   5395   4964
4   3537    361   3290   6590
4   3883   2825   5340   5476
4    157   5974    296   5129
4   1805   3221   3222   1808
4    633   4784   3827   6179
4   1598   5718   3350   3349
4   1800   3817   5923   3041
4   5347   3817   5923   1800
4   2448   4235   3597   4197
4   1805   5346   3221   1808
4   6013   3706   5346   6016
4   2618   2134   2135   2531
4   4234   2193   2191   6662
4   6759   3974   2044   2047
4   2330   2510   4678   2329
4   5347   6017   5923   3817
4   6695   2485   4071   6065
4   3774   3289   4228   6246
4   6298   5088   3041   1800
4   4754    518   5669    775
4   3704   3567   1805   3703
4    390   4485    340   4805
4    390   6825    340   3768
4   6826   6825    390   2745
4   4920   6243   6245   6364
4   4486    390    772   4805
4   4485    340   4805    345
4   2410   6860    789    790
4    661   3935   4495   4485
4   2491   2383   2821   1415
4   3110   2361   2081   2082
4   4486   4805   4967   4489
4    340   3768   6825   3292
4   5130   4339   3471    693
4   4070   3349   5989   1649
4   6605   3671    456   3179
4   2530   1292   6429   1253
4   2830   5732    592    448
4   2413   1212   1228   1299
4   1641   1640   2410   5391
4    592   5733    300    448
4   4677   4118   4123   5583
4   2626   1159   1180   5331
4   5554    693   3555   4339
4   4339    693   3555   3471
4   5023   6296   6334   4074
4   2276   6638   3921   3644
4   5023   6296   6335   6334
4   3245   5126    329   4805
4   5023   4074   3242   6296
4   3313   1824   5023   4074
4    485   3165   4964   5395
4   3377   5644   5341   3676
4   6009   3653   6008   3654
4   2252   4797   2436   2253
4   1883   5666   5656   1884
4   5571   5176   4377   3746
4   2437   3628   2533   3357
4   2393   4261   3338   2454
4   2043   5187   2155   2042
4   6293   6291   4213   4659
4   2260   1433   2102   6030
4   2117   4284   4102   5302
4   5800    722   6108   4769
4   2155   6476   4911   4447
4   6239   2152   6387   6240
4   2152   6387   6772   6239
4   2523   2517   1315   1249
4   3350   4076   3349   4070
4   2155   6476   6240   6239
4   5408   2087   4278   4280
4    679    485   3529   5222
4   2042   5853   2312   5305
4   6081   1256   2148   1255
4   2270   2269   3929   1882
4   6427   2093   2094   2033
4   4499   2094   4500   4504
4   4046   2071   4045   2437
4   6500   4402   3201   6247
4   1234   4015   1233   4014
4   2270   6326   3425   1833
4   6125    681   6578    709
4    216   4086   4476    265
4   6833   5280   5075   6598
4   6578   6384    709    708
4   4254   6125    237    408
4    216   4476   5338   3544
4   5650   3665    304    576
4   6578    709   6384   4212
4   3720    681    374    708
4   1245   6787   6432   3562
4   2196   6646   6438   4960
4   2215   2321   3822   5997
4   6303    824   1471   1595
4   2795   6854   5348   4765
4   2322   6438   2561   3488
4   3123   4862   1653   4859
4   1286   2521   1303   2183
4   2521   6347   6069   5855
4   2488   4553   4554   5091
4   2521   5855   6655   4059
4   3349   3350   1598   4076
4   2090   2632   6045   4506
4   3239   4735   2284   2279
4   1833   5227   4341   4900
4   4796   6366   5795   3508
4   2523   1315   2516   2973
4    439   6598   2912   3799
4   5560   5155   5559   5951
4    439   5075   6598    314
4   6888   6890   6231   6889
4   6833    330   6808   6597
4   5155   5559   5951   6232
4   3508   5859   5155    278
4   3592   3630    339   3629
4   5155   4702   3797   6232
4   3930   5297    322   5886
4    451   4299   6597    330
4   5648   5649   1846   1818
4   5859   5173    598   5174
4   2259   3081   2455   5113
4   3681   4860   5723   1230
4   2172   6086   4637   6085
4   2270   2272   5457   3773
4   4900   2270   1833   5227
4   6786   4075   4861   2414
4   2102   1434   6058   5248
4   2146   5534   5662   5317
4   2146   2131   2125   6689
4   4168   2088   4198   2641
4   2141   5399   6490   3152
4   2128   2144   2125   2286
4   2373   2374   3337   4734
4   3614   3616   3019   5357
4   3614   3616   5357   5199
4   5357   6330    588   5356
4   2527   5746   6858   6872
4   2370   4103   4436   6556
4   2528   6006   3923   4458
4   2527   2918   3835   3922
4   2134   2618   2617   2651
4   2516   3259   4827   5841
4   2410   2527   6858   2660
4   6608    740   5183   5392
4   6577    556   5711   6798
4   6714   6890   5569   6889
4   3593   5166   2874   3125
4    621   2800   3232   6883
4   3552    522   3663   5849
4   2410   3858    790   4396
4   2320   5105   3893   4306
4   2519   2516   2523   3777
4   2054   5502   4855   4870
4   2052   5244   5243   4136
4   2411   6373   1641   4180
4   2495   6738   3261   2655
4    788   6861   2868    787
4   2070   4091   5938   6402
4   2314   6039   4251   2607
4   4862   6165   1874   4883
4   2461   5470   4514   4051
4   2137   2462   5751   5108
4   3859   5064   6686   3158
4   2423   3144   3378   3089
4   2243   6829   5509   4415
4   5389   5791   5392   5393
4   6317   3825   3824   4650
4   2474   4204   6476   6239
4   4020   4021    435   4928
4   2788   2601   5254   2603
4   2815   3281   6576   6763
4   4212   6384   6264    707
4    511    603   3969   3368
4   2270   5227   2272   1882
4   2185   2188   2206   2320
4   6154   3326   6620   3327
4   2349   6757   6002   5159
4   2082   5922   5445   3481
4   2317   3840   3211   5881
4   4365    236    596   5336
4   2270   5541   3425   5270
4   2493   2472   6097   2317
4   2301   6099   5991   6755
4    365   3459   3986   3034
4   2064   5376   5377   3335
4   2873   4792   3435   2859
4   4297   2474   6799   2042
4   5218   6588   4694   5219
4   4486   4805    772   4967
4   2083   2633   2541   3361
4   6825   3768   3290   3292
4   2335   3613   2334   2600
4   2108   2222   2111   2113
4   3048   4032   6814   5977
4   2866   4852   2867   1851
4   3497   3498   6583   4965
4      7   5638    798   2862
4   2061   2065   2093   4613
4   5148    463   5576   5862
4   1183   1663   5212   6268
4   2942   2767     98   2861
4   2083   1392   1393   2541
4   2410    791      0   2935
4   2237   2159   4131   4581
4   2516   2528   4458   3924
4   2398   5468   1388   3061
4   2348   2244   6143   5421
4   2043   4448   5852   6474
4   2081   2361   3213   2359
4   2458   2430   4858   2267
4   2428   4998   1392   6531
4   3858   5561   4397   4396
4   6136   2049   2044   3976
4   5038     20    296    751
4   2344   5888   6258   5878
4   2071   6470   5034   5141
4   2041   6628   4607   4605
4   2191   3903   6699   5205
4   4196   3743   5311   3551
4    444    292   6015   6464
4   3947    346    459   3948
4   2130   1323   1329   2663
4   1236   4862   1653   3123
4   2202   5836   4060   3502
4   2417   3190   3191   6773
4   2098   4932   2096   4924
4   2205   1408   1432   1297
4   2247   2251   2248   5430
4   2249   3617   2074   5510
4   4711   3473   5214   3472
4   2495   1455   1454   1223
4   1235   1228   4334   2948
4   2229   2281   2380   5487
4   1200   5879   4465   6800
4   5122    781   5117   2967
4   2276   2384   2907   1102
4    129   5118    143   4758
4   3997   5378   5877   1199
4   1471   5262    824   6303
4   2982   1595    824   6303
4   3702    820   2983   2982
4   5260    783    217   4876
4   5122   5378   2967   2668
4   5260   3879    217    783
4   3615   6840    530   3021
4   2765   6553    798   3017
4   2262   5719   1484   1232
4   2167   1877   2777   2908
4   2087   4280   5408   2439
4   2079   2085   2334   2349
4   6642   2435   3269   1343
4   2264   3005   1344   3462
4   4174   1865   6273    662
4   5641   4173   3970   6281
4   5558   3878    744   4589
4   2337   4293   6131   2604
4   2349   3779   6002   6757
4    311   3216   2743   2742
4   6814   3970   3047   5148
4   5535   2515   2192   2327
4   6581    512   6666    705
4   6550   5438   5834   2205
4   6776   2508   2191   1411
4   2207   2521   2879   3487
4   2327   2427   1414   1429
4   2201   2122   6501   6027
4   2205   2521   5831   2879
4   5156   5397   5173   4548
4   6278    293   5594   6596
4   2201   5438   4905   6027
4   3734    799    125   3732
4   5742   4450   5305   2044
4   2743   4174    312    662
4   2513   2769   4925   3312
4   2513   6074   4925   2770
4   6098    526   2939    537
4   2069   3974   4003   5805
4   4331   4207   4569   4570
4   6098   2939    526   4483
4   4331   2938   4208    531
4   2034   2400   4504   3418
4   2067   2291   2203   6681
4   2053   2091   2057   6061
4   4331    532   4569    531
4   2426   6734   6735   2539
4    531   5606   4569   4483
4   2198   2200   1394   1430
4   2921   3434   5195    537
4   2204   4308   3891   4936
4   2247   2249   5510   2243
4    526    529   4483   5194
4   2521   6655   5855   6069
4   2195   2205   2198   2202
4   2284   2125   5431   6118
4   2205   6451   2110   5808
4   4208   4207   5568   3405
4    529   5194   5606   4483
4   5606    529    531    532
4   4633   5409   2440   2439
4   6704   5168    780    779
4   5168    779   5634    778
4   2516   2528   1317   2517
4    778   5168    780   3197
4   2267   5672   5671   4858
4   2131   1452   6690   1340
4   5168    778   5634   3197
4   3108   6704    780   5170
4   5801    780   5170   3108
4   2212   5303   5375   5374
4    779    778   5168    780
4   2482   2587   3838   3410
4   5634   3197    778   5743
4    778   3420   5634   5743
4   6316   5209    708   5352
4   2325   6259   2363   6405
4   3720    374    350    708
4   3904   6578   4254    681
4   3265   3776   6124   2517
4   1340   2127   1452   1365
4   4550   4555   1061   4549
4   5545   6042   1552   5850
4   2525   2492   5545   2576
4   4550   4549   1061   5760
4   2488   4553   5850   4555
4   2125   2610   5318   5925
4   1645   4555   1644   2488
4   4555   4549   5850   1061
4   6126    265   5528   4618
4   4618   4476    265   4915
4   2130   2663   1329   3029
4   6126   5528   6869   4618
4   3956   6881    555   4618
4   6595   3276    525   5720
4   5588   5582    714   5182
4   4087   3770   6845   4479
4   4965   5494   6864   6583
4   3770   4476   4086    265
4   4618   6869    555   5528
4   4476    265   4915    523
4   4618   4915   6595   4476
4   2479   4751   5841   5837
4   2255   3396   6539   3258
4   4618   5528   4915    265
4   4088   6845    237   4252
4   2414   4881   2413   2190
4   6565   6566    233   6847
4   2255   3396   4414   6539
4    349   5776   5783   3528
4   2415   1288   2173   6507
4   6269    174   4367    212
4   3607    535   5192   5112
4    747   3332    319     66
4   3166    207    591   4367
4   3166   6269   4367   2764
4    174   4367    207   3611
4   3166   6269   3611   4367
4   2276   2760   5072   3646
4   4789    591    600   6180
4    590   5335   5198   3080
4    303   3657   3083    618
4    590   3080   5198   5555
4   6367   6159   2662    308
4   6278   5300   3372   5594
4    448   4929   5732   6587
4    458    712    464   5249
4   4962   6145    448    332
4    464   4730   4541   5973
4   2673    586   4277   2030
4   2146   3304   5323   6456
4   3198   3549   5609   3548
4   2067   3763   2471   3984
4   2095   2051   3962   5627
4   4005   2068   2048   2066
4   2524   6146   6109   4561
4   2260   1367   1376   6030
4   2291   3050   6420   3051
4   2291   3392   2612   2778
4   2196   4960   4814   6646
4   2306   3890   2687   2688
4   2448   3857    746   3656
4   2509   3669   3670   4159
4   2474   4624   4204   6239
4   2447   2097   3253   3330
4    312   6281   3970   5148
4   2302   3172   2297   5803
4   2047   3051   6189   4667
4   2313   6478   4106   4105
4   3253   2098   4932   3330
4   2524   4561   6109   6225
4   2048   2047   2069   4667
4   2069   5653   4044   5652
4   2181   6355   6354   5062
4   2067   4445   2555   3982
4   2069   3780   5652   4203
4   2170   4240   5875   4121
4   2047   6217   3051   4667
4   2993   2485   3203   3752
4   2272   3847   5691   5226
4   2464   2463   6555   2481
4   2291   4565   2733   6208
4   2908   2257   2262   1737
4   2222   2088   2435   2111
4   2456   5005   5625   2415
4   2592   5062   3113   2088
4   2803   2457   2377   2369
4   2166   2522   2167   5121
4   2167   6617   1822   1878
4   1463   2414   2413   2415
4   2488   2492   2576   5850
4   5520   1814   1813   2741
4   3406    396   3233   5766
4   2260   6610   1367   6030
4   5420   6041    342   6286
4   6582   6336    467   6340
4   6609    367   5183   3796
4    700   6868   6040   2701
4   2737   2923   2738   5730
4   3535   3534    371   5840
4   2951    356   3196   4221
4    446   4608    378   5729
4    317   4128   5799    337
4   3592   3630   3629    432
4   3467   3465   5622   5864
4   4538   6051   4428   2689
4   2744   4716   4717   2642
4   6194   5404   6864   6337
4   3935   5171   3937   3934
4   4214   3654   4695   3655
4   3138    737   4655   2657
4    622   4716   2744   2642
4   3934   5171   3937   3996
4   2671   3807   4017   3049
4   3935   5171   3291   5361
4   1234   4481   1243   2658
4   4192   4485    340    390
4   2930   1473   1127   5216
4   3467    622   5868   4716
4   6665   4163   2176   6880
4   2127   1452   1329   2821
4   5641   4173   6281    557
4   1234   4014   2658   4015
4   2147   5532   1482   1461
4   2456   2530   2414   5233
4   1327   1312   4000   1324
4   2488   6362   1645   6751
4   4015   4014   2362   1233
4   1813   2998   5520   3463
4   5520   3767   3854   1842
4   5697   6054   3319    616
4   3463   2999   1813   2998
4   3028   1813   1812   3463
4   5520   2741   3855   1814
4   1842   1813   3854   5520
4   2509   2972   4159   6661
4   2508   2784   2761   3643
4   6825   3290    361   3292
4    522    787   5848   4397
4   2998   2999   1813   3854
4   1075   1648   4738   4434
4   2230   4137   4425   4692
4   1842   1862   6012   1859
4   3713   6024   6031    402
4   2371   4699   1277   1313
4   3678   3712   3713   6023
4    404    387   6292    428
4   5575   4608   6025    378
4   2298   5627   2554   2555
4   5729   4782   6025   3766
4   2392   2186   6458   2421
4    615    269   5567   2994
4   2249   2074   3617   6536
4   3597   3085   3587   5788
4   3519   4397   5561   4396
4   2149   2520   2571   2572
4   2291   4563   3392   2778
4   4397   6129   5561   5192
4   3941    615   2994    614
4   3597   2661   3519   3657
4   5043   4439   3164   2943
4   3741   2717   5046   6775
4   6861   3858    790   6860
4   3519    618   3657    303
4   6569    324    743   3331
4   3328   4967   4486    772
4   3519   5561   4397   6129
4    304   4523    576   6301
4   5950   6593   6592   3177
4   4933    321   2702   5947
4    946   3182   1051    943
4    125   2860   4398    946
4    485   3165   3529   4964
4   5912   5933   6626   5124
4    946    125   3732   4398
4   4760   5862    394   5699
4   3664    434   3716   6102
4   1183   1662   1663   1051
4   3404   3766   3765   2923
4   6267   1051   3886   3065
4    453   3525   4776   4777
4   3182    946   1051   3733
4   6102    434   4598   6815
4   6339   4205   4217   4172
4   3733    946   1051   3887
4   1051   1183   3182   3733
4   2222   1361   6224   6533
4   6554    463    570   5150
4   2374   2457   2369   2377
4   2390   2444   5370   4263
4   2222   4145   6533   5025
4   3238   1466   1343   2435
4   5998   4653   5322    603
4   4208    527   3405   5568
4   3011   3605    536   2939
4   2159   4206   4581   4582
4   2056   2484   2178   2179
4    630   3177   6593   3231
4   2569   2568   2401   3639
4    717    456   4658   4603
4   3542   3276   6246    524
4   2490   6875   6880   3772
4   2838    157   3222   3221
4   2266   3150   5919   5920
4   1865    662   1803     20
4   2287   3150   4857   3813
4   2139   2216   4065   1360
4   2266   6719   3150   3813
4   2401   2569   3095   3096
4   2099   3649   3918   4741
4   1843   1871   3058   1840
4   2339   2343   2100   2345
4   2491   5011   3030   4112
4   2407   2346   2373   5240
4   2323   4327   2168   2960
4   2590   2273   2211   3192
4   2813   6437   6564   3511
4   3425   3380   1828   5471
4    505   3907   3356   3055
4   3216   3696    311   5977
4   2355   2247   4745   5267
4   2243   5509   6829   6202
4   2243   2355   5509   6202
4   5509   2243   2097   2355
4   3391   2296   2097   5509
4   6580   2986   5048   2750
4   5161   5047    644    520
4   2869   1847   3426   2644
4   1061   4550   5760   1555
4   1009   5654   1555   5760
4   2750   3354   5760   2986
4   3042   4403    552   4556
4   3715   3354   1009   5760
4   1085   6407   1555   5654
4   5410   4598   2898    434
4   2264   3148   3462   1344
4   1524   6167   6487   2771
4    224   3015    711   4955
4   1009   3354   5654   5760
4   2444   6651   5370   4263
4   4173   1865   6273   4174
4   2054   4855   3916   4691
4   3526   6804    275   5967
4   2099   2100   3563   6400
4   2070   4091   6402   1446
4   6802   6804   4806    411
4   4501   5465   4752    610
4   4752   3942   5060    316
4   2391   5937   5468   3061
4   5466    611   5467   3598
4   3944    610   4752   4614
4   2135   5298   2831   2832
4   2391   2441   2397   5937
4   2138   2395   2132   2421
4   2052   6537   3483   2812
4   3945   4501    610   5465
4   3945   4036   5465   2629
4   5038    751   2765     20
4   3943   5060   4752   3942
4    306   6392   5465    282
4   2256   6091   4012   4011
4   2706   3346   2773    764
4   2678   4955    711   3014
4   3035   6885   3885    670
4   3885   6885   3114   6705
4   3044    221   3043    528
4   6707   5792   5549   3115
4   3885   6885   3046   3114
4   6250   2375   6197   6251
4   2517   4451   3881   3634
4   2517   3634   6124   4451
4   1214   1208   3000   3791
4   3996   3934   4717   3937
4   1214   1221   2756   3602
4   1214   3000   1208   3002
4   1214   2756   1221   3001
4   3290    361   3292   6590
4   1500   4856   4883   5191
4   2744   2642   4717   3936
4   3937    661   5171   3935
4   3537   3284   3290    361
4   3937   4495   3935   4717
4    384   3465   5137   3501
4   4054   3466   4055   3465
4   1883   6486   3277   6484
4   1500   4883   1748   5191
4   2262   2908   1232   1484
4   6714   6890   3804   5946
4   4885   4856   1499   1500
4   2381   2282   4680   2281
4   5171    630   3231    381
4   1329   2279   2130   2284
4    669   4899    664   4964
4   2279   3239   4735   4043
4   3239   2279   2283   4420
4    395    268   5766   3413
4   2382   3075   2835   4746
4    430   5963   3608   3790
4   2256   2405   4011   4012
4   6421   6493   5580    293
4   3422    898   2995   5743
4   3023    268   3424   3802
4   5228   5254   4220   2601
4   5254   5231   2603   5228
4   5228   5254   5231    502
4   4768   5254   5231   2603
4   5743   2995   2951   3196
4   5800    465   4934   4693
4   6275   6137    279   5255
4   3185   5351   2248   1414
4   2480   4129   4427   2385
4   2207   2198   1394   2879
4   5800   5170   6107    722
4   2200   3168   2498   3256
4   3904   4254    408    681
4   1429   2246   1430   6535
4   2246   1429   2327   1414
4   2656   4749   3272   3115
4   1884   5666   4191   3278
4   2241   5351   1419   6535
4   2230   2235   2236   2486
4   2256   3185   1359   5351
4    768   6248   6078   2774
4   2229   2475   5514   3254
4   6078   4337   4369    289
4   4338   5553    228   6004
4   2419   2055   2052   2046
4   2402   2277   2401   2289
4   2289   5735   4073   6094
4    263    276   3054    260
4    286   4546   5657   4547
4   2289   3094   6094   4209
4   2289   6094   6093   6783
4   1307   2277   1358   1363
4   2232   2401   1354   1416
4   2430   2424   4847   2402
4    567   3693   4369    566
4   6248    231    266    761
4   2229   2228   2475   2230
4   2090   6045   4621   6796
4   2090   6044   6045   5898
4    751   3017   2765   2839
4   6803    360    411   4545
4   2239   2309   2506   2088
4   2516   4458   2517   3265
4   5490   2134   2648   2649
4   2148   2453   2039   6081
4   2449   5745   6654   5744
4   2041   2090   2474   6044
4   2183   2182   3730   2185
4   2090   3419   4923   5915
4   2415   2416   1301   6507
4   2134   2648   2531   2651
4   2051   5628   5627   5626
4   2364   5921   1251   5376
4   2034   3444   5905   3418
4   2261   6507   2415   2173
4   5866   5826   3444   2034
4   2437   4601   4273   2793
4   2136   2698   3385   5490
4   2310   6745   2313   6746
4   2310   6657   4517   4681
4   2186   1260   1413   1298
4   2071   5000   4045   5823
4   5196   4744   6004    729
4   4030   2758   5337    235
4   6827   2825   6666    733
4    733   6666    512    705
4   2825   5464    509   3381
4   2306   3890   4560   2613
4    535   5112   6129   5192
4   6591    354   3883   3537
4   5340    733    509   2825
4   3940    625   3010   4808
4   5476    658   5477   3882
4   2184   1302   4878   5508
4   3607   4348    535   4808
4   6352    485   6351   4964
4   1084   6185   3662    970
4    614   3940    625   3010
4   3537    354    361   6590
4    306   6392    282   4494
4   4685    512   6666   6581
4    535   4808   4348    625
4   4794    433   6297   6856
4   5112    625   4808    535
4    614   3010   3225   3940
4    372    388   4544   3745
4   5980    286    279   4546
4    286   4546    277    279
4   4934    465   4158   4693
4   5980   5657   6345    286
4    286   4547   5657   6345
4   5966    502    285    277
4   3793   3499   3498   3496
4   4196   2901   5311    454
4   6275   5966   4546    277
4   4947   5992   6742    291
4   5736   5494   6839   6864
4   5966    288   4547    286
4   5966   4547    288   5967
4   2828   3897    285    502
4    498    305    439   2912
4   6275    277   6137   4220
4   6585    737   3138   4930
4    452   6011   3653   4609
4   3521   6600   3520   3799
4   5966    277    286   4546
4   4272   5770   4641   4642
4   5522   5495   3952   4125
4   6376    568   5150    570
4   3575    484   4466   4946
4    286   5428    288   4547
4   2981   2369   2348   2980
4   2348   4475   2344   2981
4   2841    256   3161   3698
4   5196    228   6004   4338
4   2369   2981   5022   2980
4   2347   4734   3564   4917
4   6838   2457   2377   2803
4   4154   2526   6075   6418
4   4366   4365    601   3362
4   2266   2267   2263   2160
4    551   6191   6795   6705
4    232   4957   6525    711
4   3607   4808   3010   4348
4   4955    711   3014   4956
4   4207   5568   5720   4202
4   2937   3811   6562   3434
4   6860   3858    790   2410
4    362    315    470   3295
4   3010   3605    536   3225
4   4910    545   4775    532
4   2457   2980   4675   6399
4   2370   3812   2379   2376
4   6580   2763   5506    849
4   3010    625   4348   4808
4    539   2921   6562   6265
4   2136   3329   6454   2649
4   6878    543   5194   5796
4   6474   2043   2136   6454
4   2155   4447   4448   6474
4    614   3010    625   4348
4   2136   2697   5939   3385
4   2160   2266   2286   2263
4   2500   6475   5939   6769
4   4348   3605    536   3010
4   2937   3433   3605   4348
4   2474   5916   4204   3490
4   6296   5023   1839   3242
4    644   5221   4097   3492
4   3242   5768   6296   4074
4   4488   3245    345   4805
4   3465   5137   3501   5773
4   3964   4972    478   5620
4   5753    384   5695    685
4   6296   6334   4074   5768
4   2830   4929   5731   5732
4    384    672   3448    483
4   1823   3313   1824   5023
4   6296   3242   1839   6052
4   2493   6461   3612   2546
4   3908   6777   5609   3549
4   2833   2487   5004   2152
4    349   3530   4097   3528
4   4576   3025    668   3740
4   2487   5004   5893   2833
4    651   3528    349   5783
4   6290   5202   2152   2833
4    384   3501   6022   3500
4   5307   4201   3912   2068
4   2500   6387   6475   6769
4   2417   6350   6773   1302
4   2488   5505   4553   5091
4   6179    431    633   3828
4    539   3811   6265   6562
4   4423   2488   2492   6879
4   2500   6769   4629   5202
4   2160   1362   2263   1364
4   2327   5535   1403   5536
4   2157   5034   2071   6761
4    764   3346   2773    768
4   2071   4045   5000   4029
4   2438   3419   3251   4923
4   3013   5994   6785   3387
4   2160   2162   6443   1347
4   5710   5709    480   4933
4   2438   3251   6238   3250
4   2436   4797   2252   6237
4   2438   2632   2090   2789
4   3939   4519   3938   4199
4   2071   4029   4046   4045
4   2436   6237   2245   6238
4    898   3424   2995    268
4   2200   2198   1394   2207
4   2187   2184   1276   2186
4   3415   3327   4602   5643
4    640   5717   6575   5972
4    640   6575   5717    423
4   5832    266    770   3386
4    425   6179   3828    431
4    425   3671   6179   5418
4    425   3828   6179   3671
4   6605   5245    431   3828
4   6714   6231   6177   6890
4   5565   5960   6231   6889
4    638    633    431   5245
4   2841   3142    255   3162
4   2526   6068   6411   1382
4   5946   3557   6855   5164
4   2526   5157   6034   4457
4   2526   4154   6075   4457
4   6116    660   2791   2855
4   2456   2173   3541   4170
4   2530   5233   6418   3578
4   5975   4935   2864   5947
4   2415   5125   1288   6506
4   2504   3845   4743   6779
4   2530   6429   1283   1253
4   3654   4695   3653   6008
4   3653   6291   4695   3655
4    889   4694   5218   6588
4   1870    859   3017   2838
4    457   4158   4930   4934
4    676   3438   5961   5946
4   3674   6589   6009   6008
4   6008    889   6589   6588
4   4695   6291   4213   6293
4   4931   6588   6008   4697
4   3658   3659   5312    718
4   5565   2702   5842    480
4    450   5978   5124   3285
4   6177   6162   2683   3558
4   5068   5620   6883    631
4   3570   3557   3558   3804
4   3570    659   3558   3557
4   5970   3947    346   6313
4   5970    346    718   5957
4   5933   5978   5124   3675
4   5560   5795    278   5951
4   3658   5970    718   5957
4    437   5957   3658    718
4   5359   6367   6366    274
4   5970   6313   5933   6625
4   5913   5933    346   6313
4   2662   4277    586   2030
4   2662   2030    586   6159
4    328   3494    215   6602
4   5971    346   3948    718
4   5569   5565    480   6714
4   5912   6626   4966    721
4   4113    588   2662   6330
4    274   6366   5299   3039
4   5970   5933    346   5957
4   2093   3117   3591   2620
4   4336   3286   4705   3867
4   2033   4284   4639   2093
4   4256    598   5859   5173
4   3425   1758   5471   1828
4   2269   4340   1479   2757
4   2494   4430   4325   6567
4   4256   5156    328   5397
4   3522   4783   3889   5859
4   2270   1881   1833   3929
4   6567   5756   2494   4587
4   4430   4587   2272   5691
4   3602   1221   2754   1479
4    508    598   4783   3522
4    598   5570   5174   5774
4   5660    273   2673    585
4   3582   3534   5840    370
4   2754   2757   2007   2956
4   3373   2673   5660   2030
4   2673   4336   3286    273
4   4336   5660   2673   6346
4   2344   3848   2311   3849
4    307   6650   6843   5146
4   5982   6650    307   2684
4   3552   3433   6128   3607
4   2174   5935   4164   3771
4   2492   6879   1193   4423
4   2495   1454   1455   3920
4   2185   2320   2206   2322
4   6879   2488   2492   1647
4   4015   2525   1177   2362
4   1643   1552   1551   5850
4   2125   2610   5925   5917
4   1647   2488   6751   3032
4   4838   2521   2605   2322
4   2229   2380   2281   2226
4   1551   1061   4772   5850
4   6042   1552   4549   5507
4   5850   1552   1551   4549
4   2491   6877   5011   4112
4   2133   6652   5473   5472
4   2270   3173   2956   6326
4   2270   6327   2956   4994
4   2270   6326   6327   5270
4   3173   1881   2956   2007
4   2184   1276   4878   3191
4   2495   2489   1333   1455
4   5945   5163   5957   3675
4   2940   4020   5312   4928
4   2517   3923   4451   4458
4   5312   4020    449   4928
4   5312    449   3428   3659
4   5438   3336   5834   2202
4   4020   4021   4927    741
4    700   2701   6040   6127
4   2511   2193   2195   5451
4   4956    711   3014   6525
4   2529   1382   2511   2526
4   5681   3731   4215   1303
4   2198   2879   1297   4908
4   2511   1382   5451   1438
4   2940   5312   3659   4928
4   5836   6646   2202   6645
4   4020    449   4928    435
4   6275   6570    279   4546
4   5980    279   6570   4546
4   2053   6768   6061   6767
4   6262   3684   4148   5762
4   3685   1836   4148   4189
4   4189   4148   1793   1836
4   5379   4148   1793   4189
4   4148   1793   4551   5379
4   3299   5294   5542   3300
4   4405   4148   6262   1793
4   1843   3687   3510   3509
4   6262   1793   4148   1869
4   6262   1869   3684   5642
4   6488   5762   3684   5642
4    393   5089   3400   4122
4   2123   2419   2240   1396
4   5762   1868   5642   5380
4   3933   1849   6871   1853
4   1861   3242   3241   6871
4   4406   6488   3507   3561
4   3278   5666   6488   3277
4   3685   1836   4189   6119
4   2797   6671   1664   1666
4   2797   1664   1072   1666
4   2325   2961   4328   6234
4   2796   1239   6671   3805
4   2797   2917   1240   4978
4   1240   4978   1207   4830
4   2796   3000   4830   1208
4    449   3594   5959   6857
4    430   3496   3792   5963
4   6857   2582   4928    435
4   2161   3106   3911   4179
4   2146   5534   6489   6018
4    752   5313   4172   3103
4   2738   2923   5839   5730
4   2202   2521   2879   2207
4   5684   5540   1795   6119
4   1794   5684   1795   6119
4   2898    434   3664   2674
4   6142   5763   4157    650
4   6012   1814   5520   3855
4   3685   5684   1836   6119
4   3103   5403   4205   2674
4   4082   3404   2923   2738
4   3716   6339   3664   3717
4   2844   2867   2819   1856
4   1795   3550   5294   5540
4   1794   3687   3509   3300
4    775   3754   4236   4279
4   1794   3687   1871   3509
4   1794   3299   5294   1795
4   1795   5540   5294   6119
4   4439   2943   4161   5682
4   6600   6599    399    490
4   5630   5383   4969    769
4   5180    288   6804   5967
4   3328   5865    390   4486
4   2229   5734   3254   5514
4   4681   2310   2316   2271
4   6457   4472   6729    725
4   6600   2828   3897   3369
4   6600    399   3369   3897
4   5820   6389   4807   5821
4   6293   2736    887   4659
4    769   2748    773   4969
4   2488   1645   2576   6751
4    772   6394   4651   3824
4   5758   4817   3559   3560
4    636   5024   4784    635
4   4549   5760    849   1061
4   4549   1551   1061    849
4   4549   5506   5507   1552
4   6613   3493   6306   3660
4   4772   5850   1643   1551
4   5850   4772   1645   4555
4   2218   6325   5872   4188
4   2386   5884   5883   4844
4   2976   2178   2377   2434
4   2218   3632   4845   5872
4   5753   5755   3466    757
4   2343   6403   2560   2242
4   6305   2325   4053   4052
4   2343   2101   3092   2342
4   2511   2193   2529   4418
4   6687   6021    760    685
4   6687    760   3458   3432
4   3431   5818    462   4765
4   2325   6305   4053   3850
4   5328   3409   3740   3742
4   1394   2241   6535   2246
4   2247   5050   4153   6824
4   2097   2246   2206   2247
4   5249   4730   4115   4118
4    384   6022   5695   5177
4   3728   2480   4129   4427
4   4366    601   4365    599
4   4054   3465    384   3466
4   4365    599    596    236
4   5337    599   4365    236
4   4366   4548   5397   4381
4   4366    599   4365   5860
4   4761   3429    432   3691
4    355    515   4219   4357
4    422   4312   4311   3348
4   4896   6586   4912   4157
4   3274    287    336    592
4   3569   2903   3744    740
4   3698   5942   3161   4247
4   3659   3428   5956    449
4   4522   3869    692   4690
4   4248   4246   4247   5942
4   3468   3691    386   6174
4    337   4128   5802   4127
4   5798   5802   6572    337
4   5800   4693    722    465
4   3629   4068   4362   4222
4   2050   2514   2470   2040
4   2157   5034   4151   5140
4   5802    337   5798   5799
4   2385   6091   1403   4429
4   2417   4850   1442   4019
4   2243   6829   4415   3483
4   2187   6222   1260   1298
4   2050   2314   2303   2301
4   5710   5842   2703   2702
4   2351   2197   2204   2206
4   2281   3316   4680   4184
4   3630   2887   5491    339
4   2195   2205   1432   1297
4   3592   4068   3468   3629
4   3592    339   3630   5491
4   4416   2320   3892   6459
4   2417   1426   4019   6350
4   2480   3727   5906   3728
4   2405   4012   1330   4011
4   2477   2480   3091   4012
4   2519   5301   5930   5349
4   2351   3891   4308   4309
4   2382   4746   6491   6813
4   2195   2194   6501   2201
4   2514   2040   6081   2635
4   2405   1330   1332   4011
4    736   3318    405   3068
4    616    416   5586   4894
4    616    416   4117   5586
4   4757   3874    122   3873
4   6179   5972   6575   3828
4   4784   3828   6179    633
4   4349   3874   4825   4757
4   4962   4929    448   6587
4   4349   6301   4539   4526
4   4731   4658    406   4604
4   4912   6080   3548   6141
4   2319   6629   2472   6628
4    398   4721   3068   3318
4   5182   4731    715   4467
4    714    468   4467   5182
4   2179   2112   2115   2484
4   4859   3123   3565   1653
4   2292   5422   6416   5423
4   1431   2182   2186   4878
4   2389   6416   3053   5690
4   3958    556   4083   3957
4   6871   1853   6333   3933
4   4893    402   3712   4377
4   4883   2008   1670   1874
4   4444   4894   5590   4542
4   4881   1230   5723   2414
4   3242   4074   1873   6165
4   4335   1476   1475   1190
4   2410   2276   1102   2384
4   1654   3350   4321   4076
4   4542   4894   5590    795
4   2410    789   1640   2935
4   4035   1639   2410   2445
4   5346   4096   3706   3705
4   5089   5581   3178    393
4   2935   2410    790      0
4   1652   3024   1475   2715
4    788   2868   6860   6370
4    736    882   3318   3068
4   3341   4122   3932   3400
4   1805   3222   3221   4888
4   5087   5088   6295   1908
4   3166   5335    207   3611
4   4789   4902   4361    600
4   3707   4721   6632   3068
4   6632   3068   4721   3318
4   1379   2373   1272   1265
4   2373   1346   4740   1353
4   2373   1268   1379   3564
4   2373   4734   1268   3564
4   6643   1353   1268   1262
4   1268   1262   1259   3337
4   5321    603   6000   5322
4   2263   1362   2925   1364
4   2319   5210   4303   2487
4   4564    620    481    626
4   6874   5529    310    316
4   6887    542   2987   5048
4   6371   1010   3354   5654
4   3025    513    668   3740
4   6492   6635   6407   1085
4   1084   6371    534   3662
4   3715   5760   1061    849
4    534   6371   1010   3354
4   3354    534   6371   2986
4   5820   5821   4807   4286
4   2750   5760   3715    849
4   5182   4731   3178    715
4   5048    534   3354   2986
4    540    543   5083   5194
4    540   5194   6372   6878
4    539   6371   6186   3662
4    678   6397   4749   3298
4   5973    440   4115   4730
4    539   6371   3662    534
4   2249   2235   6536   6828
4   2251   3397   3258   4839
4    405   4117    416   4141
4   5864   5622   2694   4713
4    393   5581   3178    468
4   2256   1359   6091   4011
4   6091   3185   2385   1403
4    713   4894   4444   5586
4   2256   2226   2227   1458
4   2477   6534   2381   4688
4    750    683   6870   6685
4   2247   6824   5437   3169
4   2243   3483   2235   6828
4   2194   5242   2327   6753
4   2799   3860    631   2792
4   2804   4178    969   2025
4   2794   2025   2804   1745
4   4951    664    663   4899
4   1658   1656   1626   1486
4   1629   4176    923   1660
4   3596    626   3606    619
4   5952   6214   6219    624
4   4259   3581    324   6569
4   4564    481    625   5112
4   5480   3154   6060    501
4   3596   4195   3606    626
4   3431    683   3861   5065
4    501   3104   5794   3801
4    780   3197   5801   6107
4   3197   3196    780    778
4   5206   3541   4455   1375
4   5344   2504   2191   2193
4   6107   4661   2955   4536
4   5800   4693   6588   5801
4   2371   2515   6249   2328
4   2171   2172   2173   2261
4   4684   4226   4390   3537
4   2303   2301   2882   2306
4   2251   4255   5430   6574
4   2436   2863   3249   3357
4   2247   6824   4153   5267
4   2202   4060   5836   3336
4   1327   1324   5873   1321
4   2192   1435   3398   1271
4   2436   2680   5334   2863
4   2184   1424   1428   4133
4   2117   4134   4250   5819
4   2117   5475   4102   6426
4   2319   5210   2487   5009
4   2504   6787   3562   3845
4   2250   2436   6473   3249
4   2309   4258   3726   4831
4   2088   2089   2222   2435
4   2435   6533   3269   2222
4   2172   2265   2171   4442
4   3536   2181   5104   5101
4   2197   6663   3060   3488
4   2506   6523   6184   6026
4   3074   6054   5685    796
4   2144   2128   2145   5319
4   2086   6452   3648   3910
4   4262   2087   2573   3851
4   2181   3113   6355   5062
4   1474   1178    923   3132
4   1188   1475   1073   1750
4    859   2837   3017   2846
4   1237   1089   1750   1657
4   1073   1657   1188   1750
4   1874   1873   1824   4883
4    859   2837   1870   3017
4   1476   4585   1188   1160
4   2280   1395   2548   1252
4   3274   4975    336   4010
4   4859   4586   4413   4583
4   2193   5450   5447   6361
4   2576   1643   5850   5545
4   2405   1326   3317   1423
4   3468    386   3691    432
4   2488   2492   2490   4423
4   2084   1390   2600   1334
4   2411   1642   4152   1173
4   4761   3691   4953   3429
4   2432   3478   6547   3214
4   2332   3718   6183   4580
4   2047   2050   2049   2306
4   2465   2562   5694   4663
4   2434   4267   5940   6150
4    785   5700   5507   6245
4   2331   6151   3479   5333
4   6244   2576   5545   1643
4   5506   1551   1552   4549
4   3492    644   3530   4097
4   3320    687   5435    745
4   2331   3479   6183   5333
4   2442   2151   4261   2393
4   6376   5150   6554    570
4   5343    455   4657   2850
4   5711   4085    752   6577
4   6376   6289    568   4786
4   3900   3939   4519   3829
4   4551   5379   1810   3856
4   2420   1439   2240   2419
4   1449   2233   1448   2420
4   5491   6036    339   2888
4   3504   2417   2780   1399
4   2417   5689   2858   1425
4   2233   2235   2243   2296
4   2486   4143   2236   2230
4   2243   6828   3617   6829
4   4406   1826   3538   6631
4   2097   2355   4745   3393
4   2235   3395   4414   4872
4   1830   4528   2861   6552
4   4288   4287   2425   2228
4   2086   3910   3106   2615
4   2813   6564   6375   1789
4   3705   1805   5346   3221
4   5134   1875   5132   6087
4   6029   6529   2239   6434
4   2306   2293   4813   4816
4   4858   2458   4399   2430
4   2160   1347   6443   1364
4   6505   6356   5678   1464
4   2166   1743   6614   1878
4   2215   2113   2109   3822
4   2162   1347   1357   6443
4   2165   3972   2216   2143
4   3170   2293   2098   4924
4   2100   3563   3650   3365
4   2421   2314   2467   2186
4   2153   2041   2319   2472
4   6113   1434   2834   2213
4   4813   2299   2882   3170
4   2484   6065   3837   2485
4   5353   2484   6065   3837
4   2172   4637   5014   5012
4   5132   1875   6047   5015
4   1876   5015   1875   1821
4   3752   2485   1201   5264
4   3752   2481   2993   2485
4   5724   4061   1201   1202
4   2485   1201   5724   3752
4   5264   1201   4941   4061
4   3752   2485   2585   5724
4   3401   4142    397   3402
4    376    382    351   4683
4   4852   1856   2867   1851
4   3720    708   6578    681
4   6386   6385    374   3720
4   3720   6316   6384    708
4   4088   4479   6845   3770
4   5936   1809   5020   6299
4   2776   1876   5015   6047
4   5582   4022   3403   5581
4   6299   5021   6618   1841
4   5021   5276   1822   6617
4   2755   2007   3455   3003
4   6047   1876   5015   1875
4   1861   6632   6871   3241
4   5590    713   4894   4444
4   3041   6298   1800   3817
4   5936   1809   1959   5463
4   1820   5121   4428   4538
4   5276   5121   1878   6617
4   4485    661   5361    345
4   2071   5386   5037   5140
4   5621   5864   5622   2694
4   2758   3358    235   4305
4   2306   2293   4816   4412
4   2075   5830   3436   6079
4   5826   2437   2034   5866
4   3599   3600   5826   2437
4   3775   2117   3283   4250
4   2071   5140   5141   5034
4   4411   2306   2291   6208
4   5337    236   4365   5336
4   4347   6826    514   4433
4   6518   4800   4338   5553
4   5554   4800   6518   5553
4   6871   6333   1839   3242
4   6482   6871   6333   1839
4   3242   5023   1839   1873
4   2526   2530   6418   2877
4   6052   5768   6296   3242
4   3242   1839   6052   6333
4   1861   1873   3242   1839
4   2195   1438   2624   5835
4   5590    713   4444   4007
4   2529   2526   6455   2877
4   2050   2291   2293   2306
4   6376    570   4753   4788
4   5707   4525   5706    582
4   6033   4317   6863   3601
4   4227   5706   4525   2714
4    568   6376   5150   6289
4   6289   5687   6601    341
4   4170   2415   5005   2456
4    595    628   4360   3989
4    595   3989   5810   5483
4   5846    595   5483   3989
4    595    628   3989    597
4   5810    595   4361   3989
4   5710   4933   5947   5709
4    675   5115    389   6122
4   4466   3907    484   3575
4    675    359   5115   6122
4   2759    637   5615   3450
4   5178   2759   5085   5767
4   2759   5245   5615    637
4    675    359   6561    357
4    357    359   6542   5968
4   2066   5127   4005   4617
4   2069   5032   5652   4044
4   3908   3863   3909   3549
4   2302   4417   3892   2305
4   4466   4946   5055   3575
4   6799   4911   4298   2042
4   2513   6797   4925   6074
4   2426   2539   2536   2483
4    731   5968    338   3701
4    359   6122   6561   6542
4   1842   1813   5520   1814
4   2051   3962   5627   5628
4   2042   2312   4450   5305
4   1872   2705   6627   1851
4   2085   1325   5921   2633
4   2524   3207   5981   5714
4   2844   1856   1859   2867
4   2866   1851   2867   2865
4   2500   5004   5202   4629
4   2137   2625   6744   4732
4   6175   2067   4566   3763
4   1887   1851   2866   2865
4   2137   4732   6744   6478
4   2038   3960   3311   5305
4   2819   1856   2867   4852
4   3631   3429   2583   3127
4   3631   4761   3429   3208
4   2381   6491   4688   5368
4   2385   5350   6206   3710
4   4761   4953   3691   6174
4   2907   3643   1244   3267
4   3430   2583   5310   4954
4   3208   3127    432   3429
4   5705   2071   3810   2157
4   2094   5903   5902   4239
4   2523   6124   2597   3776
4   2094   5901   3589   3122
4   2092   3546   5028   5896
4   3753   3668    316   5060
4   2194   6753   2121   2122
4   2380   2229   2230   2225
4    282    323   5529    316
4   6215   5996   6672    607
4   2475   2230   4453   4139
4   2381   5485   2691   5368
4   4615   3753   4574   4720
4   2753   3774   5567    606
4   3154   6060   4614   3018
4    628   5570   3987   3988
4    628   3988   5607   5570
4   2755   6167   2754   3003
4    628   3988   3989    597
4   2408   6715   1192   1215
4   2095   2050   2291   2293
4   3796   2903   2749   3792
4    628   3987   3990   4360
4    628    597   5607   3988
4   6365   5607   4662   5356
4   2141   3105   4064   3152
4   2275   2272   5692   2431
4   2165   6227   6228   4064
4   2431   6716   5405   3846
4   5761    540   6372   6878
4   2953   5290   2954   1819
4   2184   4878   1276   2186
4   2461   5612   1465   5611
4   2417   2780   3190   3504
4   2206   2302   2188   2299
4   2310   6741   6740   2608
4   2188   2271   2608   4355
4    656    454   2886   2887
4   2461   4513   5612   4051
4   4513   2315   4047   4514
4   2315   1406   3781   4238
4   5736   5494    742   6839
4   2381   6694   5368   4688
4   2346   1272   2373   5240
4   2194   1429   1436   2427
4   5216    924   2894   1473
4   2431   2345   2212   2308
4   2381   5368   6694   5485
4   2306   2293   4412   2291
4   3792   3796   6609   2749
4   2494   2209   2212   2408
4   2525   2564   2492   2565
4   2323   2208   2168   4327
4   5491   3744   3569   2886
4   2198   2200   1430   1429
4   6491   2381   4688   2835
4   2515   6123   2353   6205
4   3906   2230   2380   2475
4   2370   2369   3641   5053
4   2197   3060   6663   6459
4   2195   5093   6501   5092
4   6154   3415   3819   3327
4    447   4762   3630    656
4   3908   6778   6777   3549
4   3875   4461   6568    219
4    587   4277    586   6330
4   4928   2582   4927   4021
4   4227   5706   3870   5711
4   6857   3659    449   4928
4   6857   5166   2874   3593
4   4350    327   3381   5708
4   5982   2684   4835   6650
4   5464    327   3381   4350
4   5081   2941   5574   2767
4   4350   5464   6383   3381
4   3286   6320   3324   3635
4   4408   3464   3855   3737
4   5708   6811   4350    327
4   3866   6320   3938   4520
4   4709    295   3240   3526
4   6345   3803    585   5428
4   4350    368   6811   2857
4   4350   6811   4935   2857
4   3900   4519   4199   3899
4   2338   4727   4729   2640
4   4641   5522   5495   6788
4    253   3324   4520   6320
4   2331   2214   2432   3478
4   4496   2337   2493   2358
4   6562   2921   3434   5195
4   2330   4155   5651   3718
4   2525   3771   2711   6749
4   2335   2220   1263   2334
4   2220   2334   2335   2333
4   5545   4919   6244   1552
4   2406   6462   6153   5320
4   1085   6407   5654   6635
4   1009   1555   3715   5760
4   4979   4977   1667   4978
4   1541   4977   4979   4980
4   2797   2917   1664   1240
4   2495   4152   1222   1454
4   2796   2797   1240   4978
4   3875    219   6568    223
4   4978   2917   1667   2797
4   2411   6370   6860   3667
4   2173   6494   6349   4156
4   1668   4978   2917   1667
4   1541   4980   4979   1072
4   1072   4979   2797   2934
4   2166   2929   1681   1481
4   2095   5627   3962   2554
4   2098   4932   4924   3963
4   1644   5504   4555   6407
4   5850   2576   4772   1643
4   4327   2208   5374   2323
4   5120   2689   4538   1820
4   1061   4549   5850   1551
4   2333   4120   5858   4727
4   6051   2689   4538   4537
4   2319   6630   6391   5210
4   4325   1879   2494   1837
4   2520   5008   2811   5009
4   6543   3476   3451   2357
4   5041   2566   2337   6134
4   3163   4464   3162    271
4   5649   4672   5578   1815
4   2270   3192   2590   4994
4   2472   4295   4627   6629
4   5009   2319   6629   3621
4   2080   5445   5414   5446
4   6771   2319   4303   2152
4   3464   1814   3737   1797
4   4695   4214    887   6293
4   3215   4731   4603    717
4   2901   5311    454   2886
4   5518   2867   2844   1859
4   6010    418   6291   4609
4    400   5973    440   4007
4    393   3403   5581    468
4   5643   6294   5587   5579
4   4122   5089   3400   3341
4   4115    440   4122   4730
4   4931   4697   4158   6588
4   1873   6165   4883   1874
4   4931   3653   6008   3674
4   3904    270    374    681
4    708   5352   5209   5213
4   6316   6384    708   5209
4   6316   5352    708    350
4   5339   6810   3135   4686
4    351   4683    382   3544
4   4958   4375   6882    247
4   4087    247   6844   4958
4   5588   4467   5182    714
4   4087   4479    247   5528
4   3770    265   4086   4479
4   3242   5768   6333   6052
4    400   4541   5973   5731
4   4088    408   4628   4252
4   2309   5364   4258   4831
4   2475   4453   3978   4532
4   2538   2365   2536   2483
4   3720    708   6384   6578
4   2365   2426   2536   2483
4   2450   3062   5749   4263
4   2330   5651   4678   3718
4   4254   4252    408    237
4    469   2726    470   2871
4   6126    265   4479   5528
4   5843   6721   3807   4017
4   2460   5672   4858   5007
4   2156   6723   6447   6724
4   3980   3993   2471   3894
4   2139   2142   1209   4028
4   2403   2458   2460   2267
4   1449   2240   1401   1400
4   2513   6797   6074   5854
4   2075   5804   5001   5823
4   2437   5027   4601   2793
4   2119   4137   6692   6693
4   4137   6693   2119   2230
4   2782   2118   2425   2693
4   2041   2034   6043   6479
4    656   2887   2886   4762
4   2093   4639   5900   3590
4   2065   3831   3832   6674
4   2467   2187   1260   2186
4   2231   2105   2594   4027
4   2499   3977   2228   3978
4   2319   2487   2520   5009
4   2473   2436   6473   2250
4   3831   2075   2068   2065
4   5778   3788   1197   2216
4   5155   5559   6232   3797
4   4256    278   5155   5859
4   2093   3591   3590   5900
4   2216   3788   1197   2045
4   2045   2139   2216   3788
4   2856   3281   2910   2857
4   4968    364    332   4999
4   2076   2031   2048   2071
4   2415   2172   2413   2416
4   4937   3439   3440   3205
4   2415   2416   5136   1301
4   3274    287    592    300
4   5590   4311   5731   5577
4   5590   5731   4007   5577
4   5402   2953   5077   5543
4   5640   6172   2952   2695
4   4078   1795   3550   5542
4   5291   5542   4078   3550
4   5290   2954   1819   4815
4   3274    336   4976    419
4   5260   5262    783   4876
4   4010   5763   5442    612
4   3274    336   4975   4976
4   2294    300   4157    287
4   4010   5442   6664    612
4    319   2606   5442   4764
4   5332   1391   6780   1159
4   2273   2211   3192   5406
4   2481   2593   2732   2993
4   2177   2178   2434   2435
4   2390   5871   6673   3062
4   3512    612   4010   6664
4   6262   1868   5762   6003
4   5442    409   5763   2295
4   1794   1871   1796   4190
4   1861   3241   1860   6632
4   1802   3704   6871   6632
4   1857   1849   6871   4459
4   3635   3286   4393   3324
4   3105   2143   2165   4072
4   4529   6670   5250   4530
4   3875   4463   6568   4461
4   3875    220   3206   3141
4   3875   3874    223   6568
4   4349   4597   4523   6301
4   4349   4825   3874   4540
4   3705   4722   3707   4096
4   3129   4828   4756   3101
4    405   3318    398   3068
4    416   3932   4141    440
4   1186   4585   4583   3565
4   3129    262   3016   3873
4   4828    223   3873    122
4   6200   6294   6089   5579
4   5089   4115   4122   3800
4    262    223    219   3875
4   3403   3402   6743    335
4   3270   4463   3874   4540
4   3875   3874   6568   4463
4   2485   2464   4023   2481
4   2379   6439   3967   3641
4   3174   3456   6324   4191
4   2370   3812   4103   5053
4   3766   2737   3404   6024
4   2737   3404   2738   2923
4   1209   4832   2932   3787
4   2007   3195   3455   3173
4   2923   3766   2737   3404
4    402   6031   3679    372
4   3958   3404   3765    706
4   6031   3404   3766   3765
4   5575   4608    418   4890
4    402   3679   3712   6283
4   4082   2738    706   3404
4   3713   6024   6025   3766
4   3907   3055   3575   3356
4   2117   4134   5475   4249
4   2117   3750   5629   6758
4   6196   4594   3856   1871
4   2117   6426   4102   4284
4   2117   6235   6758   6831
4   2437   6832   5629   3626
4   2047   4666   4667   6218
4   2437   3627   3624   2700
4   2437   3599   4037   2793
4   2437   4046   6280   4114
4   2035   2037   2507   2036
4   3788   2139   2216   5778
4   2434   6698   4865   5940
4   2421   2313   2314   2189
4   2044   4004   4003   4006
4   2186   1413   6117   1298
4   2216   3971   2944   2139
4   2234   1418   1421   1417
4   2916   2915   2376   4410
4   2369   3640   4901   3642
4   4714   1196   1197   5782
4   2178   4664   2219   2559
4   2048   5099   4669   5388
4   4863   2216   3971   2944
4   2335   1308   1263   1270
4   5031   2075   2048   5128
4   2216   4715   5778   2944
4   2275   6559   4671   6558
4   2178   6414   4665   2056
4   2485   6065   3203   4071
4   2269   1517   1501   5456
4   2370   2376   2178   4664
4   5235   2025   2804    969
4   2482   3410   2916   4410
4   2370   5897   2559   6556
4   5593   6278   5594   6596
4    399   6599   5965    490
4    288   5967   4547   5428
4   6802   6807    411   4806
4   4406   2014   3538   1826
4   4719   2501   2216   6342
4   3539   3507   6484   2014
4   2373   1353   6643   1346
4   6248    231    761    768
4   2621   6493    541    294
4   2364   5921   2085   1251
4   2345   3441   2307   4619
4   2160   2264   2159   2267
4   2287   3813   4857   3815
4   2126   1335   3149   2925
4   1345   2399   3462   1362
4   2156   6522   6724   6447
4   5560   5795   6366   3508
4   5367   2159   2161   2615
4   2164   3814   4206   4582
4   5641   4174   3970   4173
4   2399   1345   3462   3095
4   1555   1061   4550   4555
4   2324   2213   2102   2100
4    453   4543   5057    414
4   6867    234    696   5151
4    248   4737   6213    385
4   2325   2324   4052   6305
4   3047   5862   5699    394
4   6554   5862   5576    463
4   4760    561   5699   3717
4   4803   5576    463   6554
4   2208   2343   2809   3441
4   2149   2148   2136   2152
4   2152   2148   2153   2149
4   2431   5019   5692   6716
4   5057    414   4543   6817
4   5220    694   6750   6318
4   3296    470   2726   2856
4   4753    463   6368    570
4   2871   6764   2856    470
4   2871   2856   6764   2910
4    469   4212   2726   2871
4   4700   4701    594    596
4   5810   6329   6843   6180
4    272   6732    205   4558
4   5810   6843    218   6180
4    469    709   6125   2728
4    589   4520    253   3323
4   6867   5151   6566    234
4   4248   4247   4723   5203
4   3408   3033   5203    307
4   6272    691   5066    218
4   6520   3323    530   3021
4   2498   5907   3310   3184
4   5069   2764    591    691
4    328   4548   6602   4381
4   2248   6640   2498   3310
4   2385   4429   2353   6205
4   2327   6753   2433   5727
4   2385   3184   6640   3710
4   3539   1238   6485   3805
4   4700   5555   3139   4795
4    714   5182   5582    468
4   2856    470   2726   2871
4    773   4970   4807   6389
4   4212   6384    707    709
4   5588   5589    714   5582
4   5760   1555   3715   1061
4   6486   2771   6487   6485
4   4549   6042   5850   1552
4   1078   2276   1086   2300
4   3597   3085    618   3587
4   3519   5561    303   3657
4   3755   3754   3925   6000
4    611   5465   3945    610
4   6664   5072   2300    749
4   5529   3668   6393    282
4   3328   4651    772   6395
4   2276   4197    748   5674
4   2753   2994   5567   3774
4   4615    316   4752   5060
4   3622    774   4807   6395
4   6395   6826   3328   6314
4   2630   5466   5788   3598
4    747   3332   5674   2606
4     66    749   3332   4764
4   5790   2724   6351   2636
4    898   3802   3422   3424
4   5743   3422    898   3420
4   5743   2951   2955   3196
4   4646   2951   4221   3234
4   2951   3234   4646   2995
4   3925   4236   6000   3754
4   5321    603   4026   5820
4   3470   4661    356   3469
4   5321   4286   5820   4026
4   3470    356   2955   2951
4   3470   2955    356   4661
4   3520   4299   6599    734
4   6056   4268   4193   4269
4   5743    898   2995   3196
4   4599   3700    331   2719
4   3965   5477   2881   3437
4   3965   3514   5165   2881
4   3517   3514   3965   2881
4   3603   2881   3965   5477
4   6107   3197   2955    780
4    314   6833   3520    734
4    658   3516   2881   3437
4    658   5477   3882   3437
4   6591   5476   3883   5340
4   6591    354   5340   3883
4    582   4525   4787    568
4    734   5075    314   6833
4   2436   2863   2533   4503
4   6833    734   5075    330
4   3959    322   5886   3930
4   5965   4299   3130    734
4   2034   5826   6830   2117
4   2437   5827   3357   5822
4   2437   2700   6280   3627
4   2437   5827   5822   5828
4   5572   3746   5965   5176
4   2437   4046   6279   6280
4   5280   5075   6598   5281
4   2436   6762   5141   5037
4   6709    738   6483   6708
4   5152    248   4737   6318
4   6270   4939   4460    240
4   2436   2680   6237   5334
4    721   6817   5057   3524
4   3555   2677   3375   3471
4   6525   5943    232   6701
4   2437   5827   5828   3625
4   2831   5298   2135   2649
4   2135   4223   5298   2832
4    589   3868   3899   3323
4   2136   6454   3329   6475
4   4382   3375   3556    730
4   4030    236   5337   5336
4   2513   5852   6074   2832
4   5458   2069   2048   4203
4   2492   2576   5850   5545
4   6322   4568    242    230
4   5911    218   3447   6271
4   3938   4520   3899   4519
4   2716   3409   2717   3742
4   6172   1764   4674   6667
4    647    654   5046   2717
4    513    668   3740   3742
4   2213   1281   2963   1453
4   3173   1833   6326   2270
4   2269   1192   1501   1517
4   2667   2666   5544   2665
4   2494   4424   1671   2323
4   2431   2344   2407   2212
4   3356   3907   5635   5633
4    647   2717   2716   4648
4   5529    323   4654    310
4   6865    466   3795   3790
4   4082   3404    706   3765
4   6410    654   2717   5046
4   6436   5764   3459   3034
4   3539   2014   6737   3325
4   2268   3722   3721   3723
4   3100   2918   2268   3921
4   2276   4738   1575   5439
4   2508   3267   3097   3880
4   2329   4728   5858   2599
4   4599    357   2719    331
4    366   5495   4125   3321
4   5979   5512   4274    496
4   5389   5392    740   6608
4   2259   5455   5162   2360
4   2885    499   5954   3230
4   6585    373   3794   5049
4   2259   4302   5455   2360
4   6166   3806    211   5908
4   2259   5162   5678   2455
4   6422    503    502   5231
4   5964   6608   3744    740
4   5162   3081   2455   2259
4   2259   5113   2078   4441
4   2523   2597   3721   4160
4   1185   1367   1407   2455
4   2259   5113   4441   2360
4   2519   5930   4510   6205
4   2259   4441   4302   2360
4   2516   4001   2479   2979
4   2515   2353   6123   5098
4   2527   3922   3835   4235
4   2259   5454   6311   5678
4   6356   6497   5678   1464
4   2523   5530   2597   4160
4   2259   6311   5454   1368
4   2259   2171   2077   5113
4   2479   2836   4290   2890
4   6357   2171   2173   2455
4   2516   4827   3924   4458
4   2485   2585   3203   3752
4   2485   3203   2585   4071
4   2523   2597   5530   3776
4   2485   2481   2593   3837
4   6398    282   6393   6392
4   5945   5163   3676   2940
4   3440   5204   6169    677
4    344    326   5709    702
4   3872   2763   3871   4921
4   3142    243    257    255
4   6502   4140   5549   6707
4    702    703   6230   3438
4    344    703    702   3438
4   2525   2564   1646   1177
4    702   3516    327   6230
4    702   6230    703   3516
4   2659   6504   2658   4015
4   3785   6155   4832   3787
4   2147   3666   2140   1482
4   3882    327   3516   6230
4    937   5701    935   5434
4   5857    488    421   3839
4   6182   6157   6725   5844
4   4081   6722   3069   6460
4   6517   5860   4381   6602
4   5857   6517   3839    421
4   4710   4828    262   3129
4    745   4231   6315   3069
4   6303   3472   1595   1471
4    259   4017   4498    258
4   3692   6319   4572    412
4   6302   3358   4304    242
4   5147    463   4803   6281
4   4366    601    599   4381
4   6460   6315   6721   6722
4   6627   1838   5645   1834
4   6627   2705   5645   2867
4   5337   3358    599    235
4   5337   5860    599   3358
4   4366   4548   3362   5397
4   4572   2734    289    412
4   6517    421   6602   4381
4   6302    421   6517   4381
4   6302   6517    421   6842
4   4030   4338   2758    228
4   1794   4190   3509   1871
4   1178   1629    923   3132
4   2681    798   1885   2861
4   5638   2767   2861     98
4   4294   2338   2330   4728
4   2072   3220    943   1662
4   4406   3507   1826   3561
4   2525   4920   1470   6244
4   2439   2543   2542   3247
4   5069   5066    691    218
4    690   5433   5432   6480
4   3077   5197    594   4701
4   3991   4360   4938   4361
4   2361   2082   5894   5922
4   2493   6873   3612   6132
4    596   4701   2964   4365
4   5069   6180    218    591
4   2338   4727   5858   4729
4   2333   5158   4119   4727
4    209   5602   5603   4557
4   2329   5416   2599   5858
4   2354   1263   3782   1267
4   5040   2976   6698   2434
4   2858   2417   1442   3503
4   2318   5525   6260   4302
4   2464   2484   2112   2376
4   2325   4328   3850   6405
4   3128    406   4467    403
4   2208   2345   2212   2210
4   2260   1376   1433   6030
4   1367   2261   2455   1185
4   3431    683   6870    462
4   2259   5113   2077   2078
4   2213   1204   1453   2963
4   2260   1376   1367   1407
4   4910   6332   6881   6331
4   3956   4618   4915   6595
4   3109   5801   5170   3108
4   4775   4910    532   4570
4   4753    570   6554    463
4   4753    727   4788    570
4   6376    570   6554   4753
4   1214   3001   1221   2771
4   1214   3001   3002   2756
4   1862   3464   3855   3511
4   3377   6893   3676   5341
4   3464   1811   1797   3737
4   5519   4407   4408   6437
4   1866   4407   5519   6437
4   3464   3855   1814   1862
4   3589   2093   2094   6427
4   1811   6196   3856   1871
4   2500   6769   5202   6290
4   2139   2142   4028   1451
4   1871   1797   1811   6196
4   4551   1811   3856   1810
4   2094   4239   5902   2033
4   4405   4551   4407   6003
4   2437   2436   5482   2071
4   2093   2033   6427   4639
4   5969   6122    359   6542
4   4284   2117   2093   2033
4   5263   3417   2772   1207
4   4272   4394   5955   2899
4   2139   2045   2216   2919
4   6484   3507   3539   3277
4    675   6122   6561    359
4   2719    357   6542   5968
4    333   3701    731    338
4   4219   4357   3036    355
4   2332   2357   2406   2079
4   5453   1467   6727   1373
4   4961   2204   2197   2196
4   6090   5712   2466   3495
4   2462   2802   6745   2451
4   6571    410    353   6309
4   2313   6740   4105   6660
4   2079   2330   2332   2337
4   2827   4945    348   3470
4   4790    291   5992   3235
4   5825    770   5832    291
4   5825   6538   6781   5832
4   5825   3386   6538   5832
4   4092   2422   4049   3147
4   5825   5832   6781   6321
4   2184   1427   1302   5508
4   5825   6321   6742    291
4    752    706   5313   2738
4   2134   2618   2651   2531
4   2137   4733   5107   4732
4   2421   2392   2186   1413
4   6010   6011   4609   4695
4   2063   4841   5272   4837
4   2264   3148   1344   3269
4   2084   2085   2633   1325
4   4280   2087   4278   4100
4   3653   3655   6009   3674
4   4213   4695   4890   6291
4   3094   2228   4287   4209
4   1396   2419   2240   1439
4   2152   5004   2149   2487
4   3592   5491   6036    339
4   2156   6723   6719   6447
4   2264   1344   3005   1361
4   2079   2334   2084   2089
4   5933   5957   6625   5978
4    380   4068   4222   4359
4   2460   5007   2589   2588
4   4222   4068   4362   6114
4   4222   4359   6114    347
4   2349   2338   2334   2079
4   2084   2089   2600   1390
4   4222   4359   4357   2966
4   2094   2685   3122   3589
4   2093   5901   5900   3589
4   2092   5901   2093   2094
4   2291   4412   2733   2612
4   4216   2437   2790   4798
4   2098   3961   3390   2114
4   4873   2687   6208   2306
4    652   4126    337   4127
4    652   4358   4127   6572
4   4126    641   6127   2703
4   2075   6079   3436   4438
4   4128   5802   3583   5799
4   5565   4126   5960   5842
4   2466   4224   3454   6744
4   2182   1287   4878   4877
4   2084   2334   2085   1325
4   6211   4242   1668   2668
4    652    337   6572   4127
4   5565   6889   5569   5842
4   5710   5709   5961    480
4   2463   1203   3602   1479
4   2492   2174   2490   4423
4   2931   5216   2930   1127
4   2175   4515   5658   4271
4   4127   6718   5802   6572
4   5396    593    594   5197
4   3538   2014   3325   3183
4   3991   5396   4938   3990
4   2492   2565   2564   1647
4   3990   5774   2965   3987
4    628   5570   3990   3987
4   3035   3884   3885   4750
4   3044   3045   6707   3043
4   2488   1222   2396   1223
4   5570   5174   5774   3987
4    598   5174   5570   4783
4    628   3988   3987   4360
4   2381   5368   4184   6491
4   6365    597   5607   5356
4   2527   3881   3835   3634
4   1245   2761   1391   5071
4   5398   5774    598   5174
4   5570   3988   4783   3987
4    508   5570   5607   4783
4   2268   3722   3100   3880
4   3066   3647   3325   3182
4   5080   4819   6437   6001
4   1524   6486   6487   3194
4   4885   3123   1236   3565
4   3344   6204   4597    575
4   3343   5574   5424    579
4   4780   4386    560   5557
4   2414   4829   3246   6696
4    692   4779    686   5557
4   1813   3463   3028   2999
4   4687   3899   3900   4199
4   2741   1814   1813   1812
4    365   3459   4707   3986
4   4522   5557   4386   4779
4   4522   5557   4779    692
4   4780   5557    559   4386
4    686   4779   4245    222
4   5519   1801   4408   4407
4   3411   4780   4386    560
4    355   3036   2966   4357
4   2722   4818   3511   2813
4   3854   2998   5520   1813
4   1866   6003   1868   4405
4   4641   4394   6788   5955
4   6856   6446   4274    496
4   4819   6437   6001   1866
4   4705   3527   3867   4704
4    320   6309   4218   6718
4   3497   4196   2901   3551
4   3748   6718    366   4125
4   4818   3511   2813   6564
4   5790   5783   5058   5786
4    310   6874   4654   5529
4   6571   3748   6309    353
4    355   4357   2966   4222
4   1323   1415   2279   1329
4   2491   2278   2730   1415
4   5533   3279   4771   1333
4   2284   2821   1329   1415
4    310   4654   6874   5783
4   3030   2491   4376   2284
4   2323   2960   3852   4326
4    661   5171   3935   5361
4   4424   2323   2494   1219
4   3539   6486   3370   6484
4   2209   5240   3442   2786
4   2209   6713   4183   1278
4   4259   3783   3741   5682
4    349   4097   4652   3528
4   4576    668   3025   6398
4   5413    434   5410   2898
4    445   4354   5404   4351
4   6339   2674   3664   4205
4   2209   4183   1204   2963
4   2323   4326   5374   4327
4   2722   4818   1789   6020
4    442   2898   2674    434
4   6019   2813   6375   1789
4   5518   6020   1859   4818
4   5656   6486   3371   3194
4   5082   4173   5861   1864
4    379   5730   2738   5839
4   6339   2898   3664   2674
4   6339   4205   5403   2674
4   6020   1859   1851   2867
4   5518   1859   6020   2867
4    615   3941   5114    614
4    532   5606   4569    531
4   6012   1862   3855   3511
4   1856   1851   1859   2867
4   3464   3737   1814   3855
4   1872   2705   1851   2865
4   6275   6570   5255    279
4   2601   6137   5255   5254
4   6570   5255    279   5256
4    216   5338   4086    270
4   5275   3289    525   4202
4   3308    699   5255   5256
4   6275   5255   3308   2601
4   1842   2844   6012   5520
4   2787    699   2788   3306
4    288   5967    275   6804
4   3308   6570   5256   5255
4   6137   4220    502   5254
4   5228    502   4220   5254
4   3736   2741   1797   3737
4   1813   1812   3463   2741
4   4768   2603   3306   2788
4   1214   3002   3001   3000
4   2347   4734   4917   6466
4   5342    720   3676   5343
4   2484   3837   3836   2482
4   2457   5423   6513   6838
4   2386   6508   2574   5995
4   2457   4675   6513   2326
4   2398   2199   1266   1388
4   2466   4106   6744   6088
4   3093   3061   2441   1381
4   2169   4996   4995   2762
4   2209   2408   2407   2212
4   2441   1270   2387   1273
4   5353   2484   3837   3836
4   3831   2065   2068   4201
4   2398   1270   1273   1388
4   2319   4502   5673   6752
4   2218   4845   4844   5883
4   2079   2080   2358   2357
4   2361   5881   5922   5894
4   2398   2199   3338   1266
4   3539   2014   3325   3538
4   2457   2326   5690   2575
4   2061   6853   4613   6682
4   5118   3101    782   5262
4   5564   5480   5114   3941
4   4977   4242   2668   1667
4   2508   2785   1411   2761
4   2268   2384   2918   3634
4   3156   3155    143   5117
4   1541   2967   4980   3155
4   5055   6561    675   6122
4   3907   3575   5633   3356
4    372   3957   4544    388
4   1865   1830   6273   6553
4   1866   4407   6001   6003
4   6339   2674   5403   2898
4   4978   1242   1207   3747
4   1236   1653   4862   4318
4   4856   1231   2948   5191
4   4584   1235   5726   4323
4   4883   1500   1499   4856
4   1842   3767   3027   2844
4   2314   6823   5712   4518
4   3958    706   3765   4083
4   2466   5981   6221   5714
4   6298   3817   3041   3120
4   3716   3664   6339   2898
4   2306   2299   2882   4813
4   6627   2867   5645   6020
4   2303   2306   2524   2049
4   4802   1807   3683   1834
4   2466   6088   6744   3454
4   6837   3836   2916   2484
4   1866   6001   5224   1868
4    656   4762   3630   2887
4   2376   2484   2178   2916
4   5389   5791   6607   3744
4   2482   2464   5247   2273
4    778   5743   3197   3196
4   2489   6876   5295   2820
4   6186   6185   5849   3662
4   4440   6738   1333   4771
4    348    424   2827   3469
4   2439   2080   2357   5444
4   6107   4661   5170    780
4   3233    268   4646   2995
4   2482   5247   2464   3837
4   4726   2237   4109   4108
4   2403   3652   1336   6527
4   2087   2573   3851   4253
4   5321   3925   5322   6000
4   6215   4228    606    609
4   6215   6246    607   6672
4   2178   2916   4664   2376
4   2506   6184   6523   5364
4    518    775   4236   4279
4   6220   3078    680   6219
4   4685    512   6581   2721
4   4754   2883   5669   4229
4   4226   6810   2746   2721
4   6581   5209   6316   5352
4    774   6314   3623   6826
4   6220   4596   4625   4898
4   4686   6581   6316   3136
4    233   2751   6844   5721
4    342   6286   6041   6040
4   4830   3002   2772   1208
4   6581   5209   5352    705
4    651   3528   5786   2636
4   5135   3491   3492   3530
4   3224   4596   6352   4898
4    733    705   5464   6666
4   6493   5300   6278   5594
4   5980    286   4546   5657
4   6581    705   6666   5209
4   3347   4369   6078   4337
4    768   3347   6078   4337
4    708   6384    707   5213
4    602    607   4346    605
4    705   6383   5464   6666
4    281   5155    278   6232
4   2774    768   3347   6078
4    328   5397   5156   4548
4    328   5397   4548   4381
4    328   6602    215   4381
4   4548   5397   5173   3362
4   6512   3427   5944   6424
4   5857    215   3494   6602
4   5857    215    309   3693
4   4366   5860   4381    599
4   6512   6424   2774   3427
4   3347   2774   6424    768
4   3347    768   6424   4337
4   4942    264   6360   4943
4    541   3427   6424   5944
4    689   4942   5154   4943
4    180    267   4090   4943
4    689    267   4943   5154
4    264    688   4943    689
4   4724    264    688   4943
4   2397   2449   2444   2441
4   2303   6756   6223   3843
4   2041   4605   4607   4606
4   1221   2771   3001   6167
4   2117   5302   4239   2033
4   2502   1356   2107   1352
4   6229   6110   3843   2524
4   2502   2107   2505   2109
4   2502   2116   4071   6212
4   1866   6437   5519   6564
4   2041   6044   6073   4506
4   2474   4624   3489   5898
4   6628   2041   2319   6752
4   2410   2276   2527   2448
4   2090   2789   6043   2790
4   2474   5898   3489   6044
4   6769   2500   6387   6290
4   4030    562   3898   5196
4   4338   5553   4116    228
4   5196   3898    729    562
4   5590    713   4007    400
4   6586   3198   5610   4157
4   4183   6715   2408   1217
4   2273   6557   2211   5406
4    772   5126   3824   4967
4   2370   2915   2559   5897
4   5479    620   5114    625
4   5114    617    620   5479
4   3084   3083   3606    303
4   5114   3940    625    614
4    603   6000   5998   5999
4   4208   5568   4202    527
4   4208   4207   3405   2938
4   2376   4436   6560   4435
4   2384   2410   2276   2527
4   2323   1752   4424   1753
4   2209   1281   3442   2963
4   2324   2343   2100   2101
4   6191    551    627   6705
4   2379   6559   2376   6560
4    241   3471   3555   3554
4    710   2678   2677    241
4   4254   6125    681   6578
4   6718    366   5802   6572
4   3748    353   5495   6309
4   5960   6231   6888    334
4   4382    730    710   3555
4   4382   3375   3555   2677
4    241   2678   2677   5551
4   3343    579   6207   5574
4    229   2678    241   5551
4    428   6291   4659   4213
4    461   5411    415   4354
4   1475   3024   1750   2715
4   6636    415   4354   5404
4   4351   4354   5404   6337
4   4382    730   3556   6701
4    441   5702   5838   5412
4   3519   3657   2661   5561
4   1866   4405   4407   6003
4    602    511   4462   3368
4   5736   6337   5404   6636
4   3083    618    619    303
4    415   4354   5404    445
4   2505   5417   6697   5675
4   2505   2622   6697   4062
4   2445   5076   2448   5070
4   2485   2502   2116   4071
4    481    625   5112    535
4   2880   4034   2518   2902
4   3154   4564   3018    626
4   6166   5908   5204   6170
4   4940    239   5527   4939
4   2386   4739   5884   6510
4   2217   2390   2220   2218
4   2407   1350   6712   4181
4   6013   6464   6016    444
4   1865   5038   6273     20
4   2373   1353   5268   1265
4   2343   2809   2560   6403
4   3365   2100   2339   3650
4   5363   2343   5362   2809
4   2100   3563   3365   1366
4    614    615   2994    269
4   5346   6016   3706   4096
4   2324   2208   2100   2343
4    311    296   3696   3216
4   2340   2443   2388   2342
4   1800   3567   1805   1808
4   3817   5923   1806   6017
4   5888   4619   2344   6258
4   2345   4619   2307   6258
4   2208   3340   2810   3651
4   3707   4721   3068    398
4   3707    398   4722   4721
4    397   3402   4142   4022
4   2099   2102   2325   2103
4    397   3932   3400    398
4   6743   5589   3403    714
4    398   3932   3400   2637
4    398   4722   4721   4142
4   2637   4142    398   4721
4   5374   2208   3340   5375
4   1272   1379   1380   2346
4   2048   2047   6217   2291
4   2051   3962   5628   3389
4   2518   2410   2880   3367
4      7   4398   5638   2862
4   2052   3619   6537   5244
4   2448   3656    748     61
4   5052   5457   6063   4130
4    798   1886   6553   1885
4   4363   2699   1474   5212
4   2251   4255   6754   4839
4   2477   3258   6534   3186
4   2251   4839   6640   4255
4   3677   6377   4707   4704
4   3310   2248   3168   2498
4   2477   2835   2382   3778
4   4602   5914    403   4656
4    450   3285    719   3326
4   5593   5948   3376   3372
4   5914   6819    403   3128
4   4196   3947    459   3743
4   6819   4602    666   5643
4   4125   5495   3952   3321
4   4828    122   4756    129
4   5958   3901    759    386
4   3952   4125   3759   5522
4   4125   3952   3322   3321
4    783   5261    824   5262
4   5262   4876    913    783
4   6714   3804   6890   6177
4   4828   3873   4756    122
4   1240   4978   1668   1207
4   2683   3571    343   3558
4   3446   1578   5193   3443
4   3443   2895    924   2894
4   3604   5462   4289   3070
4   3520   3521    314    490
4    913   5262    782   4876
4   1304   6496   1374   2950
4   6498   6497   1464   6496
4   2157   4044   2904   6472
4   2157   5385   2904   5750
4   2662    588   2679    586
4   5482   2437   6279   5484
4    584   4248    686   4723
4   3864   4520   3938   4519
4   3867   6320   3324   3286
4   1214   2772   3002   1208
4   2437   3624   5827   3625
4   2438   2436   2253   2473
4   2437   5828   4601   5027
4   2437   5027   3625   5828
4   3938    253   4520   6320
4   5556   4150    695   5153
4   2276   2448   4197   3922
4   2132   2423   5208   5751
4   2270   3929   1677   1881
4   4830   3002   1208   3000
4   1871   3509   4594   4190
4   2007   2754   3003   2755
4   2049   3312   3976   5714
4   4405   6262   6003   1868
4   2188   5105   2320   4306
4   2649   5298   2135   2648
4   2466   2770   2769   2549
4   2135   4223   2832   2770
4   5471   1828   1758   1827
4   5382   1815   2665   1776
4   5757   1776   4535   6567
4   1864   1807   4891   1834
4   4585   4335   1476   1475
4   2479   5837   2836   4751
4   2906   6834   2452   4031
4   6627   6020   5645   1838
4   3682   1852   3683   1863
4   4979   1072   4980   2934
4   2797   1664   2917   2669
4   5841   2516   3259   4001
4   1665   1664   1240   6671
4   4978   4242   1242   3747
4   2797   2934   1666   1072
4   2516   2893   3265   3776
4   2797   1664   2669   1072
4   2797   1664   6671   1240
4    602   5996   3368   4346
4   2498   2248   2246   1414
4   2202   4060   4632   4059
4   2202   4905   3336   5836
4   2201   6027   6501   5093
4   2327   1403   2427   5536
4   3077   4701    594   4700
4    590   3076   2586   3080
4   2377   3642   4182   2496
4   2322   2183   4838   2521
4   2448    748    746   2276
4   2448   4396   2410      0
4   2448   2410    791      0
4   3431   3861   3862   5065
4   6686   2840    754   3861
4   5065   3862   6686   3861
4   5065    683   3861   3158
4   2195   5835   1432   1438
4   1432   2511   2110   2195
4   2526   4154   2877   6418
4   3862   2859   2840   3861
4   3862   2840   2859   3435
4   2328   5447   2927   6361
4   2456   5125   1375   1288
4   2205   1409   1408   5831
4   5616    750   5024   4194
4   3859    655    754   5067
4    547   5179   2656   3114
4   3114   6795    551    550
4   1475   1186   4335   1190
4   4484   3067    532    548
4   5179   3067    548   5796
4   6483    209   5602   6708
4   4567   6483   5601    725
4   5178   3448    483   3513
4   6483   5602    261   5601
4   6483   6708    738    221
4    477    438   3800   4122
4   2278   2279   2282   1322
4    477    717    715   3215
4   2174   3771   4164   2712
4   1462   2176   1194   1224
4   3341   5973    440   4115
4   2055   2118   2054   2123
4   5583   5232   5103    426
4   1861   3242   1873   3241
4   3341   4122   4115    440
4    438   4730   4115   4122
4    460    426   5103   5232
4   5080   4819   4524   6375
4   5080   6019   2813   6375
4   1830   2861   4528   2942
4   6516   4375    739   4767
4   4952   6519   4282   6516
4   2054   3916   5502   3917
4   4282   4955    224   6519
4   4087   6844    247   5721
4   5150   5862   6601   6554
4   4753   6288   6368   5573
4   6882   4958   6869   6516
4    229   2676   5551    241
4   3343   5574   6207   6288
4   4959   4958   6190   4952
4   4958   6190   4952   4375
4   3015    711   4955   4956
4   4753   4803   6368    463
4   2678   4952    229   6519
4   6516   2853   6882   4767
4   6516   4375   6882   4958
4    882   1860   3241   6632
4   3491   4097   3530   3528
4   5135    644   3530   3492
4   5085   4817   5767   4194
4   3934   3291   3935   5171
4   3789    426    460   4909
4   3467   5169   5864   5621
4   4909    426    758   3789
4   4899   4964   6307   3529
4   5621   2694    649   6307
4   2704   5771   6613    645
4    384   3448   3500   3513
4   3312   2466   5714   2049
4   5085   4820   5767   2759
4   5169   4716   4495   4084
4   2067   2471   3985   3984
4   4006   6759   3974   2044
4   6306   5622    649    672
4   4964   5395   6352    485
4   2048   2557   4668   5036
4   2048   4926   2556   2634
4   6882   6332   2853   6881
4   3738   3463   3028   1812
4    247   4958   6869   6882
4   3737   6196   3856   1811
4    247   6882   6869   5528
4   3736   2971   3738   1812
4   2654   1799   4591   3510
4   6882   6332   6881    555
4   6882   2853   6332   4767
4   6516   4767   6882   4375
4   2741   1812   1797   1814
4   6882    555   6869   5528
4   6882   6881   2853   6869
4   6516   6869   6882   2853
4   4910   6881   6332    555
4    545   6795    549   6332
4   3738   1812   2971   3463
4   4910   6331    545   6332
4   6332   2853    549   4767
4   6868   2864    321    704
4   3270   4597   4540   4825
4   3026   6247    724   3201
4   3535    371   3534   6286
4   6287    342   5769   2816
4    317   6041   5420   4128
4   3142   3439   4940    257
4   5595   4508    370    371
4   2499   3977   3978   4454
4   2117   6235   6831   4101
4   5942   3161   4247   5911
4    602   4346    607   5996
4   5285   4539   2913   4526
4   4883   2008   4862   1499
4   4504   2094   4500   6428
4   2437   5866   2793   4216
4   4787    283    568   4786
4   5912    742   4966   5494
4   2475   5487   5486   3254
4   2437   3624   3628   5827
4   2093   3590   4283   4639
4   2117   6426   3283   4249
4   6428   2034   4504   2094
4   2065   5824   3775   5489
4   4045   2437   4114   4046
4   3989   3988   5846    597
4   2065   2117   3283   3775
4   5560   5559   3038   5951
4   2240   1441   1440   1397
4   2075   4437   5001   5804
4    628   4360   3989   3988
4   5819   3711   4114   2117
4   2068   6809   5131   5304
4   3888   5607   3988   4783
4   2437   3600   4037   3599
4   3783   3741   5682   5775
4   2093   3117   5003   3590
4   5328   3740   6195    668
4    513   4647   5529   4654
4   4658    715    717   4731
4   4604   4658   3671   4603
4    638   5245    637   5615
4    406    715   4731   4467
4   4654    513    323   5529
4   4604   5418   4658    406
4   5529    282   6393   6398
4   4123    456    717   4603
4    448   6587   3198   6145
4   3402   3401    335    397
4   6605   3287   3179    456
4   4576   6736   4494   6392
4   4576   4494    479    668
4   4123    438   3215    717
4    712   4118    438   4730
4   4731   3215   3178    715
4    461   6816   5410    434
4   3653    452   4697   6011
4   3524   6817   5736    742
4    378   5575   4610   6025
4   6839    415   6817   6636
4   3416   6463   5579   6200
4    430    466   3790   3608
4   4931   4693   4694   6588
4   5736   6864   6839   5404
4   5976   5579   6463   6089
4   5518   6012   3511   4818
4   4890   6291   6010    418
4    457   4934   4769    465
4   3653   6011   4695   4609
4    437   5312   2940   4020
4   6639   5411   4543    414
4   5404   6337   4354   6636
4   5411   4543    414   6636
4   3137   2657   3138   4655
4   5956    449   5959   3659
4   2275   6557   6558   4671
4   2212   2308   5375   4409
4   5691   2431   4409   3847
4   5646   1818   4537   5649
4   5971   3659   3428   5310
4   4149    459   3127   3948
4   2272   4130   5427   5227
4   4587   5756   2494   2272
4   1791   4341   5941   5469
4   6313   5913   3551   3947
4   4341   1882   4587   5227
4   2272   5691   4587   5226
4   3368   4653    603   3969
4   5975    321   5947   2864
4   2509   1285   4698   4699
4   5971   5310   3428   3948
4   4149   5971   3948   5310
4   3705   3707   4722   4721
4   6298   3119   1908   5088
4   3428   5310   3659   5956
4   2231   2594   1398   1400
4   1802   6632   1804   1805
4   6632   4721   3707   1805
4   3705   3704   1805   4721
4   2283   5735   3334   5734
4   4459   6295   1849   5087
4   5163   5970   5957   6625
4   5708    326    702   5709
4   5971   3947   3948    346
4   6890   6177    318   6231
4    480   5842   5569   5961
4    391   3535   6037   3583
4   2897   2896   5608    757
4   5708    326   5975   6811
4   6049    622   2642   6884
4   5864   4713   5773   5622
4   5511   5726   1651   4321
4    569   6288    574    727
4   5511   3681   4321   3350
4    321   2702   5947   2703
4   6037   3582   3534   5840
4   5738   2526   4457   5157
4   6254   5987   5718   1087
4   2228   3355   4073   5515
4   2327   5727   5098   3022
4   2194   2122   2201   5242
4   2327   5536   1405   5535
4   6254   1087    796   5987
4   2193   6361   6662   4234
4   2176   3553   4163   6665
4   2139   2141   4064   4725
4   2146   3151   5534   2779
4   1468   2184   2503   2233
4   2145   1224   1211   2847
4   2175   2147   1461   5532
4   4342   6213   4737   5605
4   5605   6213   4737    385
4   5605   2816   5769   4211
4   5605   4211    385   4736
4   2267   4206   3815   5671
4   2466   6090   6088   5257
4   2049   2306   2524   2047
4   3620   2226   5354   1348
4   2187   2419   1439   2420
4   2402   5920   6431   6430
4    425   4658   3671   5418
4   5070   3834   2445   5076
4   2182   4878   1431   4877
4   2492   2174   4423   1193
4   2048   5459   5388   4669
4   2486   3905   4143   4138
4   2157   2904   4044   5750
4   2069   5032   4135   5652
4   5720   5275    525   4202
4   2492   1193   1647   2564
4   2069   4003   2044   2076
4   5830   2048   5705   6079
4   2247   5437   5267   5510
4   2477   3258   2256   2255
4   3928   2247   3169   5051
4    237   4252   6845   6847
4   2246   6535   1414   5351
4   4618   4915   5528    555
4   4941   1201   5724   4061
4   3342    382   4683   3545
4   3543    523    525   6595
4   4758   5117    143   5284
4   2751   6190   6844   5721
4   5122   3998   3157   3997
4   5284   4980   3155   2775
4   5284   5084   4981   4974
4   4329   4750   3884    671
4   5284   3155   5117    143
4   4758    129   4526   2818
4   4757   5285   4526   4539
4   4757   4825    122   3874
4    657   2905   3966   5211
4   4757    129    122   4526
4   4529   5250   6670   6739
4   3604    478   3517   3966
4   4527   2913   5285   4539
4   3874    122   3873    223
4   2799   6883    631   3860
4   3231    381   3291   5171
4   4965   5494   6583   5913
4   5945   3377   2940   3676
4   3465   5864   5773   5622
4   3072   3936   3996   2800
4   4196   3743   3551   3947
4   3592   3629    339   6036
4    381    630   3231   3177
4   3209   5311    656   3743
4   5913    346   3947   6313
4    630   6593   3232   3231
4   4149    459   3947   3743
4   1377   1383   6210   5934
4   1383   5253   6210   5934
4   4094   6402   2070   6144
4   6659   2394   6859   5637
4   5638   1885   2861   6552
4   4383    564   4687   3900
4   1437   2194   3167   2198
4   1541   2669   4979   4973
4   5284   4974   4981   2775
4   3218      7   6841    943
4   4758   5118   4756    129
4   1239   3065   3733   1487
4   6301    304   4527   2913
4   2797   1667   4979   2669
4   4980   2934   2775   4981
4   5285   2818   4526   2913
4   3283   5003   4283   2065
4   2681   1885    798   6553
4   6267   1663   1051   1183
4   1187   4335   1160   4585
4   2071   2223   3282   5899
4   2034   5905   4640   2400
4   5182   3178   5581    468
4   5505   6406   5010   2492
4   2968   6428   2317   2034
4   2117   3283   6426   4283
4    393   5089   5581   4022
4   2053   6768   6767   4477
4    477   5089   4122   3800
4   6241   2361   6242   3110
4   3128    666    403   4467
4   2436   2533   2863   3357
4   2492   2174   5935   6406
4   2153   1256   2036   2507
4   3702   1578   5193   3446
4   2488   5850   2576   1645
4   2492   4880   5545   5850
4   2094   4500   5895   2686
4   3998   5119    913    781
4   2116   5288   6695   6353
4   3473   1595   6303   3472
4   2054   4870   4855   4456
4   2116   6695   4071   6353
4   2502   5401   6212   2585
4   2060   4611   4866   3638
4   2202   2198   2201   2200
4   2158   3188   1347   1338
4    426   3287    639    456
4   2306   2050   2049   2303
4   3166   5335   4902    207
4    210   5018   4983   5985
4   2123   1396   1441   6531
4   3335   2064   2037   5377
4   3213   2081   3111   3110
4   2313   6740   6660   2608
4   4902   4361    600   4938
4    261   5602   5600   5601
4   2293   2957   4816   4412
4   6142    650   4157   3364
4   4896   2294   4157   6142
4   5223   2985   3199   3909
4   5196    729   3898   4744
4    336   4975   6664   4010
4   2399   2402   2401   2409
4    336    420   4975   4976
4   2236   4132   3619   5244
4   2294   4157   5763    287
4   4415   2051   2052   2812
4   5735   5869   6094   2289
4   2120   5271   5095   5096
4   2424   2425   2120   2693
4   4835   6650   5483   6329
4   2052   6537   5243   5244
4   4796   4799   4660   4662
4   2298   3895   5627   2555
4   2084   2600   2089   2334
4   5187   2155   2042   4911
4   6650   3447   5810   6843
4   5810   3447    218   6843
4   2071   3143   5037   5386
4   6650   6843   5146   3447
4   2428   1392   3680   2403
4   2232   2228   2231   2409
4   2281   2280   2381   2282
4    595   5483   5810   6329
4   5982   3615   4835   2684
4   2317   3840   3841   3211
4    595   6329   5810   6180
4    307   5146   5203   2684
4    595    597   5846   6329
4   2306   3890   2613   6138
4   6819   5643   5587   5914
4   3128    406    403   4656
4   4656   5914    403   3128
4   2232   1354   1250   1398
4   3128   4731   5182   4467
4    666   5588   3128   6819
4   5588   6819    666   6747
4   4602   4656   6620   4657
4   2334   3613   1325   2084
4   2075   5823   5489   5804
4    403   4602    666   6819
4   2298   4445   3896   3895
4   3128   4657   4656   5914
4   2065   6674   4124   5002
4   2065   5307   4201   5306
4   2053   3894   2512   2471
4   4225   5162   4316   1293
4   2048   2291   6217   6216
4   5455   5162   1293   5454
4   2318   5455   1294   5454
4   2318   5526   6260   5525
4   2475   3978   2228   5515
4   5526   6731   1294   6260
4   2204   5051   3928   2878
4   3330   2098   4932   2096
4   2318   5525   6404   3004
4   2879   2202   2207   2198
4   4366   5397   3362    601
4   5398   3363   5774   5174
4   3602   2756   2731   5429
4   3077   3080   3076   5555
4   4943    689   4942    264
4   1833   1881   3173   1758
4   2275   3353   4671   6064
4    689   5154   4942   4473
4   2370   6556   4104   4103
4   2272   4587   5756   1882
4   2270   2590   3773   6327
4   2382   2282   1321   3279
4   2757   2956   2269   1677
4   2377   5940   5419   6698
4   2377   4104   4182   4901
4   2272   5226   5427   3847
4   2456   1283   2414   2530
4   2501   3063   3064   4712
4   2377   4901   4182   3642
4   2376   4435   6560   6559
4   6646   6438   3502   2196
4   2269   1203   1479   4575
4   2188   2302   2305   3171
4   2351   2447   5050   3891
4   4445   2067   3985   3982
4   2269   1479   4340   4575
4   2351   2302   4309   4308
4   2047   4873   6138   6139
4   2302   2238   5803   4308
4   2082   2080   5446   5445
4   4417   2238   2302   4416
4   2116   5675   5288   6353
4   2156   5316   6723   6724
4   2143   6228   3971   4064
4   2302   2238   4417   5803
4   2305   2188   2304   5105
4   2505   6697   5677   5675
4   4965   3551   4196   3497
4    366   6572   5798   5802
4   4128   4126   4127    337
4    652   5960   4358    334
4   2637    398   4142   3400
4   2115   5675   2116   2505
4   2637   4721    398   3318
4   5277   2062   2505   5677
4   2637   4117    405   4141
4   2111   4145   1331   5289
4   4789   4361   5810   6180
4   3270   3271   4463   4781
4   4463   4464   3271   4461
4   3033   4248   4723   5203
4   5069    218   5810   3447
4   5234    250   3140   4039
4   3875   4464   4463   4461
4    262   3875   3016   3873
4   2115   2591   5142   6409
4   3270   4825   3874   6568
4   4758   4526    129   4757
4   2240   1449   4027   1400
4   2103   3461   1368   5454
4   3582   3952   3759   3953
4   4757   3873    122   4756
4   6421   3376   5594   6596
4   6321   6781   6742   5598
4   5359   6367    308   6159
4   5592    558   3414   5283
4   3582   3950   3952   3953
4    244   5522   5495   3952
4   5592    558   5280   5281
4    585   5659   3803   6344
4   5521   3952   3759   5522
4   5962   5968    338   3568
4   4016    322   5283   5886
4   2075   4626   6062   3831
4   4269   6055   6836   6057
4   5517   4633   5409   2440
4   2337   6382   5041   2604
4   2489   4440   1333   3264
4   2495   1333   6738   2655
4   2337   2854   5667   3764
4   4440   4771   1333   3264
4   2440   6545   4098   3477
4   2228   4073   3355   4209
4   2466   6088   3454   5257
4   2386   2348   6143   5421
4   2303   6223   4518   3843
4   1402   2392   2186   6458
4   2385   6640   4427   3710
4   2524   6109   6229   6110
4   2293   3170   4446   4924
4   4838   2322   2320   2183
4   2385   6206   5350   6205
4   2234   1421   1307   1417
4   2524   3207   5715   6109
4   2314   6660   6039   2607
4   2498   2246   2248   2200
4   2310   4048   4514   6745
4   2498   1414   1403   3185
4   2314   4634   6039   6660
4   2524   4518   5712   6110
4   2505   6697   2622   2945
4   2314   2303   2524   2049
4   5122   3998   5117    781
4   2502   5724   1201   1202
4   2270   1881   3173   1833
4   4123   3215   4603    717
4   4941   4243   4244   1182
4   6626   5978   5124   5933
4   2425   4287   2469   3094
4   2676    227   6261   6563
4   5556   5153    695   6261
4   2502   5417   3293   4062
4   4339   3375   3471   3555
4   2502   6212   5401   3293
4   4758   2818   5284    143
4   2208   3340   3441   2810
4   2348   2343   2344   2242
4   3789   4909   3288    758
4   4342   6213   5605   6287
4   2184   1428   1427   4133
4   6565   6261   2676    227
4   2871   2910    707   2856
4   2846   1886    798   1081
4   2343   2809   6403   5362
4   2342   2106   6400   2101
4   3505   2342   3305   4822
4   6144   6402   2070   2106
4   2106   1275   5938   4904
4   5224   1832   5910   4066
4   3584   6631   1826   3561
4   4406   3507   6488   3277
4   5122   2967   5119    781
4   4406   1826   3507   2014
4   4758    129   4756   4757
4   3538   4378   1826   3183
4   3998   5118    913   5262
4   3584   1826   4378   1832
4   3538   6631   1826   4378
4   6670   2860    125   5250
4   3734   5035   2934   5090
4   3456   3173   6324   3195
4   3791   2771   6485   3001
4   5263   1207   3747   3417
4   4978   4242   1667   1668
4   4527   2913    304    126
4   3133   6552   4384   1831
4   3538   2014   3183   1826
4   5381   3561   5380   6488
4   3287    426    758   4909
4   1214   3791   3000   3001
4   3387   5994   2646   3013
4   3769   2726   3295    470
4   6578    681    708    709
4   3281   6764   6763   2815
4   2815   6764   6763    315
4   2093   3591   5028   3546
4   2065   6674   4201   3831
4   6764   3296   2815   3281
4   2424   2120   2428   2063
4   2093   6427   5900   4639
4   1276   2187   4824   2420
4   4212   2726   2871   2856
4   3296    315   2815   4211
4   1747   3220   1090   1663
4   3218   5638      7   4398
4   3218      7   5638   1885
4   2094   2685   5903   2686
4   2153   2149   2154   2520
4   2048   6216   2067   2291
4   3182   3066   1183   3220
4   2228   3355   4288   4209
4   2093   3591   5900   5028
4   2067   2552   2203   6711
4   2092   6252   3546   5896
4   2065   4200   5306   4201
4   3382   6552   1829   1885
4   5643    666   6819   6747
4   5588   4467   3128   5182
4   3416    732   5643   5579
4   3327   5643   3415    732
4   4570   6331   4910   6881
4    547   6885    550   3114
4   3156   5117    781   2967
4   4484    545   4775   6331
4    490   6600   3520   3521
4   4484    532   4775    545
4   6322   4304   6842   4571
4   6422   3799   6600    503
4   3520    490    314    734
4   6518   5553   3556    730
4   3067   5606    532   5083
4   4484    548    532    545
4   3885   6705   5725   6885
4    544   5796   5179    548
4   4248   4245   4723   4247
4   4245   4690    686   4723
4   6270    255    240    256
4   4791   2773   6248    761
4   6257   6004    284   5553
4   4484   3067    548   5179
4   5194   3067   5083   5606
4   5194   5083   3067   5796
4    529   5083    532   5606
4   4342   3054    260   3073
4   3428   2583   5310   3430
4   3377   5644    741   5341
4   2424   2537   5095   5271
4   4954   4953   3006   3429
4   3695   3006   3571    648
4   2949   6497   1374   1293
4   5678   5162   1293   6497
4   2262   5274   3248   5013
4   5454   5162   1293   5678
4   2417   2420   1399   3504
4   4584   2948   4856   1231
4   4225   5455   1294   6260
4   5511   4856   4323   1235
4   2261   6507   1370   1185
4   2877   2530   6821   5329
4   2257   4392   5111   2077
4   4333   5136   2413   1299
4   6496   1374   2950   2949
4   6497   5162   1293   2949
4   2200   3256   3927   3168
4   2413   4333   1299   1228
4   1794   3299   3687   3300
4   1794   5293   3300   3509
4   2345   2307   3441   3340
4   2200   3927   3169   3168
4   4189   1796   5379   4190
4   2327   2433   6753   5242
4   1819   4079   5290   3566
4   6091   3185   2256   2385
4   2428   2425   2118   2120
4   4809   2357   3451   3476
4   2200   3255   2817   4823
4   2081   2478   6765   3995
4   5836   4823   2202   4905
4   2366   6765   4253   5030
4   2529   4418   5326   5327
4   2515   6249   5201   4493
4   2080   6173   6176   5446
4   2456   2414   2415   5625
4   2194   5242   6753   2122
4   5345   2198   1430   1437
4   2262   1737   5015   1232
4   2493   6133   6101   6132
4   5015   2776   1232   1737
4   6059   2257   2262   1484
4   4239   2034   4643   4101
4   2416   1212   1299   6084
4   2289   6094   3094   6093
4   1393   2083   2403   1392
4   2493   4024   6132   5039
4   1485   1749   6047   5191
4    438    712   5583   4118
4   5015   4884   1485   6047
4   2313   4105   2802   6478
4   2061   6682   6252   6683
4   4224   2135   2466   2549
4   2114   2958   2098   3961
4   2081   2359   2035   2361
4   2417   5689   6035   2858
4   2466   3495   6088   6090
4   2608   2188   2314   2310
4   1478   1749   5191   1748
4   6540   2320   2183   4838
4   2459   2456   5005   5625
4   1232   4884   1485   5015
4   2087   5443   4278   4253
4   2512   3980   3808   4136
4   2169   6111   6104   2762
4   2456   6418   2530   5233
4   2086   2239   2087   2088
4   5274   1822   1821   2777
4   2198   1297   5835   4908
4   2302   3892   4417   4416
4   2247   2206   2097   2351
4   2113   2181   5104   3536
4   2437   3626   3624   3625
4   2262   5719   6084   1456
4   2438   4296   4621   2631
4   1821   6087   5015   1875
4   1456   2257   2262   6059
4    642   5245    639    758
4   2499   4689   3977   4454
4   2436   6237   2252   5334
4   3816   3041   3257   2645
4   2336   2338   2333   2334
4   2436   2533   5484   4503
4   2338   4728   4294   4729
4   2150   5110   4997   4843
4   2317   3840   6428   3486
4   2309   2088   2181   4258
4   2170   4469   4843   4471
4   6306    672   4713   5622
4   6068   2526   6411   2456
4   4393    587   3286   3635
4   6346    587   3286   4393
4   3526    295   3240   3102
4   6306   5622   4713   2694
4   6306    649   2694   6307
4   6306   3529    674    649
4   3493   6613   6306   3529
4   4713   3660   3501    672
4   4113   2679   4662   4660
4   6306   2694    649   5622
4   6330   3616   5356   5357
4   4488    661   4485    345
4    587   2673   6346   3286
4   1242   4242   4243   3747
4   5263   1206   2772   3417
4   5263   1242   3747   1207
4   1242   3747   4243   4244
4   6520    530   3323    253
4   5263   3417   3747   4244
4   1372   1293   4225   4316
4    580    589   6520   3868
4   3020   3324   3635   4393
4   2318   2544   3004   4300
4   2151   2454   2453   4261
4   1372   6730   4315   6731
4   1372   6731   1294   5934
4   6731   5934   1372   6730
4   2035   2059   2359   2368
4   2483   2365   2426   3994
4   2525   5935   6749   5545
4   6503   6244   1470   4920
4   2170   4469   4470   2572
4   2456   1288   2415   5125
4   2138   2453   2454   1413
4   2170   2572   4470   6390
4    937   5434    786   5701
4   2390   6673   4432   3062
4   2525   6244   2576   5545
4   2525   1470   6504   4015
4   2525   4919   4920   6244
4   2525   2659   4913   2362
4   2525   1470   1177   1646
4   2335   1325   3613   1257
4   2080   5444   2542   6173
4   5505   2492   5010   2488
4   2525   6749   2711   5498
4   2170   5325   2572   6390
4   2076   2073   6388   5184
4   2336   2520   2154   2170
4    451    734   3130   4299
4   2525   2492   2564   1193
4   3369    377   6282   5181
4   4391   2325   2258   2363
4   2909   1743   1681   2167
4   2167   5121   6617   1878
4   6422   3897    502    503
4   6599    490    734   5965
4   2166   1820   5121   1878
4   5927   5919   2288   2285
4    383   4264   5571   6023
4   3576    476   3762   5953
4    411   6807   4545   6282
4   5461   6617   1822   5274
4   3179    456   3287   5232
4    737   6585   6865   3794
4   6031   3765   3766   3679
4   2167   5274   2777   1822
4   5276   6617   1878   1822
4   4990   5838   4778   5702
4   6615   4538   5647   6616
4   2260   2455   2261   2171
4   3377   6893   4020   2940
4   2749   3792   2903    454
4   6662   2193   2191   2328
4   2167   4533   6617   5121
4   2086   2224   2161   3911
4   2262   1737   5274   5015
4   5274   6087   5015   1821
4    319     66   3332   4764
4    747   3739   5674   3332
4    319   4764    612     66
4   5442    409   3580   2606
4    747   5074   2606   5674
4    319   2801    301   2606
4   4909   5232   3287    426
4   2962   6608   5183   5392
4   2886   2903   2887    454
4   2377   2976   6698   4971
4   4111    465   4769   5585
4    229    241    227   2676
4    457   6648   4934   4930
4   2676    241   2677   5551
4   2676   2677    241   3471
4   4111   5584   5585   4769
4   6648   2962   4111   4769
4    385    248   4737   5152
4   5585    722   4769   6108
4   6108    716    424   5585
4   6565   6261    227    234
4   5556   6261   6563   2676
4   5800    722   4693   5170
4    362   3040   3709   3295
4   5153    696    695    234
4   6107    722   4661    716
4   2104   4057   4300   4056
4   6261   5153    695    234
4   6565   2751   6844    233
4   2106   2104   2101   4057
4   2325   4053   5358   6259
4   2324   2808   2807   2810
4   4570   4910   3956   6881
4    373   5183   2962   6584
4   3796   5183   6608    740
4   6882   6869    555   6881
4    676    480   5961    344
4   5728   5729   4782    446
4    676   6714   3804   5946
4   3543   6595   3956   4915
4   6584   5183   6608   6609
4   4087   5721   6845   6844
4   3582   4948   5840   3952
4   2940   4020   4928   6893
4   3795    367   3794   6584
4   1327   5873   4000   4001
4   2280   2226   2405   2570
4   4001   2516   3259   4000
4    581    283   6419   4785
4   2495   1223   1454   1222
4    493   6284    260   3073
4    493   6284   3073   4508
4   2477   6534   4531   3186
4   2327   2352   5727   2433
4   3186   4129   2480   3258
4   3199   3909   2985   3549
4   2417   1422   6350   1427
4   2523   5530   4509   3777
4   2974   3091   2519   4429
4   4429   2515   2519   2974
4   6259   4443   2258   2363
4   2325   4328   6405   6234
4    676    703    344   3438
4   2259   1407   2455   6311
4   2318   2258   2103   2325
4   2144   2142   2143   1338
4   2224   2086   2222   2181
4   2239   2309   2088   2086
4   2288   5926   5928   5927
4   2128   5400   5319   2144
4   6058   2102   2213   1434
4   2344   2379   5878   2431
4   2259   6311   1368   1407
4   2133   6111   6891   5473
4   6272   5806   5942   4460
4   5066    218   3447   5911
4    218   6272   5911   5066
4   6271    307   6843   5146
4   3408   3868   6520   3021
4   6271   5911   6272   5942
4   2143   3302   4072   3105
4   2491   6875   5011   6877
4   3129   3873   4828    262
4    771    744    160   3445
4   2502   1351   1352   6342
4   2160   6443   2162   2264
4   5262    913    824    783
4   6604   4588   6526   4589
4   5260   3101   5262   4876
4   3994   2366   2365   2458
4   6070   2734    491    289
4   6070   6078    289    231
4   6538    491   2734   6781
4    551    627   6705   6885
4   4282   6519   4952   4955
4   6538    491   5832    266
4   4791    761   2670   2773
4    465    722   4769   5585
4   3674   3653   6008   6009
4    404   4890    418   6291
4   6709   5601    725   6729
4   5163   3675   5978   5957
4   4472    267   4473   5154
4    670   5725   6792   4487
4   3885   3884    670   5725
4   3531    249   4942    284
4   3204   4039   3140    250
4   2737   4782   3766   2923
4   3043   4329    671   3045
4   6291   4695   4609   3653
4   4382    730   6701    232
4    449   3428   5956   3594
4   3531    249    284   6004
4   5959   5166   3594   5956
4   4472   4473   6528   5154
4   5166   6233   3125   3593
4   6709   6708   6483   5601
4   4282   6191    739   4281
4    627    739   4281    224
4   2874   3125   3574   3126
4   4954   4953   6115   3006
4   6565    233    234    227
4   5151   6261   6566    234
4    247   6190   5721   6844
4   6115    648   5166   3594
4   5556   3554   2676   6563
4   6421   5594    293   6596
4    229   6519   4952   6190
4    229   4959    227   2751
4   4953   3006   3691    343
4   2317   2094   6428   5895
4   2441   2397   2070   2342
4   2206   2098   2351   2299
4   2436   3143   2438   6238
4   4836   3918   2099   3649
4   5937   3061   2441   3093
4   2441   2443   2342   2388
4   2391   1460   1384   6658
4   5938   2106   4904   5937
4   2087   2088   2239   2440
4   4250   5824   3775   2117
4   2061   5737   2359   2059
4   2090   2474   5898   3490
4   2157   2071   3810   6761
4   4842   2059   3482   2063
4   2117   4452   4114   5819
4   2261   2415   2416   2172
4   2117   3600   6831   6758
4    766   3387   5994   2646
4   2094   2034   4504   4499
4    700    342    317   6127
4   5420   3583    391   5799
4   5840    391   3535   6037
4   6037   3582   3952   3759
4   2390   3062   4432   6733
4   2581   4025   2547   2317
4   6037   3952   3322   3759
4   2493   2356   2358   2349
4   2138   1413   1260   2453
4   2170   4471   4240   4470
4   2499   2118   3917   2119
4   2086   3910   2615   3359
4   2333   4119   4120   4727
4   5595   4508   6285   6284
4   2449   6654   6652   3384
4   6693   4137   4425   2230
4   2520   2571   5160   5008
4   2333   4120   4121   2598
4   6323   2724   5790   2725
4   2335   1257   1264   4261
4    679    401   3529   3165
4    651    701   3383   2636
4   2391   2398   3061   5468
4   3383    701   5222   2636
4   1255   2154   2148   4261
4   3383   2636   5222   3491
4    439    673   3799   2912
4    485   4964   5222   6351
4   3799    503    673   3521
4   6422    503   6600   3897
4   6598   6833   3520    314
4    651   5783   5790   5786
4   6422   5228   5229   5231
4    485   3383    701   5222
4    741   4927   6893   5716
4   2285   5927   5324   5917
4   2234   2228   2232   2289
4   6031   3765   3679   5833
4   2290   3708   3506   5928
4   2285   5917   5324   5655
4   2450   5749   6104   5369
4   4774    673   5229   4770
4   2133   6652   5472   3384
4   5313   2738   3103    752
4   2169   6104   6111   6652
4   5635   3356   2852   3907
4   2787   5597    299   3309
4   2486   2235   2380   2230
4   2525   4015   6504   2659
4   1264   2442   2398   1270
4   4481   1243   4826   2870
4   5430   3310   2248   3168
4   2362   1233   1179   4015
4   2200   3255   3256   2817
4   2255   3258   6539   6534
4   2169   6104   4996   2762
4   2525   2362   4913   2711
4   2525   6749   4920   4919
4   1088   6363    914   4826
4   2296   2243   2097   5509
4   6574   2251   2247   5430
4   2247   3169   5437   5430
4   2806   6810   2747   3135
4   1459   4481   6014   4480
4   5068   6883   3860    631
4   5338    270   4628   4086
4   3342   4683   3134   4229
4    471   3435   2582   6851
4   5068    631    474   5620
4    769   4345   5383   6396
4   2748    514    773   3623
4   2150   2698   6891   5106
4   2336   5158   5325   6390
4   2338   5858   4728   4729
4   4194   4820   5024   5616
4    750   5616   4817   4194
4   5024    635   5616   4820
4   2218   5872   4845   4188
4   2333   4120   4119   4121
4   2390   3062   5371   5871
4    750   6688   3159   6870
4   5767   5616   4820   4194
4    299    699   3309   6596
4   5593   3374   5948   3372
4   2333   5875   2598   4121
4   2170   4470   4240   6390
4   6345    358   3373   5657
4    358   6345   5980   5657
4    280    308   3373   6159
4   5359    280   5797   3372
4   6271   4247   5942   4248
4   2169   6111   2762   5106
4    676   5946   6855   3438
4   6493   6278    487    293
4   6271   6272   5911    218
4   5982   3614   5199   4835
4   5982   4835   3615   3614
4   6650   6329   6843   5810
4   5483   6329   6650   5810
4   5982   6650   6329   6843
4   2517   3776   6124   2523
4   2237   3359   4107   4108
4   2891   2382   3075   2890
4   5873   1327   2382   4001
4   2278   4042   2279   4735
4   2260   2171   2259   2455
4   2364   2507   5377   1251
4   5873   1321   1333   3279
4   2517   2936   1315   3098
4   1333   5873   1324   1321
4   4280   2440   2439   2087
4   2237   4581   4131   4107
4   2415   6507   1301   6506
4   5221   4492   3492    644
4   2262   1212   1232   5015
4   5992   6499   3235   3951
4   4713    672   3501   5773
4   3308   6570   3376   5256
4    483    674   3449   3450
4   5992   3953   6499   3951
4   3491   3492   3530   4097
4   2510   6702   2562   5016
4   2088   2309   2181   2086
4   6675   6544   6545   2506
4   2336   5158   4727   2640
4   5940   2292   2377   6703
4   2101   2106   2099   2104
4   2177   5040   4840   4636
4   6264   2910   2856    707
4   2374   6466   1267   4734
4   5708   5947    326   5709
4   3515   3570   5164   3557
4   2180   6381   4984   6380
4   1343   2089   3238   2435
4   6868   6576    704   6763
4   2180   5748   4166   6633
4   1387   2104   3649   2106
4   6264   5213   2910    707
4   6764   2910   2856   3281
4   2180   6381   4166   6148
4   6565   4959    227   2676
4   3755   4175   6396   6389
4   2293   4446   2957   4924
4   2097   2050   2098   2187
4   2184   1302   3191   4878
4   2524   6225   6760   4561
4   5912    721   5124   6626
4   3947   5913   3551   4196
4   6811   2910   2857    368
4     98   2942   2681   2766
4   3498   6864   6583   4965
4   5638    798   2862     98
4    640   6179   5972   6575
4   5081    573   2768   5574
4   2768   5638   5639   2862
4   5912    742    721   4966
4   1804    882   1703    883
4    883    858   1736    881
4    430   3793   3496   3499
4    391   3321   5802   3322
4   6194   3499   6193   6337
4   4832   1209   1092   3787
4   3128   4656   4657   4766
4   1885      7   5638    798
4   3128   4656   4766    406
4   2928    294   3236   5580
4   6621   5343   4657   6158
4   1885      7    798   1886
4    881   4888   3222   4178
4   2681    798   2765   6553
4   5588   6819   6747   5587
4   2848   3346    764   6425
4   5914   3415   5643   5587
4   2391   1385   2392   6658
4   3326   3819    719   3327
4   2698   2134   6892   5490
4   4844   2218   2386   4846
4    423   4656   4766   6158
4   5996    607   5999   6672
4   4848   4237   4379   5892
4   5567   3289   3699    527
4   2398   1273   3061   1388
4   3289   5275   6246   3774
4    538   2938   3405   3011
4   2134   2617   2843   2651
4   2394   2422   3147   3146
4    608   6215    606    609
4    614   3941   3225   5759
4   2994    614   5759   3941
4   2136   3385   2698   2697
4   3699   5568   3289   5275
4   5564    617   5480   3801
4   5173    302   3363   3362
4   4366   5860   6602   4381
4   2169   2442   2449   2395
4   2386   2574   6676   5995
4   2390   4263   5371   3062
4   4997   2762   2150   4995
4   2964   4365    601    596
4   2621    500   3236    541
4   2517   3265   4451   6124
4   2516   2979   2973   1315
4   2509   4698   2974   2515
4   2523   5530   3777   3776
4    773   6389   4969   4970
4   5398   3363   5173    302
4   3362   4365    601   2964
4    593   5197   4701    594
4   2150   2698   5106   2697
4   2479   2477   3778   4110
4   3990   3987   2965   4360
4   5570   3987   4783   5174
4    593   5197   2965   3363
4   2480   2519   3090   5929
4    593    302   2964   3363
4   2371   6249   2515   3669
4   2519   5301   3266   3777
4   5321   6000    603   5820
4   2515   4696   6123   4510
4   5398    302   5173   5397
4   3362   3363   2964    302
4   2327   5535   2515   4429
4   3821   5977    429    436
4   2106   5937   2342   3093
4   4057   6028   3092   2101
4   2442   2398   2393   3338
4   2106   6028   2070   5870
4   1851   2867   2865   2705
4   5144   5145   4598   6815
4    453   6199   3525   4008
4   4408   3856   4551   1811
4   2133   5472   2843   5208
4   2106   6144   2104   4057
4   2133   5472   5208   3384
4    395    268   3413   5279
4   2601   5254   4220   6137
4   2133   6652   6111   5473
4   2148   2153   2154   1256
4   2995    898   4646   3196
4   2494   1480   1219   1215
4   5559   2900   5951   3577
4   2494   1480   1671   4424
4   2494   2269   1517   2408
4   2272   4430   2212   2494
4   2494   5756   5456   2269
4   2260   2257   5111   2077
4   2323   5303   2212   5374
4    244   3949   3351   5521
4   2282   4041   4042   4307
4   3233    396   4646    268
4   3406   4274   5979   3407
4   2282   5533   4307   4042
4   6594   3233    396   4646
4   3162   4464    225    271
4   3162   2842    225    255
4   5829    180    688   2989
4   2841   2842    255    256
4   6270   5806    256    240
4   3875   6300   3016   3206
4   5280   5282   5886   6808
4   5297   5283   5279   5278
4   5829   4724    688   4943
4   3875   3141   4461    220
4   4349   4539   4757   4526
4   2518   2528   2495   3261
4   6500    786   3872   3201
4   5391   1640   2410    789
4   1234   5845   1233   6014
4   5848   6860   3858   6861
4   2518   1311   1218   1310
4   3201   6500   4922   3872
4   4329    221    738   6708
4   5549   5548    723   4140
4   3756   6276   3228   5452
4   4724   6480    688    690
4    391   5798   5802   3321
4   5802   4125   3322   3321
4    641   4126    337    652
4    391   5799   5802   5798
4   3322   5840   3321   3952
4   5527    297   6668   6669
4   3026   4140   4403    552
4   6037   3952   3582   5840
4    391   3583   3322   5802
4   4914   4403   4556   4747
4   3952   6037   3322   5840
4   3427   6424   2774    768
4    299    762   5597    489
4   3535   6037   3534   5840
4   6493    487   5300   4364
4   3414   3413   5297   5279
4    342   6041    317   6127
4   3427    768   3346    500
4   4790    766   6499   3387
4   4128   6041   5420   3583
4   2134   6892   5490   2651
4   5802   6572    337   4127
4   2319   5009   6630   5210
4   3535   3583   5420   6041
4    333    731   3701   3036
4   2261   2416   6507   1371
4   3829   3360   6419    581
4   3584   6631   4378   1826
4   4106   2466   2314   3495
4   2136   3385   2649   5490
4   5224   1832   4066   6005
4   6481   2990   2989    688
4   2438   2789   4798   2611
4   5080   4849   4524   4819
4   5224   4066   5910   4849
4   2170   4471   4470   4469
4   2155   6240   6476   4447
4   4384   3584   4378   1832
4    721   5057    443   4009
4   2873   2874   3593    435
4    453   4008   5057   3820
4   3431    462   3861    683
4   5585   6108   5584    424
4   5608    473   5064   3860
4    453   3820   6199   4008
4    453   4777   6816    407
4   5057   6817   4543   3524
4   5986    462   5817   2795
4   4009   5057   3523   3820
4    634   4765   6870    462
4   3859    754    473   3158
4    634   5348    750   6870
4    405    416   3932   4141
4    736    616    405   4117
4   3484   3158   5064   5608
4   5065   6686   5064   3158
4    736   4117    405   3318
4    222   3163   4464   4781
4   3162   3141    225   4464
4   2841   6270   3161    256
4   3163   2842   4246    222
4    225    243    220   3141
4   2934   1666   1072   5035
4   6421    293   5594   6493
4   3638   2060   4611   5496
4   5284   2775   3155   4974
4   3734   4981   5090   2934
4   2066   6768   4478   4612
4   5035   3733   1666   3887
4   3512   4764    612   6664
4   2276   1086   2300    746
4   6739    125   5090   4974
4   4349   4597   4825   4540
4   2928   5580    762   5597
4   6493    487    541    294
4   4523   6204   5650    576
4   1079   4975   4976   5989
4   4975   1079   1044   5989
4   5284   2818   4974   3155
4   1233   5845   1482   2931
4   2930   4832   2932   2931
4   1233   4014   2362   1482
4   3071   3514   3515   5164
4   4374   6014   2931   4480
4   6855   5165   3514    703
4   6714   6889   6231   6890
4   5710   5947   2702   2703
4    409    650   2295   3581
4   2825   3381    509   3882
4   3437    703   2881   5165
4   6855   3515   5164   3557
4    409    650   3581    324
4    319   5442   2606    409
4   5442   2295   3580    409
4   6591   6590   3290   3177
4   6142   3581   2295    650
4   5112   6129   5192   3084
4   6080   3548   5043   4161
4   4564    481    620    625
4   3606    303    481   3084
4   2070   5637   4821   4822
4   6493   5594   6278    293
4   2752   4396   3519   2661
4   5465   4036   3943    282
4   2340   4490   4491   5373
4    303   3083   3606    619
4   6129    303   3084    481
4    651   3491   3530   3528
4   2391   3061   2441   5937
4   4564    481   5112   3606
4   4564   4808   5112    625
4   5384   5047    644   5161
4   4753   6288   4788    727
4    568   6376   3992    570
4   2294   5763   6142   2295
4   3548   6141   5609   5610
4   3863   3549   6145    413
4   5081   6369   2941    557
4   6777   5043   5047   3164
4   6410   5047    520   5046
4   2526   1300   1382   6411
4   2529   5329   2877   6820
4   4968    364   4999   2984
4   6586   6149   5610   3198
4   6777   5609   3548   6141
4    360   5764   6436   5765
4   4032   5145   5144    429
4   6359    195   6706   6647
4   2106   2104   1306   1387
4   2106   2070   5937   5938
4   2106   5938   6402   2070
4   3401   3705   4722   4721
4   4096   4722   3706   3705
4   2157   6472   2904   5814
4   2385   2498   6640   3184
4   2157   6761   5814   5034
4   2663   5449   2280   1323
4   1831   1832   4378   1826
4   5381   3584   3561   6631
4   3584   1832   3561   1826
4   5163   5970   3658   5957
4   4196   4965   6583   5913
4    656    454   4196   5311
4   3457   5683   3685   5684
4   2481   2682   5264   6066
4   4953   3006   3429   3691
4   6115   3430   3594   5956
4   2161   3106   5367   2615
4   2463   6794   6555   1206
4   6592   3177    381   6590
4   4711   4063   1195   1200
4   5264   1242   1182   4244
4   2797   4979   1667   4978
4   2146   6456   6689   5663
4   2481   2732   5246   2731
4   2285   2286   2288   2125
4   2108   2158   3188   1357
4   1212   1232   5015   4884
4   1749   5191   1748   3252
4   1485   1231   5191   4884
4   4319   1369   1374   2949
4   2949   1293   1374   4319
4   1372   4314   1373   4319
4   3204   3140   4039   3205
4   3876    262   6300   3016
4   4710   3876   3016    262
4   2768   5639   5638   2767
4   2796   3805   3791   1239
4   2796   1240   2797   6671
4   3539   6484   1488   2014
4   2768   5638   2862     98
4   2796   6485   3000   3791
4   5284   2818   2913   4974
4   2934   5090   5035   1072
4   5084   4974   2913    126
4   5081   5574   6369    573
4   2768    579   5574    573
4   2768   5574   5639   2767
4   3382   5638   6552   1885
4    253   3324   6320   3635
4   2768   5639   5574    579
4    365    583   3870   2922
4    583   3986    365   4706
4   5171   3291   5361    381
4   5084   4527   2913   5285
4    365   4707   3459    417
4    365   3870   3034   2922
4   4370    494   5598   6781
4    365   3034   6436   3459
4   2922   3986    365    583
4   6520   3021   3868   3323
4   3020   4559   4393   3635
4    478   4289   5211   3966
4   4787   5706    583   2714
4   4706   4703    583   3986
4    281   3494   4702   6304
4    587    139   3635   4559
4   4370   6071   5598    494
4    581    283   4787   3360
4   2291   6216   6711   3050
4   2047   6203   6189   6139
4   5832    491   6781   6321
4   2123   4998   2428   6531
4   2303   6755   5713   2628
4   5857   3693    309   3692
4    587    139   3019   5357
4   3692    309    488    566
4   3692    488    412    566
4   6070    289   6078   4572
4   6070    289    491    266
4   2306   4560   2628   5713
4   2758    228   4116    235
4   4339   4800   6710   6518
4   2301   6099   3171   5990
4   6577   6798   4083    556
4   2514   1443   1260   6222
4   2520   2567   5159   5160
4   2174   4423   1193   1194
4   2494   2408   1215   1217
4   2269   4575   1192   1203
4   2494   1517   1480   1215
4   3602   1479   5429   2463
4   1219   1752   4424   2323
4   2479   4001   1327   2979
4   1816   5120   2667   5544
4   1879   2494   1837   1850
4   2382   3778   2835   3075
4   2205   6451   4631   5834
4   2269   2463   1203   1192
4   2328   2927   2926   6361
4   2323   4326   3852   4325
4   5554   3375    730   6518
4   2676    241   3554   3471
4   6261    234    695   6563
4   2744   4716   4495   4717
4    882    858   1703    883
4   5554   6518   4339   3375
4    492    494   6321   5598
4    858   1703    883   1736
4   1804    883   1703   1736
4   1804   1736   4888    883
4   1620   1237   3366   1657
4    859   2025   1870   2837
4    584   4723   4690   6130
4   1237    858   1089   1620
4   4887   2794   1486    865
4    263   6318   3054    276
4   1620   1656   1237    858
4   2758   4116   4338   6710
4   6302   5860    599   4381
4   1736    858   1703   1237
4   2368   3995   3751   3749
4   2458   2924   4399   6734
4   2059   3482   2551   4842
4   2681   2942   1830   6273
4   5641    312   3970   4174
4   2639   5215   5078   5863
4   2368   3751   4842   5441
4   1864   4174   4173   5861
4   1865   6273   1830   2942
4   2377   2496   6838   3642
4   5063    345   3244    329
4   6281   5148    463   5576
4   2463   1205   6555   6794
4   2219   2178   2559   2976
4   2481   2682   6066   1206
4   4802   3683   2705   6627
4   2639   5215   5645   1838
4   6308   3243   6348    482
4   5950   6591   6592    363
4   2942   2861     98   2681
4   4174   1807   4891   1864
4   3882   3516   3437   6230
4   5487   2380   6691   2691
4   3882    327   6230   3381
4    705   5209   5213   6383
4   2281   6818   4680   3316
4   6590   6591    354   5340
4    401    369   3288   3449
4   4089   2990   5984    210
4    336   3512    287   4010
4    758    369   3288    401
4   5161   6778   5384   5047
4   2258   3761   5111   2367
4    645    646   6192   5771
4    646   4371   6192   5771
4   2318   3004   6404   5358
4   5583   4677   5103   5232
4    401    369   3449    674
4   3789   4909   5771   3288
4   3179   4123    456   5232
4   4899   3529    674   3165
4    674    369   3449   3450
4    401   6613    674   3449
4   4950   5395   4898   6352
4   6166   6170   5204    214
4   3877   3672   4038   4039
4    328   6602   4548   3494
4   3092   2343   4864   6403
4    215    421   4381   6602
4   2261   2455   2173   2171
4   6304   3693    215   3494
4    281   6232    252   4702
4    567   3693   6304   4702
4   6302    599   5860   3358
4   2208   2213   2100   2210
4   2310   6740   6741   6746
4   2256   5351   1458   2227
4   2261   2172   2262   2171
4   5857    309    215    421
4   6302   6517   4304   3358
4   6302   6842    242   4304
4   2314   6039   4634   6823
4   5857    309    421    488
4   2038   3311   3960   3312
4   1292   3562   6787   1245
4    795   4542   5718   5577
4   2328   2926   5200   6249
4   2173   3540   3541   6453
4   3581   4963   4259    650
4   2416   1371   1301   6507
4   2173   2171   6349   6494
4   2415   5005   5625   6086
4   1290   3541   4455   5206
4   2173   1288   1370   6507
4   2173   5668   6453   4156
4   5206   2456   1288   2173
4   6496   2949   6497   1374
4   2456   2173   4170   2415
4   2261   2173   1370   6507
4   2526   4455   5738   3541
4   2104   6726   4058   6144
4   2099   4836   2106   6400
4   2192   3398   3167   4810
4   2511   4418   5327   2545
4   1273   2387   2441   4917
4    438   4122   4115   3800
4    438   4115   4118   3800
4   3215   3800    477    438
4   2101   4056   5362   3092
4   2070   4821   5637   4093
4   3326   3285    719   3819
4   2342   1381   3650   3093
4   2070   2106   5937   2342
4   3178    715    477    468
4   2342   4491   3092   4864
4   3178    393    477   5089
4    393   4122    477   5089
4   2318   2103   2259   5454
4   2443   4490   3009   3008
4   2850    455   3326    450
4   2575   2218   4171   2389
4   6619   4573   3401    335
4   6636   6817    414    415
4   5736   6636   6817   3524
4   5978   6625   5933   6626
4   5728   3533    446   4782
4   5575    418   4608    378
4   3138   4609    737   2657
4   6648    373   6584   6585
4    450    719   3285   5124
4    371   3534   6286   4508
4    461    414    415   5411
4   4543   6636   6817    414
4   4543   6817   6636   3524
4   5342   5945    720   3675
4   3658   5971   3659    718
4   2318   4052   4300   3004
4   4031   6834   2452   1852
4   5411    415   6636    414
4    453   6639   4543    414
4   2104   4056   4300   4052
4   4491   2342   3092   6028
4   5698   2443   5492   5372
4   5781   5782   5778   5787
4   6400   2100   3563   3650
4   2389   2386   2575   2218
4   2385   2498   3184   2352
4   6272   3212   4460   5066
4   5806   3161    256   5942
4   6270   3161   5806   4460
4   6272   5066   4460   5911
4    251    254   2826    691
4   4991   3440   6169    677
4   6272    691   3212   5066
4    211   5908   3806   4588
4   3161   4460   5911   5942
4   6270    240   4460   5806
4   2753   5566   5567    615
4   6801   6169   4592   6806
4   5942   4246   3698    256
4   3163   3162   2842    271
4   3142    255   3162    225
4   4522   4779   4690    692
4   5983   5602    261   6477
4   4940   6641    255    257
4    728   5433   6850    246
4   2316   4679   6657   5426
4   4957   3015   4487   6792
4   2310   4517   6007   4047
4   4567   4090   5601   5600
4   5958   3901    318    759
4   5958   6174   6163   3901
4   4957    554    232   6457
4   3741    647   5046   2717
4   5789   5058   5793   4720
4   5958   6177   6163    343
4   2071   5141   5482   6470
4   5123    313   2725   3078
4    642    643    663    369
4   2032   2065   2075   2071
4   2436   6238   2245   3143
4    704   4935   3281   2864
4   2631   2438   2632   4621
4   6605    639   5245   3287
4   5564    615    604   5566
4   6328   6307   5167   3223
4   5350   2480   4427   2385
4   2448   2276   2527   3922
4   2410   5391   2411   1641
4   2410   5076   2448   2445
4   2384   3921   2918   3922
4   2410   1640   4034   4035
4   3543   5720   3956   6595
4   2410   2935   4035    791
4   2276   3922   3644   3921
4   6191   4281    627    739
4   4281   5725    627   4487
4   2410   1102   2276   5076
4   2384   1246   1102   1218
4   3956   4202   5720   3543
4   2276   3646   5072   6140
4   4484    550    545   6795
4   6595    525   3276    523
4   6705   6885    627   5725
4   6246   3289   4228    525
4    533   6886   2823   2988
4    621    631   6883   5620
4   2317   2472   6097   2581
4   2386   2457   2389   2575
4   2432   4993   6549   2641
4   2440   6530   5517   4098
4   6452   2239   4108   2086
4   2338   2337   2079   2349
4   3276    524    525   4228
4   2440   2357   3476   4633
4   2237   4109   4108   4107
4   5568   4202    527   3289
4   4927    472   6854   5716
4   2088   5062   3113   2181
4    741    472   4927   5716
4   4928   4021    435   2582
4   2406   5320   5665   6067
4   4927   4020   6893   4928
4   4705   3527    273   4336
4   4705   3867   3527   4336
4   4705   3527   4707    295
4   4707   4704   3527   4705
4   6377   4707   4704   3527
4   4700   3076   3139   5555
4   2440   3477   3475   6545
4   2373   2407   4181   4740
4   4372   4705   4704   4707
4   4707    295   3527   6377
4   4705    295    273   3527
4   4707    417    295   6377
4    295   4511   3526   4709
4   1190   3729   4335   1476
4   1475   4585   1188   1476
4   3366   1657   2959   1620
4   2715   3123   3565   4859
4   2167   1877   1878   1822
4    203   4795   3139   5555
4   4947   3954   5992   3951
4   4709   3459   6377    417
4    295   3240   3527   4709
4    295   3527   3240    273
4   2131   6690   2847   1340
4   2146   3304   3151   5658
4   5133   1875   4579   5132
4   1642   2411   2518   1173
4   5457   4900   5541   6063
4   2270   2272   5227   5457
4   2275   2272   6441   5692
4    320    366   6718   6572
4   4219    355    320    515
4   3953   3759   5521   3952
4   3953   3950   3949   3951
4   4222   2966    380   4359
4    244   3950   3949   5521
4   4218    410   6571   6309
4    244   5521   3952   3950
4   6480   2990   4635   4186
4   6481   4724   6480    688
4   2713    266   3386    770
4    492   5598   6321   6742
4   3953   5521   3949   3950
4   3351   5521   3949   3953
4   6070   2734    289   4572
4   2990    210   4635   4186
4   2990   4186   5984    210
4   4186   4635   6120   5018
4    630   3996   3231   3232
4   5018   4635   6120    165
4    165   5017   5018   6181
4   3603    658   2881   5477
4    210   5018   5984   4983
4   6850   6480   2990   4635
4   5708   6811   5975   4935
4   5209   6383   6264   5213
4   4976   3349    793   5989
4   1880   1671   2494   1480
4   6591   6592   6590   3177
4   4424   1671   2323   1753
4   2463   1213   1203   1192
4   5566   2753   5564    615
4   2323   5374   4326   5303
4   5476    658    509   5340
4    773   3623   4970   2748
4    772   6394   6395   4651
4   3883   5340   2825    733
4   2212   5303   4430   5691
4   2272   6441   5427   4130
4   1217   2408   1215   6715
4    774   6394   4807   6395
4   3964   6592   5950   6593
4    795   4542   5577   5590
4   6787   5071   6776   1411
4   2084   1390   1334   2633
4   2213   2210   2786   1280
4   2506   6026   4986   6523
4   2099   2324   2102   2100
4   2325   6305   2807   2324
4   2236   4132   5244   4692
4   2081   5443   4253   6765
4   2167   1681   2168   2166
4    750    636   5024   5348
4    633   5024   4820    635
4   2439   5408   5407   2543
4   5767   4194   4817   5616
4   2440   4100   4280   6095
4   2361   2094   3121   3122
4   5024    636   5616    635
4   5178   2759   5767   3449
4   2795    462   5817   4765
4   2366   3851   5813   5030
4   2551   2368   2359   2059
4   5616    635   5615   4820
4    750    760   3159   4817
4   2366   5813   3851   2589
4   2359   5440   2476   5441
4    795   5577   5718   3348
4   3998    913   5119   1471
4   4784   2795   5348    636
4   2501   4062   2584   2622
4    636   5172   4784   2795
4   2183   6656   4215   5546
4   2183   1445   1406   5547
4   2316   6657   4679   6007
4   2188   2301   2314   2187
4   2758   6710   4305    697
4   5217    160   4590   3445
4   5337    235    599    236
4    160   3445   4589   4590
4   6302    235    599   3358
4    784    783    217   3879
4   5146   4248   6271    307
4    913   1471   5262    824
4   2501   3293   3294   5537
4   3702   4497    820   2982
4   4365    599    601    596
4   5118    782   3101   4756
4   2201   5241   2122   6027
4   2198   2194   3167   2195
4   3562   6786   4075   1245
4   2198   5345   1430   1394
4   2194   5481   2121   3022
4   2328   5481   2927   6450
4   2194   3022   2328   5481
4   2201   2817   5242   5241
4   6501   2194   2195   6450
4   2262   5014   6046   5015
4   2200   2201   4823   2817
4   2838   3222   5552   1870
4   5552   5038    751   3017
4   2241   1424   1394   1428
4   1865     20   6273    662
4   2415   6507   6506   1288
4   2508   2784   2785   2761
4   5038    751   3017   2765
4   5038   6273   2765   6553
4   5071   5332   5073   1391
4    296   2742     20   5038
4   2509   2371   4699   2515
4   6569   4963   4259   3581
4   2195   6550   5438   5093
4   5205   5344   2191   4234
4   3512   6664    749   4764
4   2455   6311   6505   5678
4   2414   2456   2415   1283
4   2327   5535   1405   2192
4   5038   5924    751    296
4   2192   1435   1405   1436
4   1044   5989    792    793
4    796   1087   4322   3074
4   2504   3562   2530   6514
4   4322   3074   4323   5685
4   5767   2759   4820   5615
4   5068   5462   4289    474
4   4318   5685   4862   4323
4    713   5586    416   4894
4    638   4820   5245   5615
4    642    637    431   5245
4   2398   1266   1270   1388
4   2759   4820   5615   5245
4   3671   4658    456   4603
4   3191   2417   2184   1276
4    364   2984   4676   4999
4   4795   3139   5336   3898
4    646   6192   4371   2984
4    642   2759    637   5245
4    401    674   6613   3529
4   4356   2188   4355   5990
4   2351   4309   2096   3330
4   3730   5508   4133   2182
4   5086   5752   5085   4817
4   2262   1212   6084   5719
4   5767   5615   3450   2759
4   5085   4194   5767   4820
4   2188   4355   5990   2304
4   5469   5460   5543   4079
4   6171   2695   2954   2952
4   2091   5100   4866   5740
4   3566   4815   5290   1819
4   2230   4692   4425   4143
4   6171   6172   5077   2695
4   2066   3763   6175   4478
4   2504   2529   5329   2530
4   6468   2069   4003   5805
4   2493   2566   3118   2578
4   2695   1764   6172   5077
4   2119   2512   2053   5258
4   6171   1819   2953   2954
4   2068   3912   5307   5309
4   1819   4815   2954   2695
4   2143   4065   1338   1451
4   2127   2126   2128   2125
4   3971   2216   2143   2139
4   2161   2086   3911   3106
4   2068   6809   4612   4005
4   2068   5131   5309   5304
4   2319   6630   6628   6391
4   2486   3315   3394   5488
4   5355   2105   2227   4027
4   2486   3395   5488   3394
4   2163   6444   4072   6072
4   2878   2200   3928   2204
4   2176   2131   1269   1224
4   2477   4531   3778   4110
4   2277   1307   2234   2130
4   2141   3152   4064   4725
4   2499   3977   4689   3917
4   2119   6693   3915   4689
4   2144   2286   2128   5400
4   1440   1449   2240   1401
4   2142   2872   1457   1210
4   2141   3786   6310   4725
4   2147   1209   4793   3786
4   6156    208   6848   4018
4   2504   1300   2529   2530
4   4894    795   4542   5987
4   5344   2529   5329   2504
4   5182    468   4467    715
4   2093   3589   5900   6427
4   2051   3390   3961   3389
4   2240   2236   2055   2230
4   2299   2627   6852   2297
4   2285   2288   2286   2266
4   5182    715   3178    468
4   6747   5643   5587   6819
4   4604    406   3128   4766
4   1300   5451   6644   2504
4   1372   4315   4314   4316
4   4314   1373   5453   2969
4   1390   2089   3238   3361
4   2828    502    285   5966
4   2483   2365   2368   4842
4    285   5181   5180   6804
4   2083   1390   2633   3361
4   5980   5948   6570   5256
4   5980   5657   4546   5948
4   2229   5735   5734   5514
4   2086   3359   4581   2237
4   5966   4546    286   4547
4   2127   1365   1363   3029
4   2417   2780   1276   3191
4   2380   3315   6092   3394
4   4547   5967   3697   5428
4   2189   1385   1447   6458
4   1402   3339   1282   2186
4   2288   5926   6783   5928
4   2288   3506   5927   5928
4   3077   5555   4700    594
4   2392   6658   3339   1460
4   2392   5474   6117   1413
4   2519   6205   2385   5350
4   3160   1595   3473   3472
4   5879   1202   4465   3294
4   4826   6363    914   2658
4   4714   5778   5782   1197
4   1276   1431   1282   2186
4   6793   6706    203   6791
4   2224   3536   3725   5101
4   2501   2109   3063   2216
4   2183   2316   2185   2320
4   3204   3205   4039   3672
4   2390   2388   4846   5371
4   2423   5208   3089   3378
4   6261    234   6563    227
4   2393   1389   3338   2199
4   2462   6745   5470   2451
4   4515   2175   5503   2710
4   6766    504   6297    495
4   3582   4948   3951   3954
4   2176   5323   3553   6665
4   2490   6406   5010   3772
4   2490   6880   2174   4164
4   2176   1269   2609   1194
4    231    768   6248   6078
4   2490   2609   2378   4423
4   2489   5315   5505   5091
4    203   6706   3931   6791
4   2491   3030   4376   4112
4   4790   3235    770    291
4   2143   3972   2216   3971
4   1482   1233   1179   2362
4   6499   3351   3949   3953
4    492   6742   3073   5598
4   5825   3386   5832    770
4   2609   2176   1194   4423
4   2145   1211   1224   1461
4   2086   3910   3359   6452
4   2174   4164   4163   2712
4   2139   2920   3786   4725
4   2492   6406   5935   4880
4    615   2753   5564   3941
4   2490   6875   6877   6880
4   2112   5239   5523   1356
4   2156   5661   5317   5316
4   6421   5580   6596    293
4   2277   3639   2263   2401
4   3005   6443   2264   1361
4   4541   5973   4730    440
4   3972   6228   2165   5997
4   2222   6224   1361   1357
4   2179   6355   2181   3113
4   3785   4578   3788   1092
4   2115   2535   6409   2062
4   2224   2162   2215   2222
4   2505   2109   2107   2113
4   2113   2062   5777   4257
4   2142   2144   1457   1404
4   2115   6409   5142   5677
4   2115   5675   5677   5142
4   2181   6354   4258   5062
4   2216   2165   4065   2215
4   2162   1357   1361   6443
4   2108   1339   1355   4426
4   2181   5101   4257   5104
4   2108   1337   4426   1357
4    713   4007    416   5586
4   2224   3725   3726   5101
4   2309   2181   2224   3726
4   5799   4128   5802    337
4   2179   2534   2535   6355
4    366   5802   5798   3321
4   2177   4840   5931   6188
4    366   3321   4125   5802
4   6625   4966   5933   6626
4   2309   5102   4831   6105
4   5736   6636   5404   6839
4   4127   6572   4358   6718
4    334   5493   4358    515
4   4100   2440   4280   2087
4   2337   4293   4294   4155
4   5212   2699   1474   1510
4   2088   2181   4258   5062
4   1073   1475   3024   1750
4    881    858   1736    865
4   2139   1360   4065   1451
4    795   5987   5718   4542
4   1279   3729   1655   1477
4   2109   3972   2215   3822
4   3911   2309   2086   2224
4   5190   2262   6046   5015
4   1736    881   4888    883
4   1750   1089   3024   1073
4   2139   2919   1451   2045
4   2139   2920   4725   4064
4   5396   4938   2965   5197
4   1188   3366   1657   1279
4   2216   2946   4863   3972
4   2156   6489   2144   5317
4   2141   2147   6018   5287
4   2287   3815   4857   6433
4   2402   6431   4847   6430
4   2216   2919   1248   1360
4   2290   2266   2288   5920
4   2139   2920   4064   3971
4   2216   3972   4863   3971
4   2139   2045   1451   4028
4    721   4009   3524   5057
4   5976   3818    732   4008
4    407   3821   3086   4777
4   3327    732   3819    719
4   2437   5866   3599   2793
4   2922   5706    583   3870
4    365   3986   2922   3034
4   2472   4295   5056   4627
4   2437   4798   4216   4273
4   6798   5765   6436   3034
4   2458   2589   2924   5813
4   2364   5377   2064   5376
4   2037   2635   2470   3335
4   6031   3404   3765   3958
4    372   3957   5833   4544
4    556   6436   5765   3957
4   5039   2358   2356   6680
4   2317   3486   6428   2968
4   6798   5711   3870    556
4   6798   3870   2922   3034
4   2094   2686   5895   5029
4    539   3811   3663   6186
4   2093   5901   2092   5028
4   6128   4348   3433   2937
4   6372    542   6265   2921
4   2081   2478   2672   6765
4   4542   5987   6254   4894
4    542    534   6265    539
4   2034   6428   2400   2968
4   3902   2899   6789   3333
4   2489   6876   2820   3264
4   3434   3605    537   2937
4   5593   5594   6278   3372
4   5229   5231   4770    673
4   2088   2432   2641   4168
4   3718   2330   4155   6131
4   3228   5993    756   6276
4   3228   5452   6276   6277
4   5592   5283   5282    558
4   2239   6096   6452   4726
4   2460   2588   4262   5006
4   2440   6678   6095   4280
4   6789   5954   2885    499
4   2353   2352   2327   2385
4   3214   2331   6152   2432
4   4744   6360   4942    249
4   2309   6105   3911   3648
4   4338   4800   4116   5553
4   2506   2406   4167   6544
4    165    210   5018   4635
4    689   4942    249   4473
4   2480   3728   5906   4427
4   6457    554    738   4487
4   4942   4473    284    249
4   4089   6477   5983    261
4   2385   6640   2498   2248
4   2498   5907   3256   3168
4   2091   5740   3301   5100
4   2507   1251   1256   5377
4   2159   2267   2264   2237
4   2385   3710   4427   5350
4   2519   4291   5349   5929
4   2136   3329   5939   6475
4   3090   2480   5906   5350
4   2091   5309   3301   5304
4   2160   5400   2144   2158
4   2336   5325   5158   2567
4   2091   5109   3301   6061
4   4402   4914   4747   4403
4   4014   2659   2658   4015
4   2525   5498   2659   6504
4   2710   2174   2712   2711
4   2711   2362   2710   2174
4   2095   6684   3961   2958
4   1224   2175   2131   2145
4   2489   2378   2383   2404
4   2176   2175   5503   3553
4   2362   2147   1482   3666
4   2142   2145   2147   1210
4    650   3581    324   4259
4   2278   2730   1415   1322
4   6569    324   3609   3581
4   6118   2125   5431   6782
4    650   4259   4439   4963
4   3609   6622    324   6251
4   2191   1411   2504   6776
4   3609    324   3580   3581
4   2443   2388   2444   2729
4   2278   3260   5533   4042
4   2443   2729   5372   5698
4   2218   4171   2389   3052
4   5404   6636    415   6839
4   2444   5372   2729   5370
4    700   2702   2703    641
4   5234   3205   3140   3439
4   5946   5164   3570   3557
4   4966   5933   6626   5912
4   3570    659   3571   3558
4   5234    243   3140    250
4   5958   3691    343   6174
4   4937   3205   4039   5234
4    257   4991   4937   3439
4   3142   3140   3439    257
4   2466   3495   4106   6088
4   4445   3896   3993   2471
4   3142    243   3141   3140
4   2524   5715   6225   6109
4   2188   2299   2301   2206
4   2306   2688   2687   4411
4    225   4461   3141    220
4   4700    596   5336   4365
4   2095   3961   6684   3962
4   2196   2197   2206   2204
4   3990   4938   4360   2965
4   2051   5628   2812   3389
4   1077   5987   5718    795
4   5992   3951   3235    291
4   4947   3954   6742   5992
4   6499   2646    766   3949
4   2368   3751   3995   3994
4   6499   2646   3949   3351
4   2320   3893   6459   5539
4   6499   3235   3951   3949
4   2197   4308   4961   2238
4   2397   5744   4474   6859
4   6499   2646   3387    766
4    793   4976   3348   3349
4   1486    865    858   1626
4   2417   1420   3059   1422
4   2563   1295   2526   4455
4   2416   1296   5136   1301
4    865   4888   2794   1736
4   2102   2103   2099   1433
4   3922   2276   3644   4197
4   2838    157    751   5552
4   5235   2991   2845   4886
4    858   1626   1620   1656
4   2386   5995   5884   4739
4   3221   3222    881   4888
4   1486   1626    858   1656
4   4178   4888   2794    865
4   4178    865   2804    969
4   2397   2444   5744   5492
4   3435   5818   2859   3862
4   2484   6837   4665   2916
4   2217   6325   3052   5415
4   2389   4171   5690   3053
4   3237   2083   3361   2089
4   1077   3348    795   5718
4   2356   3211   5039   6147
4   3126   2791   5067   2840
4   2840   4792   2791    754
4   2329   5694   2599   5696
4   2218   3052   4188   4171
4   2349   6135   4295   5882
4   2083   2086   2089   2264
4   2840   4792    754   2859
4   2237   2087   2366   2083
4   2333   2336   6390   5158
4   2136   3385   3329   2649
4   2075   6062   4626   3914
4   2237   2403   2366   2460
4   1748   4883   1824   5191
4   2319   4303   6391   6771
4   2474   6239   6772   4624
4   2515   4698   2974   4429
4   1749   3252   6047   5191
4   1231   5191   4884   2948
4   2091   4612   6768   2066
4   1478   5191   1500   1748
4   1875   6047   1749   3252
4   2317   5895   3840   5881
4   1959   6087   1809   1875
4   4851   6616   4428   6615
4   1825   5132   6047   3268
4   5191   4883   1824   3268
4   1500   1670   1748   4883
4   3678   3713    402   6024
4   6032   2950   1304   1369
4   1464   1290   3540   1304
4   2975   5453   1467   4389
4   3520    734   6599    490
4   6866   1369   5453   4593
4   6833   3520    734   4299
4   6600    503   3521    490
4   6422    503   5231    673
4   6422   5229    673   5231
4   5389   3744   6608    740
4   3573    653    648   3571
4   1283   2415   1463   6506
4   5585   6108    716    722
4   2173   1464   6498   6356
4   3748   4125   5495   5522
4   2260   2261   2455   1367
4   2205   2521   5679   1409
4   6032   1369   1304   6863
4   5969    359    731   6542
4    219    220   6300   3875
4   4946    484   3576   3575
4   6497   5678   1464   1374
4   4464    271   4461    225
4   4954   3430   6115   5956
4   3876   3016   6300   3204
4    211   3672   4039   3205
4    496   4274   6856   5512
4   3875   3141   4464   4461
4   3162    271    225   2842
4   3163    271   2842    222
4   2816   6763   5769   2815
4   5152    695   5153    696
4   2816   2815   6576   6763
4    325   2822   2914   4388
4   6868   2816   6040   6576
4   4522   4521    560    578
4   3677   4707   6377   3986
4   2208   3340   3651   5374
4   4736    385   4737   5152
4   2339   2341   4917   1381
4   5480    501   6060   3801
4   3699   5275   3289   3774
4    774   4807   6394   4286
4   3189   5126   4967   3824
4   2370   3641   2379   3812
4   5952    624   6219    680
4   3755   6000   6396   3754
4    605   6214    609    607
4   4346    605    607   6214
4   6640   2251   2248   2385
4   5952   6214    608    609
4   3879   5558    744   2983
4   3085    618    619   3083
4    603   5322   4026   4653
4   1379   2373   2346   1272
4   5759   3011   3225    614
4   2385   6206   6205   2353
4    626   3606    619    481
4   2303   5991   6223   6756
4   1220   2323   1219   1217
4   5470   4514   6745   2462
4   5800   4769    465    722
4   3653   4695   6011   6008
4   2524   3207   6110   5712
4   2155   2043   2136   6474
4   4934   6588   4158   4697
4   2524   3207   5712   5981
4   2955   3196    780   3197
4   3886   3065   3887   1666
4   2437   6832   3626   3625
4   2071   4029   2223   4046
4   5844    214   4017   3049
4   2094   4499   2686   5903
4   2259   2103   1376   1368
4   2073   6388   6471   5386
4   2175   2638   4515   5503
4   2146   5662   3151   6456
4   2156   5661   5316   6724
4   2438   4797   6238   3251
4   3045   3043   3044    671
4    546   2656   3046    547
4   3885   5725    670   6885
4   2438   2631   2632   2611
4   5114   5564    615    604
4   5567   3774   3289    606
4    678   3298   4749   4330
4    670   5725   4487    627
4   4281   4487   6792   5725
4   2071   3282   2223   4029
4   4955   2678   4952   5551
4   2436   2253   6473   2252
4    738    670    671   3884
4   5217    258   6720   4590
4   2035   2065   2034   2094
4    738   6792    670   3884
4    670   6792   5725   3884
4    670    627   6885   5725
4   2438   6238   3143   3250
4   6709   6792    738   3884
4   2437   3624   3627   3628
4    546   3272   3115   2656
4   4959   6844   2751   6190
4    544   3272   2656   4749
4   3114    551   6885    550
4   2318   2259   5455   5454
4    247   4958   4375   6190
4   2323   2960   4326   4327
4   3035   3884   4750    671
4   2494   2209   1217   2323
4   4767    726    739   6191
4   2102   1216   6112   1227
4    470   2726   3295   3296
4   6565    234   6566   6261
4   2102   5248   6058   6059
4   4281   4487   3015   6792
4   4955   4952   2678   6519
4   2171   4442   2265   6611
4   6705   5725    627   4281
4   1293   6497   1374   5678
4   1485   5015   2776   1232
4   4534   2257   2167   3248
4   2262   5015   5274   5013
4   2167   6617   4533   4534
4   4059   2205   5855   4632
4    923   3131   4176   1474
4   2845   2978   1659   4886
4   2025    969   1870   4178
4   2322   2183   3487   2185
4   2837   1629   2991   3132
4   2391   2441   3061   2398
4   2414   3562   4829   6696
4   2487   5004   6106   5893
4   3364   4157   3548    650
4   2101   2342   3650   6400
4   6254    796   5697   4894
4   2210   2786   1280   1274
4   2415   1301   5136   1463
4   3844   2191   3903   6699
4   4371    460    364   4676
4   2328   5201   5097   5098
4   2974   2973   2509   2519
4   2523   5530   4160   5531
4   2515   6205   2353   4429
4   2508   3267   2268   1244
4   3789   5771   6613   3288
4   2191   1450   1271   1309
4   2798   3783    743   4259
4   5758   5086   3559   4817
4    458   5103   4677   4676
4    485    701   6351   5222
4    679    401   6613   3529
4   3287   3288    758   5245
4   5583    456   5232    426
4    758   5245    639   3287
4    513   2716   3742   3740
4   2956   1677   2007   1881
4   4576    668   6398   4494
4   4576   6392   6398   6393
4   4342   6213   6285   6284
4   2756   1221   2754   3602
4   4342    276   3054   6318
4   5605   5769   6213    385
4   5054   1828   5541   3425
4   2578   2349   3779   5882
4    342   6285   6286   6287
4    391   5840   3321   3322
4   6868   6040   2701   6576
4   2335   1264   1257   1308
4   4342   4508   6285   6287
4    371   6285   5595   4508
4   2117   5302   4102   4101
4   2054   5496   5502   4870
4   2519   5929   2480   5365
4    391   5802   5799   3583
4   2479   4291   3266   2519
4   5736   5404   6337   6864
4   2527   4285   3881   6872
4   1304   1290   3540   3474
4    611   2629   3945   5465
4   2205   2202   2879   2198
4   2448   3858   2661   2660
4   2325   3850   4053   6259
4   2448   4235   2660   2661
4   2205   2879   2202   2521
4   2411   5391   6370   4180
4   2528   3645   1318   1316
4   2205   5831   2521   1409
4   1411   1245   6787   5071
4   2806   2747    514   5630
4   2101   4057   4056   3092
4   2099   3563   4742   3918
4   2104   4058   6726   5526
4   3058   4594   6196   1871
4   4000   2528   3999   1324
4   3736   6196   1840   3058
4   4367   2764    691    591
4    522   4397   5848   5192
4   2528   2655   1324   1316
4   2893   3776   2516   3777
4    251   2826    239   4939
4   2836   2479   4291   3266
4   2509   2972   3669   4159
4   5527   2826   4939    239
4   2489   1455   2404   2730
4   2826    691   3212    251
4    254    297   5527   6669
4   2417   6773   3191   1302
4   1327   1324   4000   5873
4   2327   2328   3022   5098
4   2249   2248   2256   2227
4   2268   3100   3722   3723
4   2278   1322   2282   1321
4   6641    255    240   6270
4   2489   1455   2730   1333
4   2528   2655   1316   1318
4   2516   3265   4827   4458
4   4939    251   3212   4460
4   2382   4002   3280   2891
4   2382   4682   4002   4746
4   4939   3212    251   2826
4   2382   4002   4682   3280
4   4000   2979   4001   2516
4   1333   2655   5874   6738
4   2177   6187   6188   5931
4   5874   4000   1324   5873
4   5445   6680   6147   2356
4   2239   4100   6096   4726
4   2406   6462   5320   6067
4   2406   5667   6462   6067
4   2036   1256   2635   2037
4   2472   6629   3621   4295
4   1308   2335   1264   1270
4   4833   2337   5041   4293
4   2150   5110   2697   5106
4   4997   2170   4471   4995
4   5443   2087   5408   5407
4   4919   6042   1552   5545
4   2489   2278   2730   2491
4   2721   6581   3136    512
4   2282   4307   5533   3279
4   5874   5873   1324   1333
4   2180   6381   6435   4984
4   2439   5292   6543   4633
4   6323   5395   6352   3078
4   2278   3264   2489   1333
4    485   5395   6352   6323
4   1323   1322   2279   1415
4   3660   6613    672   6306
4   6306    649    674    672
4   4899    649    674   3529
4    340   5361   3935   3768
4   2489   4874   4440   2820
4   2525   2174   1193   5693
4   2145   1457   5319   2847
4   5621    649   2694   5622
4   2492   2490   2174   6406
4    485   5222   4964   3529
4   4394    245   2899   3351
4   2404   1223   2489   2378
4   2488   6879   4423   2396
4   4272   5955   5770   4949
4    245   4395   6789   2899
4   4641   5770   5955   6788
4   5589   3403    714   5582
4   5087   6871   1849   4459
4   5138   6200   6201   6294
4   3087   6015   3696    292
4   4394    244   6788   5955
4   3119   5087   1908   5088
4    245   3949   6790   3351
4   2319   5673   3489   6772
4   2060   3637   4866   4033
4   2472   2041   4606   6076
4   2195   2198   1297   5835
4    461   5410   5411   5413
4   3816   3120   3041   3817
4   1842   6012   1814   5520
4   3946    441   5702   4778
4    401   3529   3165    674
4   5178    483   3448   3449
4   5135   4492   3199    644
4   2646   5994   4275   3013
4   3448    674   6613   3449
4    245   3351   4395   2899
4   5135    645   3199   2704
4   6573   4196    454   2901
4   2089   3238   3782   1390
4    372   6031   3679   5833
4   3406   3407   5979    396
4   5055   4946   4466    675
4   2481   2731   2463   1206
4   2089   3269   1343   4552
4   1466   1342   6643   3337
4   1258   1342   1466   3337
4   3647   3325   3182   3733
4   1258   6642   1466   1342
4   1487   3733   3805   3325
4   2639   5863   5078   6375
4   2177   2331   2434   2214
4   6642   1258   1466   1343
4   2239   2440   6529   6524
4   1883   3507   3277   3278
4   3457   5683   1835   3686
4   4319   2949   4593   1369
4   6488   5380   5762   5642
4   2768     98   2767   5638
4   5638     98   2861    798
4   3550   5540   1827   3380
4   5471   1827   1758   1835
4   3685   5683   3686   3684
4   6262   1868   5642   5762
4   4758   4757   5285   4526
4   6487   3001   6485   2771
4   3685   3684   4148   1869
4   2209   2786   3442   1281
4   4994   2269   2270   3192
4   1221   2754   6167   2756
4   2481   5246   2463   2731
4   6324   3173   3003   3455
4   4314   5453   1373   4593
4   2514   2040   2039   6081
4   1883   3371   5656   6486
4   5265   1399   2420   3504
4   1372   1373   4314   2969
4   5284   4980   2775   4981
4   3268   5191   3252   1824
4   4443   2258   4301   5358
4   2519   2479   5837   3266
4   3539   6484   3370   1488
4   3455   1524   3194   3371
4   5708   6811   4935   4350
4   2715   4859   3565   1475
4   1475   1652   2715   4859
4   1883   3507   6484   3277
4   6739   4981   4974   5090
4   1236   1653   4413   3565
4   1279   1657   1188   1477
4   6690   2821   2131   2609
4   1279   1477   1655   1657
4   2144   1404   5319   1457
4   2144   5319   1404   5400
4   1478   2776   1485   1749
4   2128   5604   5319   1469
4   2156   5663   2144   2125
4    605   6579   6219   6161
4    796   5697   5685   6254
4   2131   6690   1452   2821
4   4885   1499   4856   4862
4   4074   6165   4883   1873
4   4883   1874   1670   1824
4   6314   3622   6395    774
4   6396   4175   4969   6389
4   3136   5352   6316    350
4   2125   4376   5918   5318
4   2128   1340   5604   1365
4   2164   5366   3814   4582
4   2165   6227   3105   4072
4   1365   2126   3149   5604
4   2205   2521   5855   6347
4   3368   5996    603   5998
4   2125   5655   6689   2610
4   2173   5668   6356   6498
4    705    368   5464   6383
4   2519   5301   4509   5930
4   2163   2165   4867   2161
4   6551   4165   6541   3757
4   6317   6394   3825   4286
4   4433   6826    514   2739
4   2212   5303   4409   5375
4   4650   4653    603   3825
4   4632   2202   2205   5834
4   2318   4053   4052   3004
4    355   4357   4222    347
4   5766    268    396   3233
4   2951   3196   2995   4646
4   5743   3196    778    898
4    268   3424   2995   3233
4   1816   2667   2666   5544
4   2667   2665   1815   2666
4   6789   4275    767   5816
4   2667   2665   1818   1815
4   2719   5968   6542   5962
4   2929   1753   2166   6614
4   2166   5120   3853   2522
4   4804   2666   5544   1816
4   3234   4646   2995   3233
4   5389   2962   5393   5392
4   3470   4661   4536   2955
4   2390   2441   2444   2446
4   3201   3872   4922    724
4   5850   5545   1643   1552
4    533   2988   3202   3298
4   2518   5746   3667   6858
4   2443   4822   3505   5698
4   3229    761   2670   2713
4    289   4369    566   4337
4   2734    289    412    491
4   2340   2386   4516   6510
4   2397   6859   5492   5744
4   2394   4091   1385   5207
4   3305   4822   2342   4821
4   3147   1386   4092   2422
4   2342   3305   6028   4491
4   2133   2843   5472   5473
4   2494   4587   2272   4430
4   2519   2973   5563   2974
4   2134   2651   5490   2648
4   4509   2515   2519   4510
4   2493   6101   5039   6132
4   1850   1837   5756   2494
4   2133   6891   6892   5473
4   4341   5227   4587   5941
4   2270   1833   1882   3929
4   2132   2617   5208   2843
4   2270   4994   2590   6327
4   4341   4535   5941   4587
4   2134   2843   6892   2651
4   2133   2843   5473   6892
4   4954   2583   3429   3430
4   6857   3594   5959   5166
4   2186   3339   1410   6117
4   5166   3594   6233   3593
4   4927   6851   4021   2582
4   6341    418   2657    446
4   5166   3593   6857   3594
4   3594   3593   6857    449
4   5312    718   3659   3428
4   3574   3125    653   2855
4   2204   5051   2878   4936
4   4632   2202   4059   2205
4   2248   3169   5430   3168
4   1304   3474   3601   1290
4   3431   3862   3861   5818
4   6551    755    682   3307
4   2243   2296   4415   5509
4   3572    653    659   2855
4   3604   3966   3070   4289
4   3126   2840   3435   4792
4   3431   5065   6685    683
4   5986   3861   2859   5818
4   2247   5051   6824   3169
4   2336   2640   2567   5158
4   2173   6505   5206   1464
4   6335   6334   1898   5023
4   3859    754   6686   2840
4   3252   5191   3268   6047
4   3660    672   3500   3501
4    384   6022   5177   3500
4   5085   5752   5767   4817
4   3313   4883   1824   4074
4   5191   2948   5190   4884
4   2160   1364   6443   1362
4   2205   1408   1295   1432
4   3449    483   3448    674
4   2164   3813   3814   6447
4   3200   6149   4962   6145
4   2165   4072   6444   6226
4   3574   3126   2855   6116
4   2162   2161   2159   2086
4   2322   2605   6663   3488
4   2437   3625   5027   6832
4   5823   2117   2071   2065
4   2840   2859    754   3861
4   3274   4312    592    419
4   1648   5331   6140   6664
4   2626   5331   1180   4975
4   1649   3349   5989   1044
4   1079   4976   4975    420
4   4975   5331   1650   6664
4   6256   2047   6760   2306
4   2487   2571   5008   5893
4   2461   2462   4050   2422
4   3606   3084    481   5112
4   2319   6628   6630   6629
4   6551   3226    755   3307
4   2319   6391   6628   6752
4   5561    303   3657   3084
4    619    303    481   3606
4   2041   4620   4605   4606
4   1010   6371   6635   5654
4   2431   2723   3846   5405
4   5105   2302   2305   2188
4   2242   2340   2343   4864
4   2369   3640   5022   6439
4   6816   6639    414   5411
4   6816   2720    407   4777
4   5413    445   5116   4354
4   5729   3766   2737   4782
4    466   3608   3794   3795
4   6865   3795    466   3794
4   1084   6371   6185   6635
4   2100   1366   4742   3563
4   2103   3461   4595   1368
4   1419   2241   2227   5351
4   6887   6371    534   2986
4   5849   3663   3662    787
4   2127   3029   1452   1365
4   2063   5271   5272   2538
4   2289   3094   2468   6093
4   2285   5919   5324   5927
4   5454   2318   2103   1294
4   2430   2287   6430   6433
4   2318   5526   1294   6260
4   2285   6719   6723   5324
4   2104   3919   2103   1294
4   2234   1418   1348   1421
4   2115   2505   2113   2062
4   1275   4904   2106   1387
4   1392   2083   2403   2428
4   2260   2102   5248   6030
4   2402   5513   2740   6431
4   2290   2468   3708   6093
4   2322   6663   2605   4838
4    567   3979   4369   3693
4    298   3347   3979   6512
4    298   3347   6512   6424
4    298   3979   3798   6512
4   3866   6320   3324   3867
4    589   3323   3899   4520
4   3797   3798    298   3979
4   4369   4337   3347    567
4   5592   5283   3414   5297
4   2049   2046   2047   2044
4   2186   2467   1413   1260
4   2197   4960   2238   4961
4   6833    330   5282   6808
4   2188   4306   2304   5105
4   5282   5283   5886   4016
4   1541   2775   3155   4980
4   5122   3998   5119   3157
4   5122    781   5119   3998
4   1241   1182   6211   4243
4   6211   4243   1182   1242
4   1242   4244   4243   1182
4   3747   4830   3417   1207
4   5122   2967   5117   4977
4   4977   4973   1667   2668
4   1258   3337   1466   1254
4   6643   3337   1342   1262
4   2435   1466   1343   6642
4   5280   5282   5075    558
4   3414   5283   5279   5297
4   3399   3802   5632   2889
4   6079   2075   5830   2048
4   2461   2313   2462   2421
4   2291   3392   2554   6684
4   2047   6218   6203   2690
4   2461   4050   2462   5470
4   2525   2565   2576   1646
4   2071   5140   5037   5141
4   1647   2576   2488   2492
4   2518   3367   1102   2410
4   1555   5654   6407   4550
4   5708    327   6230    702
4   2147   5287   4793   5501
4   3786   3787   1092   1209
4   2142   2872   1210   4028
4   2495   3263   4748   4875
4   2448   2527   2660   4235
4   2165   6228   6227   3187
4   2519   4429   2385   6205
4   2111   2112   6717   5523
4   5391   2410   6860    789
4    419   4976   4312   3348
4   1180   5331   1159   6140
4   2239   2309   2086   6452
4   1102   2518   2384   1218
4   2411   5238   3667   3262
4    453   4776   3820   4543
4   5227   2270   1833   1882
4   2324   4052   6305   5363
4   1817   3181   5290   4815
4    509    327   3381   5464
4   3416    732   5579   3818
4   2272   4587   5227   5226
4   2272   2431   3846   5019
4   2272   5427   5226   5227
4   5976   3818   6199   6463
4   2781   1776   5382   2665
4   4341   1833   4900   1828
4   4341   5227   5941   4900
4   2521   2322   2207   2202
4   4347   4390   4226   3537
4   3215    438    477    717
4    715   3215   3178    477
4   3178   5089    477   3800
4   3215   3178    477   3800
4   3215    438   4118   3800
4    468    393    477   3178
4    721   3524   4009   6626
4   2182   1412   4877   6458
4   4731    715    717   3215
4   2193   3167   5451   4810
4   5978   6626   5124   3285
4    409   5763   2295    650
4    721   6626   4009    443
4   4962   4999    332   4310
4   3285    719    443   5124
4   6622   4468    665   6251
4   5124   6626    443   3285
4   5442   5763    409    612
4   6551    755   3226   6276
4   6621   4657   6620   4656
4   2523   2509   3721   2268
4   4511   6802   6803    411
4   4159   3721   2509   6661
4   2194   1429   1437   1436
4    417    360   5764   6436
4   4707   6377   3986   3459
4   3364   6080    650   3548
4   2294    287   3274    300
4   6195    479    743    521
4   2827   3470   3469   4343
4   3470   3469   4343   4536
4   3470   3469   4536   4661
4   6107   4661    780   2955
4   6606   3762   4945    356
4   2462   4050   5889   3088
4   4848   5887   5892   4379
4   1373   6727   5453   2969
4   3882   3516    327    509
4   6442   3762   5953   4221
4   2422   1386   4092   5611
4   4215   5614   5681   1303
4   2950   1374   1369   2949
4   6594   4646   3234   3233
4   5619   4238   5618   4237
4   6606   5953   4945   3762
4   6209   2969   5617   6728
4   3196   4646   2951   4221
4   1303   4215   5614   2183
4   2519   4291   5301   5349
4   2519   4509   4510   5930
4   1249   2523   2509   2973
4   2315   4047   6007   3579
4   5350   2519   3090   2480
4   2213   6113   1280   2786
4   2100   4742   1366   1280
4   4510   4696   4509   2515
4   2262   1232   1212   5719
4   5461   6617   5021   1822
4   4576   4494   6736    479
4   2273   5247   5406   5246
4   2457   4675   2803   6838
4    277    502   6137   4220
4   2172   5190   2413   2416
4    277   4220   5966    502
4   2519   2479   5365   2480
4   2325   2807   4328   4327
4   6584    367   3794    373
4   2494   1517   2269   5456
4   2318   4302   4301   6404
4   1275   2106   5938   6402
4   2461   1447   2189   1385
4   6702   2510   4267   5016
4   2343   3441   2560   2809
4   6400   2342   3650   3093
4   3093   2106   6400   2342
4   2171   4392   2077   6611
4   2323   2168   2208   2213
4   2324   3651   2807   4327
4   2339   2101   2342   3650
4   3204    250   3206   6300
4   3991    628   3990   4360
4    211   3440   5908   3205
4   4789    600   4361   6180
4   4038   3204   3876   6300
4    243   3141   3140    220
4    887   4695   6291   3655
4   6270   5806   3161    256
4   2461   2189   2421   1385
4   2417   4850   4019   1426
4   1386   2461   5611   2422
4   2051   4415   3389   2812
4   3989    597   5846    595
4   3393   2412   2097   3390
4   6365   5846    597   5356
4   2385   6206   2353   2352
4   1804    883   2532    882
4   1805   4888   3221   2532
4    203   3931   2586   6791
4   3657   3083   3084    303
4   3597   3657   3519    618
4    316   5529    310    323
4   1805   4721   3707   3705
4   2838   3221   3222    881
4   4888    881    865   4178
4    881    883   2532   4888
4   6129   5561   3084    303
4   2838   1870    969   4178
4   1188   4585   1475   3565
4    858    882   1703   1089
4    569   6288   6207    574
4   1486   1736   1237    858
4    969    865    881   4178
4   2488   4555   5850   1645
4   1652   3319   4862   4854
4   2841   2842   3163   3162
4    882   3024   1860   1703
4   2532   3707   6632   3068
4   1237   1089    858   1703
4   2532    882   3068   6632
4   1798   1799   1848   2654
4   2653   2652   2654   1848
4   6207    573   5574    579
4   1798   1799   3510   3687
4   4078   5542   1817   3299
4   1848   1858   1902   2652
4   5573   6288    574   5574
4    580   3868   3869    589
4   4906    565    727   4907
4    727    574   6368   6288
4    727   4788    570    571
4   6569   3331   3609    324
4   3226   4165   3757   3756
4    602    511   3368    603
4   6317    511    603   4650
4    319    409    612   5442
4   6251    665    324    743
4   2428   2365   2364   2083
4   3609   3580    324   6622
4   1344   2264   2222   1361
4   6736   2375    306   6197
4    651   3491   3383   3530
4   6250   3331    743   6251
4    409   3581   2295   3580
4   2294   4010    287   5763
4   2264   1362   3005   3462
4   2371   3532   6249   3669
4   2115   5932   6408   2179
4   2165   3973   4718   4179
4   2970   2971   3738   3736
4   1798   2654   3510   1799
4   4347   3284   6825   4433
4   2126   2925   3149   1469
4   2286   1364   2925   1469
4   2089   2354   2600   3782
4   5683   1869   3685   1836
4   3237   2089   3238   1343
4   6196   1797   1811   3737
4   3652   2264   4552   6527
4   4145   2111   2222   2435
4   1848   4815   1858   3181
4   2461   5611   2422   4051
4   3687   3300   3510   3509
4   1798   1900   2653   2977
4   2083   3361   2541   1393
4   2264   3148   4552   6527
4   5077   5469   5543   1819
4   2307   2345   2308   5375
4   2267   4131   4206   5671
4    923   3132   1074   1474
4   5051   2204   3928   2247
4   4615   4752   4574   5060
4    654   4652    349    520
4   2328   5200   2927   5097
4   4334   2948   1228   5190
4   5511   4321   3681   5726
4   2948   4884   1228   5190
4   4884   6047   5191   1485
4   3739     66   3332    747
4   4197   5074   5788   3739
4   5964   3796    740   2903
4   2801   5074   3598   4468
4   5964   3796   2903   2749
4   5964    740   3744   2903
4   3942    316    282   3668
4   5964   2886   2903   3744
4   3668   5060   3942    316
4   4968    413   6145    364
4    647    753   4648   4654
4      7   6841   1886   1885
4   6619   4573   6743   6201
4    943      7   6841   1091
4   1081   1074   2015   1091
4   6619    335   6743   4573
4   4722   4142    397   3401
4      7   4398   2860    943
4    397    398   4142   4722
4   2322   2197   2196   6438
4   1886   6841   1091   2015
4   3218    943   4398      7
4    393   4022   3403    397
4   3403    335    397   3402
4   3341    440   3932   4122
4   1091   1886   1081    798
4   3296   4211   3295    315
4    694   5152   6750   6318
4    315   3296   2815   6764
4   4753    570   6368    727
4   5605   5769   2816   6287
4   6868   6763   2816   6576
4    574   5574   6207    573
4   6369   5147   5573   2941
4   4173   2766   2942    557
4   4906    571   3992   4788
4   5224   1868   5380   3561
4   2322   6655   2605   2561
4   2861   1830   2681   2942
4   4906   4788    727    571
4   5641   2766   4173    557
4   2942    557   2941   4173
4   5862   6601   6554   5699
4   2080   6173   2543   6176
4   4853   4852   2866   1851
4   2519   2479   3091   5563
4   2439   2080   2543   5407
4   2933   2580   2579   4031
4   2087   4278   5443   5408
4   2509   1285   1313   1249
4   2509   4159   3670   4160
4   2268   3634   3723   6124
4   2519   2479   2480   3091
4   2382   2282   2405   1328
4   2479   1327   5562   2979
4   2973   2519   2516   2523
4   5841   2516   4001   2479
4   2519   3777   3266   2893
4   2384   2517   3634   2268
4   4886   2025   5235   2837
4   3297   3202   2988   3298
4   2515   2371   4699   1184
4   2515   5535   1184   4698
4   3297   2763   2988   3202
4    785   5507   1552   6243
4   2488   2378   2490   2489
4   2201   6027   4905   5241
4    785   5507   3871    964
4   2327   4429   2515   2353
4   6503   4920   6504   6364
4   1552   5545   1643   6244
4   3026   4402   4747   4403
4   2516   1317   1312   2979
4   4922   3202    724   3872
4   3760   2986   5048   6580
4   2518   1173   4422   1642
4   1324   2528   3999   2655
4   2979   2516   2973   2479
4   2516   4827   3265   2893
4   2528   3999   6006   3924
4    727   4788   4907   6288
4   2518   2528   2517   3645
4    574   6288   6207   5574
4   2315   4513   5448   5612
4   5081   2941   6369   5574
4   6369    574   5573   6368
4   3969   4650   4653    603
4   6730   5934   5253   6726
4   3818    443   3819    732
4   2094   5903   2685   5902
4   2310   4048   6746   6741
4   2314   2310   2188   2189
4    380    338    375   4067
4   2082   3480   5704   6241
4   1415   2278   2279   2284
4   2472   2317   3486   2581
4   6838   2292   2457   5423
4   5422   4663   2292   6416
4   5051   2247   5050   2204
4   2359   6683   5259   5440
4   4399   2430   4400   4858
4   2339   3650   1381   4918
4   2092   5259   5896   5904
4   2457   2326   6513   5690
4   2061   6682   2876   6853
4   2091   5109   6809   5304
4   5445   2358   2356   2080
4   4675   2457   2803   2980
4   2151   2454   2138   2453
4   2247   2204   2200   2246
4   2086   3910   3648   3911
4   2309   2224   3725   3726
4    456   3287   5232    426
4   2202   2195   2205   5438
4   2088   5061   4258   2309
4   2504   6644   1284   1309
4   2081   3111   3112   2672
4   2200   2247   2248   3169
4   3971   6228   2143   3972
4   6516   6519   4282    739
4    739   4375   6516   6519
4   3646   3267   2907   2276
4   6862   3833   5070   2276
4   3644   2276   6624   5674
4   4952   4375   6190   6519
4   1245   6787   5332   6432
4    765   4897   4975    420
4   5190   1212   1228   2413
4   3592   4068   3629   6036
4   2294   2295   4010   5763
4   4282   6191   6516    739
4   2760   5073   3646   3643
4   4282   6519    224    739
4   5332   6432   2626   6780
4   5073   6140   5072   3646
4   3540   1464   5206   1290
4   2261   1185   6770   6507
4   6516   6191   4767    739
4    229   6190   4959   2751
4   3319   4862   6165   3124
4    274   4660   6366   5795
4   3039   5299   2900   3038
4   5738   3541   4455   1290
4   5560   3039   6366   5795
4   3541   2526   4457   5738
4   3730   2521   6038   1286
4   1084   6635   1010   6371
4   2456   6075   3541   2526
4    678   5796    544    543
4   1009   5654   3354   1010
4    642   3449   2759   3288
4   6492   6374   6370   6635
4   4180   6374   6370   6373
4   5457   5227   4900   4130
4   2481   2731   1206   6066
4   3552   3811   6186   3663
4   2411   4180   1641   5391
4   2518   4034   2411   2902
4   6751   1647   2576   2488
4   2463   2731   3602   1206
4   2463   6794   3602   1203
4   2463   5429   2731   5246
4   2275   3353   4670   4671
4   2275   2431   4811   3968
4   4576   6195   3740    668
4   3741    521   3742   5328
4    647   2716    513   4648
4   2481   2993   2732   6066
4   2066   3763   4478   4477
4   2075   5804   6062   4437
4   3741   3409   5775   5328
4   2061   6853   2876   4033
4   2044   4004   4006   5742
4   5328   5775   3741   3783
4   3335   6100   2419   1396
4   2359   5737   6683   5440
4   2291   3392   6684   2612
4    333   4067    338    380
4   3741   3742    647   2717
4   3164   5046   6775   2943
4   2065   6853   5307   5306
4   2060   2059   2876   2061
4   2090   5915   6796   3419
4   3629   6036    380    339
4   2093   3117   2620   2619
4   2065   4200   5002   3117
4   2704   3199   4492   5223
4   2480   3727   5929   5906
4   6410   5046   3164   5047
4   6410   4652   2717    654
4   2385   4129   4427   6640
4   6410   5046    520    654
4   2251   6754   6574   2074
4   6410   6775   5046   2717
4   2112   2464   2497   1319
4   2463   3602   2731   5429
4   2187   5266   1298   4824
4   2407   4421   1205   6712
4   2409   4419   1397   1250
4   2463   3602   6794   1206
4   2754   3602   5429   2756
4   1479   3602   5429   2754
4    273   3102    585   5659
4    585   3102   3697   5659
4   1214   3602   2756   2772
4   3592   5491   3630   4762
4   1214   2772   2756   3002
4   3602   2772   1206   2731
4   4979   4973   2669   1667
4   3958   4083   3765   5833
4   1206   2731   2772   3417
4   2481   6555   2682   1206
4   6712   2209   4181   1278
4   2482   2587   3410   4410
4   3232   3996   3231   3936
4   5967   5428    275   3697
4   5660   2030   2673   4277
4   5058   5789   5786   5784
4    701   2636   6351   5222
4   6874   5784   5783   5786
4   5593   3376   5256   6596
4   6306   4713    672   3660
4   2230   4138   4425   4139
4    679   3493   3529   6613
4   3493   3491   3383   5222
4   2235   3619   4871   3483
4   2420   1399   5265   5266
4   2475   5515   4532   3978
4   2475   5515   5486   4532
4   3493   3383   3491   5135
4   6352   4898   3078   5395
4   2486   3905   2236   4143
4   2227   2105   5355   5354
4   3448   6613    672   3660
4   6323   6351   5123   6352
4   2278   2489   2730   1333
4    564   4785   3830    565
4   4906   4785   6419    571
4   3229    761   2773   2670
4   2402   4847   2740   2424
4   2249   6828   6536   3617
4   2486   3395   3905   5488
4   2627   3172   2299   3171
4   2647   5994   3012   4276
4   3012   3013   4276   5994
4   6401   5578   1846   5649
4   2379   3967   6560   3812
4   3513   5086   5177   5752
4   4673   6667   4672   5382
4    767   4275   5994   4276
4   2884   6603   6277   2707
4    767   6789   5816   2885
4   5816   6789   5954   2885
4   2884   6277   5452   2709
4   6277   2707   2709   2884
4   2708   2885   5816   5954
4   1917   6401   5578   1846
4   1286   2183   1445   2182
4   2183   5546   4679   6540
4   2695   2954   5538   4815
4   6171   2953   1819   5077
4   2695   2954   2952   5538
4   2183   5546   5547   5251
4   2135   2134   2648   2531
4   2275   6064   6378   3353
4   1286   2182   1444   1287
4   5681   1467   6863   1303
4   5614   4848   1445   5547
4    642   3288    369   3449
4   2954   5538   3180   2952
4   2490   2174   6880   2176
4   3771   5935   2525   2174
4   5503   2174   2712   2710
4   3379   1828   3380   1827
4   2146   3151   2779   5658
4   2492   5545   4880   5935
4   2525   4920   6504   1470
4   2492   2565   1647   2576
4    569    565   3007   4907
4   2174   3771   2712   2711
4    589   4520   3938    253
4   4906    565   4907   3830
4   4511   4709   5764   6803
4   3866   4372   6320   4705
4    365    417   3459   6436
4   6377    417    295   4709
4   3677   3986   4703   4706
4   3677   4372   4707   4706
4   3866   4520   3324   6320
4   6613   6306   3529    674
4   5941   4341   4900   5460
4   5225   3007   4907    569
4   6306   6307   3529    649
4    569   4907   6288    727
4   4077   4078   1827   3550
4   5402   2664   5543   5077
4   6171   5077   1819   2695
4   2664   4673   6667   5077
4   6157   6848   6182   6725
4   5077   5543   5469   1791
4   5491   2886   2887   4762
4   5185   5389   5791   6607
4   3630   4762   5491   2887
4    964   1551   1552   5506
4   2763    849    964   5506
4   3594    449   5959   5956
4   2525   6244   1470   1646
4   1555   1061   4555   4772
4   6887   5048   2987   2986
4   3354   5654   2986   6371
4   2683   6174   6163    343
4   4401   4081   6722   3069
4   2990   6480   6850    688
4   4549    849   5760   5506
4   6481   4186   5984   2990
4   4185   6120   4635    246
4   5433   6850    246   4185
4   5850   1061   4772   4555
4   4635    246   6850   4185
4   4549    849   5506   1551
4   4185   6668    246   5433
4   2099   4742   6532   4741
4   4018   6725   6157   3049
4    208    205   6732   4982
4   2100   2345   2210   2339
4   2181   2111   2113   2115
4   3441   2208   2810   2809
4   2208   2345   2210   2100
4   2209   1204   4183   1217
4   5430   3169   2248   2247
4   2284   1329   2127   2130
4   2088   2181   2111   2222
4   4081   6156   6732   4401
4   1202   5724   3294   2502
4   2210   1274   1280   1366
4   2113   5104   4257   5777
4   4328   2961   2325   4327
4   3448   3660    672   3500
4   2181   3726   4258   6354
4   2502   2501   6342   2109
4   2178   6413   6414   2056
4   1217   2323   1219   2494
4   2142   4028   1210   1209
4   2485   6065   3837   2593
4    298   3798   3577    226
4   2786   2210   2209   5240
4   2324   2810   2807   3651
4   1486   1736    858    865
4   2464   2497   2407   2376
4   2099   2100   2102   4742
4   3366   1620   2959   1656
4   6663   4838   2322   2320
4   5811   4455   5738   5157
4   2481   5247   2732   2593
4   2205   5831   1408   1297
4   1409   1408   6448   2205
4   2975   6866   6032   1369
4   2511   5807   2110   2545
4   2521   6038   1409   5831
4   2204   4936   4961   4308
4   2481   2682   3193   1226
4   2184   4133   1427   5508
4   1287   3730   1286   2182
4    642    637   2759   3450
4   2481   1206   2463   6555
4   2417   1428   1422   1427
4   2149   6106   4469   2571
4   2414   2530   1253   1292
4   2423   3378   3384   5208
4   2205   4631   6347   5855
4   2319   6630   5009   6629
4   2149   4469   2572   2571
4   2317   2968   2472   3486
4   2092   3213   5904   2129
4   2092   3213   5259   5904
4   2437   2250   4273   4601
4   2117   5302   4101   4239
4   2081   2478   3749   2476
4   3047   5699   5862   5576
4   3047   3048   5148    429
4   3047    394    429   5148
4   2361   6242   3122   3121
4   6369   2941    557   5147
4   2092   5028   5901   5904
4   2069   4666   3975   6082
4   2338   2333   5858   4727
4   2094   2685   2686   3121
4   6369   5147   6368   5573
4   2767   5081   2942     98
4   2766   6273   4173   2942
4   2766   2942   2681   6273
4   6031   6024   3766   3404
4   3692    566   4369   3693
4   2708   2709   2885   3230
4    557   4803   2941   4173
4    557   6281   4803   4173
4   4111   5392   5393   2962
4    515   5493   4358   4357
4    557   5147   2941   4803
4   5979   3407   5189   5286
4   6273   4174   5641   4173
4   5574   6369    574   5573
4   5147   4803    463   6368
4   3825   4653    603   4026
4    298   6512   3798   6424
4   3567   3119   5088   5087
4   1908   6298   1844   3120
4   3120   3119   1908   6298
4   2149   4630   4843   6106
4   5004   2152   5202   2833
4   2150   2698   2133   6891
4   3469    716   4536   4661
4   2150   5110   4630   2697
4   2150   5110   5106   4997
4   4394    245   3351    244
4   2113   2109   4868   2505
4   3376   6596    699   5256
4   2139   3788   1092   5785
4   2139   3786   2920   3153
4   1866   6001   4407   6437
4   2139   2143   3971   4064
4   2139   2143   1451   4065
4   3188   2108   1337   4065
4   2047   4666   6218   3974
4   1806   3817   3661   1847
4   2066   4477   2471   3763
4   1883   6484   3371   6486
4   1868   6003   6001   5380
4   1836   4189   1796   1793
4   5379   1810   1796   1793
4   1943   1843   1798   3688
4   2270   2956   3173   1881
4   1871   3856   5379   4594
4   2414   2530   1283   1253
4   4405   1801   4551   1810
4   1794   4189   1796   1836
4   1871   1796   5379   1810
4   2293   4446   4816   2957
4   3886   1051   3887   3065
4   2303   6755   5991   6756
4   2233   2231   2230   2240
4   2291   6420   4873   5387
4   2306   4816   4813   2688
4   2048   4095   5128   5127
4   2188   5990   3171   2304
4   2278   2491   2489   3031
4   5548   3297   3298   3202
4   2157   4040   5385   6467
4   2065   5003   4283   2093
4   2053   5739   2054   4456
4   2091   5304   2068   5309
4   5389    740   5791   3744
4   5394   5791    331   5185
4   2073   4324   4622   5184
4   5585   5584   6108   4769
4   2526   2529   1300   2530
4   2065   4124   6674   3832
4   5377   2507   2037   1256
4   2068   5131   5308   6469
4   3762   3576   4945    475
4   2075   3832   3831   6062
4   2075   4438   3914   5031
4    457   5049   4930   4158
4   5853   2513   2042   5854
4   2526   6411   2456   2530
4   2962   6584   5183   6608
4    452   4697   6011   3138
4   5312   4928    449   3659
4   2139   2142   3786   1209
4   2480   3258   2477   3186
4   2931   1127   1482   1233
4   2125   5926   5925   6782
4   2126   1335   2925   3639
4   2288   6783   5926   6782
4   2125   2156   5655   2285
4   3297   4922   4921   3872
4   5449   2280   2282   3317
4   5548   4922   3202    724
4   3785   1092   3153   3787
4   2460   5007   2588   5672
4   2141   5399   6018   6489
4   2139   2216   1360   2919
4   2142   2145   1210   1457
4   4784    633   3827   5172
4   6605    639    425    431
4    633    635   5172   4784
4   5710   5947   4933   2702
4   6163   6890   6177    318
4   4149    459   3743   3209
4   3671   3179   4603    456
4   5958    318   6163   6177
4    635   5024   4784    633
4    676   5961    480   6714
4   6605    431   5245    639
4    640   5418   6575    423
4   6888    759    334    318
4   6888   6231    318    334
4   5710   2702    480   5842
4   5565   6231   6714   6889
4   5418   4766   4604   6575
4   6789   4395   3333   2899
4   4604   5418   6575   3671
4   6575    423   5418   4766
4   6345    585   3803   6344
4    500   6424   3427    768
4    640   5972   3827   5717
4   3297   2763   3872   4921
4    585   3697   3102   5428
4   6580   3297   2763   2988
4   3299   4591   1799   3687
4   2647   4276    767   5994
4   1799   5542   4591   3299
4   6275   2601   6137   5255
4   3308   5256   3376    699
4   1795   5542   3299   5294
4   4078   3550   1795   1827
4   5469   4079   1819   3566
4    764   6425    763   2848
4   3299   3687   3300   4591
4   1865    662   4174   2743
4   5977   3048    311   2743
4   1794   6119   5294   5293
4   1865   2743   1803    662
4   3047   5576   5148   3970
4   1799   3687   4591   3510
4   6369   5573   5574   2941
4    557   5147   4803   6281
4   1848   4815   3181   1817
4   4150    695   5153   5152
4   5976   3525   6465   6199
4   5220    325   4388   6750
4    696    694   5152    695
4   6747   6294   6743   6201
4    238    230   2822   4387
4   6343    230   4387   2914
4   4573    335   3402   3401
4   5589   6743   3403   3402
4   3403   3402    397   4022
4   5582   5581   3403    468
4   2822    230   2914   4387
4   4472    267   5154   6729
4   4472   5943   6528   6164
4    725    554   6457   4472
4   4472    554   6457    232
4    282   6393   6392   3942
4   3085    619   3587   3596
4   4567    261   2989   5600
4    725   6729   4567    267
4    689   5154   4473    267
4   3760   3297   2988   3298
4    306   6197   2629   6736
4   2493   5882   2578   6083
4   5159   2349   2336   2520
4   4576   6195    668    479
4   2493   2356   2317   5039
4   2414   1292   6786   3562
4   6268   1183   2699   5212
4   3131   1074   5212   1474
4   1736    881    865   4888
4   4363   5212   6268   2699
4    230    697    242   4305
4    238   4339   5554   4800
4   6322   6842   4304    242
4   2511   2195   5092   5094
4   5157   4455   5738   2526
4    235    242    697   4305
4   2205   5808   2110   1295
4   2511   2110   5094   2545
4   5329   2530   6821   4743
4   1295   5808   5807   5157
4   2526   6455   6034   6822
4   6842   3839    421    488
4   2504   1284   6644   6429
4   1241   5779   4465   4061
4   4978   1668   1242   4242
4   1241   5779   5877   6800
4   5378   4242   6211   2668
4   2195   1438   5451   2624
4   2529   5326   5330   5327
4   5157   1295   2526   5807
4   2217   6325   5415   2598
4   1241   4243   5779   1182
4   2416   5136   1296   1299
4   4941   5779   1182   4061
4   1212   2416   2413   5190
4   4941   5779   4061   5724
4   4980   2934   1072   2775
4   3294   4465   5779   1202
4   2526   6411   2530   1300
4   4061   1202   5724   5779
4   2455   6311   6312   6505
4   2455   6312   1185   1370
4   6800   3294   5879   4465
4   4941   5724   1201   3752
4   4981   5090   2934   2775
4   2173   6453   4170   4156
4   2526   2563   6068   1305
4   3955   3745    377    388
4    442   5116   5412   5413
4   4082   5313   2738   5839
4    706   5313   2738   4082
4   1434   2102   2213   1433
4   2511   2195   1438   5451
4   4082   5839   2738   2923
4   2168   1481   1752   1753
4   6317   4650   5126    511
4    430    467   6193   3790
4   2664   5382   6667   4673
4   6577    706    556   4083
4   3958   5833   3957   4083
4    430   3793   3792   3496
4   6194   6864   3498   6337
4   4172   3103   5403   4205
4   2781   2665   2666   1776
4   6713   1278   2209   6712
4   6667   1776   1815   5382
4    507    506    505   3055
4   2034   6479   4640   6774
4   2065   3117   5002   5003
4   2065   4124   3775   5002
4   2075   5489   3832   5804
4   2066   4005   5127   2048
4   3820   5057   4543   3524
4    721   5124   6626    443
4   4602   5914   6819    403
4   5710   5961   5842    480
4   5342    455    450    720
4   6115   3594   3430    648
4   4965   5913   6313   4966
4    443   3285   4009   3819
4   5342    720   5343    455
4   5644   5343   6158   5341
4   1820   4428   5121   5276
4   6626    443   3285   4009
4    514   3217   2747   4390
4   5590   4542   5577   4444
4    602   5996    607   5999
4    616   4894   5586   5697
4    621   2800   6883    629
4   4026   3825   6317    603
4    616   4894   5697   6054
4   6579   6161   6348   6220
4   3189   4967   5126   4805
4   3024   3241   3124   3319
4   2637   3932    405    398
4   3102   4511   3526    295
4   3244   3245    345   3243
4   6317   6394    772   3824
4   4650    511    603   3969
4   3328    772   4651   4967
4   4511   6803   5764    360
4   4967   5126   4805    772
4   4511   3526   6803   6802
4   2426   2539   2540   2536
4   3562   2530   6696   2414
4   2076   5186   6467   6468
4   4763   6178   4265    352
4   6107    780   5170   5801
4   3108   3197   5801    780
4   2076   6467   5186   6388
4   2069   5032   5705   4135
4    677   6169   6725   5204
4   6170   3806   4588   4590
4    214   5843   3806   6170
4   5844   6725   5204    214
4    160   4590   4589   4588
4   2319   4502   3489   5673
4   1482   1127   2931   4832
4   6471   3250   2073   3143
4    771    160   5217   3445
4   2171   2265   4392   6611
4    745   3069   4081    687
4   4557   4558    698    205
4   3585   5216    922   3388
4   6182   5844   6725   5204
4   5844   3807   3049   4017
4   2257   4392   4534   5111
4   2416   5190   2262   2172
4   1456   5248   2257   6059
4    677   6806   6725   6169
4   6157   6725   5844   3049
4   2480   4129   3186   3728
4   6120   5017   5018    165
4   5510   5267   2247   6202
4   2328   2191   2192   2193
4    677   6725    214   5204
4   2519   5301   4291   3266
4   2823   6886   3176   2987
4    224   4487   4281    627
4   2515   4429   5535   4698
4   6191    739    627    726
4   5906   5350   2480   4427
4   2327   5535   4429   1403
4   2498   5907   2352   2433
4   6795    549    550    545
4   2015   2846    923   1081
4   1074   1510   1090   5212
4   3114   6885    551   6705
4    739   4281    224   4282
4   1178   2845   4176   1629
4   1074   2015   1091   1510
4   2389   3053   3052   4171
4   1663   1090   1747   5212
4   3069   6460    745   4081
4   5212   1090   1747   1510
4   1074   1510   1091   1090
4   6886   2987   5048   3760
4   1183   1662   1051   3220
4   6156   4018   6157   2671
4   5983   6477   4982   4557
4   4557   6477    205   6846
4   1747   1663   5212   1183
4    367   3608   6609   3795
4    698    272    205   4558
4   3907    506   3055    505
4    367   3608   3796   6609
4    367   3794   3608   3795
4   2504   6776   3845   6779
4   2191   2192   1271   2371
4    679   5222   3383    485
4   3099   2191   1291   2371
4   2191   2508   2785   1411
4   5221   4652    520   4097
4   1372   4316   4225   4315
4   4094   6144   1383   6402
4   4830   3417   2772   3002
4   5284    143   2818   3155
4   2504   2529   2193   5344
4   2391   1384   1460   5468
4   2417   4903   3190   6773
4    413   2985   6192   2984
4   2101   5362   4056   4052
4   1383   5253   5934   6144
4   4978   1207   4830   3747
4   3493   5135   2704    645
4    157    751   5924    296
4   1805   1804   2532   6632
4   5347   5924   5923   6017
4    157   5924    751   5552
4   2139   2141   2143   4064
4   1096   3735   1642   1173
4   2340   6510   4516   6509
4    157   5974   5346   4096
4   2742   5924   5038    296
4   6017   3817   3661   1806
4   1806   2869   1847   3661
4   6298   3041   5088   1844
4   2362   5499   5500   3666
4   1806   6017   2742   3661
4   1847   5923   1806   3817
4    763   3236   5596    500
4   5596    756    763   3227
4   2529   2193   5326   4418
4    763   6277   3227    756
4   2928   3236    762   5580
4   5206   3540   1290   3541
4   2273   2464   2463   2408
4   2344   5888   5878   3849
4    736   3241   4117   3318
4   3164   5046   4439   5047
4   2218   4171   4188   5883
4    736   3318    882   3241
4   1657   1089   1750   1073
4   2526   2456   1375   3541
4   1375   3541   4455   2526
4   3319   4862   3124   2715
4   4830   1208   2772   1207
4   2172   2262   5014   6046
4   1750   1703   3024   1089
4   1237   1188   3366   1657
4   2319   2041   3489   4502
4   1703   1089   1750   1237
4   6822   2526   6455   2529
4   1750   1657   1188   1237
4   2530   5233   3578   4177
4   3541   2456   1375   5206
4   1237   1620   1089   1657
4   2094   3589   5902   2685
4   2094   3122   2685   3121
4   1448   1400   4027   1449
4   2092   5896   5028   5904
4   2233   4027   2503   5355
4   2528   1324   4000   1312
4   2479   4290   3778   2890
4   2284   5431   3239   6118
4   2227   1419   1458   5354
4   2516   3924   4827   3259
4   4159   4160   2509   3721
4   2046   2052   2512   2055
4   2125   5925   5918   6782
4   2381   2382   2282   2405
4   6123   2515   4510   6205
4   2527   2660   6872   6858
4   2518   2527   2384   2517
4   2385   4429   2327   2353
4   2410   2411   6860   2518
4   3920   1173   4422   2518
4   2489   5505   5315   5010
4   3907   3356   2852    504
4   2420   1399   4824   1276
4    785   5700    786   3871
4   5436   5435   4231   3320
4    964   4921   5506   5507
4   5190   6047   5015   6046
4   3460   5132   1825   3268
4   1825   3268   3252   1824
4   4334   2948   5190   5191
4   4401   4081   3069    687
4    964    849   1551   5506
4   1824   5191   3252   1748
4   2763   3871   4921    964
4   1552   5506   5507    964
4    964   5507   3871   4921
4   2413   4334   1235   1228
4   2787   3306   3689    489
4   2413   1463   5136   4332
4   2750   3715   5760   3354
4   3297   3202   3872   2763
4   2763   5506    964   4921
4   2172   5190   6046   2947
4   5231   2603   5229   4768
4   1873   4074   3242   5023
4   3307    489    682   3689
4    466   3795   3790   3608
4    752   4085   4217   5313
4   2130   2663   3029   1307
4   3958    556    706   4083
4   3608   6609   3795   5963
4   2124   5869   6782   6118
4   2287   2267   2263   2266
4   3608   3796   6609   3792
4    367   6584   3795   6609
4   2287   4857   3150   5920
4   6584   6609    367   5183
4   5964   2749   6609   3796
4   1847   3817   3661   3426
4   3817   6298   1800   5347
4   3041   1844   3120   3257
4   2749   3792   5963   6609
4   5964   3796   6609   6608
4   3796   6608   5183   6609
4   5800    722   6107   6108
4   4364    226   2900   3577
4   5299   2900   3038   5300
4   3126   2791   6116   5067
4   2873   3126   4792   3125
4   5836   3502   2202   6646
4   3296   3281   6764   2856
4   4347   3537   3284   4390
4    704   3281   2910   6764
4   4951   4899    663    369
4   2815   6763   5769    315
4    315   2815   4211   5769
4   3373    586   2030   6159
4    704   3281   6576   2864
4    798     98   2861   2681
4   3038   5300   2900   4364
4    557   2766   2942   5081
4   3798   6424   5944    226
4   6512   3798   6424   5944
4    487   2900   5300   4364
4   2681   1830   1885   6553
4   1885   1830   2681   2861
4   5081   2767   2942   2941
4   1865   2942   4173   6273
4   5082   1865   1864   1830
4   6301   4526   2913   4539
4   3874    223   4825    122
4   1829   1885   6552   1830
4   4828    782    129   4756
4   4757   4756    122    129
4   1830   6552   2861   1885
4   4463   4464   4781   3271
4   3539   6737   1487   3325
4   3791   3000   3001   6485
4   2755   2757   2007   2754
4   1221   6167   3001   2756
4   2669   1072   4979   2797
4   4979   1667   4977   4973
4   4758    143    129   2818
4   6020   2722   2639   1789
4   4804   1879   1753   3852
4   1238   3805   3791   6485
4   1852   2869   6834   2452
4   2797   1667   2669   2917
4   3219   3182   3220   3066
4   6255   3325   3182   3066
4   1852   2580   2933   4031
4   1238   6485   3791   2771
4   3684   4191   5666   3278
4   1872   1852   4031   2580
4   2429   3680   2428   4998
4   2071   2048   5705   5830
4   2179   2056   5932   5044
4    262   3875   3873    223
4   2264   2403   3652   2083
4   2237   2366   2403   2083
4   4881   2413   1229   2414
4   2414   4177   2530   6696
4   2351   3330   2447   3891
4   2196   4936   2878   4814
4   3702   1578   4497   5193
4   2216   4863   2946   4715
4   2302   3171   3172   2305
4   2505   5277   6697   2945
4   2207   1394   1424   2879
4   2216   2919   2045   1197
4   4324   4623   4450   2073
4   2109   3064   2623   2622
4   2109   2946   3826   5524
4   1839   6482   6052   6333
4   2200   3927   3928   3169
4   4431   2200   3928   2878
4   6482   6871   1853   6333
4    788   6370   5391   4180
4   4460   5806   5942   3161
4   4523   4539   6301   4527
4   3858    790   4396   6861
4    579   3665   5424   5909
4    790   6860    789   6861
4   3858   4396   2661   5561
4   5286    395    558    498
4    788   6860   2868   6861
4    217   4876   4710   6121
4    262   6300   3875    219
4   1085   5654   1009   1010
4   2268   2907   2384   1247
4   1318   2495   3920   2518
4   6186   3663   3662   5849
4   4464    225   4461   3141
4   3408   6840   6520   3033
4   3874    223   6568   4825
4   1644   6492   6374   6373
4   4744   6793   6360   5143
4    729   6793   3898   4744
4   3227   5993    756   3228
4   4744   6793   5143    729
4   6360    264   5432   4724
4   6790   2646   5994   4275
4   4790   3386    770   3387
4   6793    195   5143    203
4   6538   6781   5832    491
4   4744    729   5143    249
4   5614   4389   4848   5887
4   5614   1445   4848   1467
4   2521   6863   1289   1303
4   2521   6038   1286   1289
4   1467   1369   1373   5453
4   2975   1369   1467   5453
4   5825    291   6742   5992
4   4275   3333   6789   4395
4   4790    770    766   3387
4   4947    291   3951   5992
4   6264    707   6384   5213
4    658   3516   3882    509
4   4347   3284   3537    361
4   6348   4596    667    482
4   3694   3515   3071   3514
4   1467   6727   1373   4848
4   3306   4768   3689   2602
4   3177    381   3291   3231
4   5171   3934   3231   3996
4   6308    661   3243    345
4   6496   1464   1374   6497
4   2205   6451   6347   4631
4   1304   1369   2950   1374
4   4319   1369   4593   1373
4   1372   1293   1294   4225
4   3290   6590   3292    381
4   5617   5618   6727   2969
4   4319   4593   4314   1373
4   6592   6593    630   3177
4   3290   3291   3177    381
4   3964   3232   6593   4972
4   2897   2896    757   5755
4   2773    768   3346   2774
4   1372   4319   4316   4314
4   4743   2530   6821   6514
4   2504   3845   6776   6787
4   6551   3307    682   4165
4   6274    266    761   6248
4   4275   2646   4395   6790
4   2504   5451   6644   4810
4   2646    766   3949   6790
4   2530   6514   6696   4177
4   6274   6070   6538    266
4   4572    412    289    566
4   6514   2504   4743   2530
4   3655   4214    887   4695
4   6274   3386    266   6538
4   6070   6538    266    491
4   1820   5276   5121   1878
4   2323   3852   2168   1753
4   1433   2102   2213   4742
4   5648   5649   5646   6401
4   6250    479   2375    743
4    761   2670   2713   4791
4   3386   4791   6274   2713
4   2375    665   6251    743
4   4494   2375   6736    479
4   4791   2713   3386   6785
4   2713   3386   3387    770
4   6736   6197   6250   2375
4   5328    668   6195    521
4   3425   1828   1833   1758
4   4576   4494   6398   6392
4   5344   6779   5205   2191
4   4077   5291   3379   4079
4   6514   3562   2530   6696
4   3299   4591   3300   5542
4   1791   6667   5382   1776
4   1411   5071   6776   2508
4   2742   4801   1863   3661
4   2529   5330   6820   5327
4   5923   3041   3817   1847
4   3525   6199   3086   6465
4   1382   1300   2529   5451
4   5610   4157   4912   6586
4   2529   5329   5330   5344
4   1872   4031   2705   2865
4   6142   4313    650   3364
4    544    548    543   5796
4   4794   5175   3690   6856
4   4483    529    531   5606
4   1806   5924   2742   6017
4   6298   1800   3567   5088
4   1865   1803   2743   1807
4   5564    608   6214   6215
4   2448      0   2752   4396
4   5848   5561   4397   3858
4   2823    540   6878    543
4   6129   5561   5192   3084
4    522   5192    535   6129
4   5567    269    527   2994
4    526   5194   5083    529
4   6129    481   5112    535
4   6129   5112    481   3084
4    529   5606   5194   5083
4    429   4032   3047   3048
4   4525   6289   4786    568
4   6554    463   5150   5862
4   6554   5862   5699   5576
4    561   5149   6601    341
4   3103    752   4205   4172
4    547    550    548   5179
4    547    544   2656   5179
4   4082   3765   2923   3404
4    531   2938   4483   4569
4   5759    269   3405   3011
4   5839   2738   3103   5313
4    561   3717    341   6601
4   5977   3696   3087   3216
4   4966   5913   6313   5933
4   5924   5346   1808    157
4   6339   3717   4217    735
4    752   5313   4217   4172
4   5149    341    568   6289
4   5129   5924   6017   2742
4    859    969   2838   1870
4   2098   2114   2957   2958
4   5038   6553   2765   3017
4   5038   2742     20   1803
4   6646   2202   6645   2196
4   6535   1394   1420   1428
4   2197   4416   3060   6459
4   4774   2912    305   5512
4   4308   4961   2204   2197
4   2322   2207   2185   3487
4    662   4174   5641   6273
4    248   4737   4342   6213
4   5420   4128   5799    317
4   4966   3524    721   6626
4   2197   3060   4416   2238
4   6286   6285   4508   6287
4   6322    242   4568   6842
4   4342   3073   6284   4508
4   5220   6318    263    276
4   6302   4381   6517   5860
4   5510   2251   2247   6574
4   2196   4814   4960   4961
4   4342    276    260   3054
4   3482   2063   4841   4842
4   2424   2538   2536   2537
4   6842   3839   4571   4304
4   6857   3593    435    449
4   6115   4953   3695   3006
4   6115   3006    648   3430
4   2683   3695   3006   3571
4    195   6647   6359    690
4   3463   5520   1813   2741
4   2741   3737   1814   1797
4   3736   2741   1812   1797
4   2097   3253   2412   3393
4   3734   3732   3733    799
4   3736   1840   1797   1812
4    946    799   3887   3733
4   3219   3220   3182   4398
4   3220   4398    943   3182
4   3455   3003   6324   3194
4   4530   3665   5424     42
4   3736   1797   6196   3737
4   4398   3133   3382   5638
4   1829   6552   1831   4380
4   3025   4647   5529    513
4   3736   6196   1797   1840
4   3665   5424   5909   5425
4   2741   3737   3855   1814
4   2015   1081   1886   2846
4   4384   1832   1831   4380
4    946    799   3732    125
4    946   3182   4398   3732
4    212   4367   6269    254
4   3020   3323    253   3324
4   2716   3740   3409   3742
4   3615   3614    530   6840
4    282   3668   6393   3942
4    253   4520   3324   3323
4   6398    323   5529    282
4   6195    521    668    479
4   5982    307   6840   2684
4   5543   1819   2953   5077
4   6271   5911   5942   4247
4    580   6520   3033   3868
4   5941   2664   1791   5543
4    139   4559   3020   3635
4   1795   5294   3550   5542
4   4077   3379   3550   1827
4   3379   5054   3380   1828
4   4690    692    580   3869
4   6520   3323   3868    589
4   1794   4189   6119   5293
4   4199   3938   3899   4519
4   5238   2411   2495   3262
4   2918   3634   3723   2268
4   3023    268   5279   3413
4   2936   2517   1317   3645
4   6738   3999   3261   2655
4   2528   3645   1316   1317
4   5296   5297   2696   5278
4    396   3407    395   5766
4   3279   4307   4682   2382
4   2518   5746   4512   3262
4   2516   2528   1312   1317
4   5228   5231   2603   5229
4   2034   2117   4101   4239
4   2044   3960   5742   5741
4   6833   5075    314   6598
4   2061   4033   5100   6853
4   2071   3282   6761   6470
4   2076   6468   2069   4003
4   2120   4144   5496   5096
4   2091   5740   6061   3301
4   2361   5029   5895   5881
4   2120   2693   2783   5095
4   2075   3436   5001   4437
4   2120   5496   2060   4869
4   2059   2875   2876   2550
4   2361   5894   5029   5881
4   4195   4614    626    610
4   2157   5750   6468   5385
4   2359   3213   2476   5259
4   2313   2802   4105   6746
4   2068   4201   3912   3831
4   2065   4200   2619   5306
4   2094   2686   5029   3121
4   2075   2065   3831   3832
4   2069   3975   4666   3974
4   2375   5467   6197    665
4   4283   2117   2093   4284
4   6577   4085    752   5313
4   5128   2068   2048   4005
4   2076   5705   2157   2071
4    511   4649   3969   4650
4   4525    582   5707   5687
4   3498   5736   6864   4965
4   2501   3064   2622   2584
4   1197   4719   1196   4714
4   3582   3953   5992   3951
4   5260   6121    217   3879
4    713   5586   4444   4007
4   6577    752   5711    706
4    373   6584    367   5183
4   6577   6798   5711   4227
4   2315   2274   4513   4047
4   2637    405   3318    398
4   2316   4306   4616   2271
4   4321   1651   4322   1654
4   2294   4157    300   5733
4   2466   6221   2769   3312
4   4894   5697   4444   5586
4   3565   1653   4413   4859
4   3893   2320   4306   4616
4   1750   3565   1475   2715
4   2310   4517   6741   4681
4   2183   4679   5546   5251
4   3400    397   4022    393
4   1077   5718   3349   3348
4   2316   2310   2188   2271
4   2873   3125   3593   2874
4   6385    270   5338    351
4   5467   6197   3598   2629
4   5166   6233   3594    648
4   2873    471   2582    435
4   2748    773   4969   4970
4    775   4175   4279   5383
4    417   3459   6377   4707
4    511    510   4462   6160
4   5765   4545    388    360
4    775   4279   4175   3754
4   6803   4545    411   6807
4   5321   6000   5820   3755
4    360   5765   6436   3957
4    556   3957   5765   4083
4   2737   5730   4782   2923
4   6396   4969   4175   5383
4   6798   6436    556   3870
4    365   3870   6436   3034
4   4787   3360   4525   2714
4   3986   4703    583   2922
4    360   5765   3957    388
4   4618   6869   6881    555
4   6798   4083    556   5765
4    285   5966    277    288
4   4238   4237   4379   4848
4   5080   6564   2813   6437
4   3343   6207   5225   6288
4   5614   5887   4848   5547
4   4530   5425   5424   3665
4   5424    579     42   3665
4   4529    304   4527   5650
4   2315   1406   4379   4241
4   4530   5639     42   5424
4    713   4007    440    416
4   4241   4848   4379   5887
4    416   4007   4141   5586
4   5619   4238   4237   5612
4   4759     42   5250   4530
4   5424     42    579   5639
4   5618   4237   4848   5892
4   5617   4238   4848   5618
4   4238   1406   4848   4379
4   5448   4379   4238   4237
4   2487   2833   5893   4303
4   2046   2057   2032   2037
4   2075   3913   5128   5031
4   2319   5673   6771   6391
4   6797   5853   2513   3311
4   2768   5639     42   2862
4   2152   6771   6772   6290
4   3400   4122   3932    393
4   2044   4449   4004   5742
4   5638   2862   4759   5639
4   3748    366   6309   5495
4    273   4336   3286   4705
4   6162   6177   3804   3558
4   5710    480   2702   4933
4   3240   4336   5659    273
4   3240   3526   3102   3697
4   5960   6888   4358    334
4   5958   3901    386   6174
4   2340   5373   4491   4864
4   2443   4822   5698   5492
4   2340   5880   6509   5373
4   2397   2443   2444   5492
4   5842   4126   2703   2702
4    759   3901   6114    386
4   5493    334    759    347
4   2101   6028   3092   2342
4   2415   1463   5136   2413
4   3828    633   5024   4820
4   2267   4858   2460   5672
4   2247   5267   5437   6824
4   2120   5096   5095   2783
4   5903   4239   2094   4499
4    638    431    637   5245
4   2430   4858   2267   6433
4   2429   5497   1336   3680
4    638    633   4820    635
4    638   5615    635   4820
4   2041   2472   4607   6628
4   2236   4143   4132   4692
4   2301   5991   5990   4356
4    638   4820    633   5245
4   3232   2800    621   3996
4   2512   3980   3894   3808
4   3859    473    754    655
4   2146   5663   5317   5662
4    634    462   2795   4765
4   2361   3110   2129   6242
4   2082   3480   3481   5446
4   2200   4431   3255   4823
4   2361   2092   5901   2129
4   2232   1416   1354   1398
4   2046   2512   2053   2055
4   2365   2035   2064   2364
4   2061   5737   2876   6682
4   3211   2317   5881   5922
4   2092   5904   5901   2129
4   2060   3637   3636   3638
4   5901   2361   3122   2094
4   4801   1863   1807   1803
4   2350   4294   5042   4729
4   1334   2633   3613   2084
4   2906   2254   2452   2869
4    157   3222   3221   1808
4   5100   4033   2091   4866
4   6814   2743   4174    312
4   2356   5445   5922   6147
4   2069   4666   2047   3974
4    429   5144   6815   5145
4   2306   2047   2291   4873
4    461   5413   5411   4354
4   2048   4203   4135   5459
4   1852   2933   2580   1903
4   5411   4354   6636    415
4   2720   5144    407   4777
4    461   5413    442    434
4    461   4354    445   5413
4   3525    292   3087    436
4   2048   2634   2067   4926
4   2048   5036   6649   2557
4   2414   1230   6786   4332
4   2362   3666   4014   5499
4    553    698   6846   4556
4    209   5602   4557   6477
4   4977   4242   1667   4978
4   2797   1666   2934   6671
4   2934   1072   2775   5090
4   2046   2298   2095   2067
4   6254   1087   5718   4322
4   4592   6848   6725   6182
4   2266   2263   2290   2288
4   3460   1825   1914   3268
4    165   4592   6801   6120
4   4592    165   6181   5017
4   4854   3074   1652   3319
4   3319   4117   5697    616
4   2997   6250   3331    743
4   5328   3742    668    521
4   3783    521    743   4259
4   1651   4322   3074   4323
4   4576    479   6736   6195
4   4318   4862   4854   1653
4   4318   3074   5685   4323
4   1653   3123   3565   1236
4    753   4654   5783   5776
4   4654   6874   5783   5776
4   2168   2960   4327   2961
4   5789   5784   5058   4615
4   3888   4113   6365   4662
4   5846   3616   5199   5356
4   5846    597   5356   5199
4   4113    588   4662   2679
4   3888   6365   5607   4662
4   5607   4783   5570   3988
4   4856   4883   4862   1499
4   2413   4882   5190   2947
4   4334   2948   4856   1235
4   5987   6254   4894    796
4   5846   5199   6329    597
4   2165   3972   2215   2216
4   3991    600   6180   4361
4   1651   1654   1087   4322
4   4854   5685   3319   4862
4   1073   1652   3024   1475
4   6516   4767   6191   2853
4   2853   6191   6795    549
4    551   6191    726    549
4   3055   6442   6445    507
4   4773   5175   3690   4770
4   6705   6191   4281    627
4   3035    671    670   3884
4   4774   5512    305   4773
4    726   6191    551    627
4   3114   6795    550   5179
4   5548    723   3298   5549
4    551    549   6795   6191
4    551   6795    549    550
4    496   4773    305   5512
4   6397   5549    723   5792
4   2449   6653   6652   6654
4   2389   4663   5516   3053
4   2217   2598   5415   5416
4   2434   6150   2214   6151
4    433   3690   4773   6856
4   2337   4294   4833   2350
4    498    305   5512   5979
4   2602   4768   3690   5175
4   2088   2331   2180   2432
4   2075   2071   5823   5000
4   5830   2075   5000   2071
4   3690   5175   4768   4770
4    264   5143    249   6360
4    264    690    195   5432
4   6360    195   6706   5432
4    195   6359   5432    690
4   6793    203   6706    195
4   2335   1255   1257   4261
4    203   6647   3931   6706
4   2432   6153   3214   6547
4   6664   6140   4738   5072
4   6706   6647   3931   6359
4   2216   4719   6342   1248
4    212    728   6358   6647
4    728    246    297   5433
4   6668   5433   6669    297
4    213    297   5527    239
4    254   2826   5527    239
4   1235   5511   4881   3681
4   5784   3753    316   4615
4   2310   2271   2608   2188
4   1406   4238   2315   4379
4    616   5697   5586   4117
4   2461   5612   2315   3781
4   4859   3565   4583   4413
4   2313   2466   2314   4106
4   1739   3123   2008   4862
4   2310   6741   4517   4048
4   6047   5015   2776   1485
4   5790   2725   2724   5058
4   2369   2803   2980   6515
4   2389   6416   4663   3053
4   2677    241   3471   3555
4   2403   3652   1393   1336
4   3651   4327   2208   5374
4   1341   2497   4740   1350
4   5556    693   3471   3554
4   2292   6703   5422   5423
4   2502   1201   5724   2485
4   3554   3555    693   3471
4   2457   5688   2980   6399
4   2067   2066   6175   2048
4    561   5862   6601   5150
4    561    341   3717    735
4   2317   3840   5895   6428
4   3047   5148   5576   5862
4   5687    735    341   4755
4   6339   4205    735   4217
4   6175   2048   2634   2067
4   2067   2066   2471   3763
4    582   5687    341   4755
4   5150   6289   5149    568
4   2472   2493   6097   6135
4   2071   2065   2075   5823
4   2091   5304   3301   5109
4   1834   5078   5215   5861
4   4753    463   6554   4803
4   2216   5778   4714   1197
4   6076   2472   2650   4606
4   2493   6083   6135   5882
4   2068   3912   5131   6469
4   2174   2362   2175   5693
4   2362   4271   2147   5500
4   2362   1482   2147   5532
4   2472   6629   4607   6628
4   2157   4044   6472   5032
4   3357   5822   3249   2436
4    238   4387   6710    697
4   2362   2175   4271   4515
4   5554   3375   3555    730
4   3555    710   2677    241
4   5556    695   3554   6563
4    238   2822   4339   4387
4   2436   2437   2250   2473
4    238    697   6710   4800
4   2796   1208   3791   3000
4   4981   2775   4974   5090
4   6518   6710   4338   4800
4   4338   6710   4116   4800
4   4030    236   5336    562
4   3734   2934   5035   6671
4   3734   3733   5035    799
4   6739    125   3734   5090
4   3358   4305   4304    242
4   4530    304   3665   5250
4   6322   6842   4568   4571
4    799   3732   3733    946
4    946    943   2860   4398
4   3734    125    799   5090
4   3733   5035    799   3887
4   4387   4305   6710    697
4   5130   2822   4387   4339
4   6518   5553   4338   6257
4   4759   5250     42   2860
4    238    697    230   4387
4   5618   6727   5892   4848
4   4094   5252   1383   5253
4   1861   1804   1802   6632
4   1372   4225   1294   6731
4   1861   6871   1839   3242
4   1377   6728   6209   5617
4   2041   2031   2035   2152
4   6849   6181   5985   5018
4   4401   4914    272    687
4   6642   1342   6643   1466
4   5829    688   4724   6481
4   1254   1343   3238   1466
4   4018   6848   6725   6181
4   1342   3337   1259   1262
4   4592   6169   6182   6725
4   6169   6806   6725   4592
4   1343   1258   1466   1254
4   6643   1262   1268   3337
4   6169   6725   5204   6182
4   4991   6806    677   6169
4   6166    677    214   5204
4    211   3205   5908   3672
4   5967   6802   3526   6804
4   4719   2216   4714   1197
4   1254   3237   3238   1343
4   2464   1319   4023   4421
4   3369   2828   3897   5181
4   2435   4145   6643   6642
4   3341   5973   4007    440
4   2432   2332   2088   2331
4   5045   2179   6413   2177
4    448   5733   6587   5732
4   3718   2330   6183   4678
4   2157   2904   5385   4505
4   2073   4450   2044   2042
4   2440   6678   5517   6530
4   2067   6711   2291   6216
4   6152   2432   6153   3214
4   5705   2048   2076   2069
4   2506   6544   6545   2440
4   5694   2329   5651   4678
4   2374   2435   6643   3337
4   2175   2362   2710   4515
4   2474   6799   5916   5915
4   2071   6470   6761   5034
4   2429   4998   5497   3680
4   2406   6067   5664   5667
4   2157   4151   4505   4040
4   2175   5693   1462   2174
4   2504   2530   6429   1300
4   2358   4147   2614   4496
4   2354   1263   2600   3782
4   2529   2193   5344   4233
4   2333   2598   5416   4120
4   2447   2097   4745   3253
4   1117   2420   1439   2240
4   2350   5042   2640   4729
4   2150   2151   2170   2169
4   2296   5509   3391   4415
4   2529   5451   2504   2193
4   6653   5369   2449   6104
4   2035   2507   2037   2064
4   2281   3254   2229   5734
4   2438   4797   4296   2253
4    195   5432   6359   6706
4   6359   6358   5433    728
4   2405   1423   1332   1330
4   2417   3059   4850   1426
4   5687    582   5707   4755
4    583   2714   2922   4703
4   2289   2234   2277   2401
4   6600   3520   6599    490
4    295   4709   3527   6377
4    295    273   3240   3102
4   2501   1198   6342   4719
4   2240   1441   1439   1117
4   1261   6035   2420   1449
4   2537   2424   2538   5271
4   4511   4709   6803   3526
4   2308   2723   2431   6258
4   2464   4421   3193   1205
4   2369   3640   6515   5022
4   2407   6712   1350   4421
4   2484   6695   5676   5353
4   2330   4155   4728   5651
4   1268   1265   1259   1262
4   3810   2157   5033   5705
4   2048   5388   5705   6079
4   3998   1471   5262    913
4   2481   3193   2682   6555
4   2501   4712   2584   5537
4   2071   4029   5000   3809
4   2071   3810   6761   3282
4   2485   4023   1319   1225
4   2314   2303   5991   6223
4   2071   3810   3282   3809
4   2501   2584   4712   3064
4   5386   2157   2076   6388
4   2682   5263   5264   6066
4   5264   4244   3752   6066
4   3294   2501   5879   1202
4   2117   4452   4250   5824
4   2497   1319   4421   1350
4   2481   5247   2593   3837
4   6065   2484   6695   2485
4   4538   4428   6616   6615
4   2116   5417   5675   6353
4   2502   1351   1225   1356
4   2112   1356   1225   5239
4   3369   5181   3897    399
4   2314   2301   4356   5991
4   1737   1876   5015   2776
4   6700   4473   6164    284
4   3531   4744   4942    249
4   6615   5121   1841   6618
4   1876   6047   1749   1875
4    362    696    385   4736
4   6709   6483    725   5601
4    696   3709   4736    362
4    470   3296    315   6764
4   5564   5114   5480    617
4    470   6764   2856   3296
4   4567    725   5601   6729
4   6457    725    738    554
4   4211   4736   3295    385
4   1224   2131   1269   2847
4   5605    385   4211   5769
4   5769   2815   4211   2816
4   2156   5316   5655   6723
4   2490   2176   6880   6877
4   4384   4380   4066   1832
4   4759   2860   2862   4398
4   2288   5926   5927   5917
4   2768    579     42   5639
4   2512   2119   6692   5258
4   3345   5425   5909   5424
4   5424    579   5574   5639
4   2299   2302   2297   4309
4   4530   5250   3665     42
4   1309   4810   2191   2504
4   2504   4743   5344   6779
4   2182   1412   1444   4877
4   2314   6039   6223   4251
4   2530   1300   6411   6429
4   6779   2504   2191   5344
4   2191   1411   2785   1450
4   2303   5713   6756   6229
4   2303   6756   5713   6755
4   2972   6661   2509   3844
4   2191   3903   5205   6662
4   2371   2328   6249   3532
4   2193   6450   5092   2195
4   6867   5151    696   3040
4   5556   6261    695   6563
4   5934   6726   6144   5253
4   6319   3839    486    488
4   2104   1306   1294   5934
4    372   4544   5833   6283
4   2104   4058   4057   6144
4    695    694   5152   4150
4   2388   4846   5371   3673
4    325   2822   5130    693
4   5130    695   5556   4150
4   5825   6321    291   5832
4   2461   2315   2189   3781
4   5825   6742   6321   6781
4   2348   2341   2457   2347
4   2106   3093   4836   4904
4   6209   5619   5890   5891
4   2502   1202   2501   3294
4   4947   6321   6742    492
4   3709    696   3040    362
4   2501   5537   3294   5879
4   4350   6383   5464    368
4   6493   5944    541    487
4    541    500   6424   3427
4   2621   3236    294    541
4    764    500   3346    768
4    494    491   6321   6781
4   6538   3386    266   5832
4   2621   5944   3427    541
4   4790   5992   6499   3235
4   4544   4545    388   5765
4   2774   3427    768   3346
4   2181   2088   2180   3113
4    647   4648    654   2717
4    409   3580    324   3581
4   2457   6513   6416   5690
4   2369   3642   2803   6515
4   2717    654   4652   4648
4   4439   4963   4161    650
4   6410    654    520   4652
4    654    349   4652    753
4   2465   5694   5516   4663
4   2717   3742    647   2716
4    616    405   4117    416
4   6254   4894   4444   4542
4   6254   4894   5697   4444
4   2848   6425    763   5596
4   6054    796   4894   5697
4   5590   5577   4007   4444
4   3229   3012   5994   2670
4   6790   4275   6789   4395
4   3902   6789   2899   4949
4   3902   6789   5954   3333
4    416   4141   4007    440
4   6031   3713   3679   3766
4    464   4541   4310   5973
4   2098   2412   3253   4932
4   3361   2089   3238   3237
4   5290   4815   3181   2954
4    487   4364    226   2900
4    377    290    399   3746
4   4815   3180   3181   2954
4   4815   5538   1858   3180
4   2652   3181   1858   3180
4   6737   3066   3647   3325
4   4338   6004   6257   5553
4   6255   6737   3325   3066
4   3539   1487   6737   1488
4   4635   4185   6850   6480
4   1883   6486   5656   3277
4   6255   3325   2014   3183
4   3647   3182   3066   1183
4   3531   6257   5196   6004
4   5781   4063   4714   1196
4   3556    730   5553    284
4   1294   2318   2103   2104
4    267   4943   5154   4090
4    377   3745   6282    388
4   2275   3773   4670   3353
4   2099   4742   4741   3918
4   5015   1212   5190   2262
4   2463   1213   1205   6794
4   1876   6047   2776   1749
4   3686   4191   5666   3684
4   3457   1835   5684   1827
4   2956   2007   1677   2757
4   2270   5457   4900   5541
4   2416   6084   1299   1296
4   2172   4637   2947   6046
4   4815   3180   1858   3181
4   2258   4443   4301   3761
4   1843   1871   3687   3509
4   4884   5190   6047   5015
4   5683   3685   5684   1836
4   1748   4883   1670   1824
4   1670   4883   1500   1499
4   3370   6485   1238   2771
4   2172   6085   5012   4442
4   2413   5623   2190   4879
4    418   6341   2657   6010
4   2411   6492   5238   4554
4   6012   3855   1862   1814
4   2411   1641   4152   2902
4   5800   5170   4693   5801
4   4892   4264   4268   4270
4    352   6056   4193    777
4   2495   2518   3262   2411
4   1644   1085   6492   6407
4   3261   2495   2518   3262
4   2495   2489   4874   4440
4   2518   1310   3920   1318
4   2411   2495   1454   4152
4   4016   5885   6808   6056
4   4152   1222   1454   3735
4   4152   3032   6362   1222
4   1428   1468   1420   6535
4   2417   5686   3503   6035
4   1349   1420   6535   1430
4   1468   6535   1428   2241
4   5572   4299   3130   5965
4    352   6178   4352   4353
4   2251   2248   5430   3310
4   2380   6092   5485   6694
4   3797    252   3577   6232
4   2479   5563   2979   5562
4   6535   1430   1420   1394
4   2417   5689   1425   2503
4   3797   3798   5559   3577
4   2498   3256   5907   2433
4   2498   3310   5907   3168
4   2194   2427   2327   1429
4   2198   2202   2207   2200
4   3543   4202   5720    525
4   3039   3038   2900   5951
4    519   4754   5669   4229
4   3412    382    523    524
4   4087   4479   6845   5721
4   6516   4958   4952   4375
4   3545   4683   3544    382
4   3047    394   5148   5862
4   4684    354   3883   6827
4   6827   6666    512    733
4   6102   6815   5145    394
4   3342   4229   3545   4683
4   3904    408   4254   4628
4   3416   5579   5587   6200
4   5339   4686   3136   6810
4   6386   3720    350   6316
4    387   4892   4264    352
4   4511   6804    275   3526
4   4628    408   4086    270
4   4467   5588   3128    666
4   1872   4031   2865   2579
4   6201   6200   5587   6294
4   2059   2875   2550   3482
4   5138   6201   6619   6294
4   6619   3706   6016   4096
4   2053   4456   4691   5258
4   2120   4144   5096   2783
4   4805   4486    390   4485
4   2745   6825   3290   3284
4   2409   3096   1250   1354
4   4485   4486    390   4192
4   2365   4841   2063   4842
4   2119   4689   3916   3917
4   2052   5626   5243   6537
4   2602   3689   3307    682
4   2426   4400   6735   4399
4   5229   2912   3799    673
4   2118   2783   2693   2782
4    433   6856   4773    496
4   6422    502   4220   5228
4    439   3521   3799    673
4   2458   2924   6734   3994
4   2240   1397   2123   1441
4   2314   2466   2467   2049
4   2123   4998   1441   1397
4   2235   6828   4872   6536
4   4774   5175   4770   5229
4   6598   3520   3799    314
4   2278   2282   4042   5533
4   5281   5189    498   6598
4   4153   5050   2247   2447
4   6509   5421   2340   6510
4   2530   2529   5329   2877
4   2526   2529   2530   2877
4   2499   4689   4454   6693
4   2530   2504   4743   5329
4   2151   2393   2442   2395
4   2314   2049   2524   2466
4   2314   2189   2186   2421
4   2386   2575   5883   6676
4   3896   2298   5243   4136
4   2095   2554   3962   6684
4   6660   2314   2608   2607
4   2168   2960   3853   3852
4   3849   4475   2344   3848
4   2386   4739   6143   6508
4   2488   5504   4553   4555
4   4430   2494   4325   5303
4   2077   2259   2078   2260
4   4957    711   4487   3015
4   6457    232   5943   4472
4   2457   2574   5688   6399
4   2389   4171   2575   5690
4   4635   6480   4186   4185
4   4635   4186   6120   4185
4   5649   1815   1818   2665
4   5649   1818   1815   5578
4   4341   5469   5460   5941
4   4567    261   5601   6483
4   2665   2666   1776   1815
4    267   5154   6729   4090
4   5382   4672   2665   1815
4   2166   1481   1753   2929
4   4775    532   3067   5606
4   2314   4518   2303   6223
4   3241   1860   3124   1873
4    301   2801    665   4468
4   3609   6251    324   3331
4   6172   4673   5077   6667
4   6622   6251    665    324
4   2325   2363   4391   6234
4   5649   2665   4672   1815
4   2375   6197   6251    665
4   2379   6511   4812   6440
4   2102   1433   1434   6030
4   2337   2332   5667   2854
4   2431   4812   6511   3595
4   2379   5878   6511   5360
4   2494   1215   1219   1217
4   2257   2262   3248   4392
4   2346   5240   1274   1272
4   2379   2981   5360   6440
4   2415   4156   5005   6494
4    604   5564   5566    608
4   3540   1304   6496   1464
4   3272   6397   5792   3115
4   6887   5048    534    542
4   2260   1407   2259   1376
4   2258   4441   3761   4301
4   3272   3115   4749   6397
4   2260   1456   5248   2257
4   6397   5792   3115   5549
4   6397   4749   3298   5549
4    533   6886   3298   4330
4   3723   2523   2597   3721
4   6776   2504   2191   6779
4   3042   6707   3043    528
4    678    544   4749   3272
4   6569   4259    743    324
4   6397   4749   5549   3115
4   2371   1277   1271   1291
4    670   3035   3884   3885
4   2845   2978   1660   1661
4   2437   5822   2250   4601
4   5489   2065   5824   5823
4   4528   1867   6552   1830
4   1867   6552   1830   1829
4   2117   4452   5824   5823
4   2034   2437   2071   2438
4   1829   6552   4380   1867
4   2073   6471   3143   5386
4   2091   5309   5100   3301
4   3526    275   3697   5967
4   4385   4380   1867   6005
4   5347   6017   5129   5924
4   5079   5863   4524   5078
4   1865   5038     20   1803
4   4385   6552   4528   1867
4   5079   5861   5078   1864
4    590   3611    207   5335
4   4030   2758    235    228
4   5196   4338   6004   6257
4   6710   4116   4800    697
4   4942   5154   6528   4473
4    493    492   3073    260
4   3166    600   4789    591
4    248    276   4342   6318
4   6718   4125   5802    366
4    370   4508   3954   3534
4   3611   2586    590    174
4   5396   2965    593   5197
4   4370   5598   6071   3054
4   4948   3950   3582   3951
4   2335   2154   2334   2085
4   2015    923   3132   1074
4   2449   6654   4474   5744
4   1402   6458   6658   2392
4   2392   5474   2393   1389
4   2393   3338   5474   2454
4    493   3954   4508   3073
4   5969    410    359   6122
4   4358   6888   5493    334
4   4357    347    515   5493
4   2136   3329   3385   5939
4   2997   3331   6569    743
4   2391   1460   1389   2199
4   4963   4259   4439   5682
4   5682   3741   2943   5775
4   4313    650   4963   3581
4   2139   1092   3788   2045
4   3783   6195    743    521
4   4259   3783    521   3741
4   2142   1404   2872   1451
4   3742   3409   2717   3741
4   2415   1463   6506   1301
4   2456   5233   2459   6418
4   4900   5054   1828   5541
4    679   3493   6613    645
4   2270   1833   3425   5541
4   3425   6326   1758   1833
4   3175   5471   3425   1758
4   2272   4587   1882   5227
4   4433    514   4390   3217
4   2272   5227   5457   4130
4   2270   2269   4994   2956
4   2270   5541   4900   1833
4   2877   2529   6820   6455
4   2414   6786   1253   4332
4   2504   2530   1292   6429
4   2414   4332   1253   1463
4   2270   2269   1677   3929
4   2270   5457   5541   5270
4   1658   1656   1486   3366
4   5120   4537   4538   2689
4   2291   6681   2554   3392
4   3174   5471   1758   1835
4   2612   6684   2291   2958
4   3468    386   4362   6114
4   2272   2431   3847   3846
4   4066   6005   1832   4380
4   3133   1831   4378   3183
4   4385   6005   4524   4066
4   2417   5689   1448   6035
4   4849   6005   4066   4524
4   5079   1864   1867   4528
4    558   5279    395   3414
4   5281    498   5075   6598
4   2051   3389   3961   3962
4   5281    558   5075    498
4   5286   3414    558    395
4   3607   3433   4348   3010
4    395   3414   5279   3413
4   5281   5189   5286    498
4   5236   2278   5314   2491
4   3572   3571    659    653
4    558   3414   5283   5279
4   2278   1322   1333   2730
4   2176   4112   5323   6665
4   5286   3414    395   3413
4   3279   1321   1333   5533
4   5979   3407   5512   5189
4   2382   3280   4682   3279
4   2034   3418   6830   3444
4   2314   6660   2313   4634
4   2362   2710   4913   2711
4   2474   5916   6799   4204
4   2436   6238   4797   6237
4   2493   3612   6873   2577
4   6162   3558   3570   2683
4   2382   3280   4001   2891
4   2516   5837   5841   2893
4   2479   5837   3266   2836
4   2979   4000   1327   1312
4   2516   1312   4000   2979
4   2523   2268   3723   6124
4   2035   2317   2361   2094
4   4001   2979   4000   1327
4   2284   3030   2491   5236
4   2410   4034   2880   1639
4   2268   3722   6661   3721
4   2527   5746   6872   3923
4   2279   5449   1320   1323
4   2528   1317   1316   1312
4   2528   4000   3999   3924
4   2516   1315   1317   2979
4   2517   4451   3923   3881
4   2076   5184   5186   4449
4   2069   2553   4667   6082
4   2488   2495   6362   1222
4    379   5839   2738   3103
4   2495   1455   1333   2655
4   2477   5562   2405   3091
4   2225   2227   2231   2230
4   2282   1328   1320   5449
4   2381   6491   4184   6813
4    441   5403   2674   5412
4    507    433    496   6446
4   5706   4227   2922   2714
4   4227   4085   5707   5711
4   6609   3792   5963   3608
4   6571   5115    353    410
4   2825    733    509   5464
4    708   5213   5209   6384
4   6264   5213    368   2910
4   4642   5770    353   5115
4   3748   5495   4125    366
4   4950   4964    664   4951
4    700   2703   2702    321
4   4354   5116   6338    445
4   5605    385   4737   4736
4   4641   6788   4394   5522
4   3748   6309    366   6718
4   3516   3437    703   2881
4    704   3281   4935   2910
4   4935   3281   2857   2910
4    389   2892   5635   4644
4    244   3952   5521   5522
4   2840   2859   3435   4792
4   3859   2840   5067    754
4   3574    653   3125   6233
4   2873   2859   3435    471
4   4364   5944    226   3798
4    281   5156   5155   4702
4   5559   3577   4364   2900
4   5986    462   5818   5817
4   5986   5817   6851    472
4    471   5986   2859   6851
4   3859    655   5462    473
4   2840   5067    754   2791
4    567   3693    566    309
4    298   6424   4337   3347
4   5958   3901   6163    318
4   3797   6232   4702    252
4   5559   3038   2900   4364
4   2125   5918   5431   6782
4   2156   5663   5655   5316
4   3797   3577    298   3798
4   2144   2131   2146   2145
4    298    567   3979   3347
4   2176   6665   6880   6877
4   3970   6281   4173   4803
4   5147   6368   5573   4803
4   2490   3772   3031   6875
4   3270   4781    559   3271
4   4753   5573   6368   4803
4   4463   6568   4461   3271
4   3970   6281   5576   5148
4   3970   4803   5576   6281
4   4781    222   4779    559
4    257   4940   3142    255
4   3270   6568   4463   3271
4   5909   3343   5424    579
4   4830   1207   2772   3417
4    564   3939   4199   3900
4   2731   3002   2756   2772
4   4781    559   3271    222
4   2191   2508   3099   2785
4   2278   5314   6876   3260
4   2382   4746   6812   4682
4   4464    222   3271    271
4   2285   5655   2125   5917
4   5557   4779    222    559
4   3240    273   5659   3102
4    585   2673   5660   3373
4   2278   2284   1415   2491
4   6346   2673   4277   5660
4   6570   3376   5256   5948
4   5180   4806   6804   5181
4   2284   5236   5026   3030
4   4547   6345   5428   3803
4   2397   6859   5637   5492
4   2278   1321   1333   1322
4   4085   4755   4217   5687
4   6577   4227   5711   4085
4   2282   1322   1320   1321
4   2281   3316   5487   3254
4   5582   3403   4022   3402
4   5182   5582    468   5581
4   5088   5087   4459   3567
4   4459   6295   5087   5088
4   2388   3673   5371   5370
4   4862   2008   4883   1874
4   1499   2008   1670   4883
4   2174   1193   5693   1462
4   4404   5731   4929   4310
4   5883   2218   4171   2575
4   2369   6515   2980   5022
4   2373   1265   1268   1353
4   4883   1873   1824   4074
4   3124   6165   1873   1874
4   2337   2493   2566   6382
4   3123   4862   4859   2715
4   2415   4638   2172   6086
4    653   3571   3573   3572
4   5026   3239   4735   2284
4   6618   6615   4069   1841
4   2408   2212   2272   2431
4   2443   3505   3008   5698
4   2838   4178   3222   1870
4   6560   3968   2379   6559
4   2333   4120   5416   5858
4   2462   2422   2423   5889
4   6838   2292   2496   2377
4   2423   2422   3144   5889
4   2374   4734   1267   3337
4   2377   6703   5419   5940
4   2457   6399   4675   2326
4   2376   4260   2915   5897
4   2177   6633   6379   5931
4   3850   2325   6305   2807
4   5406   2273   2482   5247
4   2225   2280   2226   2229
4   2237   2460   4262   5006
4   2111   6717   2497   5289
4   2335   1257   3613   1308
4   2376   4435   5897   4436
4   2510   4708   6702   6548
4   6413   2177   2178   4187
4   2457   2326   2575   2574
4   2225   2231   2594   2232
4   2434   4865   6150   5940
4   3079   3077   5198   3080
4   5865   3768   2745    390
4    212   6669   6269   6358
4   6826    390   5865   2745
4   6647    195   6706    203
4   2586    203   3076    590
4   2192   2327   2194   1405
4   2745   3290   6825   3768
4   2745   3284   4433   6825
4    340   3292   5361   3768
4   5361    381   3291   3292
4   3935   5361   3291   3768
4   2194   1437   3167   1436
4   2205   2202   4059   2521
4   2198   4908   1394   2879
4   3290    381   3292   3291
4   3290   3768   3291   3292
4   2328   5481   3022   5097
4   3290    381   3177   6590
4   6825    361   3290   3284
4   2327   2515   5098   2353
4   2477   2480   3186   4110
4   3570   2814   3572    659
4   2328   2927   5481   5097
4   2509   1313   1285   4699
4   2509   5531   3670   4162
4   4572   6078   4369    289
4   2734    491    494   6781
4   4242   2668   1667   1668
4   3306    489   5597   3307
4    298   3798    226   6424
4   1805   6632   2532   3707
4   3228   2707   6277   3227
4   3347   6512   6424   2774
4    763   6603   3227   6277
4   2647   6603    763   6277
4   3013   5994   4275   4276
4   3227   2707   6277   6603
4   3229   2706   2773    764
4   2414   2530   4177   5233
4   6637   5723   4860   4861
4   1245   6780   5332   1391
4   3681   4860   4321   3350
4   4861   2414   1230   6786
4   6637   4070   4860   5723
4   6162   6890   3804   6177
4    360   5765   4545   5764
4   4556   4558    698   4557
4   4401    272   4914   4558
4   2846   3017   2839    798
4   4768   2603   5229   5175
4   6481   2990    688   6480
4   6849   6181   5017   6848
4   4982    205   4557   6477
4   5844   4017   5843   3807
4   5829   4090   4943    180
4   4982    205   4558   4557
4   2157   5814   6761   6472
4   2228   2229   2234   2225
4   2071   5705   3810   5830
4   6850   5433    690   6480
4   2071   5830   3810   3809
4    728   6850   5433    690
4   2157   4040   5386   5140
4   1201   2502   1225   2485
4   5433    728    690   6359
4   2032   2068   2075   2065
4    249   6360   4942    264
4   4511    295    417   4709
4   2075   3436   4437   4438
4   1186   4585   1187   4583
4   1483   2909   2167   2908
4   6793   6706   6360    195
4   4641   6571    353   3748
4   1475   3565   4585   1186
4    508   4799   3888   4662
4   3522   3508   5859   3889
4   5559   3038   5951   2900
4   1160   4335   1476   4585
4    546   5792   3115   3272
4    484   3055    506    476
4   1073    797   3024   1652
4   1857   1839   6871   6482
4   6397   5549   3298    723
4    547   3114   2656   3046
4    417   3459   5764   4709
4    882    736   3024   1089
4   6528   6700   4473   6164
4   4382    232    710    730
4   5943   6164    232   6701
4   6701   6528   5943   6164
4   3694   3071   3515   2814
4   2463   1213   6794   1203
4   2464   4023   3193   4421
4   2149   2170   4469   4843
4   6888    318   3901    759
4   5493    347    515    334
4   5239   1225   2112   1319
4   5972   3828   6179   4784
4   3607   5112   4808    535
4   6128    535   5192   3607
4   3552   5192   3607   6128
4   6128    535   3607   4348
4   4382   6701   6525    232
4   3014    710    711   2678
4   6525    232    711    710
4   4955   5551   3014   2678
4   3552   6128   3433   2937
4   5080   4819   6375   6564
4   2639   6019   5863   6375
4   4382   6525   3014    710
4   3716   6102    434   4598
4   4760   3664    735   3717
4   4217   5687   4755    735
4    752   4217   4085   4755
4   4955    711    224   2678
4    561   6601   5862   5699
4   3717   5687    735    341
4   3717   5687    341   6601
4   2898   3664    434   3716
4   6888   6231   6890    318
4   6701    232    730   6164
4   4205    735   4217   4755
4   4217    735   3717   5687
4   6701   3556   6164    730
4   5130   4339    693   2822
4   6339   4205   3664    735
4   6070   6538    491   2734
4   2524   5715   3207   5714
4   4370   6319    494   2734
4    486   4571   6842   3839
4   3692   4572   4369    566
4   6343   3054   2914   4388
4   3636   2063   5272   4837
4    230   4305   4387    697
4   6842   3839   4304   6517
4   1117   1440   1261   1449
4   4841   2483   2365   2538
4   5127   2048   2634   6175
4   2069   3975   3974   5805
4   2284   2127   2131   2125
4   2063   4841   2538   5272
4   2284   2125   2124   2127
4   2075   2068   5128   3913
4    934   6720   2894   3445
4   2048   6216   6649   4210
4   1473   6155   2930   4577
4   4017    214   5843   3806
4   6156   4558   4982   6732
4   6156    208   6732   4982
4   1198   4714   1196   4719
4    259   4017   6460   6721
4   1195   5781   1196   4063
4   1234   4014   1233   5845
4   3866   4704   4705   3867
4   5261    824   5262   6303
4   1200   5879   4063   1198
4   4063   4714   1196   1198
4    211   3205   4937   3440
4   6166    214   3806   6170
4   5843    258   3806   4590
4    160    258   4590   3806
4    752   4085   5707   4755
4    714   3403    468   5582
4    563   4199    589   3899
4   6747   6201   5589   5587
4   3416   5587   5579   5643
4   6747   6201   5587   6294
4   6621   6620   4657    455
4   4953    343   3691   6174
4   3023   3413   5279   5297
4   6606   4221   2951   3234
4   4946   4944    392   4599
4   3469   4343    716    424
4   3469    716   4343   4536
4   6442    506   3055    476
4   5800   5801   6107   5170
4    322   5297   5278   5283
4    451   3130   4895   4270
4    424   6108   5584   4343
4   4265   4659   4266   4213
4   6107    716   6108    722
4    348   3762    356   4945
4    322   5296   5278   5297
4   5592   5886   5282   5283
4   6107   4536   6108    716
4    716   4343   4536   6108
4   5393    424   5585   5584
4   4111   4769   2962   5584
4   5297    322   5886   5283
4   2034   5851   5905   3444
4   2043   5852   4448   5854
4    322   5297   3930   5296
4   2073   5184   4622   6471
4   2157   6388   5386   4040
4   2157   5033   5032   6472
4   3126   2840   4792   2791
4   2278   2284   2491   5236
4   2512   2236   4136   4692
4   2306   2613   4560   6146
4   1226   2481   5264   2485
4   2278   2284   4735   2279
4   2076   5186   6468   4003
4   2485   2481   5264   3752
4   2291   2733   4565   2778
4   2047   2690   3974   6218
4   2066   5127   4617   6175
4   6118   2284   2283   3239
4   2073   4324   4623   4622
4   2034   4499   4239   4643
4   2259   1407   1368   1376
4   2739   4433   3217    514
4   3156    781   5117    143
4   5118    781    913    782
4   6460   4081   6722   2671
4   2501   5537   5879   4712
4   6156   6157   3807   2671
4   2481   4023   1226   3193
4   2671   4018   6157   3049
4   1202   4465   5779   4061
4   2671   6460   6721   6722
4   2414   4075   4861   5723
4   2501   5537   2584   4062
4   2502   4062   2505   5417
4   2456   2173   5206   3541
4   6888   3901    318   6163
4   2502   1201   1351   1202
4   2414   6786   1292   1253
4   3400    397   4142   4022
4   2504   3562   6787   1292
4   2637    405   3932   4141
4   2637   3318    405   4117
4    416   4117   5586   4141
4   2508   2268   1314   1244
4    393   3403   4022   5581
4   3400   5089    393   4022
4   2518   3920   1310   4422
4   2508   2760   5071   3097
4   2530   6514   4177   6821
4   2414   2530   1292   3562
4   2125   2124   6118   2284
4    583   2714   4703   3360
4   2417   2420   5686   6035
4   2290   5513   3708   2468
4   2420   1261   5686   6035
4   5988   1181   6637   5989
4   2414   5722   4829   4075
4   2414   1283   2415   1463
4   2830   5732   5731   4311
4   2825   3381   6666   5464
4   5464   6383   3381   6666
4   1180   5989   4070   1181
4   2172   6086   4638   4637
4    795    422   5590   3348
4   5708   6811    327    326
4   4350    368   5464   6811
4   3350   4070   4321   4076
4   3350   1598   4076   1654
4   3224   4964    669    664
4   4951    663    664    643
4   2528   3261   2518   4512
4    327   6811   4350   5464
4   5359    280   3374   6159
4    321   2864   2703   5947
4   2518   1218   3367   4422
4   2485   2502   4071   2585
4   5912   5933   5913   4966
4   2528   4512   3923   6006
4   5560   5155   5951    278
4   4832   6155   3785   4578
4   2268   2918   3100   3723
4   3443   2895   2894   3445
4   2982   4497    820   3784
4   5059   4720   5793   5058
4   3667   2518   6858   6860
4   4299   6599   5965   5572
4    352   4193   4892   4763
4    349   4652   4097    520
4    349   4652    753   5776
4    349   4097   3530    520
4    349    753   5783   5776
4    475    476   3762   3576
4   6592    630    381   3177
4    478   4972   5211   4289
4   3964   6592   6593    630
4   2390   5371   4846   5871
4   5953   3576   4945   3762
4   4131   5672   2460   5006
4   4895   4270   4264   4892
4   6808   6597    330   4269
4   4763   6178    352    777
4   2087   2081   5407   5443
4   6808   6056    330   4016
4   2449   6653   6654   5745
4   4100   2087   2573   4726
4   1258   1254   1259   3337
4   2386   5884   5995   6676
4   2284   2127   1329   2821
4    375   4067   6036    380
4   1224   2175   1462   2176
4   4362    347   6114    759
4   2309   6105   4831   3726
4   2088   2432   4168   2406
4   2487   2149   2520   2571
4   2186   2467   2421   1413
4   2521   3731   1303   4215
4   2329   4728   2599   5651
4   1848   2654   3547   3181
4   2197   3060   4960   6438
4   3487   2322   2207   2521
4   2246   1430   6535   1394
4   2521   3601   5679   1409
4   3299   1817   1799   5542
4   3085   3587   2630   3945
4   4815   2954   5538   3180
4    301   6622    324   3580
4    301    665    324   6622
4   6251    743    324   3331
4   3602   2731   2756   2772
4   4036   3942    282   6392
4   2731   3417   1206   6066
4   2731   2772   3417   3002
4   1665   3886   1666   3065
4   4752    316    282   3942
4   6251   4468    665   6197
4   2300   5072   1078   2276
4   1665   6671   3065   1666
4   1239   3065   6671   3733
4   1239   3791   1238   3805
4   2113   3823   4868   3822
4   5467   3598   6197   4468
4    407   4777   5144   3821
4    461   6816    414   5411
4   4598   6816   5410   2720
4   2141   2142   2145   2147
4   1806   2869   3661   1863
4   2720   5144   4598   6815
4   6648   6585   4930   5049
4   2901   2749   3792   3496
4   2901   2749    454   3792
4   2901   2749   2886    454
4   2320   6459   3893   3892
4   2251   5510   2074   6574
4   2135   2136   2138   2043
4   4405   1793   1810   4551
4   1871   4190   4594   5379
4   4649   5126   3824   4650
4   2417   1428   1420   1422
4   4649   3189   3824   5126
4   5529   3668    316   6874
4   2097   4745   3253   3393
4   6317   4286    774   6394
4   6317   5126   3824    772
4   5063   6161    510    329
4   2196   4961   4936   4814
4   5063   6579   6161   6348
4   2043   2036   2039   2038
4    511   4650   5126   4649
4   2196   2197   4961   4960
4   2485   2481   2993   2593
4   6480    688    690   6850
4   2243   5510   6202   3617
4   2535   2115   2181   2062
4   2233   2420   2240   2419
4   1468   1349   1420   6535
4   2181   6354   6355   4257
4   2417   6350   1422   1426
4   2179   6408   2596   5932
4   2108   1339   1337   1248
4   2256   2255   2249   2227
4   2148   2136   2152   2043
4   2190   5722   2414   4881
4   2417   4903   6773   4019
4   6116   2814    660    659
4   6116   5067   2791    660
4   4604   4658   4603   4731
4   3126   2855   6116   2791
4   6116    660   2814   3070
4   6116    659   3572   2814
4   2814   3570   5164   3515
4   6116   2855   3572    659
4   6686   3861    754   3158
4   3819    732    443    719
4   3694   3070   2814    660
4   6834   3682   1863   1852
4   6806   4592   6801    165
4    423   5717   6158   4766
4   5356   6330    588   6365
4   3570   3571   2683   3558
4   3570   3572   3695   3571
4   6605    456    639   3287
4   3570    659   3515   2814
4   3557    659   3515   3570
4   6121   4876   4710   3129
4   4939    239    251    240
4   2116   2485   4071   6695
4   2317   3486   4025   3840
4    239   4940   6641   4939
4   2330   2332   3718   6183
4   5069   5810    218   6180
4    254   6269   2826   2764
4   2357   5664   3452   5478
4   2337   2604   2854   3764
4   2358   6101   4496   2614
4   2357   4320   2358   4147
4   2493   6133   4496   6101
4   2670   3013   5994   6785
4   2662   6330    588    586
4   4113   2679   2662    588
4   5797   2900   3039   5299
4   6330   4277    586   2662
4    308    586   2662   2679
4   4347   3537   4226    361
4   2237   4109   4107   5006
4   6173   2542   2080   2543
4   4143   2236   2230   4692
4   2475   4292   4532   5486
4   1652   3024   3319    797
4   2512   4136   4137   4692
4   5560   3038   3039   5951
4   3995   2478   3749   2081
4   2155   2136   2043   2152
4    797   1089   3024    736
4   4859   1653   4413   4586
4   6042   5507   4919   1552
4   2525   2492   2576   2565
4   2368   2081   2359   2035
4   5850   4772   2576   1645
4   6518   6257   3556   5553
4   2034   3418   5905   2400
4   6731   5934   6730   6726
4   5526   5934   6731   6726
4   1383   2104   6402   6144
4   6243   4919   6244   4920
4   1177   2362   1179   4015
4   2525   1177   1470   4015
4   2525   5498   4920   6749
4    568    571   3992    283
4   3829   4785   6419   3830
4   4906    571    565   4785
4   1372   1293   4316   4319
4    283   3360   6419   4786
4   1369   4593   1373   5453
4   3349   4076   1649   4070
4   2639   1789   2722   6019
4   1159   3646   5073   1391
4   5723   4070   3350   3349
4   5988   4861   1181   6780
4   6289   6376   5150   6601
4   6140   1159   5073   5331
4   3646   3643   5073   1391
4   2069   5652   3780   5653
4   2502   2107   1356   1225
4   2107   2485   1225   2502
4   3531   6257   6004    284
4   1180   4975   1649   5989
4   1649   1180   5989   4070
4   5331   6140   5072   5073
4   5332   5073   1159   5331
4   5128   5031   5099   2048
4   2384   1247   1246   1311
4   2069   6468   5750   5805
4   2268   1247   1244   2907
4   2157   6468   6467   5385
4   2067   3981   4926   4566
4   2485   2484   2116   2112
4   2485   2116   2502   2107
4   5111   2260   2078   2258
4   2455   6312   1407   1185
4   2166   3852   2168   3853
4   2354   2220   2465   2330
4   4537   2665   5649   1818
4   4534   2167   2258   4533
4   6700   3556   6257    284
4   2258   4534   2367   5111
4   5466   5467   2801   3598
4   2801   5467   4468   3598
4   2528   3924   6006   4458
4   2606   5074   2801   4468
4   2518   3645   1310   1318
4   2457   2326   2574   6399
4   3085   3945   3596   3587
4   2344   6258   2431   5878
4   1333   2278   5533   1321
4   1333   3279   4771   5873
4   4942   6700    284   4473
4   2043   2036   2148   2039
4   5023   4074   1824   1873
4   2386   5883   5884   6676
4   1841   6615   4069   4428
4   2386   5269   5884   4844
4   2521   1409   1289   3601
4   2417   2858   6035   3503
4   4030    228   5196   4338
4   1861   3241   1873   1860
4   6181   6806   4592   6725
4   5985    205   4982   6477
4   6805   3610   6668   6801
4   1295   2511   2110   1432
4   5983   4557   5602   6477
4   2758    697   4116   6710
4   2205   5679   6448   1409
4   5812   5679   6448   5808
4   2325   6234   6405   2363
4   2205   6550   2110   6451
4   2205   2521   6347   5679
4   6032   3474   1304   2950
4   2205   1408   6448   1295
4   2205   5855   4632   4631
4   2521   6347   4317   6069
4   2975   1467   5681   4389
4   5438   2195   2205   6550
4   2511   5451   2529   2193
4   2782   4287   2425   4288
4   2120   4869   5271   5096
4   2069   5653   2558   6082
4   2417   3503   5686   3504
4   2195   1432   2205   2110
4   2511   6822   2545   5327
4   2256   6091   1359   3185
4   2526   6822   6034   5807
4   2202   2200   2201   4823
4   2186   2187   1260   1298
4   2608   2314   4355   2607
4   2315   1412   3781   1406
4   3171   2299   2301   2188
4   2195   2202   2198   2201
4   2511   2195   1432   1438
4   6866   2950   1369   2949
4   2256   2226   2255   2227
4   2514   2050   2187   2467
4   1276   2417   2184   2420
4   6396    773   6389   4969
4    769    773   6396   4969
4   2511   5092   2193   4418
4   2420   5265   3504   5686
4   6581    705   5352    512
4   2196   4814   2878   6645
4   2202   3336   5834   4632
4   2196   4814   6645   6646
4   3503   4903   3504   2417
4   3342   4229   3134   2883
4    288    275   5967   5428
4    519   5670   4229   5669
4    518   5999   4236   6000
4   3697   5428    275   3102
4   4192   3768    340   3935
4    774   4286   5820   4807
4    773   5820   6389   4807
4   6275   6137    277    279
4   6317   4286   5820    774
4    602    510    605   4462
4   4511    411   6804   6802
4   6396    773   5820   6389
4   3755   6389   5820   5821
4   6802   6807   6803    411
4   3011   3225    536   3605
4   3240   5659   3697   3102
4    585   3803   3697   5428
4   6098   4483   2938   2939
4   2366   5813   3994   3995
4   5195   4483    526   2939
4    216   4476   3412    523
4   3648   5102   6452   2309
4   4775   4569    532   5606
4   2823    543   6878   4330
4   3067    548   5083    532
4   5321   6000   3755   3925
4   3543   4916   3956   4202
4   2388   3673   2729   3009
4   2359   5440   5441   2551
4   4910   4775    545   6331
4   3926   3925   4236   6000
4   6887   5761    542   6265
4   2366   5030   3995   6765
4    531   4569   4331   2938
4   3369   5181   4806   2828
4   2403   1393   3680   1336
4   5180   6804   6802   5967
4   2458   2924   3994   5813
4   2374   6643   2435   5289
4   2394   6659   3146   3147
4   2366   3995   5030   5813
4   2330   2329   4728   2338
4   2054   2118   2119   3917
4   3957   5765   5833   4544
4   2079   2338   2334   2330
4   2202   2196   2200   4431
4   3608   3795   3790   5963
4   2182   1431   6458   4877
4   2182   3730   5508   1287
4   1372   4315   6728   2969
4   3556    284   6164    730
4   6804    411   5181   4806
4   5181    411   6282   4806
4   6803   5764    360   4545
4   2521   1303   3731   6863
4   3369   6282   4806   5181
4   2205   2879   5831   1297
4   2182   4877   1444   1287
4    402   3713   3679   6031
4   6422    502   2828   4220
4   5147   5573   2941   4803
4   2639   6019   6375   1789
4   2828    285   5181   5180
4   6376   6554   5150   6601
4   5155    278   6232   5951
4   5559   3577   5951   6232
4   4472   6164   6528   4473
4    567   3979    252    298
4   2142   1451   2872   4028
4    567   3979   3693   4702
4   3797    252    298   3577
4   2491   2131   2176   4112
4   5498   2525   2659   4913
4   3797    252   4702   3979
4   6272    251   3212    691
4   2176   6877   4112   6665
4   2216   1248   4065   1360
4   2139   1092   4028   1209
4   5069   6180   4789   5810
4   2156   4013   5661   6724
4   2270   6327   3773   5270
4   2226   4011   1332   1458
4   2403   2399   2264   6527
4   2405   1330   1326   1423
4   2405   2570   1332   1423
4   5251   1406   4241   5547
4   2461   3781   2189   1447
4   2195   6550   5094   2110
4   2382   4002   2891   3075
4   2316   2271   4616   5426
4   2183   5546   4838   6656
4   2255   6539   6694   6534
4   2649   2043   2136   2135
4   2256   1458   5351   1359
4   5994   2646   6790    766
4   5636   4645    499   3230
4   2310   6745   2462   2313
4   6007   4679   2316   5251
4   2884   3719   2647   6603
4   2316   2310   6007   2315
4   2516   5837   2479   5841
4   2477   4688   4531   6534
4   2519   2479   5563   2973
4   3266   5837   2519   2893
4   2302   2305   3892   5105
4    582   6289    568    341
4   3677   3986   4706   4707
4   2306   2882   2628   4813
4   2240   2409   2123   1397
4   2302   2305   3172   4417
4   2097   2351   3330   2447
4   2185   1424   4133   3487
4   2316   6540   4679   5426
4   2188   4306   4355   2304
4   2466   5981   6090   5257
4   4895   5572   5176   5571
4   4409   2723   2431   2308
4   2314   4355   2607   4356
4   2290   5513   3506   3708
4   2430   2267   2287   6433
4   2188   4306   2271   4355
4   2407   6712   2209   4181
4   2379   2431   2344   2407
4   2348   2244   3848   6143
4   2344   2311   4619   5888
4   2196   2206   2197   2322
4   4272   4949   2892   4645
4   2111   4145   5025   1331
4   2189   1447   3781   1412
4   4917   2346   4918   3564
4   2185   3487   4133   3730
4   3564   2373   2346   1379
4   2043   2042   2155   2031
4   2179   3113   2181   2180
4   2275   3968   6064   6559
4    767   5816   4276   3719
4    299   5597    762   5580
4   3531   5196   4744   6004
4   2501   2109   2505   2622
4   2370   2178   2374   2377
4   4272   4644   4645   2892
4   2708   5816   2884   3719
4    499   3230   4645   5954
4   3902   5954   6789    499
4   2722   1789   2813   6019
4   6525    232   5943   6457
4   2180   6148   4166   2595
4   2234   1421   1348   1252
4   5079   5863   5078   5861
4   6483    209    261   5602
4   4472    267   6729    725
4   4089   5984   6481   5600
4    261   5602    209   6477
4   2079   2364   2085   2082
4    209   4557   5603   6846
4   6709    725   6483    738
4    209   6477   4557   6846
4   2272   5052   4130   5457
4   2510   2330   6183   2331
4    209    221   5603   6708
4   5457   6063   4130   4900
4   2348   5688   6508   4475
4   6483    209   6708    221
4   2109   3826   2623   5524
4   5983   5600    261   5602
4   2269   2956   2754   4994
4   2269   1741   1677   3929
4   2370   3812   5053   3641
4   2275   6378   5692   6441
4   6701   3556   6700   6164
4   3425   5054   1828   3380
4   5541   6063   4900   5054
4   2269   1741   5456   1501
4   5359   3372   3374    280
4   2275   3773   3353   3352
4   3373    586   6159    308
4   2482   4410   2376   2587
4   2373   1379   1268   1265
4   2273   3192   5246   5406
4    587   6330   3019   4559
4   5660    273   5659   4336
4   2431   3595   6511   5405
4   2275   6441   3352   6378
4   5660    585   6344   5659
4    587   4277   2673    586
4   2272   3846   3847   5427
4   2387   1273   6466   4917
4   2441   4917   1381   1273
4   2390   5371   4263   5370
4   5853   2038   2042   2513
4   2330   2329   5651   4728
4   2394   5938   4091   5207
4   3457   1827   5540   5471
4   2275   2272   3352   6441
4   3379   1828   4900   5054
4   1794   6119   4189   1836
4   2395   2151   2169   2442
4   2457   2292   2377   2374
4   1794   1836   5684   6119
4   1794   4190   5293   3509
4   6605   3828    425   3671
4   4078   3299   1795   5542
4   1794   5293   5294   3300
4   1794   4190   4189   5293
4   2795    472   5172   6854
4   6179   3671   6575   5418
4   4148   1869   1793   1836
4   1793   4189   1796   5379
4   4784   3827   5972   5139
4   6854   5139    472   5172
4   3431    462   6870   4765
4   6116    659    660   2855
4   6179   4784   3827   5972
4   4472   5943   6164    232
4   5139   6854    472   5716
4    741   3827    472   5716
4   3965   3437   2881   5165
4    741   4927    472   4021
4    510   6160   6161   4462
4   6854   2795   5348   4784
4   3828    633   4820   5245
4   3517   2905   3965   3966
4    741   5716   6893   5341
4   6623   5717   5716   5341
4   3694    659   2814   3515
4   4927    472   6851   6854
4    640   6179   3827   5972
4    431    633   3828   5245
4   6670   2860   4398    125
4      7   2862   2860   4398
4   3468    432   4362    386
4    517   3134   4686   3135
4    705   6383   6666   5209
4   4350   2857   6383    368
4    437   3658   5163   2940
4   2905    363   5950    657
4    676   5961   3438    344
4   6868   2701   2864   6576
4    705   6383   5213    368
4   5209   5213   6264   6384
4   3437   6230    703   3438
4    676   3438   6855    703
4   3603    657    363   2905
4   3964   5211    478   4972
4   2825    733   5464   6666
4   6264   2857   2910    368
4   6264   2856   2910   2857
4   6178   4265    352   4352
4   6264    368   6383   2857
4   6386   6316    350   4686
4    429   5145   6815    394
4   3766   6024   6031   3713
4    383   4895   4264    387
4    402   6283   3712   4377
4    388   3745   4545   4544
4    429   5145   3047   4032
4    311   1803   2742   2743
4    407   3821    429    436
4   6816    407   2720   6815
4   4776   6639    453   4777
4   6808   5886   5885   4016
4   6619   3401   3706   4722
4   5138   6016   6089   6294
4   5138   6013   6016   3706
4   3047    394   5699   5145
4   3716   4598   5145   6102
4   6102   4598   5145   6815
4   6619    335   3401   4722
4   5138   6619   6201   4573
4   6619   3706   3401   4573
4   2720   6815   4598   6816
4    311   1803    662     20
4   4389   5453   1467   6727
4   6349   6357   2171   2173
4   4389   4848   5887   5892
4   2247   2204   3928   2200
4   3531   4744    249   6004
4   2057   5740   4866   4611
4   4272   2899   5955   4949
4   4382    232   6525    710
4   2120   4869   5096   5496
4   6032   3474   6033   3601
4   5811   1290   6448   3601
4   2041   2911   4620   4606
4   2425   2402   2468   2740
4   2228   3977   4288   3355
4   1295   5157   4455   6448
4   2512   4137   3808   6692
4   5679   3601   6448   1409
4   2444   5372   5370   6651
4   2034   5866   5851   3444
4   2330   2329   2465   2510
4   2032   2034   2035   2065
4   6469   2068   4626   3913
4   2340   5880   5421   6509
4   2117   6830   4101   6831
4   2444   5492   5372   5744
4   2892    499   4645   4949
4    493   3954    370   4508
4   5196    228    562    729
4   4227   4525   5706   5707
4   2218   3632   4844   4845
4   2340   2342   4864   4491
4   4787   4786    568   4525
4   4491   2342   3305   3505
4   2292   2562   5422   5016
4   2389   5516   3052   3053
4   6798   3870   3034   6436
4    937   5700   6245   5701
4   6503   6504   6363   6364
4   4822   2443   3505   2342
4   6500    786   3201   5434
4    698   4558   4556   4914
4   2318   6404   4301   5358
4   2386   4739   6510   5421
4   4535   5382   6567   1776
4   1791   2664   6667   5077
4    786   5700   3872   3871
4   4674   5578   5649   4672
4   5700    786   3872   6500
4    623   5436   3320   5435
4   6667   4672   1815   5578
4   2368   2476   3749   5441
4   2361   5894   6242   3121
4   2080   6677   6173   5446
4   2364   2083   2366   2087
4   2082   3112   5704   6236
4   2059   2550   5737   2551
4   5757   4535   4587   6567
4   2494   5456   5756   1880
4   3424   5766   3233    268
4   4319   4316   2949   1293
4   2995    268   4646    898
4   2258   2078   5111   3761
4   2173   5206   3540   1464
4   3424   3023   3413    268
4   2258   4443   2367   2363
4   2166   6614   1743   2929
4   2171   6612   6349   4442
4   1483   2909   1681   2167
4   3422   5632   3802    898
4   2262   5013   5014   5015
4   2261   6770   1371   6507
4   2172   2413   2947   4638
4   2257   2077   2171   4392
4   2260   6610   6030   5248
4   6498   6356   1464   6497
4   2261   2455   1370   2173
4   2167   5121   2522   4533
4   2102   6030   1434   5248
4   3654   3655   3653   4695
4   6422   2828    502   3897
4   6833   5282    330   5075
4   2328   3022   5098   5097
4   2511   4418   5094   5092
4   6700   3556    284   6164
4   2328   6662   2926   3532
4   6142    650   2295   5763
4   5175   4768   4770   5229
4   2193   2192   2328   2194
4   5229   4768   4770   5231
4    245   6790   6789   4395
4   1405   2327   2194   2427
4   2515   5201   5098   4493
4   6422    673   3799    503
4   2192   3398   4810   1271
4   2602   2603   3306   4768
4   5228   5254   2601   2603
4   2788   3306   3308   2601
4   2417   1422   3059   1426
4   2788   2603   5254   4768
4   2371   3903   2972   3844
4   3902    499   4645   5954
4   2798   2997    743   3783
4   5596   5993    756   3227
4   2104   6144   5934   6726
4   2709   6277   5452   3228
4   3407    395   5766   5286
4   5138   6464   6089   6016
4   5138   6294   6619   6016
4   6298   3119   5088   3567
4   5618   4238   4848   4237
4    587   4559   4393   6346
4   2318   5455   4302   6260
4   3615   3021    530   3020
4   2318   2544   5526   5525
4   3615    139   3020    530
4   2394   4091   4093   3147
4   5357   5356   5199   3616
4   2106   1275   1306   6402
4    139    530   3635   3020
4   4094   1446   6402   1383
4   2452   2869   6834   2906
4    587    588   5357   6330
4    587   5357   3019   6330
4    530   3020   3323    253
4   4319   4316   4314   4593
4    530   3020   3021   3323
4   2099   4052   2101   2104
4   1372   2969   4314   4315
4   4319   2949   4316   4593
4   1293   4316   2949   5162
4   1377   6728   5617   1372
4   6866   4593   2949   1369
4   6360   5432    264    195
4   6793   3898   3139    206
4   2195   2198   5835   2624
4   1304   1374   6496   1464
4   1445   1406   5547   4848
4   4567   6729   5601   4090
4   4329    671    738    221
4   4329   3043    221   6708
4   6457   6709    738    725
4   6793    203    206   3139
4   4747    272   4914    687
4   4329   3884   6709    738
4    264    688    690   4724
4   3408   5203   3033   4723
4   6793    195   6360   5143
4   4700   5336   4795   3139
4   6359    690   6647    728
4   3206   3140   3141    220
4   2671   3049   6157   3807
4   5018   6181   5017   6849
4    243   3140    250    220
4   5017   6848   6181   4592
4   3875   3874   3873    223
4    271   3163   4464    222
4   5942   4460   5911   6272
4   5983   6477   5985   4982
4   6271    218   3447   6843
4   5069   3447   5066    218
4   6732   4982    205   4558
4   5806    240   4460    251
4    307   5203   5146   4248
4   2137   2625   5107   2618
4   6520   6840   3021    530
4   6084   2416   2262   1371
4   2461   2422   4050   4051
4   6210   6730   5934   5253
4   2456   4170   3541   6075
4   5435    687   4914   4401
4   2479   2480   4110   5365
4   6494   2171   6349   4442
4   2167   1743   1878   1877
4   2132   2617   5751   5208
4   6356   5162   5678   6497
4   2454   2138   1413   5474
4   2386   2457   2575   2574
4   2170   5747   4471   4995
4   2049   3960   2038   2044
4   2218   2217   2389   2221
4   4843   2170   4471   4997
4   2170   4240   5747   5875
4   3378   4474   2423   3384
4   2446   2170   4995   5747
4   2450   4263   5749   5369
4   3132   2837   1629   2015
4   4428   5121   1841   6615
4    859   3017   2838   2839
4   2257   4534   4392   3248
4   6619   4096   4722   3706
4   5138   6464   6016   6013
4   5138   6016   6619   3706
4   2167   1877   2909   1743
4   5589   3402   4573   6743
4   5274   2257   2777   1737
4   2213   1216   1204   1220
4   2213   1453   1216   6058
4   6272   4460   3212    251
4    297   5433   6669    728
4   5433    246    297   6668
4   2270   2275   3773   2590
4    213   4991   4940   3610
4   4185    246   6668   6120
4   6668    213    297   5527
4   6805    297    246   6668
4   2431   2723   4409   3847
4    254   2764   4367   6269
4   5648   6401   1846   5649
4   6107   5170   4661    722
4   5421   2340   2348   5880
4   2377   5419   4182   4971
4   2955    780   3196   4661
4   2275   6378   6064   4811
4   4111   5183   5392   2962
4   2955    356   4661   3196
4   2512   3808   4137   4136
4   2431   5878   2723   5405
4   2431   3847   3846   2723
4   2431   6716   5692   3595
4   2066   4612   4617   4005
4   2054   4456   5739   4870
4   2066   4478   6175   4617
4   6359   3931   6358   6647
4   5069    591   4789   6180
4    174   6358   6647    212
4   6537   2812   2052   5626
4   5396   5197   3079   4938
4   2052   2512   2236   4136
4   4692   2055   2230   4137
4   4185   5433   6850   6480
4   6359    728   6647   6358
4   2184   1302   2417   3191
4   2486   3905   4138   5488
4   6721   2671   3807   4017
4   5761   2987    542   2823
4   6887    542   5761   2987
4   3295    385    315   4211
4    385   4736   3295    362
4   6263   6125    237   2727
4   5151   5153    234    696
4   2282   3279   5533   1321
4   2281   4043   4420   2279
4   2518   3645   1311   1310
4   3264   2278   5533   1333
4   4736    696    385   5152
4    537   3605   2939    536
4   4211    315   5769    385
4   5152   3709   4736    696
4   2174   2490   4423   2176
4    237   5721   6847   6845
4   6156   4982   6849    208
4    750   5616   5024    636
4   4054   4055   3466   5613
4   5065   3158   6050    683
4   5985   4983   4982   6849
4    208   6848   4018   6181
4   4194   3559   4817    750
4   6021   3560   3458    760
4   6156   6848    208   6849
4   6156   4018   6848   6157
4   4556   4747    698   4914
4   6687    685    760    757
4   3996    621   3232    630
4   5758   5177   5752   5695
4   6156   4018   6732    208
4   4401   6732    272   4558
4   2357   6103   4147   4146
4    539   3663   3662   6186
4   4018   6157   6725   6848
4    208   6181   6849   6848
4   2525   6244   1646   2576
4   6580   5506   2763   4921
4   4068   6036    380   3629
4   2750   2763   2988   6580
4   3629   4068   4222    380
4   2501   4063   4714   4712
4   6826   2739   4433   2745
4   5214   1471   3472   6303
4    375    339   6036   2888
4   2139   3788   5785   5778
4    380    339   6036    375
4    375   5962   2888   4067
4   3569    375   2888    339
4    375   5962    338   3568
4   3797   5559   6232   3577
4   6493   5580    293    294
4   5560   5299   6366   3039
4   3577   4364   3798   5559
4    226   3577   4364   3798
4   6487   2771   6167   3001
4   2888    375   4067   6036
4   3539   1488   3370   1238
4    380   6036   4359   4067
4   6156   6732   4401   4558
4   3380   1828   5471   1827
4   3629   4068   3468   4362
4   2285   5324   6723   5655
4   2158   3188   1338   4065
4   4359   6036    380   4068
4   4984   2641   6435   2180
4   2145   2128   2144   2131
4   2163   5366   6522   6447
4   2519   5365   2479   4291
4   2126   1335   1363   3149
4   1866   4819   5224   6001
4   6156   3807   6722   2671
4   2409   3096   4419   1250
4   4819   6005   4524   6375
4   4108   2239   2237   2086
4   2164   3814   5366   6447
4   4385   4380   4384   6552
4   1747   6841   1510   1091
4   2222   6224   1357   4426
4   2237   2239   2087   2086
4   4406   3561   5381   6488
4   6737   1487   3325   3647
4   4854   1653   4862   4859
4   6165   3124   4862   1874
4   3123   2008   4862   3124
4   2008   4862   3124   1874
4   4862   3124   2715   3123
4   5477    363   5476   5949
4   3437   3438    703   5165
4   2376   3812   6560   4436
4   3882   3381    509    327
4   3516    703   3437   6230
4   2434   6698   5040   4865
4    684    745   4231   6315
4   4498   5843   4017   6721
4   2431   5405   6511   5878
4   4498   5843    258   4017
4   3359   6452   4108   2086
4   2386   5269   4516   6510
4   6826   3623    514   2739
4   2369   6439   3641   3640
4   6314    774   6395   6826
4    684   4232    800   4482
4   5703   6720   4498   5847
4    460   4676   4909   5232
4   3291   3934   3231   5171
4   3937   3935   4495    661
4   5718   1598   3350   1087
4   5361   3768   3292   3291
4   3996   5171    630   3231
4   4829   3562   2414   4075
4    793   1598   3349   1077
4   1077   5987   1598   5718
4   2626   4975   1180   5989
4    794   4976    792    420
4   2413   4333   4332   5136
4   1598   3349   1077   5718
4   1598   3350   1087   1654
4   2626   1180   1159   1181
4   6623   5717   3827   5716
4   3274    300    592   5733
4   5987   1598   5718   1087
4    797   3319   1652   6053
4   1486   3366   1656   1237
4   6637   4860   1181   4861
4   5989   3349    793   1044
4   1237   1620   3366   1656
4   1857   1802   4459   6871
4   1861   6871   1802   1857
4   3489   2152   2041   2319
4    264   5432   4724    690
4   1804    882   2532   6632
4   1703   1089    882   3024
4   1860   3024   3241   3124
4   4123   4603   3179    456
4   4123   3215    438   4118
4   5985   4982    205    208
4   5985   5018   4983   6849
4   5985    208   6181   6849
4   4089   6477   5985   5983
4   6179   3828   6575   3671
4    174   3931   6358   3611
4   6359   5433   5432    690
4   1665   1664   6671   1666
4    691    254   2826   2764
4    165   4592   6120   5017
4    210   5984   5018   4186
4   3647   3065   3733   1183
4   4991   6169   6801   6806
4   3065   3647   3733   1487
4   6857    435   2874   2582
4   1487   3325   3647   3733
4   5170   5801   3109   4693
4   1239   1487   3805   1238
4   3065   1666   3733   3887
4   1183   3065   3733   1051
4   4021   6851    471   2582
4   2873   2582    471   3435
4   3654   3655   6009   3653
4   3539   3325   1487   3805
4   2795   6854   4765   5817
4   5818   2859   3862   3861
4   6851   5986   2859   5818
4   3370   6486   1524   3371
4   3370   2771   6486   6485
4   2795   5817    472   6854
4   5986    471   4021   6851
4   3159   6688    750   3559
4   5717   3827   5716   5139
4   3370   3371   6484   6486
4   3539   6485   3370   6486
4   4021   2582    471    435
4   1239   1487   3733   3805
4   1476   1477   3729   1188
4   1524   3194   3371   6486
4   3241    882    736   3024
4   3565   1188   1750   1475
4   3370   2771   1524   6486
4   1477   1073   1657   1188
4   1279   1477   1188   3729
4   3319   4117    736   3241
4    882   3241   3318   6632
4   1524   3194   6487   6167
4   3128   4467    406   4731
4   3241   3024   1860    882
4   6167   2755   3455   3003
4   1221   2771   6167   1524
4   1476   1188   3729   1160
4   1476   1188   1475   1073
4   1476   1188   1073   1477
4   2755   1221   6167   1524
4   2511   5094   4418   2545
4   2195   2198   2624   3167
4   2505   2623   4868   2945
4   2505   6697   5417   4062
4   3126   4792   3125   2855
4   2107   1352   1356   1339
4    655   5462   3070   5067
4    655   2791    754   5067
4   3574   2855    653   3572
4   6686   3861   3862   2840
4   2502   3293   5417   6212
4   4657   6621   6158   4656
4   2484   2056   2058   2115
4   6116   3070   5067    660
4    655   2791   5067    660
4   2216   1248   2919   4719
4   2505   2622   2623   2945
4   2505   2945   4868   5777
4   2505   5777   5277   2945
4   3569   6607   3744   2888
4   2108   1337   1339   4426
4    357   6542    359   6561
4   5960   6889   6888   6231
4   3569    740   3744   5791
4   1352   2108   2109   1248
4   4222   4359    347   4357
4   3569   2888   5491    339
4   2309   4258   2181   3726
4   2749   2886    454   2903
4   2749   3496   5963   3792
4   4947   6321    291   6742
4    430   3608   5963   3792
4   4599    357   6561   6542
4   2209   4183   2963   1278
4   2373   4740   5268   1353
4   5962   2888   6607   3568
4   3569   3568   2888    375
4   5976   6089   6463   6465
4   2243   6828   6829   3483
4   2232   1418   1416   1398
4   1428   2241   2184   1468
4   2195   3167   2193   2194
4   2978   4176   2845   1660
4   6215   2753   5564    606
4   1191   2978   4886   1659
4   2015   1886   3017   2846
4   2839   3017   2765    798
4   2488   2378   2396   4423
4   2490   4164   3772   6880
4   5038     20   2765   6273
4    260   3054   5598   3073
4   4572    566    289   4369
4   3692    566   3693    309
4    486   3839   6842    488
4    494   6781   6321   5598
4   2713    766    770   3387
4   5994   3387   2713   6785
4   2286   2263   2288   2126
4   2127   1329   1452   3029
4   2713   4791   6274    761
4   5402   4673   5077   6172
4   2278   2279   4042   2282
4   2339   4918   1381   4917
4   5754   4674   5640   1764
4   4674   4673   6667   4672
4   2324   5363   6305   2808
4   2344   4475   3849   5360
4   2430   6433   6430   4400
4   2425   2469   2782   2693
4   2082   2080   6176   5446
4   2195   2110   2205   6550
4   4533   2167   2258   4391
4   2428   5376   3335   6531
4    715   4731   4658    406
4   2060   2059   3482   2875
4   2429   5497   1397   4419
4   2424   2537   2540   2740
4   5640   6172   2695   1764
4   2083   2087   2079   2086
4   6172   6667   4674   4673
4   5908   6170   3806   4588
4   2464   2407   2408   2273
4   2435   1267   3782   1466
4   2041   2035   2153   2152
4   5847   3585   5703   3388
4   2432   6412   3478   2214
4    259   4498   4017   6721
4   4498   6720    258   4590
4   2152   2031   2035   2036
4   2177   4840   5040   4187
4   2115   2535   6408   6409
4   5843   3806    258   4017
4   2179   6408   2535   2534
4   2041   6077   6479   2911
4   6157   3807   3049   5844
4   5822   2437   2436   3357
4   2436   5334   2252   3249
4   2436   3249   2252   6473
4   2438   2789   2090   2790
4   2438   4296   4797   3251
4   2438   4798   2473   2611
4   3615    530   3614    139
4   2034   4643   3418   4504
4   4604   3671   4658   5418
4   2484   5676   6695   2058
4   2066   4478   4617   4612
4   4726   4108   2239   2237
4   6079   2075   2048   5031
4   2047   2291   3051   6217
4   2091   4612   6809   5109
4   2107   1356   5523   1355
4   2112   5523   5239   6717
4   2269   1517   2408   1192
4   2272   2431   5019   5692
4   2179   2177   5045   5748
4   2502   2501   3293   3294
4   2116   6212   5417   6353
4   5264   1182   4941   4244
4   2216   2946   3063   4715
4   2015   1081    923   1074
4   2846    798   1886   3017
4   3972   2109   2216   2946
4   4656    423   4766    406
4   3076   3139    203   6791
4   3277   5666   5656   1883
4   3077   3076   4700   5555
4    593   4701   5197   3363
4   4700    596    594   5555
4   3131   1474   5212   4363
4   4176   1474   1178    923
4   2794   4178    865   2804
4   5173   3362   5397    302
4   4366    601   4381   5397
4   5337   4365    599   5860
4   3362    601   5397    302
4   1074   3132   1510   1474
4   5398   5174   5173   3363
4   5396   3990    593   2965
4   5198   5555   3080   3077
4   2179   3113   2595   2534
4    590    203   3076   5555
4   2437   2700   3711   6280
4   2090   2632   4621   6045
4   2215   3536   2321   3724
4   2073   4923   3250   4622
4   2964    596    594   4701
4   6575   4766   5717    423
4   4700   4795   5336    596
4   2358   2349   2337   2493
4   2034   6830   3418   4643
4   2076   4449   5186   4004
4   6687   5753    685    757
4    384   5752   5177   5695
4   4084   4495   2744   4716
4   5826   2437   2117   2034
4   2093   4283   3590   5003
4   2044   2076   4004   4449
4   2897   5755    757    632
4   3467    622   4716   2744
4   6687   5755   5753    757
4   6884    632    622   3466
4   2117   4101   4102   6235
4   2073   2031   2034   2090
4   2117   6426   4284   4283
4   2897    632    757   2792
4   3465   5773   5772   5137
4   2133   6891   2698   6892
4   4726   4109   2237   2573
4   6488   5642   3561   5380
4   5753    757   3466    685
4    384   5177   3513   3500
4   3432    760   3458   6685
4   2521   2879   3487   5831
4   2487   5008   5210   5893
4   6687    760   3432   6050
4   5072   4764    749   6664
4   2336   6757   2567   2640
4   4434   6664   1078    765
4   5442   6664    612   4764
4    301   4468   2606   2801
4   2487   4303   5893   5210
4    319   2606   4764   3332
4   4010   5763   2295   5442
4   3797   3979    298    252
4   5797   5300   6278   2900
4   2409   2425   2118   2428
4    748   5674   3332   6624
4   2477   2405   2256   4012
4   4043   2282   2279   2281
4   4406   6631   3561   1826
4   2278   4735   2284   5236
4   2448   2410   2660   2527
4   6140   5331   5072   6664
4   5767   3449   2759   3450
4   2380   5485   6691   2691
4   6812   2282   2382   4307
4    384   3513    483   3448
4   2381   6534   6694   4688
4   5753   3466    384    685
4    401   3449   3288   6613
4   5234   4039   3140   3205
4   3206   3140    220    250
4   2281   5680   4420   6818
4   3204   3206    250   3140
4   2386   4739   6508   5995
4   2193   6450   6449   5092
4   2193   6449   4418   5092
4   3101   4828   4756    782
4   5328   3740    668   3742
4    511   4649   6160   3969
4    511   4649   5126    329
4   5118    782   4756    129
4   3244   3245   4649    329
4   2194   2122   2121   6501
4   3278   1869   3684   4191
4   4950   5395   6352   4964
4   5059   4574   4614   6060
4   4774    673   4770    305
4   3273   5636   4600   6423
4    518   5999   5631   6672
4    605   4625   6219   6579
4   2848    763   6603   3227
4    605   4462   6161   6219
4   6332   6795    549   2853
4   5512    498   5189   2912
4   4773   6856   3690   5175
4   2853   6331   6332   6795
4   5766    395   3413   5286
4   6565    233    227   2751
4   2853    549   4767   6191
4   4774   5175   4773   4770
4   3957   5765   4083   5833
4   6599   5965   3746    399
4   1524   6486   2771   6487
4    377   6282   3746   3369
4   3736   2741   2971   1812
4   6181    165    210   5018
4   3058   1871   3509   4594
4    651   3530    349   3528
4    349   5776   3528   4652
4   1843   3057   3058   3510
4    753   5776   4652   4648
4   3464   5519   3511   1862
4   1842   3767   2844   5520
4   3025   2716    513   3740
4   6196   1871   1797   1840
4    686   4248   4246   4245
4   3869    589   3868   3899
4   2741   2971   1812   3463
4   1871   5379   1796   4190
4   3408   3033   3868   6130
4   1871   5379   3856   1810
4   6842   6517    421   3839
4   1811   1871   3856   1810
4   2801   5467    665   4468
4   4947   3954   3073   6742
4   3739   4197   5074   5674
4   4342    260   6284   3073
4    580   3869   3868   6130
4   3597   3518     61   4197
4   5130    693   3471   5556
4   3597   3085   3657    618
4    492    260   5598   3073
4   2734    412    494    491
4   3646   1159   5073   6140
4   3597   3587    618    613
4   2448   2410   2276   5076
4   5466   2801   5074   3598
4   6624   4764    749   5072
4   2239   4100   2440   6095
4   2408   6715   1213   1192
4   2195   2201   5093   5438
4    301   3580    409   2606
4   2485   2593   3203   6065
4   2168   2213   1220   1216
4   1186   4586   4859   4583
4   2195   5094   6550   5093
4   2481   2732   5247   5246
4   2502   2501   1202   6342
4   2593   2485   3203   2993
4   4410   2915   2376   4260
4   6266   6504   4015   2658
4   2481   2993   6066   3752
4   6243   6244   4919   1552
4   6243   1552   4919   5507
4   5779   1202   5724   3294
4   5700   3871   5507   4921
4   4753    727   6368   6288
4    937   6364   5701   6245
4   6503   4920   6243   6244
4   5700   4921   3872   3871
4   5910   3561   5380   5381
4   5080   6437   4819   6564
4   6019   4524   5863   6375
4   5084   4974    126   6739
4   5122   5877   5378   4242
4   5079   1864   5082   5861
4   5080   6375   4524   6019
4   2639   1838   1789   6375
4   1240   4830   1207   1208
4   1834   1864   5861   4891
4    439    305    673   2912
4    439    314   6598   3799
4    498   6598    439   5075
4   2521   3731   6417   6069
4   6826   6314   2745   5865
4   4774    305   2912    673
4   1240   1668   4978   2917
4   5762   5380   6003   1868
4   2340   5880   5373   4864
4   2481   5264   2682   1226
4   5650   3665   5425   4530
4   2319   2472   2349   2153
4   6739    125   3732   3734
4   4398    125   3732   6670
4    575   4780    559   4386
4   4759   5638   4398   2862
4   2202   4059   2322   3502
4   6670   3732   6739    125
4   4529   6739    126   5250
4   6739    126    125   4974
4   6739   5090   3734   4981
4   5284   5084   4974   2913
4   2487   2319   2520   2149
4   2152   2500   6387   6475
4   4529    304   5250    126
4   2152   6475   2136   2500
4   2370   6556   4436   5897
4   2500   2152   5004   2149
4   2431   4811   4812   3595
4   2179   2596   5044   5932
4   1868   3561   5642   5380
4   2369   5053   3640   3641
4   2488   2495   5091   4554
4   2115   6408   2591   6409
4   2376   6558   4435   6559
4   2179   2596   5748   5044
4   2109   2107   2113   2108
4   2435   2354   2374   2331
4   2194   6501   2121   5481
4   5224   5380   1868   6001
4   2115   2591   5288   5142
4   2328   5200   2926   2927
4   6323   2725   3078   5123
4   5794   3104   6219   3801
4   5910   1832   3561   3584
4   2087   2239   4726   4100
4   6220   4625   6219    680
4   5952   6219   6214    605
4   2041   4605   6752   6628
4   2434   5040   4636   4865
4    510   6161    605   4462
4   2323   2209   1204   2213
4    658   3437   3882   3516
4   5708   6230    327   3381
4    604    608    624   6214
4   6757   2349   2336   5159
4    345   3243    482   5063
4   2422   3146   3145   3147
4    345   3245    329   4805
4   6579   4625   6220   4596
4   2153   2319   2520   2349
4   5566    606    608   5564
4   5063   6348    482   6579
4    741   4020   6893   4927
4   2462   3088   5751   5108
4   1385   2422   1386   4091
4   6391   2319   5210   4303
4   2487   2152   2833   4303
4   4021   4927    472   6851
4   5139   5716    472   3827
4   1866   1868   6003   6001
4   4767   6191    549    726
4   2422   3145   4049   3147
4   6332   2853   6881   6331
4   2310   2271   4681   2608
4   2415   6494   2173   4156
4   6586   5733   6587   3198
4   2527   3923   6872   3881
4   2411   4152   1641   6373
4    464    332   4310   4404
4   2488   4423   2490   2378
4   4677   4676   5103   5232
4   5973   4115   5249   4730
4   2488   4553   5504   4554
4   2495   4554   1644   6373
4   2411   1454   2495   3920
4   5850   2488   2492   4553
4   3400   4141   3932   3341
4   2174   4164   6880   4163
4   3341   4141   3932    440
4    470   3296   3295    315
4    464   5249   5973   4310
4   3042   6502   6707   4140
4    221   6708   3043   5603
4   6483   5601   6708   5602
4   2319   2152   6771   6772
4    209   6708   5603   5602
4   3457   5471   1835   1827
4   3174   1835   3457   5471
4   4077   5469   3566   4079
4   2093   2619   2065   3117
4   2437   2793   4037   5027
4   2071   6470   5899   3282
4   2437   2117   5629   3600
4   3425   5541   1833   1828
4   2270   4900   5457   5227
4   5540   3380   5471   1827
4   2272   3773   3352   5457
4   2494   1517   1880   1480
4   2250   2437   2436   5822
4   2437   2533   3627   5484
4   2034   2400   6428   4504
4   2117   5824   3775   2065
4   2431   5692   4811   3595
4   1758   1833   6326   3173
4   5684   1827   1795   5540
4   1795   5540   1827   3550
4   1431   2186   6458   1402
4   2319   2152   6772   3489
4   2182   2184   4878   5508
4   6213   5769   6287   6285
4   3902   4949   4645    499
4    245   2899   6789   4949
4   4133   2182   2185   3730
4   2303   6229   6146   5713
4   2233   1468   2184   2241
4    245   4949   5955   2899
4   5816   5954   6789   3333
4   2182   5508   4878   1287
4   2182   6458   2189   1412
4   2417   1427   6350   1302
4   5263   3417   4244   6066
4   3756   6276   3757   3226
4    767   6790   5994   4275
4   2269   2754   2757   1479
4    767   6790   4275   6789
4   6423   3230    499   2885
4   2708   3230   2885   5954
4   5660    585   5659    273
4    417   3459   6436   5764
4    582   5687   6289    341
4   2115   2058   2591   5932
4   2357   6103   4146   6748
4   2387   1273   1270   6466
4   2463   3192   5429   5246
4   1221   1479   2757   2754
4   2269   5429   2754   1479
4   2156   5663   5316   5317
4   2373   4734   3337   1268
4   2270   5270   3425   6326
4   2130   2234   2277   2124
4   2041   2034   4640   2968
4   5240   4181   3442   5268
4   2464   4421   2497   1319
4   2065   5003   5002   3283
4   2488   1644   4554   5504
4   2061   2092   6683   6252
4   2497   1346   5289   6717
4   1465   1386   2461   5611
4   6795   6331   6332    545
4   2183   5546   6540   4838
4   2216   3063   4714   4715
4   5781   5778   5782   4714
4   2501   4714   3063   4712
4   5251   4679   2316   2183
4   2320   3893   5539   4616
4   2501   5879   4063   4712
4   4878   2182   2186   2184
4   2502   5401   3294   3293
4   2316   5426   4616   6540
4   1200   1198   4465   5879
4   2982   6303   3473   1595
4   6793   3139   6791    203
4    206    729   6793   3898
4   6540   2316   2320   4616
4   6793    206   5143    729
4    206    562   3898   4795
4    254   6669   5527   2826
4   3344   4386    559   4781
4   3531    284   6700   6257
4   4744    249   6004    729
4   6360   5143    249   4744
4    206   3898    562    729
4   6360   4724   4943    264
4   5196    228    729   6004
4   6360    195    264   5143
4   2092   5259   6683   5896
4   4464   3271   4461    271
4    686    222   4245   4246
4   2247   6574   5437   5510
4   2403   1336   1378   6527
4   2359   5440   2551   5737
4   2875   2060   4837   3482
4   4842   2483   2365   4841
4   2067   4926   2634   4566
4   2061   5737   6682   6683
4   2069   2047   2044   3974
4   3345   3343   5909   4985
4   3163    222   4245   4779
4    686   4245   4779   4690
4   3436   5830   2075   5000
4   2157   6761   5033   6472
4   2094   2092   2035   2065
4   5554   3555   3375   4339
4   2281   4043   6818   4420
4    325    695   5130   4150
4   2117   2034   2437   2071
4   2157   5032   2069   4044
4   2479   2382   5562   1327
4   5505   4553   4880   2492
4   2488   5091   2495   2489
4   3156   5117   2967   3155
4   5122   3157   2967   5378
4   5994   2713   3387    766
4   2646   4395   6790   3351
4   2284   5431   5026   3239
4   2280   5449   2663   1395
4   2646   3351   6790   3949
4   2647   3719    767   4276
4   2281   5734   4420   5680
4   2713   6785   3387   3386
4   4791   2713   6785   2670
4   6499   3949    766   3235
4   4041   2282   2281   4680
4   2280   3317   5449   1395
4   5867   2889   3802   3399
4    694   6750   5152   4150
4   5867   3802   3422   3399
4   2181   6355   2535   4257
4   2239   6095   2440   6524
4   2419   6222   1439   6100
4   2420   5265   5686   1261
4   5643   6747   5587   6294
4   3390   2296   2097   3391
4   2119   4691   6692   5258
4   5605   6213   5769   6287
4    694   5152    385    696
4   3390   3389   2051   3391
4   5279   5297   5278   3023
4   3196   5743   3197   2955
4   3196   5743   3197   2955
4   3196   5743   3197   2955
4   3196   5743   3197   2955
CELL_TYPES 29054
10
10
10
10
10
10
10
10
10
10
10
10
10
10
10
10
10
10
10
10
10
10
10
10
10
10
10
10
10
10
10
10
10
10
10
10
10
10
10
10
10
10
10
10
10
10
10
10
10
10
10
10
10
10
10
10
10
10
10
10
10
10
10
10
10
10
10
10
10
10
10
10
10
10
10
10
10
10
10
10
10
10
10
10
10
10
10
10
10
10
10
10
10
10
10
10
10
10
10
10
10
10
10
10
10
10
10
10
10
10
10
10
10
10
10
10
10
10
10
10
10
10
10
10
10
10
10
10
10
10
10
10
10
10
10
10
10
10
10
10
10
10
10
10
10
10
10
10
10
10
10
10
10
10
10
10
10
10
10
10
10
10
10
10
10
10
10
10
10
10
10
10
10
10
10
10
10
10
10
10
10
10
10
10
10
10
10
10
10
10
10
10
10
10
10
10
10
10
10
10
10
10
10
10
10
10
10
10
10
10
10
10
10
10
10
10
10
10
10
10
10
10
10
10
10
10
10
10
10
10
10
10
10
10
10
10
10
10
10
10
10
10
10
10
10
10
10
10
10
10
10
10
10
10
10
10
10
10
10
10
10
10
10
10
10
10
10
10
10
10
10
10
10
10
10
10
10
10
10
10
10
10
10
10
10
10
10
10
10
10
10
10
10
10
10
10
10
10
10
10
10
10
10
10
10
10
10
10
10
10
10
10
10
10
10
10
10
10
10
10
10
10
10
10
10
10
10
10
10
10
10
10
10
10
10
10
10
10
10
10
10
10
10
10
10
10
10
10
10
10
10
10
10
10
10
10
10
10
10
10
10
10
10
10
10
10
10
10
10
10
10
10
10
10
10
10
10
10
10
10
10
10
10
10
10
10
10
10
10
10
10
10
10
10
10
10
10
10
10
10
10
10
10
10
10
10
10
10
10
10
10
10
10
10
10
10
10
10
10
10
10
10
10
10
10
10
10
10
10
10
10
10
10
10
10
10
10
10
10
10
10
10
10
10
10
10
10
10
10
10
10
10
10
10
10
10
10
10
10
10
10
10
10
10
10
10
10
10
10
10
10
10
10
10
10
10
10
10
10
10
10
10
10
10
10
10
10
10
10
10
10
10
10
10
10
10
10
10
10
10
10
10
10
10
10
10
10
10
10
10
10
10
10
10
10
10
10
10
10
10
10
10
10
10
10
10
10
10
10
10
10
10
10
10
10
10
10
10
10
10
10
10
10
10
10
10
10
10
10
10
10
10
10
10
10
10
10
10
10
10
10
10
10
10
10
10
10
10
10
10
10
10
10
10
10
10
10
10
10
10
10
10
10
10
10
10
10
10
10
10
10
10
10
10
10
10
10
10
10
10
10
10
10
10
10
10
10
10
10
10
10
10
10
10
10
10
10
10
10
10
10
10
10
10
10
10
10
10
10
10
10
10
10
10
10
10
10
10
10
10
10
10
10
10
10
10
10
10
10
10
10
10
10
10
10
10
10
10
10
10
10
10
10
10
10
10
10
10
10
10
10
10
10
10
10
10
10
10
10
10
10
10
10
10
10
10
10
10
10
10
10
10
10
10
10
10
10
10
10
10
10
10
10
10
10
10
10
10
10
10
10
10
10
10
10
10
10
10
10
10
10
10
10
10
10
10
10
10
10
10
10
10
10
10
10
10
10
10
10
10
10
10
10
10
10
10
10
10
10
10
10
10
10
10
10
10
10
10
10
10
10
10
10
10
10
10
10
10
10
10
10
10
10
10
10
10
10
10
10
10
10
10
10
10
10
10
10
10
10
10
10
10
10
10
10
10
10
10
10
10
10
10
10
10
10
10
10
10
10
10
10
10
10
10
10
10
10
10
10
10
10
10
10
10
10
10
10
10
10
10
10
10
10
10
10
10
10
10
10
10
10
10
10
10
10
10
10
10
10
10
10
10
10
10
10
10
10
10
10
10
10
10
10
10
10
10
10
10
10
10
10
10
10
10
10
10
10
10
10
10
10
10
10
10
10
10
10
10
10
10
10
10
10
10
10
10
10
10
10
10
10
10
10
10
10
10
10
10
10
10
10
10
10
10
10
10
10
10
10
10
10
10
10
10
10
10
10
10
10
10
10
10
10
10
10
10
10
10
10
10
10
10
10
10
10
10
10
10
10
10
10
10
10
10
10
10
10
10
10
10
10
10
10
10
10
10
10
10
10
10
10
10
10
10
10
10
10
10
10
10
10
10
10
10
10
10
10
10
10
10
10
10
10
10
10
10
10
10
10
10
10
10
10
10
10
10
10
10
10
10
10
10
10
10
10
10
10
10
10
10
10
10
10
10
10
10
10
10
10
10
10
10
10
10
10
10
10
10
10
10
10
10
10
10
10
10
10
10
10
10
10
10
10
10
10
10
10
10
10
10
10
10
10
10
10
10
10
10
10
10
10
10
10
10
10
10
10
10
10
10
10
10
10
10
10
10
10
10
10
10
10
10
10
10
10
10
10
10
10
10
10
10
10
10
10
10
10
10
10
10
10
10
10
10
10
10
10
10
10
10
10
10
10
10
10
10
10
10
10
10
10
10
10
10
10
10
10
10
10
10
10
10
10
10
10
10
10
10
10
10
10
10
10
10
10
10
10
10
10
10
10
10
10
10
10
10
10
10
10
10
10
10
10
10
10
10
10
10
10
10
10
10
10
10
10
10
10
10
10
10
10
10
10
10
10
10
10
10
10
10
10
10
10
10
10
10
10
10
10
10
10
10
10
10
10
10
10
10
10
10
10
10
10
10
10
10
10
10
10
10
10
10
10
10
10
10
10
10
10
10
10
10
10
10
10
10
10
10
10
10
10
10
10
10
10
10
10
10
10
10
10
10
10
10
10
10
10
10
10
10
10
10
10
10
10
10
10
10
10
10
10
10
10
10
10
10
10
10
10
10
10
10
10
10
10
10
10
10
10
10
10
10
10
10
10
10
10
10
10
10
10
10
10
10
10
10
10
10
10
10
10
10
10
10
10
10
10
10
10
10
10
10
10
10
10
10
10
10
10
10
10
10
10
10
10
10
10
10
10
10
10
10
10
10
10
10
10
10
10
10
10
10
10
10
10
10
10
10
10
10
10
10
10
10
10
10
10
10
10
10
10
10
10
10
10
10
10
10
10
10
10
10
10
10
10
10
10
10
10
10
10
10
10
10
10
10
10
10
10
10
10
10
10
10
10
10
10
10
10
10
10
10
10
10
10
10
10
10
10
10
10
10
10
10
10
10
10
10
10
10
10
10
10
10
10
10
10
10
10
10
10
10
10
10
10
10
10
10
10
10
10
10
10
10
10
10
10
10
10
10
10
10
10
10
10
10
10
10
10
10
10
10
10
10
10
10
10
10
10
10
10
10
10
10
10
10
10
10
10
10
10
10
10
10
10
10
10
10
10
10
10
10
10
10
10
10
10
10
10
10
10
10
10
10
10
10
10
10
10
10
10
10
10
10
10
10
10
10
10
10
10
10
10
10
10
10
10
10
10
10
10
10
10
10
10
10
10
10
10
10
10
10
10
10
10
10
10
10
10
10
10
10
10
10
10
10
10
10
10
10
10
10
10
10
10
10
10
10
10
10
10
10
10
10
10
10
10
10
10
10
10
10
10
10
10
10
10
10
10
10
10
10
10
10
10
10
10
10
10
10
10
10
10
10
10
10
10
10
10
10
10
10
10
10
10
10
10
10
10
10
10
10
10
10
10
10
10
10
10
10
10
10
10
10
10
10
10
10
10
10
10
10
10
10
10
10
10
10
10
10
10
10
10
10
10
10
10
10
10
10
10
10
10
10
10
10
10
10
10
10
10
10
10
10
10
10
10
10
10
10
10
10
10
10
10
10
10
10
10
10
10
10
10
10
10
10
10
10
10
10
10
10
10
10
10
10
10
10
10
10
10
10
10
10
10
10
10
10
10
10
10
10
10
10
10
10
10
10
10
10
10
10
10
10
10
10
10
10
10
10
10
10
10
10
10
10
10
10
10
10
10
10
10
10
10
10
10
10
10
10
10
10
10
10
10
10
10
10
10
10
10
10
10
10
10
10
10
10
10
10
10
10
10
10
10
10
10
10
10
10
10
10
10
10
10
10
10
10
10
10
10
10
10
10
10
10
10
10
10
10
10
10
10
10
10
10
10
10
10
10
10
10
10
10
10
10
10
10
10
10
10
10
10
10
10
10
10
10
10
10
10
10
10
10
10
10
10
10
10
10
10
10
10
10
10
10
10
10
10
10
10
10
10
10
10
10
10
10
10
10
10
10
10
10
10
10
10
10
10
10
10
10
10
10
10
10
10
10
10
10
10
10
10
10
10
10
10
10
10
10
10
10
10
10
10
10
10
10
10
10
10
10
10
10
10
10
10
10
10
10
10
10
10
10
10
10
10
10
10
10
10
10
10
10
10
10
10
10
10
10
10
10
10
10
10
10
10
10
10
10
10
10
10
10
10
10
10
10
10
10
10
10
10
10
10
10
10
10
10
10
10
10
10
10
10
10
10
10
10
10
10
10
10
10
10
10
10
10
10
10
10
10
10
10
10
10
10
10
10
10
10
10
10
10
10
10
10
10
10
10
10
10
10
10
10
10
10
10
10
10
10
10
10
10
10
10
10
10
10
10
10
10
10
10
10
10
10
10
10
10
10
10
10
10
10
10
10
10
10
10
10
10
10
10
10
10
10
10
10
10
10
10
10
10
10
10
10
10
10
10
10
10
10
10
10
10
10
10
10
10
10
10
10
10
10
10
10
10
10
10
10
10
10
10
10
10
10
10
10
10
10
10
10
10
10
10
10
10
10
10
10
10
10
10
10
10
10
10
10
10
10
10
10
10
10
10
10
10
10
10
10
10
10
10
10
10
10
10
10
10
10
10
10
10
10
10
10
10
10
10
10
10
10
10
10
10
10
10
10
10
10
10
10
10
10
10
10
10
10
10
10
10
10
10
10
10
10
10
10
10
10
10
10
10
10
10
10
10
10
10
10
10
10
10
10
10
10
10
10
10
10
10
10
10
10
10
10
10
10
10
10
10
10
10
10
10
10
10
10
10
10
10
10
10
10
10
10
10
10
10
10
10
10
10
10
10
10
10
10
10
10
10
10
10
10
10
10
10
10
10
10
10
10
10
10
10
10
10
10
10
10
10
10
10
10
10
10
10
10
10
10
10
10
10
10
10
10
10
10
10
10
10
10
10
10
10
10
10
10
10
10
10
10
10
10
10
10
10
10
10
10
10
10
10
10
10
10
10
10
10
10
10
10
10
10
10
10
10
10
10
10
10
10
10
10
10
10
10
10
10
10
10
10
10
10
10
10
10
10
10
10
10
10
10
10
10
10
10
10
10
10
10
10
10
10
10
10
10
10
10
10
10
10
10
10
10
10
10
10
10
10
10
10
10
10
10
10
10
10
10
10
10
10
10
10
10
10
10
10
10
10
10
10
10
10
10
10
10
10
10
10
10
10
10
10
10
10
10
10
10
10
10
10
10
10
10
10
10
10
10
10
10
10
10
10
10
10
10
10
10
10
10
10
10
10
10
10
10
10
10
10
10
10
10
10
10
10
10
10
10
10
10
10
10
10
10
10
10
10
10
10
10
10
10
10
10
10
10
10
10
10
10
10
10
10
10
10
10
10
10
10
10
10
10
10
10
10
10
10
10
10
10
10
10
10
10
10
10
10
10
10
10
10
10
10
10
10
10
10
10
10
10
10
10
10
10
10
10
10
10
10
10
10
10
10
10
10
10
10
10
10
10
10
10
10
10
10
10
10
10
10
10
10
10
10
10
10
10
10
10
10
10
10
10
10
10
10
10
10
10
10
10
10
10
10
10
10
10
10
10
10
10
10
10
10
10
10
10
10
10
10
10
10
10
10
10
10
10
10
10
10
10
10
10
10
10
10
10
10
10
10
10
10
10
10
10
10
10
10
10
10
10
10
10
10
10
10
10
10
10
10
10
10
10
10
10
10
10
10
10
10
10
10
10
10
10
10
10
10
10
10
10
10
10
10
10
10
10
10
10
10
10
10
10
10
10
10
10
10
10
10
10
10
10
10
10
10
10
10
10
10
10
10
10
10
10
10
10
10
10
10
10
10
10
10
10
10
10
10
10
10
10
10
10
10
10
10
10
10
10
10
10
10
10
10
10
10
10
10
10
10
10
10
10
10
10
10
10
10
10
10
10
10
10
10
10
10
10
10
10
10
10
10
10
10
10
10
10
10
10
10
10
10
10
10
10
10
10
10
10
10
10
10
10
10
10
10
10
10
10
10
10
10
10
10
10
10
10
10
10
10
10
10
10
10
10
10
10
10
10
10
10
10
10
10
10
10
10
10
10
10
10
10
10
10
10
10
10
10
10
10
10
10
10
10
10
10
10
10
10
10
10
10
10
10
10
10
10
10
10
10
10
10
10
10
10
10
10
10
10
10
10
10
10
10
10
10
10
10
10
10
10
10
10
10
10
10
10
10
10
10
10
10
10
10
10
10
10
10
10
10
10
10
10
10
10
10
10
10
10
10
10
10
10
10
10
10
10
10
10
10
10
10
10
10
10
10
10
10
10
10
10
10
10
10
10
10
10
10
10
10
10
10
10
10
10
10
10
10
10
10
10
10
10
10
10
10
10
10
10
10
10
10
10
10
10
10
10
10
10
10
10
10
10
10
10
10
10
10
10
10
10
10
10
10
10
10
10
10
10
10
10
10
10
10
10
10
10
10
10
10
10
10
10
10
10
10
10
10
10
10
10
10
10
10
10
10
10
10
10
10
10
10
10
10
10
10
10
10
10
10
10
10
10
10
10
10
10
10
10
10
10
10
10
10
10
10
10
10
10
10
10
10
10
10
10
10
10
10
10
10
10
10
10
10
10
10
10
10
10
10
10
10
10
10
10
10
10
10
10
10
10
10
10
10
10
10
10
10
10
10
10
10
10
10
10
10
10
10
10
10
10
10
10
10
10
10
10
10
10
10
10
10
10
10
10
10
10
10
10
10
10
10
10
10
10
10
10
10
10
10
10
10
10
10
10
10
10
10
10
10
10
10
10
10
10
10
10
10
10
10
10
10
10
10
10
10
10
10
10
10
10
10
10
10
10
10
10
10
10
10
10
10
10
10
10
10
10
10
10
10
10
10
10
10
10
10
10
10
10
10
10
10
10
10
10
10
10
10
10
10
10
10
10
10
10
10
10
10
10
10
10
10
10
10
10
10
10
10
10
10
10
10
10
10
10
10
10
10
10
10
10
10
10
10
10
10
10
10
10
10
10
10
10
10
10
10
10
10
10
10
10
10
10
10
10
10
10
10
10
10
10
10
10
10
10
10
10
10
10
10
10
10
10
10
10
10
10
10
10
10
10
10
10
10
10
10
10
10
10
10
10
10
10
10
10
10
10
10
10
10
10
10
10
10
10
10
10
10
10
10
10
10
10
10
10
10
10
10
10
10
10
10
10
10
10
10
10
10
10
10
10
10
10
10
10
10
10
10
10
10
10
10
10
10
10
10
10
10
10
10
10
10
10
10
10
10
10
10
10
10
10
10
10
10
10
10
10
10
10
10
10
10
10
10
10
10
10
10
10
10
10
10
10
10
10
10
10
10
10
10
10
10
10
10
10
10
10
10
10
10
10
10
10
10
10
10
10
10
10
10
10
10
10
10
10
10
10
10
10
10
10
10
10
10
10
10
10
10
10
10
10
10
10
10
10
10
10
10
10
10
10
10
10
10
10
10
10
10
10
10
10
10
10
10
10
10
10
10
10
10
10
10
10
10
10
10
10
10
10
10
10
10
10
10
10
10
10
10
10
10
10
10
10
10
10
10
10
10
10
10
10
10
10
10
10
10
10
10
10
10
10
10
10
10
10
10
10
10
10
10
10
10
10
10
10
10
10
10
10
10
10
10
10
10
10
10
10
10
10
10
10
10
10
10
10
10
10
10
10
10
10
10
10
10
10
10
10
10
10
10
10
10
10
10
10
10
10
10
10
10
10
10
10
10
10
10
10
10
10
10
10
10
10
10
10
10
10
10
10
10
10
10
10
10
10
10
10
10
10
10
10
10
10
10
10
10
10
10
10
10
10
10
10
10
10
10
10
10
10
10
10
10
10
10
10
10
10
10
10
10
10
10
10
10
10
10
10
10
10
10
10
10
10
10
10
10
10
10
10
10
10
10
10
10
10
10
10
10
10
10
10
10
10
10
10
10
10
10
10
10
10
10
10
10
10
10
10
10
10
10
10
10
10
10
10
10
10
10
10
10
10
10
10
10
10
10
10
10
10
10
10
10
10
10
10
10
10
10
10
10
10
10
10
10
10
10
10
10
10
10
10
10
10
10
10
10
10
10
10
10
10
10
10
10
10
10
10
10
10
10
10
10
10
10
10
10
10
10
10
10
10
10
10
10
10
10
10
10
10
10
10
10
10
10
10
10
10
10
10
10
10
10
10
10
10
10
10
10
10
10
10
10
10
10
10
10
10
10
10
10
10
10
10
10
10
10
10
10
10
10
10
10
10
10
10
10
10
10
10
10
10
10
10
10
10
10
10
10
10
10
10
10
10
10
10
10
10
10
10
10
10
10
10
10
10
10
10
10
10
10
10
10
10
10
10
10
10
10
10
10
10
10
10
10
10
10
10
10
10
10
10
10
10
10
10
10
10
10
10
10
10
10
10
10
10
10
10
10
10
10
10
10
10
10
10
10
10
10
10
10
10
10
10
10
10
10
10
10
10
10
10
10
10
10
10
10
10
10
10
10
10
10
10
10
10
10
10
10
10
10
10
10
10
10
10
10
10
10
10
10
10
10
10
10
10
10
10
10
10
10
10
10
10
10
10
10
10
10
10
10
10
10
10
10
10
10
10
10
10
10
10
10
10
10
10
10
10
10
10
10
10
10
10
10
10
10
10
10
10
10
10
10
10
10
10
10
10
10
10
10
10
10
10
10
10
10
10
10
10
10
10
10
10
10
10
10
10
10
10
10
10
10
10
10
10
10
10
10
10
10
10
10
10
10
10
10
10
10
10
10
10
10
10
10
10
10
10
10
10
10
10
10
10
10
10
10
10
10
10
10
10
10
10
10
10
10
10
10
10
10
10
10
10
10
10
10
10
10
10
10
10
10
10
10
10
10
10
10
10
10
10
10
10
10
10
10
10
10
10
10
10
10
10
10
10
10
10
10
10
10
10
10
10
10
10
10
10
10
10
10
10
10
10
10
10
10
10
10
10
10
10
10
10
10
10
10
10
10
10
10
10
10
10
10
10
10
10
10
10
10
10
10
10
10
10
10
10
10
10
10
10
10
10
10
10
10
10
10
10
10
10
10
10
10
10
10
10
10
10
10
10
10
10
10
10
10
10
10
10
10
10
10
10
10
10
10
10
10
10
10
10
10
10
10
10
10
10
10
10
10
10
10
10
10
10
10
10
10
10
10
10
10
10
10
10
10
10
10
10
10
10
10
10
10
10
10
10
10
10
10
10
10
10
10
10
10
10
10
10
10
10
10
10
10
10
10
10
10
10
10
10
10
10
10
10
10
10
10
10
10
10
10
10
10
10
10
10
10
10
10
10
10
10
10
10
10
10
10
10
10
10
10
10
10
10
10
10
10
10
10
10
10
10
10
10
10
10
10
10
10
10
10
10
10
10
10
10
10
10
10
10
10
10
10
10
10
10
10
10
10
10
10
10
10
10
10
10
10
10
10
10
10
10
10
10
10
10
10
10
10
10
10
10
10
10
10
10
10
10
10
10
10
10
10
10
10
10
10
10
10
10
10
10
10
10
10
10
10
10
10
10
10
10
10
10
10
10
10
10
10
10
10
10
10
10
10
10
10
10
10
10
10
10
10
10
10
10
10
10
10
10
10
10
10
10
10
10
10
10
10
10
10
10
10
10
10
10
10
10
10
10
10
10
10
10
10
10
10
10
10
10
10
10
10
10
10
10
10
10
10
10
10
10
10
10
10
10
10
10
10
10
10
10
10
10
10
10
10
10
10
10
10
10
10
10
10
10
10
10
10
10
10
10
10
10
10
10
10
10
10
10
10
10
10
10
10
10
10
10
10
10
10
10
10
10
10
10
10
10
10
10
10
10
10
10
10
10
10
10
10
10
10
10
10
10
10
10
10
10
10
10
10
10
10
10
10
10
10
10
10
10
10
10
10
10
10
10
10
10
10
10
10
10
10
10
10
10
10
10
10
10
10
10
10
10
10
10
10
10
10
10
10
10
10
10
10
10
10
10
10
10
10
10
10
10
10
10
10
10
10
10
10
10
10
10
10
10
10
10
10
10
10
10
10
10
10
10
10
10
10
10
10
10
10
10
10
10
10
10
10
10
10
10
10
10
10
10
10
10
10
10
10
10
10
10
10
10
10
10
10
10
10
10
10
10
10
10
10
10
10
10
10
10
10
10
10
10
10
10
10
10
10
10
10
10
10
10
10
10
10
10
10
10
10
10
10
10
10
10
10
10
10
10
10
10
10
10
10
10
10
10
10
10
10
10
10
10
10
10
10
10
10
10
10
10
10
10
10
10
10
10
10
10
10
10
10
10
10
10
10
10
10
10
10
10
10
10
10
10
10
10
10
10
10
10
10
10
10
10
10
10
10
10
10
10
10
10
10
10
10
10
10
10
10
10
10
10
10
10
10
10
10
10
10
10
10
10
10
10
10
10
10
10
10
10
10
10
10
10
10
10
10
10
10
10
10
10
10
10
10
10
10
10
10
10
10
10
10
10
10
10
10
10
10
10
10
10
10
10
10
10
10
10
10
10
10
10
10
10
10
10
10
10
10
10
10
10
10
10
10
10
10
10
10
10
10
10
10
10
10
10
10
10
10
10
10
10
10
10
10
10
10
10
10
10
10
10
10
10
10
10
10
10
10
10
10
10
10
10
10
10
10
10
10
10
10
10
10
10
10
10
10
10
10
10
10
10
10
10
10
10
10
10
10
10
10
10
10
10
10
10
10
10
10
10
10
10
10
10
10
10
10
10
10
10
10
10
10
10
10
10
10
10
10
10
10
10
10
10
10
10
10
10
10
10
10
10
10
10
10
10
10
10
10
10
10
10
10
10
10
10
10
10
10
10
10
10
10
10
10
10
10
10
10
10
10
10
10
10
10
10
10
10
10
10
10
10
10
10
10
10
10
10
10
10
10
10
10
10
10
10
10
10
10
10
10
10
10
10
10
10
10
10
10
10
10
10
10
10
10
10
10
10
10
10
10
10
10
10
10
10
10
10
10
10
10
10
10
10
10
10
10
10
10
10
10
10
10
10
10
10
10
10
10
10
10
10
10
10
10
10
10
10
10
10
10
10
10
10
10
10
10
10
10
10
10
10
10
10
10
10
10
10
10
10
10
10
10
10
10
10
10
10
10
10
10
10
10
10
10
10
10
10
10
10
10
10
10
10
10
10
10
10
10
10
10
10
10
10
10
10
10
10
10
10
10
10
10
10
10
10
10
10
10
10
10
10
10
10
10
10
10
10
10
10
10
10
10
10
10
10
10
10
10
10
10
10
10
10
10
10
10
10
10
10
10
10
10
10
10
10
10
10
10
10
10
10
10
10
10
10
10
10
10
10
10
10
10
10
10
10
10
10
10
10
10
10
10
10
10
10
10
10
10
10
10
10
10
10
10
10
10
10
10
10
10
10
10
10
10
10
10
10
10
10
10
10
10
10
10
10
10
10
10
10
10
10
10
10
10
10
10
10
10
10
10
10
10
10
10
10
10
10
10
10
10
10
10
10
10
10
10
10
10
10
10
10
10
10
10
10
10
10
10
10
10
10
10
10
10
10
10
10
10
10
10
10
10
10
10
10
10
10
10
10
10
10
10
10
10
10
10
10
10
10
10
10
10
10
10
10
10
10
10
10
10
10
10
10
10
10
10
10
10
10
10
10
10
10
10
10
10
10
10
10
10
10
10
10
10
10
10
10
10
10
10
10
10
10
10
10
10
10
10
10
10
10
10
10
10
10
10
10
10
10
10
10
10
10
10
10
10
10
10
10
10
10
10
10
10
10
10
10
10
10
10
10
10
10
10
10
10
10
10
10
10
10
10
10
10
10
10
10
10
10
10
10
10
10
10
10
10
10
10
10
10
10
10
10
10
10
10
10
10
10
10
10
10
10
10
10
10
10
10
10
10
10
10
10
10
10
10
10
10
10
10
10
10
10
10
10
10
10
10
10
10
10
10
10
10
10
10
10
10
10
10
10
10
10
10
10
10
10
10
10
10
10
10
10
10
10
10
10
10
10
10
10
10
10
10
10
10
10
10
10
10
10
10
10
10
10
10
10
10
10
10
10
10
10
10
10
10
10
10
10
10
10
10
10
10
10
10
10
10
10
10
10
10
10
10
10
10
10
10
10
10
10
10
10
10
10
10
10
10
10
10
10
10
10
10
10
10
10
10
10
10
10
10
10
10
10
10
10
10
10
10
10
10
10
10
10
10
10
10
10
10
10
10
10
10
10
10
10
10
10
10
10
10
10
10
10
10
10
10
10
10
10
10
10
10
10
10
10
10
10
10
10
10
10
10
10
10
10
10
10
10
10
10
10
10
10
10
10
10
10
10
10
10
10
10
10
10
10
10
10
10
10
10
10
10
10
10
10
10
10
10
10
10
10
10
10
10
10
10
10
10
10
10
10
10
10
10
10
10
10
10
10
10
10
10
10
10
10
10
10
10
10
10
10
10
10
10
10
10
10
10
10
10
10
10
10
10
10
10
10
10
10
10
10
10
10
10
10
10
10
10
10
10
10
10
10
10
10
10
10
10
10
10
10
10
10
10
10
10
10
10
10
10
10
10
10
10
10
10
10
10
10
10
10
10
10
10
10
10
10
10
10
10
10
10
10
10
10
10
10
10
10
10
10
10
10
10
10
10
10
10
10
10
10
10
10
10
10
10
10
10
10
10
10
10
10
10
10
10
10
10
10
10
10
10
10
10
10
10
10
10
10
10
10
10
10
10
10
10
10
10
10
10
10
10
10
10
10
10
10
10
10
10
10
10
10
10
10
10
10
10
10
10
10
10
10
10
10
10
10
10
10
10
10
10
10
10
10
10
10
10
10
10
10
10
10
10
10
10
10
10
10
10
10
10
10
10
10
10
10
10
10
10
10
10
10
10
10
10
10
10
10
10
10
10
10
10
10
10
10
10
10
10
10
10
10
10
10
10
10
10
10
10
10
10
10
10
10
10
10
10
10
10
10
10
10
10
10
10
10
10
10
10
10
10
10
10
10
10
10
10
10
10
10
10
10
10
10
10
10
10
10
10
10
10
10
10
10
10
10
10
10
10
10
10
10
10
10
10
10
10
10
10
10
10
10
10
10
10
10
10
10
10
10
10
10
10
10
10
10
10
10
10
10
10
10
10
10
10
10
10
10
10
10
10
10
10
10
10
10
10
10
10
10
10
10
10
10
10
10
10
10
10
10
10
10
10
10
10
10
10
10
10
10
10
10
10
10
10
10
10
10
10
10
10
10
10
10
10
10
10
10
10
10
10
10
10
10
10
10
10
10
10
10
10
10
10
10
10
10
10
10
10
10
10
10
10
10
10
10
10
10
10
10
10
10
10
10
10
10
10
10
10
10
10
10
10
10
10
10
10
10
10
10
10
10
10
10
10
10
10
10
10
10
10
10
10
10
10
10
10
10
10
10
10
10
10
10
10
10
10
10
10
10
10
10
10
10
10
10
10
10
10
10
10
10
10
10
10
10
10
10
10
10
10
10
10
10
10
10
10
10
10
10
10
10
10
10
10
10
10
10
10
10
10
10
10
10
10
10
10
10
10
10
10
10
10
10
10
10
10
10
10
10
10
10
10
10
10
10
10
10
10
10
10
10
10
10
10
10
10
10
10
10
10
10
10
10
10
10
10
10
10
10
10
10
10
10
10
10
10
10
10
10
10
10
10
10
10
10
10
10
10
10
10
10
10
10
10
10
10
10
10
10
10
10
10
10
10
10
10
10
10
10
10
10
10
10
10
10
10
10
10
10
10
10
10
10
10
10
10
10
10
10
10
10
10
10
10
10
10
10
10
10
10
10
10
10
10
10
10
10
10
10
10
10
10
10
10
10
10
10
10
10
10
10
10
10
10
10
10
10
10
10
10
10
10
10
10
10
10
10
10
10
10
10
10
10
10
10
10
10
10
10
10
10
10
10
10
10
10
10
10
10
10
10
10
10
10
10
10
10
10
10
10
10
10
10
10
10
10
10
10
10
10
10
10
10
10
10
10
10
10
10
10
10
10
10
10
10
10
10
10
10
10
10
10
10
10
10
10
10
10
10
10
10
10
10
10
10
10
10
10
10
10
10
10
10
10
10
10
10
10
10
10
10
10
10
10
10
10
10
10
10
10
10
10
10
10
10
10
10
10
10
10
10
10
10
10
10
10
10
10
10
10
10
10
10
10
10
10
10
10
10
10
10
10
10
10
10
10
10
10
10
10
10
10
10
10
10
10
10
10
10
10
10
10
10
10
10
10
10
10
10
10
10
10
10
10
10
10
10
10
10
10
10
10
10
10
10
10
10
10
10
10
10
10
10
10
10
10
10
10
10
10
10
10
10
10
10
10
10
10
10
10
10
10
10
10
10
10
10
10
10
10
10
10
10
10
10
10
10
10
10
10
10
10
10
10
10
10
10
10
10
10
10
10
10
10
10
10
10
10
10
10
10
10
10
10
10
10
10
10
10
10
10
10
10
10
10
10
10
10
10
10
10
10
10
10
10
10
10
10
10
10
10
10
10
10
10
10
10
10
10
10
10
10
10
10
10
10
10
10
10
10
10
10
10
10
10
10
10
10
10
10
10
10
10
10
10
10
10
10
10
10
10
10
10
10
10
10
10
10
10
10
10
10
10
10
10
10
10
10
10
10
10
10
10
10
10
10
10
10
10
10
10
10
10
10
10
10
10
10
10
10
10
10
10
10
10
10
10
10
10
10
10
10
10
10
10
10
10
10
10
10
10
10
10
10
10
10
10
10
10
10
10
10
10
10
10
10
10
10
10
10
10
10
10
10
10
10
10
10
10
10
10
10
10
10
10
10
10
10
10
10
10
10
10
10
10
10
10
10
10
10
10
10
10
10
10
10
10
10
10
10
10
10
10
10
10
10
10
10
10
10
10
10
10
10
10
10
10
10
10
10
10
10
10
10
10
10
10
10
10
10
10
10
10
10
10
10
10
10
10
10
10
10
10
10
10
10
10
10
10
10
10
10
10
10
10
10
10
10
10
10
10
10
10
10
10
10
10
10
10
10
10
10
10
10
10
10
10
10
10
10
10
10
10
10
10
10
10
10
10
10
10
10
10
10
10
10
10
10
10
10
10
10
10
10
10
10
10
10
10
10
10
10
10
10
10
10
10
10
10
10
10
10
10
10
10
10
10
10
10
10
10
10
10
10
10
10
10
10
10
10
10
10
10
10
10
10
10
10
10
10
10
10
10
10
10
10
10
10
10
10
10
10
10
10
10
10
10
10
10
10
10
10
10
10
10
10
10
10
10
10
10
10
10
10
10
10
10
10
10
10
10
10
10
10
10
10
10
10
10
10
10
10
10
10
10
10
10
10
10
10
10
10
10
10
10
10
10
10
10
10
10
10
10
10
10
10
10
10
10
10
10
10
10
10
10
10
10
10
10
10
10
10
10
10
10
10
10
10
10
10
10
10
10
10
10
10
10
10
10
10
10
10
10
10
10
10
10
10
10
10
10
10
10
10
10
10
10
10
10
10
10
10
10
10
10
10
10
10
10
10
10
10
10
10
10
10
10
10
10
10
10
10
10
10
10
10
10
10
10
10
10
10
10
10
10
10
10
10
10
10
10
10
10
10
10
10
10
10
10
10
10
10
10
10
10
10
10
10
10
10
10
10
10
10
10
10
10
10
10
10
10
10
10
10
10
10
10
10
10
10
10
10
10
10
10
10
10
10
10
10
10
10
10
10
10
10
10
10
10
10
10
10
10
10
10
10
10
10
10
10
10
10
10
10
10
10
10
10
10
10
10
10
10
10
10
10
10
10
10
10
10
10
10
10
10
10
10
10
10
10
10
10
10
10
10
10
10
10
10
10
10
10
10
10
10
10
10
10
10
10
10
10
10
10
10
10
10
10
10
10
10
10
10
10
10
10
10
10
10
10
10
10
10
10
10
10
10
10
10
10
10
10
10
10
10
10
10
10
10
10
10
10
10
10
10
10
10
10
10
10
10
10
10
10
10
10
10
10
10
10
10
10
10
10
10
10
10
10
10
10
10
10
10
10
10
10
10
10
10
10
10
10
10
10
10
10
10
10
10
10
10
10
10
10
10
10
10
10
10
10
10
10
10
10
10
10
10
10
10
10
10
10
10
10
10
10
10
10
10
10
10
10
10
10
10
10
10
10
10
10
10
10
10
10
10
10
10
10
10
10
10
10
10
10
10
10
10
10
10
10
10
10
10
10
10
10
10
10
10
10
10
10
10
10
10
10
10
10
10
10
10
10
10
10
10
10
10
10
10
10
10
10
10
10
10
10
10
10
10
10
10
10
10
10
10
10
10
10
10
10
10
10
10
10
10
10
10
10
10
10
10
10
10
10
10
10
10
10
10
10
10
10
10
10
10
10
10
10
10
10
10
10
10
10
10
10
10
10
10
10
10
10
10
10
10
10
10
10
10
10
10
10
10
10
10
10
10
10
10
10
10
10
10
10
10
10
10
10
10
10
10
10
10
10
10
10
10
10
10
10
10
10
10
10
10
10
10
10
10
10
10
10
10
10
10
10
10
10
10
10
10
10
10
10
10
10
10
10
10
10
10
10
10
10
10
10
10
10
10
10
10
10
10
10
10
10
10
10
10
10
10
10
10
10
10
10
10
10
10
10
10
10
10
10
10
10
10
10
10
10
10
10
10
10
10
10
10
10
10
10
10
10
10
10
10
10
10
10
10
10
10
10
10
10
10
10
10
10
10
10
10
10
10
10
10
10
10
10
10
10
10
10
10
10
10
10
10
10
10
10
10
10
10
10
10
10
10
10
10
10
10
10
10
10
10
10
10
10
10
10
10
10
10
10
10
10
10
10
10
10
10
10
10
10
10
10
10
10
10
10
10
10
10
10
10
10
10
10
10
10
10
10
10
10
10
10
10
10
10
10
10
10
10
10
10
10
10
10
10
10
10
10
10
10
10
10
10
10
10
10
10
10
10
10
10
10
10
10
10
10
10
10
10
10
10
10
10
10
10
10
10
10
10
10
10
10
10
10
10
10
10
10
10
10
10
10
10
10
10
10
10
10
10
10
10
10
10
10
10
10
10
10
10
10
10
10
10
10
10
10
10
10
10
10
10
10
10
10
10
10
10
10
10
10
10
10
10
10
10
10
10
10
10
10
10
10
10
10
10
10
10
10
10
10
10
10
10
10
10
10
10
10
10
10
10
10
10
10
10
10
10
10
10
10
10
10
10
10
10
10
10
10
10
10
10
10
10
10
10
10
10
10
10
10
10
10
10
10
10
10
10
10
10
10
10
10
10
10
10
10
10
10
10
10
10
10
10
10
10
10
10
10
10
10
10
10
10
10
10
10
10
10
10
10
10
10
10
10
10
10
10
10
10
10
10
10
10
10
10
10
10
10
10
10
10
10
10
10
10
10
10
10
10
10
10
10
10
10
10
10
10
10
10
10
10
10
10
10
10
10
10
10
10
10
10
10
10
10
10
10
10
10
10
10
10
10
10
10
10
10
10
10
10
10
10
10
10
10
10
10
10
10
10
10
10
10
10
10
10
10
10
10
10
10
10
10
10
10
10
10
10
10
10
10
10
10
10
10
10
10
10
10
10
10
10
10
10
10
10
10
10
10
10
10
10
10
10
10
10
10
10
10
10
10
10
10
10
10
10
10
10
10
10
10
10
10
10
10
10
10
10
10
10
10
10
10
10
10
10
10
10
10
10
10
10
10
10
10
10
10
10
10
10
10
10
10
10
10
10
10
10
10
10
10
10
10
10
10
10
10
10
10
10
10
10
10
10
10
10
10
10
10
10
10
10
10
10
10
10
10
10
10
10
10
10
10
10
10
10
10
10
10
10
10
10
10
10
10
10
10
10
10
10
10
10
10
10
10
10
10
10
10
10
10
10
10
10
10
10
10
10
10
10
10
10
10
10
10
10
10
10
10
10
10
10
10
10
10
10
10
10
10
10
10
10
10
10
10
10
10
10
10
10
10
10
10
10
10
10
10
10
10
10
10
10
10
10
10
10
10
10
10
10
10
10
10
10
10
10
10
10
10
10
10
10
10
10
10
10
10
10
10
10
10
10
10
10
10
10
10
10
10
10
10
10
10
10
10
10
10
10
10
10
10
10
10
10
10
10
10
10
10
10
10
10
10
10
10
10
10
10
10
10
10
10
10
10
10
10
10
10
10
10
10
10
10
10
10
10
10
10
10
10
10
10
10
10
10
10
10
10
10
10
10
10
10
10
10
10
10
10
10
10
10
10
10
10
10
10
10
10
10
10
10
10
10
10
10
10
10
10
10
10
10
10
10
10
10
10
10
10
10
10
10
10
10
10
10
10
10
10
10
10
10
10
10
10
10
10
10
10
10
10
10
10
10
10
10
10
10
10
10
10
10
10
10
10
10
10
10
10
10
10
10
10
10
10
10
10
10
10
10
10
10
10
10
10
10
10
10
10
10
10
10
10
10
10
10
10
10
10
10
10
10
10
10
10
10
10
10
10
10
10
10
10
10
10
10
10
10
10
10
10
10
10
10
10
10
10
10
10
10
10
10
10
10
10
10
10
10
10
10
10
10
10
10
10
10
10
10
10
10
10
10
10
10
10
10
10
10
10
10
10
10
10
10
10
10
10
10
10
10
10
10
10
10
10
10
10
10
10
10
10
10
10
10
10
10
10
10
10
10
10
10
10
10
10
10
10
10
10
10
10
10
10
10
10
10
10
10
10
10
10
10
10
10
10
10
10
10
10
10
10
10
10
10
10
10
10
10
10
10
10
10
10
10
10
10
10
10
10
10
10
10
10
10
10
10
10
10
10
10
10
10
10
10
10
10
10
10
10
10
10
10
10
10
10
10
10
10
10
10
10
10
10
10
10
10
10
10
10
10
10
10
10
10
10
10
10
10
10
10
10
10
10
10
10
10
10
10
10
10
10
10
10
10
10
10
10
10
10
10
10
10
10
10
10
10
10
10
10
10
10
10
10
10
10
10
10
10
10
10
10
10
10
10
10
10
10
10
10
10
10
10
10
10
10
10
10
10
10
10
10
10
10
10
10
10
10
10
10
10
10
10
10
10
10
10
10
10
10
10
10
10
10
10
10
10
10
10
10
10
10
10
10
10
10
10
10
10
10
10
10
10
10
10
10
10
10
10
10
10
10
10
10
10
10
10
10
10
10
10
10
10
10
10
10
10
10
10
10
10
10
10
10
10
10
10
10
10
10
10
10
10
10
10
10
10
10
10
10
10
10
10
10
10
10
10
10
10
10
10
10
10
10
10
10
10
10
10
10
10
10
10
10
10
10
10
10
10
10
10
10
10
10
10
10
10
10
10
10
10
10
10
10
10
10
10
10
10
10
10
10
10
10
10
10
10
10
10
10
10
10
10
10
10
10
10
10
10
10
10
10
10
10
10
10
10
10
10
10
10
10
10
10
10
10
10
10
10
10
10
10
10
10
10
10
10
10
10
10
10
10
10
10
10
10
10
10
10
10
10
10
10
10
10
10
10
10
10
10
10
10
10
10
10
10
10
10
10
10
10
10
10
10
10
10
10
10
10
10
10
10
10
10
10
10
10
10
10
10
10
10
10
10
10
10
10
10
10
10
10
10
10
10
10
10
10
10
10
10
10
10
10
10
10
10
10
10
10
10
10
10
10
10
10
10
10
10
10
10
10
10
10
10
10
10
10
10
10
10
10
10
10
10
10
10
10
10
10
10
10
10
10
10
10
10
10
10
10
10
10
10
10
10
10
10
10
10
10
10
10
10
10
10
10
10
10
10
10
10
10
10
10
10
10
10
10
10
10
10
10
10
10
10
10
10
10
10
10
10
10
10
10
10
10
10
10
10
10
10
10
10
10
10
10
10
10
10
10
10
10
10
10
10
10
10
10
10
10
10
10
10
10
10
10
10
10
10
10
10
10
10
10
10
10
10
10
10
10
10
10
10
10
10
10
10
10
10
10
10
10
10
10
10
10
10
10
10
10
10
10
10
10
10
10
10
10
10
10
10
10
10
10
10
10
10
10
10
10
10
10
10
10
10
10
10
10
10
10
10
10
10
10
10
10
10
10
10
10
10
10
10
10
10
10
10
10
10
10
10
10
10
10
10
10
10
10
10
10
10
10
10
10
10
10
10
10
10
10
10
10
10
10
10
10
10
10
10
10
10
10
10
10
10
10
10
10
10
10
10
10
10
10
10
10
10
10
10
10
10
10
10
10
10
10
10
10
10
10
10
10
10
10
10
10
10
10
10
10
10
10
10
10
10
10
10
10
10
10
10
10
10
10
10
10
10
10
10
10
10
10
10
10
10
10
10
10
10
10
10
10
10
10
10
10
10
10
10
10
10
10
10
10
10
10
10
10
10
10
10
10
10
10
10
10
10
10
10
10
10
10
10
10
10
10
10
10
10
10
10
10
10
10
10
10
10
10
10
10
10
10
10
10
10
10
10
10
10
10
10
10
10
10
10
10
10
10
10
10
10
10
10
10
10
10
10
10
10
10
10
10
10
10
10
10
10
10
10
10
10
10
10
10
10
10
10
10
10
10
10
10
10
10
10
10
10
10
10
10
10
10
10
10
10
10
10
10
10
10
10
10
10
10
10
10
10
10
10
10
10
10
10
10
10
10
10
10
10
10
10
10
10
10
10
10
10
10
10
10
10
10
10
10
10
10
10
10
10
10
10
10
10
10
10
10
10
10
10
10
10
10
10
10
10
10
10
10
10
10
10
10
10
10
10
10
10
10
10
10
10
10
10
10
10
10
10
10
10
10
10
10
10
10
10
10
10
10
10
10
10
10
10
10
10
10
10
10
10
10
10
10
10
10
10
10
10
10
10
10
10
10
10
10
10
10
10
10
10
10
10
10
10
10
10
10
10
10
10
10
10
10
10
10
10
10
10
10
10
10
10
10
10
10
10
10
10
10
10
10
10
10
10
10
10
10
10
10
10
10
10
10
10
10
10
10
10
10
10
10
10
10
10
10
10
10
10
10
10
10
10
10
10
10
10
10
10
10
10
10
10
10
10
10
10
10
10
10
10
10
10
10
10
10
10
10
10
10
10
10
10
10
10
10
10
10
10
10
10
10
10
10
10
10
10
10
10
10
10
10
10
10
10
10
10
10
10
10
10
10
10
10
10
10
10
10
10
10
10
10
10
10
10
10
10
10
10
10
10
10
10
10
10
10
10
10
10
10
10
10
10
10
10
10
10
10
10
10
10
10
10
10
10
10
10
10
10
10
10
10
10
10
10
10
10
10
10
10
10
10
10
10
10
10
10
10
10
10
10
10
10
10
10
10
10
10
10
10
10
10
10
10
10
10
10
10
10
10
10
10
10
10
10
10
10
10
10
10
10
10
10
10
10
10
10
10
10
10
10
10
10
10
10
10
10
10
10
10
10
10
10
10
10
10
10
10
10
10
10
10
10
10
10
10
10
10
10
10
10
10
10
10
10
10
10
10
10
10
10
10
10
10
10
10
10
10
10
10
10
10
10
10
10
10
10
10
10
10
10
10
10
10
10
10
10
10
10
10
10
10
10
10
10
10
10
10
10
10
10
10
10
10
10
10
10
10
10
10
10
10
10
10
10
10
10
10
10
10
10
10
10
10
10
10
10
10
10
10
10
10
10
10
10
10
10
10
10
10
10
10
10
10
10
10
10
10
10
10
10
10
10
10
10
10
10
10
10
10
10
10
10
10
10
10
10
10
10
10
10
10
10
10
10
10
10
10
10
10
10
10
10
10
10
10
10
10
10
10
10
10
10
10
10
10
10
10
10
10
10
10
10
10
10
10
10
10
10
10
10
10
10
10
10
10
10
10
10
10
10
10
10
10
10
10
10
10
10
10
10
10
10
10
10
10
10
10
10
10
10
10
10
10
10
10
10
10
10
10
10
10
10
10
10
10
10
10
10
10
10
10
10
10
10
10
10
10
10
10
10
10
10
10
10
10
10
10
10
10
10
10
10
10
10
10
10
10
10
10
10
10
10
10
10
10
10
10
10
10
10
10
10
10
10
10
10
10
10
10
10
10
10
10
10
10
10
10
10
10
10
10
10
10
10
10
10
10
10
10
10
10
10
10
10
10
10
10
10
10
10
10
10
10
10
10
10
10
10
10
10
10
10
10
10
10
10
10
10
10
10
10
10
10
10
10
10
10
10
10
10
10
10
10
10
10
10
10
10
10
10
10
10
10
10
10
10
10
10
10
10
10
10
10
10
10
10
10
10
10
10
10
10
10
10
10
10
10
10
10
10
10
10
10
10
10
10
10
10
10
10
10
10
10
10
10
10
10
10
10
10
10
10
10
10
10
10
10
10
10
10
10
10
10
10
10
10
10
10
10
10
10
10
10
10
10
10
10
10
10
10
10
10
10
10
10
10
10
10
10
10
10
10
10
10
10
10
10
10
10
10
10
10
10
10
10
10
10
10
10
10
10
10
10
10
10
10
10
10
10
10
10
10
10
10
10
10
10
10
10
10
10
10
10
10
10
10
10
10
10
10
10
10
10
10
10
10
10
10
10
10
10
10
10
10
10
10
10
10
10
10
10
10
10
10
10
10
10
10
10
10
10
10
10
10
10
10
10
10
10
10
10
10
10
10
10
10
10
10
10
10
10
10
10
10
10
10
10
10
10
10
10
10
10
10
10
10
10
10
10
10
10
10
10
10
10
10
10
10
10
10
10
10
10
10
10
10
10
10
10
10
10
10
10
10
10
10
10
10
10
10
10
10
10
10
10
10
10
10
10
10
10
10
10
10
10
10
10
10
10
10
10
10
10
10
10
10
10
10
10
10
10
10
10
10
10
10
10
10
10
10
10
10
10
10
10
10
10
10
10
10
10
10
10
10
10
10
10
10
10
10
10
10
10
10
10
10
10
10
10
10
10
10
10
10
10
10
10
10
10
10
10
10
10
10
10
10
10
10
10
10
10
10
10
10
10
10
10
10
10
10
10
10
10
10
10
10
10
10
10
10
10
10
10
10
10
10
10
10
10
10
10
10
10
10
10
10
10
10
10
10
10
10
10
10
10
10
10
10
10
10
10
10
10
10
10
10
10
10
10
10
10
10
10
10
10
10
10
10
10
10
10
10
10
10
10
10
10
10
10
10
10
10
10
10
10
10
10
10
10
10
10
10
10
10
10
10
10
10
10
10
10
10
10
10
10
10
10
10
10
10
10
10
10
10
10
10
10
10
10
10
10
10
10
10
10
10
10
10
10
10
10
10
10
10
10
10
10
10
10
10
10
10
10
10
10
10
10
10
10
10
10
10
10
10
10
10
10
10
10
10
10
10
10
10
10
10
10
10
10
10
10
10
10
10
10
10
10
10
10
10
10
10
10
10
10
10
10
10
10
10
10
10
10
10
10
10
10
10
10
10
10
10
10
10
10
10
10
10
10
10
10
10
10
10
10
10
10
10
10
10
10
10
10
10
10
10
10
10
10
10
10
10
10
10
10
10
10
10
10
10
10
10
10
10
10
10
10
10
10
10
10
10
10
10
10
10
10
10
10
10
10
10
10
10
10
10
10
10
10
10
10
10
10
10
10
10
10
10
10
10
10
10
10
10
10
10
10
10
10
10
10
10
10
10
10
10
10
10
10
10
10
10
10
10
10
10
10
10
10
10
10
10
10
10
10
10
10
10
10
10
10
10
10
10
10
10
10
10
10
10
10
10
10
10
10
10
10
10
10
10
10
10
10
10
10
10
10
10
10
10
10
10
10
10
10
10
10
10
10
10
10
10
10
10
10
10
10
10
10
10
10
10
10
10
10
10
10
10
10
10
10
10
10
10
10
10
10
10
10
10
10
10
10
10
10
10
10
10
10
10
10
10
10
10
10
10
10
10
10
10
10
10
10
10
10
10
10
10
10
10
10
10
10
10
10
10
10
10
10
10
10
10
10
10
10
10
10
10
10
10
10
10
10
10
10
10
10
10
10
10
10
10
10
10
10
10
10
10
10
10
10
10
10
10
10
10
10
10
10
10
10
10
10
10
10
10
10
10
10
10
10
10
10
10
10
10
10
10
10
10
10
10
10
10
10
10
10
10
10
10
10
10
10
10
10
10
10
10
10
10
10
10
10
10
10
10
10
10
10
10
10
10
10
10
10
10
10
10
10
10
10
10
10
10
10
10
10
10
10
10
10
10
10
10
10
10
10
10
10
10
10
10
10
10
10
10
10
10
10
10
10
10
10
10
10
10
10
10
10
10
10
10
10
10
10
10
10
10
10
10
10
10
10
10
10
10
10
10
10
10
10
10
10
10
10
10
10
10
10
10
10
10
10
10
10
10
10
10
10
10
10
10
10
10
10
10
10
10
10
10
10
10
10
10
10
10
10
10
10
10
10
10
10
10
10
10
10
10
10
10
10
10
10
10
10
10
10
10
10
10
10
10
10
10
10
10
10
10
10
10
10
10
10
10
10
10
10
10
10
10
10
10
10
10
10
10
10
10
10
10
10
10
10
10
10
10
10
10
10
10
10
10
10
10
10
10
10
10
10
10
10
10
10
10
10
10
10
10
10
10
10
10
10
10
10
10
10
10
10
10
10
10
10
10
10
10
10
10
10
10
10
10
10
10
10
10
10
10
10
10
10
10
10
10
10
10
10
10
10
10
10
10
10
10
10
10
10
10
10
10
10
10
10
10
10
10
10
10
10
10
10
10
10
10
10
10
10
10
10
10
10
10
10
10
10
10
10
10
10
10
10
10
10
10
10
10
10
10
10
10
10
10
10
10
10
10
10
10
10
10
10
10
10
10
10
10
10
10
10
10
10
10
10
10
10
10
10
10
10
10
10
10
10
10
10
10
10
10
10
10
10
10
10
10
10
10
10
10
10
10
10
10
10
10
10
10
10
10
10
10
10
10
10
10
10
10
10
10
10
10
10
10
10
10
10
10
10
10
10
10
10
10
10
10
10
10
10
10
10
10
10
10
10
10
10
10
10
10
10
10
10
10
10
10
10
10
10
10
10
10
10
10
10
10
10
10
10
10
10
10
10
10
10
10
10
10
10
10
10
10
10
10
10
10
10
10
10
10
10
10
10
10
10
10
10
10
10
10
10
10
10
10
10
10
10
10
10
10
10
10
10
10
10
10
10
10
10
10
10
10
10
10
10
10
10
10
10
10
10
10
10
10
10
10
10
10
10
10
10
10
10
10
10
10
10
10
10
10
10
10
10
10
10
10
10
10
10
10
10
10
10
10
10
10
10
10
10
10
10
10
10
10
10
10
10
10
10
10
10
10
10
10
10
10
10
10
10
10
10
10
10
10
10
10
10
10
10
10
10
10
10
10
10
10
10
10
10
10
10
10
10
10
10
10
10
10
10
10
10
10
10
10
10
10
10
10
10
10
10
10
10
10
10
10
10
10
10
10
10
10
10
10
10
10
10
10
10
10
10
10
10
10
10
10
10
10
10
10
10
10
10
10
10
10
10
10
10
10
10
10
10
10
10
10
10
10
10
10
10
10
10
10
10
10
10
10
10
10
10
10
10
10
10
10
10
10
10
10
10
10
10
10
10
10
10
10
10
10
10
10
10
10
10
10
10
10
10
10
10
10
10
10
10
10
10
10
10
10
10
10
10
10
10
10
10
10
10
10
10
10
10
10
10
10
10
10
10
10
10
10
10
10
10
10
10
10
10
10
10
10
10
10
10
10
10
10
10
10
10
10
10
10
10
10
10
10
10
10
10
10
10
10
10
10
10
10
10
10
10
10
10
10
10
10
10
10
10
10
10
10
10
10
10
10
10
10
10
10
10
10
10
10
10
10
10
10
10
10
10
10
10
10
10
10
10
10
10
10
10
10
10
10
10
10
10
10
10
10
10
10
10
10
10
10
10
10
10
10
10
10
10
10
10
10
10
10
10
10
10
10
10
10
10
10
10
10
10
10
10
10
10
10
10
10
10
10
10
10
10
10
10
10
10
10
10
10
10
10
10
10
10
10
10
10
10
10
10
10
10
10
10
10
10
10
10
10
10
10
10
10
10
10
10
10
10
10
10
10
10
10
10
10
10
10
10
10
10
10
10
10
10
10
10
10
10
10
10
10
10
10
10
10
10
10
10
10
10
10
10
10
10
10
10
10
10
10
10
10
10
10
10
10
10
10
10
10
10
10
10
10
10
10
10
10
10
10
10
10
10
10
10
10
10
10
10
10
10
10
10
10
10
10
10
10
10
10
10
10
10
10
10
10
10
10
10
10
10
10
10
10
10
10
10
10
10
10
10
10
10
10
10
10
10
10
10
10
10
10
10
10
10
10
10
10
10
10
10
10
10
10
10
10
10
10
10
10
10
10
10
10
10
10
10
10
10
10
10
10
10
10
10
10
10
10
10
10
10
10
10
10
10
10
10
10
10
10
10
10
10
10
10
10
10
10
10
10
10
10
10
10
10
10
10
10
10
10
10
10
10
10
10
10
10
10
10
10
10
10
10
10
10
10
10
10
10
10
10
10
10
10
10
10
10
10
10
10
10
10
10
10
10
10
10
10
10
10
10
10
10
10
10
10
10
10
10
10
10
10
10
10
10
10
10
10
10
10
10
10
10
10
10
10
10
10
10
10
10
10
10
10
10
10
10
10
10
10
10
10
10
10
10
10
10
10
10
10
10
10
10
10
10
10
10
10
10
10
10
10
10
10
10
10
10
10
10
10
10
10
10
10
10
10
10
10
10
10
10
10
10
10
10
10
10
10
10
10
10
10
10
10
10
10
10
10
10
10
10
10
10
10
10
10
10
10
10
10
10
10
10
10
10
10
10
10
10
10
10
10
10
10
10
10
10
10
10
10
10
10
10
10
10
10
10
10
10
10
10
10
10
10
10
10
10
10
10
10
10
10
10
10
10
10
10
10
10
10
10
10
10
10
10
10
10
10
10
10
10
10
10
10
10
10
10
10
10
10
10
10
10
10
10
10
10
10
10
10
10
10
10
10
10
10
10
10
10
10
10
10
10
10
10
10
10
10
10
10
10
10
10
10
10
10
10
10
10
10
10
10
10
10
10
10
10
10
10
10
10
10
10
10
10
10
10
10
10
10
10
10
10
10
10
10
10
10
10
10
10
10
10
10
10
10
10
10
10
10
10
10
10
10
10
10
10
10
10
10
10
10
10
10
10
10
10
10
10
10
10
10
10
10
10
10
10
10
10
10
10
10
10
10
10
10
10
10
10
10
10
10
10
10
10
10
10
10
10
10
10
10
10
10
10
10
10
10
10
10
10
10
10
10
10
10
10
10
10
10
10
10
10
10
10
10
10
10
10
10
10
10
10
10
10
10
10
10
10
10
10
10
10
10
10
10
10
10
10
10
10
10
10
10
10
10
10
10
10
10
10
10
10
10
10
10
10
10
10
10
10
10
10
10
10
10
10
10
10
10
10
10
10
10
10
10
10
10
10
10
10
10
10
10
10
10
10
10
10
10
10
10
10
10
10
10
10
10
10
10
10
10
10
10
10
10
10
10
10
10
10
10
10
10
10
10
10
10
10
10
10
10
10
10
10
10
10
10
10
10
10
10
10
10
10
10
10
10
10
10
10
10
10
10
10
10
10
10
10
10
10
10
10
10
10
10
10
10
10
10
10
10
10
10
10
10
10
10
10
10
10
10
10
10
10
10
10
10
10
10
10
10
10
10
10
10
10
10
10
10
10
10
10
10
10
10
10
10
10
10
10
10
10
10
10
10
10
10
10
10
10
10
10
10
10
10
10
10
10
10
10
10
10
10
10
10
10
10
10
10
10
10
10
10
10
10
10
10
10
10
10
10
10
10
10
10
10
10
10
10
10
10
10
10
10
10
10
10
10
10
10
10
10
10
10
10
10
10
10
10
10
10
10
10
10
10
10
10
10
10
10
10
10
10
10
10
10
10
10
10
10
10
10
10
10
10
10
10
10
10
10
10
10
10
10
10
10
10
10
10
10
10
10
10
10
10
10
10
10
10
10
10
10
10
10
10
10
10
10
10
10
10
10
10
10
10
10
10
10
10
10
10
10
10
10
10
10
10
10
10
10
10
10
10
10
10
10
10
10
10
10
10
10
10
10
10
10
10
10
10
10
10
10
10
10
10
10
10
10
10
10
10
10
10
10
10
10
10
10
10
10
10
10
10
10
10
10
10
10
10
10
10
10
10
10
10
10
10
10
10
10
10
10
10
10
10
10
10
10
10
10
10
10
10
10
10
10
10
10
10
10
10
10
10
10
10
10
10
10
10
10
10
10
10
10
10
10
10
10
10
10
10
10
10
10
10
10
10
10
10
10
10
10
10
10
10
10
10
10
10
10
10
10
10
10
10
10
10
10
10
10
10
10
10
10
10
10
10
10
10
10
10
10
10
10
10
10
10
10
10
10
10
10
10
10
10
10
10
10
10
10
10
10
10
10
10
10
10
10
10
10
10
10
10
10
10
10
10
10
10
10
10
10
10
10
10
10
10
10
10
10
10
10
10
10
10
10
10
10
10
10
10
10
10
10
10
10
10
10
10
10
10
10
10
10
10
10
10
10
10
10
10
10
10
10
10
10
10
10
10
10
10
10
10
10
10
10
10
10
10
10
10
10
10
10
10
10
10
10
10
10
10
10
10
10
10
10
10
10
10
10
10
10
10
10
10
10
10
10
10
10
10
10
10
10
10
10
10
10
10
10
10
10
10
10
10
10
10
10
10
10
10
10
10
10
10
10
10
10
10
10
10
10
10
10
10
10
10
10
10
10
10
10
10
10
10
10
10
10
10
10
10
10
10
10
10
10
10
10
10
10
10
10
10
10
10
10
10
10
10
10
10
10
10
10
10
10
10
10
10
10
10
10
10
10
10
10
10
10
10
10
10
10
10
10
10
10
10
10
10
10
10
10
10
10
10
10
10
10
10
10
10
10
10
10
10
10
10
10
10
10
10
10
10
10
10
10
10
10
10
10
10
10
10
10
10
10
10
10
10
10
10
10
10
10
10
10
10
10
10
10
10
10
10
10
10
10
10
10
10
10
10
10
10
10
10
10
10
10
10
10
10
10
10
10
10
10
10
10
10
10
10
10
10
10
10
10
10
10
10
10
10
10
10
10
10
10
10
10
10
10
10
10
10
10
10
10
10
10
10
10
10
10
10
10
10
10
10
10
10
10
10
10
10
10
10
10
10
10
10
10
10
10
10
10
10
10
10
10
10
10
10
10
10
10
10
10
10
10
10
10
10
10
10
10
10
10
10
10
10
10
10
10
10
10
10
10
10
10
10
10
10
10
10
10
10
10
10
10
10
10
10
10
10
10
10
10
10
10
10
10
10
10
10
10
10
10
10
10
10
10
10
10
10
10
10
10
10
10
10
10
10
10
10
10
10
10
10
10
10
10
10
10
10
10
10
10
10
10
10
10
10
10
10
10
10
10
10
10
10
10
10
10
10
10
10
10
10
10
10
10
10
10
10
10
10
10
10
10
10
10
10
10
10
10
10
10
10
10
10
10
10
10
10
10
10
10
10
10
10
10
10
10
10
10
10
10
10
10
10
10
10
10
10
10
10
10
10
10
10
10
10
10
10
10
10
10
10
10
10
10
10
10
10
10
10
10
10
10
10
10
10
10
10
10
10
10
10
10
10
10
10
10
10
10
10
10
10
10
10
10
10
10
10
10
10
10
10
10
10
10
10
10
10
10
10
10
10
10
10
10
10
10
10
10
10
10
10
10
10
10
10
10
10
10
10
10
10
10
10
10
10
10
10
10
10
10
10
10
10
10
10
10
10
10
10
10
10
10
10
10
10
10
10
10
10
10
10
10
10
10
10
10
10
10
10
10
10
10
10
10
10
10
10
10
10
10
10
10
10
10
10
10
10
10
10
10
10
10
10
10
10
10
10
10
10
10
10
10
10
10
10
10
10
10
10
10
10
10
10
10
10
10
10
10
10
10
10
10
10
10
10
10
10
10
10
10
10
10
10
10
10
10
10
10
10
10
10
10
10
10
10
10
10
10
10
10
10
10
10
10
10
10
10
10
10
10
10
10
10
10
10
10
10
10
10
10
10
10
10
10
10
10
10
10
10
10
10
10
10
10
10
10
10
10
10
10
10
10
10
10
10
10
10
10
10
10
10
10
10
10
10
10
10
10
10
10
10
10
10
10
10
10
10
10
10
10
10
10
10
10
10
10
10
10
10
10
10
10
10
10
10
10
10
10
10
10
10
10
10
10
10
10
10
10
10
10
10
10
10
10
10
10
10
10
10
10
10
10
10
10
10
10
10
10
10
10
10
10
10
10
10
10
10
10
10
10
10
10
10
10
10
10
10
10
10
10
10
10
10
10
10
10
10
10
10
10
10
10
10
10
10
10
10
10
10
10
10
10
10
10
10
10
10
10
10
10
10
10
10
10
10
10
10
10
10
10
10
10
10
10
10
10
10
10
10
10
10
10
10
10
10
10
10
10
10
10
10
10
10
10
10
10
10
10
10
10
10
10
10
10
10
10
10
10
10
10
10
10
10
10
10
10
10
10
10
10
10
10
10
10
10
10
10
10
10
10
10
10
10
10
10
10
10
10
10
10
10
10
10
10
10
10
10
10
10
10
10
10
10
10
10
10
10
10
10
10
10
10
10
10
10
10
10
10
10
10
10
10
10
10
10
10
10
10
10
10
10
10
10
10
10
10
10
10
10
10
10
10
10
10
10
10
10
10
10
10
10
10
10
10
10
10
10
10
10
10
10
10
10
10
10
10
10
10
10
10
10
10
10
10
10
10
10
10
10
10
10
10
10
10
10
10
10
10
10
10
10
10
10
10
10
10
10
10
10
10
10
10
10
10
10
10
10
10
10
10
10
10
10
10
10
10
10
10
10
10
10
10
10
10
10
10
10
10
10
10
10
10
10
10
10
10
10
10
10
10
10
10
10
10
10
10
10
10
10
10
10
10
10
10
10
10
10
10
10
10
10
10
10
10
10
10
10
10
10
10
10
10
10
10
10
10
10
10
10
10
10
10
10
10
10
10
10
10
10
10
10
10
10
10
10
10
10
10
10
10
10
10
10
10
10
10
10
10
10
10
10
10
10
10
10
10
10
10
10
10
10
10
10
10
10
10
10
10
10
10
10
10
10
10
10
10
10
10
10
10
10
10
10
10
10
10
10
10
10
10
10
10
10
10
10
10
10
10
10
10
10
10
10
10
10
10
10
10
10
10
10
10
10
10
10
10
10
10
10
10
10
10
10
10
10
10
10
10
10
10
10
10
10
10
10
10
10
10
10
10
10
10
10
10
10
10
10
10
10
10
10
10
10
10
10
10
10
10
10
10
10
10
10
10
10
10
10
10
10
10
10
10
10
10
10
10
10
10
10
10
10
10
10
10
10
10
10
10
10
10
10
10
10
10
10
10
10
10
10
10
10
10
10
10
10
10
10
10
10
10
10
10
10
10
10
10
10
10
10
10
10
10
10
10
10
10
10
10
10
10
10
10
10
10
10
10
10
10
10
10
10
10
10
10
10
10
10
10
10
10
10
10
10
10
10
10
10
10
10
10
10
10
10
10
10
10
10
10
10
10
10
10
10
10
10
10
10
10
10
10
10
10
10
10
10
10
10
10
10
10
10
10
10
10
10
10
10
10
10
10
10
10
10
10
10
10
10
10
10
10
10
10
10
10
10
10
10
10
10
10
10
10
10
10
10
10
10
10
10
10
10
10
10
10
10
10
10
10
10
10
10
10
10
10
10
10
10
10
10
10
10
10
10
10
10
10
10
10
10
10
10
10
10
10
10
10
10
10
10
10
10
10
10
10
10
10
10
10
10
10
10
10
10
10
10
10
10
10
10
10
10
10
10
10
10
10
10
10
10
10
10
10
10
10
10
10
10
10
10
10
10
10
10
10
10
10
10
10
10
10
10
10
10
10
10
10
10
10
10
10
10
10
10
10
10
10
10
10
10
10
10
10
10
10
10
10
10
10
10
10
10
10
10
10
10
10
10
10
10
10
10
10
10
10
10
10
10
10
10
10
10
10
10
10
10
10
10
10
10
10
10
10
10
10
10
10
10
10
10
10
10
10
10
10
10
10
10
10
10
10
10
10
10
10
10
10
10
10
10
10
10
10
10
10
10
10
10
10
10
10
10
10
10
10
10
10
10
10
10
10
10
10
10
10
10
10
10
10
10
10
10
10
10
10
10
10
10
10
10
10
10
10
10
10
10
10
10
10
10
10
10
10
10
10
10
10
10
10
10
10
10
10
10
10
10
10
10
10
10
10
10
10
10
10
10
10
10
10
10
10
10
10
10
10
10
10
10
10
10
10
10
10
10
10
10
10
10
10
10
10
10
10
10
10
10
10
10
10
10
10
10
10
10
10
10
10
10
10
10
10
10
10
10
10
10
10
10
10
10
10
10
10
10
10
10
10
10
10
10
10
10
10
10
10
10
10
10
10
10
10
10
10
10
10
10
10
10
10
10
10
10
10
10
10
10
10
10
10
10
10
10
10
10
10
10
10
10
10
10
10
10
10
10
10
10
10
10
10
10
10
10
10
10
10
10
10
10
10
10
10
10
10
10
10
10
10
10
10
10
10
10
10
10
10
10
10
10
10
10
10
10
10
10
10
10
10
10
10
10
10
10
10
10
10
10
10
10
10
10
10
10
10
10
10
10
10
10
10
10
10
10
10
10
10
10
10
10
10
10
10
10
10
10
10
10
10
10
10
10
10
10
10
10
10
10
10
10
10
10
10
10
10
10
10
10
10
10
10
10
10
10
10
10
10
10
10
10
10
10
10
10
10
10
10
10
10
10
10
10
10
10
10
10
10
10
10
10
10
10
10
10
10
10
10
10
10
10
10
10
10
10
10
10
10
10
10
10
10
10
10
10
10
10
10
10
10
10
10
10
10
10
10
10
10
10
10
10
10
10
10
10
10
10
10
10
10
10
10
10
10
10
10
10
10
10
10
10
10
10
10
10
10
10
10
10
10
10
10
10
10
10
10
10
10
10
10
10
10
10
10
10
10
10
10
10
10
10
10
10
10
10
10
10
10
10
10
10
10
10
10
10
10
10
10
10
10
10
10
10
10
10
10
10
10
10
10
10
10
10
10
10
10
10
10
10
10
10
10
10
10
10
10
10
10
10
10
10
10
10
10
10
10
10
10
10
10
10
10
10
10
10
10
10
10
10
10
10
10
10
10
10
10
10
10
10
10
10
10
10
10
10
10
10
10
10
10
10
10
10
10
10
10
10
10
10
10
10
10
10
10
10
10
10
10
10
10
10
10
10
10
10
10
10
10
10
10
10
10
10
10
10
10
10
10
10
10
10
10
10
10
10
10
10
10
10
10
10
10
10
10
10
10
10
10
10
10
10
10
10
10
10
10
10
10
10
10
10
10
10
10
10
10
10
10
10
10
10
10
10
10
10
10
10
10
10
10
10
10
10
10
10
10
10
10
10
10
10
10
10
10
10
10
10
10
10
10
10
10
10
10
10
10
10
10
10
10
10
10
10
10
10
10
10
10
10
10
10
10
10
10
10
10
10
10
10
10
10
10
10
10
10
10
10
10
10
10
10
10
10
10
10
10
10
10
10
10
10
10
10
10
10
10
10
10
10
10
10
10
10
10
10
10
10
10
10
10
10
10
10
10
10
10
10
10
10
10
10
10
10
10
10
10
10
10
10
10
10
10
10
10
10
10
10
10
10
10
10
10
10
10
10
10
10
10
10
10
10
10
10
10
10
10
10
10
10
10
10
10
10
10
10
10
10
10
10
10
10
10
10
10
10
10
10
10
10
10
10
10
10
10
10
10
10
10
10
10
10
10
10
10
10
10
10
10
10
10
10
10
10
10
10
10
10
10
10
10
10
10
10
10
10
10
10
10
10
10
10
10
10
10
10
10
10
10
10
10
10
10
10
10
10
10
10
10
10
10
10
10
10
10
10
10
10
10
10
10
10
10
10
10
10
10
10
10
10
10
10
10
10
10
10
10
10
10
10
10
10
10
10
10
10
10
10
10
10
10
10
10
10
10
10
10
10
10
10
10
10
10
10
10
10
10
10
10
10
10
10
10
10
10
10
10
10
10
10
10
10
10
10
10
10
10
10
10
10
10
10
10
10
10
10
10
10
10
10
10
10
10
10
10
10
10
10
10
10
10
10
10
10
10
10
10
10
10
10
10
10
10
10
10
10
10
10
10
10
10
10
10
10
10
10
10
10
10
10
10
10
10
10
10
10
10
10
10
10
10
10
10
10
10
10
10
10
10
10
10
10
10
10
10
10
10
10
10
10
10
10
10
10
10
10
10
10
10
10
10
10
10
10
10
10
10
10
10
10
10
10
10
10
10
10
10
10
10
10
10
10
10
10
10
10
10
10
10
10
10
10
10
10
10
10
10
10
10
10
10
10
10
10
10
10
10
10
10
10
10
10
10
10
10
10
10
10
10
10
10
10
10
10
10
10
10
10
10
10
10
10
10
10
10
10
10
10
10
10
10
10
10
10
10
10
10
10
10
10
10
10
10
10
10
10
10
10
10
10
10
10
10
10
10
10
10
10
10
10
10
10
10
10
10
10
10
10
10
10
10
10
10
10
10
10
10
10
10
10
10
10
10
10
10
10
10
10
10
10
10
10
10
10
10
10
10
10
10
10
10
10
10
10
10
10
10
10
10
10
10
10
10
10
10
10
10
10
10
10
10
10
10
10
10
10
10
10
10
10
10
10
10
10
10
10
10
10
10
10
10
10
10
10
10
10
10
10
10
10
10
10
10
10
10
10
10
10
10
10
10
10
10
10
10
10
10
10
10
10
10
10
10
10
10
10
10
10
10
10
10
10
10
10
10
10
10
10
10
10
10
10
10
10
10
10
10
10
10
10
10
10
10
10
10
10
10
10
10
10
10
10
10
10
10
10
10
10
10
10
10
10
10
10
10
10
10
10
10
10
10
10
10
10
10
10
10
10
10
10
10
10
10
10
10
10
10
10
10
10
10
10
10
10
10
10
10
10
10
10
10
10
10
10
10
10
10
10
10
10
10
10
10
10
10
10
10
10
10
10
10
10
10
10
10
10
10
10
10
10
10
10
10
10
10
10
10
10
10
10
10
10
10
10
10
10
10
10
10
10
10
10
10
10
10
10
10
10
10
10
10
10
10
10
10
10
10
10
10
10
10
10
10
10
10
10
10
10
10
10
10
10
10
10
10
10
10
10
10
10
10
10
10
10
10
10
10
10
10
10
10
10
10
10
10
10
10
10
10
10
10
10
10
10
10
10
10
10
10
10
10
10
10
10
10
10
10
10
10
10
10
10
10
10
10
10
10
10
10
10
10
10
10
10
10
10
10
10
10
10
10
10
10
10
10
10
10
10
10
10
10
10
10
10
10
10
10
10
10
10
10
10
10
10
10
10
10
10
10
10
10
10
10
10
10
10
10
10
10
10
10
10
10
10
10
10
10
10
10
10
10
10
10
10
10
10
10
10
10
10
10
10
10
10
10
10
10
10
10
10
10
10
10
10
10
10
10
10
10
10
10
10
10
10
10
10
10
10
10
10
10
10
10
10
10
10
10
10
10
10
10
10
10
10
10
10
10
10
10
10
10
10
10
10
10
10
10
10
10
10
10
10
10
10
10
10
10
10
10
10
10
10
10
10
10
10
10
10
10
10
10
10
10
10
10
10
10
10
10
10
10
10
10
10
10
10
10
10
10
10
10
10
10
10
10
10
10
10
10
10
10
10
10
10
10
10
10
10
10
10
10
10
10
10
10
10
10
10
10
10
10
10
10
10
10
10
10
10
10
10
10
10
10
10
10
10
10
10
10
10
10
10
10
10
10
10
10
10
10
10
10
10
10
10
10
10
10
10
10
10
10
10
10
10
10
10
10
10
10
10
10
10
10
10
10
10
10
10
10
10
10
10
10
10
10
10
10
10
10
10
10
10
10
10
10
10
10
10
10
10
10
10
10
10
10
10
10
10
10
10
10
10
10
10
10
10
10
10
10
10
10
10
10
10
10
10
10
10
10
10
10
10
10
10
10
10
10
10
10
10
10
10
10
10
10
10
10
10
10
10
10
10
10
10
10
10
10
10
10
10
10
10
10
10
10
10
10
10
10
10
10
10
10
10
10
10
10
10
10
10
10
10
10
10
10
10
10
10
10
10
10
10
10
10
10
10
10
10
10
10
10
10
10
10
10
10
10
10
10
10
10
10
10
10
10
10
10
10
10
10
10
10
10
10
10
10
10
10
10
10
10
10
10
10
10
10
10
10
10
10
10
10
10
10
10
10
10
10
10
10
10
10
10
10
10
10
10
10
10
10
10
10
10
10
10
10
10
10
10
10
10
10
10
10
10
10
10
10
10
10
10
10
10
10
10
10
10
10
10
10
10
10
10
10
10
10
10
10
10
10
10
10
10
10
10
10
10
10
10
10
10
10
10
10
10
10
10
10
10
10
10
10
10
10
10
10
10
10
10
10
10
10
10
10
10
10
10
10
10
10
10
10
10
10
10
10
10
10
10
10
10
10
10
10
10
10
10
10
10
10
10
10
10
10
10
10
10
10
10
10
10
10
10
10
10
10
10
10
10
10
10
10
10
10
10
10
10
10
10
10
10
10
10
10
10
10
10
10
10
10
10
10
10
10
10
10
10
10
10
10
10
10
10
10
10
10
10
10
10
10
10
10
10
10
10
10
10
10
10
10
10
10
10
10
10
10
10
10
10
10
10
10
10
10
10
10
10
10
10
10
10
10
10
10
10
10
10
10
10
10
10
10
10
10
10
10
10
10
10
10
10
10
10
10
10
10
10
10
10
10
10
10
10
10
10
10
10
10
10
10
10
10
10
10
10
10
10
10
10
10
10
10
10
10
10
10
10
10
10
10
10
10
10
10
10
10
10
10
10
10
10
10
10
10
10
10
10
10
10
10
10
10
10
10
10
10
10
10
10
10
10
10
10
10
10
10
10
10
10
10
10
10
10
10
10
10
10
10
10
10
10
10
10
10
10
10
10
10
10
10
10
10
10
10
10
10
10
10
10
10
10
10
10
10
10
10
10
10
10
10
10
10
10
10
10
10
10
10
10
10
10
10
10
10
10
10
10
10
10
10
10
10
10
10
10
10
10
10
10
10
10
10
10
10
10
10
10
10
10
10
10
10
10
10
10
10
10
10
10
10
10
10
10
10
10
10
10
10
10
10
10
10
10
10
10
10
10
10
10
10
10
10
10
10
10
10
10
10
10
10
10
10
10
10
10
10
10
10
10
10
10
10
10
10
10
10
10
10
10
10
10
10
10
10
10
10
10
10
10
10
10
10
10
10
10
10
10
10
10
10
10
10
10
10
10
10
10
10
10
10
10
10
10
10
10
10
10
10
10
10
10
10
10
10
10
10
10
10
10
10
10
10
10
10
10
10
10
10
10
10
10
10
10
10
10
10
10
10
10
10
10
10
10
10
10
10
10
10
10
10
10
10
10
10
10
10
10
10
10
10
10
10
10
10
10
10
10
10
10
10
10
10
10
10
10
10
10
10
10
10
10
10
10
10
10
10
10
10
10
10
10
10
10
10
10
10
10
10
10
10
10
10
10
10
10
10
10
10
10
10
10
10
10
10
10
10
10
10
10
10
10
10
10
10
10
10
10
10
10
10
10
10
10
10
10
10
10
10
10
10
10
10
10
10
10
10
10
10
10
10
10
10
10
10
10
10
10
10
10
10
10
10
10
10
10
10
10
10
10
10
10
10
10
10
10
10
10
10
10
10
10
10
10
10
10
10
10
10
10
10
10
10
10
10
10
10
10
10
10
10
10
10
10
10
10
10
10
10
10
10
10
10
10
10
10
10
10
10
10
10
10
10
10
10
10
10
10
10
10
10
10
10
10
10
10
10
10
10
10
10
10
10
10
10
10
10
10
10
10
10
10
10
10
10
10
10
10
10
10
10
10
10
10
10
10
10
10
10
10
10
10
10
10
10
10
10
10
10
10
10
10
10
10
10
10
10
10
10
10
10
10
10
10
10
10
10
10
10
10
10
10
10
10
10
10
10
10
10
10
10
10
10
10
10
10
10
10
10
10
10
10
10
10
10
10
10
10
10
10
10
10
10
10
10
10
10
10
10
10
10
10
10
10
10
10
10
10
10
10
10
10
10
10
10
10
10
10
10
10
10
10
10
10
10
10
10
10
10
10
10
10
10
10
10
10
10
10
10
10
10
10
10
10
10
10
10
10
10
10
10
10
10
10
10
10
10
10
10
10
10
10
10
10
10
10
10
10
10
10
10
10
10
10
10
10
10
10
10
10
10
10
10
10
10
10
10
10
10
10
10
10
10
10
10
10
10
10
10
10
10
10
10
10
10
10
10
10
10
10
10
10
10
10
10
10
10
10
10
10
10
10
10
10
10
10
10
10
10
10
10
10
10
10
10
10
10
10
10
10
10
10
10
10
10
10
10
10
10
10
10
10
10
10
10
10
10
10
10
10
10
10
10
10
10
10
10
10
10
10
10
10
10
10
10
10
10
10
10
10
10
10
10
10
10
10
10
10
10
10
10
10
10
10
10
10
10
10
10
10
10
10
10
10
10
10
10
10
10
10
10
10
10
10
10
10
10
10
10
10
10
10
10
10
10
10
10
10
10
10
10
10
10
10
10
10
10
10
10
10
10
10
10
10
10
10
10
10
10
10
10
10
10
10
10
10
10
10
10
10
10
10
10
10
10
10
10
10
10
10
10
10
10
10
10
10
10
10
10
10
10
10
10
10
10
10
10
10
10
10
10
10
10
10
10
10
10
10
10
10
10
10
10
10
10
10
10
10
10
10
10
10
10
10
10
10
10
10
10
10
10
10
10
10
10
10
10
10
10
10
10
10
10
10
10
10
10
10
10
10
10
10
10
10
10
10
10
10
10
10
10
10
10
10
10
10
10
10
10
10
10
10
10
10
10
10
10
10
10
10
10
10
10
10
10
10
10
10
10
10
10
10
10
10
10
10
10
10
10
10
10
10
10
10
10
10
10
10
10
10
10
10
10
10
10
10
10
10
10
10
10
10
10
10
10
10
10
10
10
10
10
10
10
10
10
10
10
10
10
10
10
10
10
10
10
10
10
10
10
10
10
10
10
10
10
10
10
10
10
10
10
10
10
10
10
10
10
10
10
10
10
10
10
10
10
10
10
10
10
10
10
10
10
10
10
10
10
10
10
10
10
10
10
10
10
10
10
10
10
10
10
10
10
10
10
10
10
10
10
10
10
10
10
10
10
10
10
10
10
10
10
10
10
10
10
10
10
10
10
10
10
10
10
10
10
10
10
10
10
10
10
10
10
10
10
10
10
10
10
10
10
10
10
10
10
10
10
10
10
10
10
10
10
10
10
10
10
10
10
10
10
10
10
10
10
10
10
10
10
10
10
10
10
10
10
10
10
10
10
10
10
10
10
10
10
10
10
10
10
10
10
10
10
10
10
10
10
10
10
10
10
10
10
10
10
10
10
10
10
10
10
10
10
10
10
10
10
10
10
10
10
10
10
10
10
10
10
10
10
10
10
10
10
10
10
10
10
10
10
10
10
10
10
10
10
10
10
10
10
10
10
10
10
10
10
10
10
10
10
10
10
10
10
10
10
10
10
10
10
10
10
10
10
10
10
10
10
10
10
10
10
10
10
10
10
10
10
10
10
10
10
10
10
10
10
10
10
10
10
10
10
10
10
10
10
10
10
10
10
10
10
10
10
10
10
10
10
10
10
10
10
10
10
10
10
10
10
10
10
10
10
10
10
10
10
10
10
10
10
10
10
10
10
10
10
10
10
10
10
10
10
10
10
10
10
10
10
10
10
10
10
10
10
10
10
10
10
10
10
10
10
10
10
10
10
10
10
10
10
10
10
10
10
10
10
10
10
10
10
10
10
10
10
10
10
10
10
10
10
10
10
10
10
10
10
10
10
10
10
10
10
10
10
10
10
10
10
10
10
10
10
10
10
10
10
10
10
10
10
10
10
10
10
10
10
10
10
10
10
10
10
10
10
10
10
10
10
10
10
10
10
10
10
10
10
10
10
10
10
10
10
10
10
10
10
10
10
10
10
10
10
10
10
10
10
10
10
10
10
10
10
10
10
10
10
10
10
10
10
10
10
10
10
10
10
10
10
10
10
10
10
10
10
10
10
10
10
10
10
10
10
10
10
10
10
10
10
10
10
10
10
10
10
10
10
10
10
10
10
10
10
10
10
10
10
10
10
10
10
10
10
10
10
10
10
10
10
10
10
10
10
10
10
10
10
10
10
10
10
10
10
10
10
10
10
10
10
10
10
10
10
10
10
10
10
10
10
10
10
10
10
10
10
10
10
10
10
10
10
10
10
10
10
10
10
10
10
10
10
10
10
10
10
10
10
10
10
10
10
10
10
10
10
10
10
10
10
10
10
10
10
10
10
10
10
10
10
10
10
10
10
10
10
10
10
10
10
10
10
10
10
10
10
10
10
10
10
10
10
10
10
10
10
10
10
10
10
10
10
10
10
10
10
10
10
10
10
10
10
10
10
10
10
10
10
10
10
10
10
10
10
10
10
10
10
10
10
10
10
10
10
10
10
10
10
10
10
10
10
10
10
10
10
10
10
10
10
10
10
10
10
10
10
10
10
10
10
10
10
10
10
10
10
10
10
10
10
10
10
10
10
10
10
10
10
10
10
10
10
10
10
10
10
10
10
10
10
10
10
10
10
10
10
10
10
10
10
10
10
10
10
10
10
10
10
10
10
10
10
10
10
10
10
10
10
10
10
10
10
10
10
10
10
10
10
10
10
10
10
10
10
10
10
10
10
10
10
10
10
10
10
10
10
10
10
10
10
10
10
10
10
10
10
10
10
10
10
10
10
10
10
10
10
10
10
10
10
10
10
10
10
10
10
10
10
10
10
10
10
10
10
10
10
10
10
10
10
10
10
10
10
10
10
10
10
10
10
10
10
10
10
10
10
10
10
10
10
10
10
10
10
10
10
10
10
10
10
10
10
10
10
10
10
10
10
10
10
10
10
10
10
10
10
10
10
10
10
10
10
10
10
10
10
10
10
10
10
10
10
10
10
10
10
10
10
10
10
10
10
10
10
10
10
10
10
10
10
10
10
10
10
10
10
10
10
10
10
10
10
10
10
10
10
10
10
10
10
10
10
10
10
10
10
10
10
10
10
10
10
10
10
10
10
10
10
10
10
10
10
10
10
10
10
10
10
10
10
10
10
10
10
10
10
10
10
10
10
10
10
10
10
10
10
10
10
10
10
10
10
10
10
10
10
10
10
10
10
10
10
10
10
10
10
10
10
10
10
10
10
10
10
10
10
10
10
10
10
10
10
10
10
10
10
10
10
10
10
10
10
10
10
10
10
10
10
10
10
10
10
10
10
10
10
10
10
10
10
10
10
10
10
10
10
10
10
10
10
10
10
10
10
10
10
10
10
10
10
10
10
10
10
10
10
10
10
10
10
10
10
10
10
10
10
10
10
10
10
10
10
10
10
10
10
10
10
10
10
10
10
10
10
10
10
10
10
10
10
10
10
10
10
10
10
10
10
10
10
10
10
10
10
10
10
10
10
10
10
10
10
10
10
10
10
10
10
10
10
10
10
10
10
10
10
10
10
10
10
10
10
10
10
10
10
10
10
10
10
10
10
10
10
10
10
10
10
10
10
10
10
10
10
10
10
10
10
10
10
10
10
10
10
10
10
10
10
10
10
10
10
10
10
10
10
10
10
10
10
10
10
10
10
10
10
10
10
10
10
10
10
10
10
10
10
10
10
10
10
10
10
10
10
10
10
10
10
10
10
10
10
10
10
10
10
10
10
10
10
10
10
10
10
10
10
10
10
10
10
10
10
10
10
10
10
10
10
10
10
10
10
10
10
10
10
10
10
10
10
10
10
10
10
10
10
10
10
10
10
10
10
10
10
10
10
10
10
10
10
10
10
10
10
10
10
10
10
10
10
10
10
10
10
10
10
10
10
10
10
10
10
10
10
10
10
10
10
10
10
10
10
10
10
10
10
10
10
10
10
10
10
10
10
10
10
10
10
10
10
10
10
10
10
10
10
10
10
10
10
10
10
10
10
10
10
10
10
10
10
10
10
10
10
10
10
10
10
10
10
10
10
10
10
10
10
10
10
10
10
10
10
10
10
10
10
10
10
10
10
10
10
10
10
10
10
10
10
10
10
10
10
10
10
10
10
10
10
10
10
10
10
10
10
10
10
10
10
10
10
10
10
10
10
10
10
10
10
10
10
10
10
10
10
10
10
10
10
10
10
10
10
10
10
10
10
10
10
10
10
10
10
10
10
10
10
10
10
10
10
10
10
10
10
10
10
10
10
10
10
10
10
10
10
10
10
10
10
10
10
10
10
10
10
10
10
10
10
10
10
10
10
10
10
10
10
10
10
10
10
10
10
10
10
10
10
10
10
10
10
10
10
10
10
10
10
10
10
10
10
10
10
10
10
10
10
10
10
10
10
10
10
10
10
10
10
10
10
10
10
10
10
10
10
10
10
10
10
10
10
10
10
10
10
10
10
10
10
10
10
10
10
10
10
10
10
10
10
10
10
10
10
10
10
10
10
10
10
10
10
10
10
10
10
10
10
10
10
10
10
10
10
10
10
10
10
10
10
10
10
10
10
10
10
10
10
10
10
10
10
10
10
10
10
10
10
10
10
10
10
10
10
10
10
10
10
10
10
10
10
10
10
10
10
10
10
10
10
10
10
10
10
10
10
10
10
10
10
10
10
10
10
10
10
10
10
10
10
10
10
10
10
10
10
10
10
10
10
10
10
10
10
10
10
10
10
10
10
10
10
10
10
10
10
10
10
10
10
10
10
10
10
10
10
10
10
10
10
10
10
10
10
10
10
10
10
10
10
10
10
10
10
10
10
10
10
10
10
10
10
10
10
10
10
10
10
10
10
10
10
10
10
10
10
10
10
10
10
10
10
10
10
10
10
10
10
10
10
10
10
10
10
10
10
10
10
10
10
10
10
10
10
10
10
10
10
10
10
10
10
10
10
10
10
10
10
10
10
10
10
10
10
10
10
10
10
10
10
10
10
10
10
10
10
10
10
10
10
10
10
10
10
10
10
10
10
10
10
10
10
10
10
10
10
10
10
10
10
10
10
10
10
10
10
10
10
10
10
10
10
10
10
10
10
10
10
10
10
10
10
10
10
10
10
10
10
10
10
10
10
10
10
10
10
10
10
10
10
10
10
10
10
10
10
10
10
10
10
10
10
10
10
10
10
10
10
10
10
10
10
10
10
10
10
10
10
10
10
10
10
10
10
10
10
10
10
10
10
10
10
10
10
10
10
10
10
10
10
10
10
10
10
10
10
10
10
10
10
10
10
10
10
10
10
10
10
10
10
10
10
10
10
10
10
10
10
10
10
10
10
10
10
10
10
10
10
10
10
10
10
10
10
10
10
10
10
10
10
10
10
10
10
10
10
10
10
10
10
10
10
10
10
10
10
10
10
10
10
10
10
10
10
10
10
10
10
10
10
10
10
10
10
10
10
10
10
10
10
10
10
10
10
10
10
10
10
10
10
10
10
10
10
10
10
10
10
10
10
10
10
10
10
10
10
10
10
10
10
10
10
10
10
10
10
10
10
10
10
10
10
10
10
10
10
10
10
10
10
10
10
10
10
10
10
10
10
10
10
10
10
10
10
10
10
10
10
10
10
10
10
10
10
10
10
10
10
10
10
10
10
10
10
10
10
10
10
10
10
10
10
10
10
10
10
10
10
10
10
10
10
10
10
10
10
10
10
10
10
10
10
10
10
10
10
10
10
10
10
10
10
10
10
10
10
10
10
10
10
10
10
10
10
10
10
10
10
10
10
10
10
10
10
10
10
10
10
10
10
10
10
10
10
10
10
10
10
10
10
10
10
10
10
10
10
10
10
10
10
10
10
10
10
10
10
10
10
10
10
10
10
10
10
10
10
10
10
10
10
10
10
10
10
10
10
10
10
10
10
10
10
10
10
10
10
10
10
10
10
10
10
10
10
10
10
10
10
10
10
10
10
10
10
10
10
10
10
10
10
10
10
10
10
10
10
10
10
10
10
10
10
10
10
10
10
10
10
10
10
10
10
10
10
10
10
10
10
10
10
10
10
10
10
10
10
10
10
10
10
10
10
10
10
10
10
10
10
10
10
10
10
10
10
10
10
10
10
10
10
10
10
10
10
10
10
10
10
10
10
10
10
10
10
10
10
10
10
10
10
10
10
10
10
10
10
10
10
10
10
10
10
10
10
10
10
10
10
10
10
10
10
10
10
10
10
10
10
10
10
10
10
10
10
10
10
10
10
10
10
10
10
10
10
10
10
10
10
10
10
10
10
10
10
10
10
10
10
10
10
10
10
10
10
10
10
10
10
10
10
10
10
10
10
10
10
10
10
10
10
10
10
10
10
10
10
10
10
10
10
10
10
10
10
10
10
10
10
10
10
10
10
10
10
10
10
10
10
10
10
10
10
10
10
10
10
10
10
10
10
10
10
10
10
10
10
10
10
10
10
10
10
10
10
10
10
10
10
10
10
10
10
10
10
10
10
10
10
10
10
10
10
10
10
10
10
10
10
10
10
10
10
10
10
10
10
10
10
10
10
10
10
10
10
10
10
10
10
10
10
10
10
10
10
10
10
10
10
10
10
10
10
10
10
10
10
10
10
10
10
10
10
10
10
10
10
10
10
10
10
10
10
10
10
10
10
10
10
10
10
10
10
10
10
10
10
10
10
10
10
10
10
10
10
10
10
10
10
10
10
10
10
10
10
10
10
10
10
10
10
10
10
10
10
10
10
10
10
10
10
10
10
10
10
10
10
10
10
10
10
10
10
10
10
10
10
10
10
10
10
10
10
10
10
10
10
10
10
10
10
10
10
10
10
10
10
10
10
10
10
10
10
10
10
10
10
10
10
10
10
10
10
10
10
10
10
10
10
10
10
10
10
10
10
10
10
10
10
10
10
10
10
10
10
10
10
10
10
10
10
10
10
10
10
10
10
10
10
10
10
10
10
10
10
10
10
10
10
10
10
10
10
10
10
10
10
10
10
10
10
10
10
10
10
10
10
10
10
10
10
10
10
10
10
10
10
10
10
10
10
10
10
10
10
10
10
10
10
10
10
10
10
10
10
10
10
10
10
10
10
10
10
10
10
10
10
10
10
10
10
10
10
10
10
10
10
10
10
10
10
10
10
10
10
10
10
10
10
10
10
10
10
10
10
10
10
10
10
10
10
10
10
10
10
10
10
10
10
10
10
10
10
10
10
10
10
10
10
10
10
10
10
10
10
10
10
10
10
10
10
10
10
10
10
10
10
10
10
10
10
10
10
10
10
10
10
10
10
10
10
10
10
10
10
10
10
10
10
10
10
10
10
10
10
10
10
10
10
10
10
10
10
10
10
10
10
10
10
10
10
10
10
10
10
10
10
10
10
10
10
10
10
10
10
10
10
10
10
10
10
10
10
10
10
10
10
10
10
10
10
10
10
10
10
10
10
10
10
10
10
10
10
10
10
10
10
10
10
10
10
10
10
10
10
10
10
10
10
10
10
10
10
10
10
10
10
10
10
10
10
10
10
10
10
10
10
10
10
10
10
10
10
10
10
10
10
10
10
10
10
10
10
10
10
10
10
10
10
10
10
10
10
10
10
10
10
10
10
10
10
10
10
10
10
10
10
10
10
10
10
10
10
10
10
10
10
10
10
10
10
10
10
10
10
10
10
10
10
10
10
10
10
10
10
10
10
10
10
10
10
10
10
10
10
10
10
10
10
10
10
10
10
10
10
10
10
10
10
10
10
10
10
10
10
10
10
10
10
10
10
10
10
10
10
10
10
10
10
10
10
10
10
10
10
10
10
10
10
10
10
10
10
10
10
10
10
10
10
10
10
10
10
10
10
10
10
10
10
10
10
10
10
10
10
10
10
10
10
10
10
10
10
10
10
10
10
10
10
10
10
10
10
10
10
10
10
10
10
10
10
10
10
10
10
10
10
10
10
10
10
10
10
10
10
10
10
10
10
10
10
10
10
10
10
10
10
10
10
10
10
10
10
10
10
10
10
10
10
10
10
10
10
10
10
10
10
10
10
10
10
10
10
10
10
10
10
10
10
10
10
10
10
10
10
10
10
10
10
10
10
10
10
10
10
10
10
10
10
10
10
10
10
10
10
10
10
10
10
10
10
10
10
10
10
10
10
10
10
10
10
10
10
10
10
10
10
10
10
10
10
10
10
10
10
10
10
10
10
10
10
10
10
10
10
10
10
10
10
10
10
10
10
10
10
10
10
10
10
10
10
10
10
10
10
10
10
10
10
10
10
10
10
10
10
10
10
10
10
10
10
10
10
10
10
10
10
10
10
10
10
10
10
10
10
10
10
10
10
10
10
10
10
10
10
10
10
10
10
10
10
10
10
10
10
10
10
10
10
10
10
10
10
10
10
10
10
10
10
10
10
10
10
10
10
10
10
10
10
10
10
10
10
10
10
10
10
10
10
10
10
10
10
10
10
10
10
10
10
10
10
10
10
10
10
10
10
10
10
10
10
10
10
10
10
10
10
10
10
10
10
10
10
10
10
10
10
10
10
10
10
10
10
10
10
10
10
10
10
10
10
10
10
10
10
10
10
10
10
10
10
10
10
10
10
10
10
10
10
10
10
10
10
10
10
10
10
10
10
10
10
10
10
10
10
10
10
10
10
10
10
10
10
10
10
10
10
10
10
10
10
10
10
10
10
10
10
10
10
10
10
10
10
10
10
10
10
10
10
10
10
10
10
10
10
10
10
10
10
10
10
10
10
10
10
10
10
10
10
10
10
10
10
10
10
10
10
10
10
10
10
10
10
10
10
10
10
10
10
10
10
10
10
10
10
10
10
10
10
10
10
10
10
10
10
10
10
10
10
10
10
10
10
10
10
10
10
10
10
10
10
10
10
10
10
10
10
10
10
10
10
10
10
10
10
10
10
10
10
10
10
10
10
10
10
10
10
10
10
10
10
10
10
10
10
10
10
10
10
10
10
10
10
10
10
10
10
10
10
10
10
10
10
10
10
10
10
10
10
10
10
10
10
10
10
10
10
10
10
10
10
10
10
10
10
10
10
10
10
10
10
10
10
10
10
10
10
10
10
10
10
10
10
10
10
10
10
10
10
10
10
10
10
10
10
10
10
10
10
10
10
10
10
10
10
10
10
10
10
10
10
10
10
10
10
10
10
10
10
10
10
10
10
10
10
10
10
10
10
10
10
10
10
10
10
10
10
10
10
10
10
10
10
10
10
10
10
10
10
10
10
10
10
10
10
10
10
10
10
10
10
10
10
10
10
10
10
10
10
10
10
10
10
10
10
10
10
10
10
10
10
10
10
10
10
10
10
10
10
10
10
10
10
10
10
10
10
10
10
10
10
10
10
10
10
10
10
10
10
10
10
10
10
10
10
10
10
10
10
10
10
10
10
10
10
10
10
10
10
10
10
10
10
10
10
10
10
10
10
10
10
10
10
10
10
10
10
10
10
10
10
10
10
10
10
10
10
10
10
10
10
10
10
10
10
10
10
10
10
10
10
10
10
10
10
10
10
10
10
10
10
10
10
10
10
10
10
10
10
10
10
10
10
10
10
10
10
10
10
10
10
10
10
10
10
10
10
10
10
10
10
10
10
10
10
10
10
10
10
10
10
10
10
10
10
10
10
10
10
10
10
10
10
10
10
10
10
10
10
10
10
10
10
10
10
10
10
10
10
10
10
10
10
10
10
10
10
10
10
10
10
10
10
10
10
10
10
10
10
10
10
10
10
10
10
10
10
10
10
10
10
10
10
10
10
10
10
10
10
10
10
10
10
10
10
10
10
10
10
10
10
10
10
10
10
10
10
10
10
10
10
10
10
10
10
10
10
10
10
10
10
10
10
10
10
10
10
10
10
10
10
10
10
10
10
10
10
10
10
10
10
10
10
10
10
10
10
10
10
10
10
10
10
10
10
10
10
10
10
10
10
10
10
10
10
10
10
10
10
10
10
10
10
10
10
10
10
10
10
10
10
10
10
10
10
10
10
10
10
10
10
10
10
10
10
10
10
10
10
10
10
10
10
10
10
10
10
10
10
10
10
10
10
10
10
10
10
10
10
10
10
10
10
10
10
10
10
10
10
10
10
10
10
10
10
10
10
10
10
10
10
10
10
10
10
10
10
10
10
10
10
10
10
10
10
10
10
10
10
10
10
10
10
10
10
10
10
10
10
10
10
10
10
10
10
10
10
10
10
10
10
10
10
10
10
10
10
10
10
10
10
10
10
10
10
10
10
10
10
10
10
10
10
10
10
10
10
10
10
10
10
10
10
10
10
10
10
10
10
10
10
10
10
10
10
10
10
10
10
10
10
10
10
10
10
10
10
10
10
10
10
10
10
10
10
10
10
10
10
10
10
10
10
10
10
10
10
10
10
10
10
10
10
10
10
10
10
10
10
10
10
10
10
10
10
10
10
10
10
10
10
10
10
10
10
10
10
10
10
10
10
10
10
10
10
10
10
10
10
10
10
10
10
10
10
10
10
10
10
10
10
10
10
10
10
10
10
10
10
10
10
10
10
10
10
10
10
10
10
10
10
10
10
10
10
10
10
10
10
10
10
10
10
10
10
10
10
10
10
10
10
10
10
10
10
10
10
10
10
10
10
10
10
10
10
10
10
10
10
10
10
10
10
10
10
10
10
10
10
10
10
10
10
10
10
10
10
10
10
10
10
10
10
10
10
10
10
10
10
10
10
10
10
10
10
10
10
10
10
10
10
10
10
10
10
10
10
10
10
10
10
10
10
10
10
10
10
10
10
10
10
10
10
10
10
10
10
10
10
10
10
10
10
10
10
10
10
10
10
10
10
10
10
10
10
10
10
10
10
10
10
10
10
10
10
10
10
10
10
10
10
10
10
10
10
10
10
10
10
10
10
10
10
10
10
10
10
10
10
10
10
10
10
10
10
10
10
10
10
10
10
10
10
10
10
10
10
10
10
10
10
10
10
10
10
10
10
10
10
10
10
10
10
10
10
10
10
10
10
10
10
10
10
10
10
10
10
10
10
10
10
10
10
10
10
10
10
10
10
10
10
10
10
10
10
10
10
10
10
10
10
10
10
10
10
10
10
10
10
10
10
10
10
10
10
10
10
10
10
10
10
10
10
10
10
10
10
10
10
10
10
10
10
10
10
10
10
10
10
10
10
10
10
10
10
10
10
10
10
10
10
10
10
10
10
10
10
10
10
10
10
10
10
10
10
10
10
10
10
10
10
10
10
10
10
10
10
10
10
10
10
10
10
10
10
10
10
10
10
10
10
10
10
10
10
10
10
10
10
10
10
10
10
10
10
10
10
10
10
10
10
10
10
10
10
10
10
10
10
10
10
10
10
10
10
10
10
10
10
10
10
10
10
10
10
10
10
10
10
10
10
10
10
10
10
10
10
10
10
10
10
10
10
10
10
10
10
10
10
10
10
10
10
10
10
10
10
10
10
10
10
10
10
10
10
10
10
10
10
10
10
10
10
10
10
10
10
10
10
10
10
10
10
10
10
10
10
10
10
10
10
10
10
10
10
10
10
10
10
10
10
10
10
10
10
10
10
10
10
10
10
10
10
10
10
10
10
10
10
10
10
10
10
10
10
10
10
10
10
10
10
10
10
10
10
10
10
10
10
10
10
10
10
10
10
10
10
10
10
10
10
10
10
10
10
10
10
10
10
10
10
10
10
10
10
10
10
10
10
10
10
10
10
10
10
10
10
10
10
10
10
10
10
10
10
10
10
10
10
10
10
10
10
10
10
10
10
10
10
10
10
10
10
10
10
10
10
10
10
10
10
10
10
10
10
10
10
10
10
10
10
10
10
10
10
10
10
10
10
10
10
10
10
10
10
10
10
10
10
10
10
10
10
10
10
10
10
10
10
10
10
10
10
10
10
10
10
10
10
10
10
10
10
10
10
10
10
10
10
10
10
10
10
10
10
10
10
10
10
10
10
10
10
10
10
10
10
10
10
10
10
10
10
10
10
10
10
10
10
10
10
10
10
10
10
10
10
10
10
10
10
10
10
10
10
10
10
10
10
10
10
10
10
10
10
10
10
10
10
10
10
10
10
10
10
10
10
10
10
10
10
10
10
10
10
10
10
10
10
10
10
10
10
10
10
10
10
10
10
10
10
10
10
10
10
10
10
10
10
10
10
10
10
10
10
10
10
10
10
10
10
10
10
10
10
10
10
10
10
10
10
10
10
10
10
10
10
10
10
10
10
10
10
10
10
10
10
10
10
10
10
10
10
10
10
10
10
10
10
10
10
10
10
10
10
10
10
10
10
10
10
10
10
10
10
10
10
10
10
10
10
10
10
10
10
10
10
10
10
10
10
10
10
10
10
10
10
10
10
10
10
10
10
10
10
10
10
10
10
10
10
10
10
10
10
10
10
10
10
10
10
10
10
10
10
10
10
10
10
10
10
10
10
10
10
10
10
10
10
10
10
10
10
10
10
10
10
10
10
10
10
10
10
10
10
10
10
10
10
10
10
10
10
10
10
10
10
10
10
10
10
10
10
10
10
10
10
10
10
10
10
10
10
10
10
10
10
10
10
10
10
10
10
10
10
10
10
10
10
10
10
10
10
10
10
10
10
10
10
10
10
10
10
10
10
10
10
10
10
10
10
10
10
10
10
10
10
10
10
10
10
10
10
10
10
10
10
10
10
10
10
10
10
10
10
10
10
10
10
10
10
10
10
10
10
10
10
10
10
10
10
10
10
10
10
10
10
10
10
10
10
10
10
10
10
10
10
10
10
10
10
10
10
10
10
10
10
10
10
10
10
10
10
10
10
10
10
10
10
10
10
10
10
10
10
10
10
10
10
10
10
10
10
10
10
10
10
10
10
10
10
10
10
10
10
10
10
10
10
10
10
10
10
10
10
10
10
10
10
10
10
10
10
10
10
10
10
10
10
10
10
10
10
10
10
10
10
10
10
10
10
10
10
10
10
10
10
10
10
10
10
10
10
10
10
10
10
10
10
10
10
10
10
10
10
10
10
10
10
10
10
10
10
10
10
10
10
10
10
10
10
10
10
10
10
10
10
10
10
10
10
10
10
10
10
10
10
10
10
10
10
10
10
10
10
10
10
10
10
10
10
10
10
10
10
10
10
10
10
10
10
10
10
10
10
10
10
10
10
10
10
10
10
10
10
10
10
10
10
10
10
10
10
10
10
10
10
10
10
10
10
10
10
10
10
10
10
10
10
10
10
10
10
10
10
10
10
10
10
10
10
10
10
10
10
10
10
10
10
10
10
10
10
10
10
10
10
10
10
10
10
10
10
10
10
10
10
10
10
10
10
10
10
10
10
10
10
10
10
10
10
10
10
10
10
10
10
10
10
10
10
10
10
10
10
10
10
10
10
10
10
10
10
10
10
10
10
10
10
10
10
10
10
10
10
10
10
10
10
10
10
10
10
10
10
10
10
10
10
10
10
10
10
10
10
10
10
10
10
10
10
10
10
10
10
10
10
10
10
10
10
10
10
10
10
10
10
10
10
10
10
10
10
10
10
10
10
10
10
10
10
10
10
10
10
10
10
10
10
10
10
10
10
10
10
10
10
10
10
10
10
10
10
10
10
10
10
10
10
10
10
10
10
10
10
10
10
10
10
10
10
10
10
10
10
10
10
10
10
10
10
10
10
10
10
10
10
10
10
10
10
10
10
10
10
10
10
10
10
10
10
10
10
10
10
10
10
10
10
10
10
10
10
10
10
10
10
10
10
10
10
10
10
10
10
10
10
10
10
10
10
10
10
10
10
10
10
10
10
10
10
10
10
10
10
10
10
10
10
10
10
10
10
10
10
10
10
10
10
10
10
10
10
10
10
10
10
10
10
10
10
10
10
10
10
10
10
10
10
10
10
10
10
10
10
10
10
10
10
10
10
10
10
10
10
10
10
10
10
10
10
10
10
10
10
10
10
10
10
10
10
10
10
10
10
10
10
10
10
10
10
10
10
10
10
10
10
10
10
10
10
10
10
10
10
10
10
10
10
10
10
10
10
10
10
10
10
10
10
10
10
10
10
10
10
10
10
10
10
10
10
10
10
10
10
10
10
10
10
10
10
10
10
10
10
10
10
10
10
10
10
10
10
10
10
10
10
10
10
10
10
10
10
10
10
10
10
10
10
10
10
10
10
10
10
10
10
10
10
10
10
10
10
10
10
10
10
10
10
10
10
10
10
10
10
10
10
10
10
10
10
10
10
10
10
10
10
10
10
10
10
10
10
10
10
10
10
10
10
10
10
10
10
10
10
10
10
10
10
10
10
10
10
10
10
10
10
10
10
10
10
10
10
10
10
10
10
10
10
10
10
10
10
10
10
10
10
10
10
10
10
10
10
10
10
10
10
10
10
10
10
10
10
10
10
10
10
10
10
10
10
10
10
10
10
10
10
10
10
10
10
10
10
10
10
10
10
10
10
10
10
10
10
10
10
10
10
10
10
10
10
10
10
10
10
10
10
10
10
10
10
10
10
10
10
10
10
10
10
10
10
10
10
10
10
10
10
10
10
10
10
10
10
10
10
10
10
10
10
10
10
10
10
10
10
10
10
10
10
10
10
10
10
10
10
10
10
10
10
10
10
10
10
10
10
10
10
10
10
10
10
10
10
10
10
10
10
10
10
10
10
10
10
10
10
10
10
10
10
10
10
10
10
10
10
10
10
10
10
10
10
10
10
10
10
10
10
10
10
10
10
10
10
10
10
10
10
10
10
10
10
10
10
10
10
10
10
10
10
10
10
10
10
10
10
10
10
10
10
10
10
10
10
10
10
10
10
10
10
10
10
10
10
10
10
10
10
10
10
10
10
10
10
10
10
10
10
10
10
10
10
10
10
10
10
10
10
10
10
10
10
10
10
10
10
10
10
10
10
10
10
10
10
10
10
10
10
10
10
10
10
10
10
10
10
10
10
10
10
10
10
10
10
10
10
10
10
10
10
10
10
10
10
10
10
10
10
10
10
10
10
10
10
10
10
10
10
10
10
10
10
10
10
10
10
10
10
10
10
10
10
10
10
10
10
10
10
10
10
10
10
10
10
10
10
10
10
10
10
10
10
10
10
10
10
10
10
10
10
10
10
10
10
10
10
10
10
10
10
10
10
10
10
10
10
10
10
10
10
10
10
10
10
10
10
10
10
10
10
10
10
10
10
10
10
10
10
10
10
10
10
10
10
10
10
10
10
10
10
10
10
10
10
10
10
10
10
10
10
10
10
10
10
10
10
10
10
10
10
10
10
10
10
10
10
10
10
10
10
10
10
10
10
10
10
10
10
10
10
10
10
10
10
10
10
10
10
10
10
10
10
10
10
10
10
10
10
10
10
10
10
10
10
10
10
10
10
10
10
10
10
10
10
10
10
10
10
10
10
10
10
10
10
10
10
10
10
10
10
10
10
10
10
10
10
10
10
10
10
10
10
10
10
10
10
10
10
10
10
10
10
10
10
10
10
10
10
10
10
10
10
10
10
10
10
10
10
10
10
10
10
10
10
10
10
10
10
10
10
10
10
10
10
10
10
10
10
10
10
10
10
10
10
10
10
10
10
10
10
10
10
10
10
10
10
10
10
10
10
10
10
10
10
10
10
10
10
10
10
10
10
10
10
10
10
10
10
10
10
10
10
10
10
10
10
10
10
10
10
10
10
10
10
10
10
10
10
10
10
10
10
10
10
10
10
10
10
10
10
10
10
10
10
10
10
10
10
10
10
10
10
10
10
10
10
10
10
10
10
10
10
10
10
10
10
10
10
10
10
10
10
10
10
10
10
10
10
10
10
10
10
10
10
10
10
10
10
10
10
10
10
10
10
10
10
10
10
10
10
10
10
10
10
10
10
10
10
10
10
10
10
10
10
10
10
10
10
10
10
10
10
10
10
10
10
10
10
10
10
10
10
10
10
10
10
10
10
10
10
10
10
10
10
10
10
10
10
10
10
10
10
10
10
10
10
10
10
10
10
10
10
10
10
10
10
10
10
10
10
10
10
10
10
10
10
10
10
10
10
10
10
10
10
10
10
10
10
10
10
10
10
10
10
10
10
10
10
10
10
10
10
10
10
10
10
10
10
10
10
10
10
10
10
10
10
10
10
10
10
10
10
10
10
10
10
10
10
10
10
10
10
10
10
10
10
10
10
10
10
10
10
10
10
10
10
10
10
10
10
10
10
10
10
10
10
10
10
10
10
10
10
10
10
10
10
10
10
10
10
10
10
10
10
10
10
10
10
10
10
10
10
10
10
10
10
10
10
10
10
10
10
10
10
10
10
10
10
10
10
10
10
10
10
10
10
10
10
10
10
10
10
10
10
10
10
10
10
10
10
10
10
10
10
10
10
10
10
10
10
10
10
10
10
10
10
10
10
10
10
10
10
10
10
10
10
10
10
10
10
10
10
10
10
10
10
10
10
10
10
10
10
10
10
10
10
10
10
10
10
10
10
10
10
10
10
10
10
10
10
10
10
10
10
10
10
10
10
10
10
10
10
10
10
10
10
10
10
10
10
10
10
10
10
10
10
10
10
10
10
10
10
10
10
10
10
10
10
10
10
10
10
10
10
10
10
10
10
10
10
10
10
10
10
10
10
10
10
10
10
10
10
10
10
10
10
10
10
10
10
10
10
10
10
10
10
10
10
10
10
10
10
10
10
10
10
10
10
10
10
10
10
10
10
10
10
10
10
10
10
10
10
10
10
10
10
10
10
10
10
10
10
10
10
10
10
10
10
10
10
10
10
10
10
10
10
10
10
10
10
10
10
10
10
10
10
10
10
10
10
10
10
10
10
10
10
10
10
10
10
10
10
10
10
10
10
10
10
10
10
10
10
10
10
10
10
10
10
10
10
10
10
10
10
10
10
10
10
10
10
10
10
10
10
10
10
10
10
10
10
10
10
10
10
10
10
10
10
10
10
10
10
10
10
10
10
10
10
10
10
10
10
10
10
10
10
10
10
10
10
10
10
10
10
10
10
10
10
10
10
10
10
10
10
10
10
10
10
10
10
10
10
10
10
10
10
10
10
10
10
10
10
10
10
10
10
10
10
10
10
10
10
10
10
10
10
10
10
10
10
10
10
10
10
10
10
10
10
10
10
10
10
10
10
10
10
10
10
10
10
10
10
10
10
10
10
10
10
10
10
10
10
10
10
10
10
10
10
10
10
10
10
10
10
10
10
10
10
10
10
10
10
10
10
10
10
10
10
10
10
10
10
10
10
10
10
10
10
10
10
10
10
10
10
10
10
10
10
10
10
10
10
10
10
10
10
10
10
10
10
10
10
10
10
10
10
10
10
10
10
10
10
10
10
10
10
10
10
10
10
10
10
10
10
10
10
10
10
10
10
10
10
10
10
10
10
10
10
10
10
10
10
10
10
10
10
10
10
10
10
10
10
10
10
10
10
10
10
10
10
10
10
10
10
10
10
10
10
10
10
10
10
10
10
10
10
10
10
10
10
10
10
10
10
10
10
10
10
10
10
10
10
10
10
10
10
10
10
10
10
10
10
10
10
10
10
10
10
10
10
10
10
10
10
10
10
10
10
10
10
10
10
10
10
10
10
10
10
10
10
10
10
10
10
10
10
10
10
10
10
10
10
10
10
10
10
10
10
10
10
10
10
10
10
10
10
10
10
10
10
10
10
10
10
10
10
10
10
10
10
10
10
10
10
10
10
10
10
10
10
10
10
10
10
10
10
10
10
10
10
10
10
10
10
10
10
10
10
10
10
10
10
10
10
10
10
10
10
10
10
10
10
10
10
10
10
10
10
10
10
10
10
10
10
10
10
10
10
10
10
10
10
10
10
10
10
10
10
10
10
10
10
10
10
10
10
10
10
10
10
10
10
10
10
10
10
10
10
10
10
10
10
10
10
10
10
10
10
10
10
10
10
10
10
10
10
10
10
10
10
10
10
10
10
10
10
10
10
10
10
10
10
10
10
10
10
10
10
10
10
10
10
10
10
10
10
10
10
10
10
10
10
10
10
10
10
10
10
10
10
10
10
10
10
10
10
10
10
10
10
10
10
10
10
10
10
10
10
10
10
10
10
10
10
10
10
10
10
10
10
10
10
10
10
10
10
10
10
10
10
10
10
10
10
10
10
10
10
10
10
10
10
10
10
10
10
10
10
10
10
10
10
10
10
10
10
10
10
10
10
10
10
10
10
10
10
10
10
10
10
10
10
10
10
10
10
10
10
10
10
10
10
10
10
10
10
10
10
10
10
10
10
10
10
10
10
10
10
10
10
10
10
10
10
10
10
10
10
10
10
10
10
10
10
10
10
10
10
10
10
10
10
10
10
10
10
10
10
10
10
10
10
10
10
10
10
10
10
10
10
10
10
10
10
10
10
10
10
10
10
10
10
10
10
10
10
10
10
10
10
10
10
10
10
10
10
10
10
10
10
10
10
10
10
10
10
10
10
10
10
10
10
10
10
10
10
10
10
10
10
10
10
10
10
10
10
10
10
10
10
10
10
10
10
10
10
10
10
10
10
10
10
10
10
10
10
10
10
10
10
10
10
10
10
10
10
10
10
10
10
10
10
10
10
10
10
10
10
10
10
10
10
10
10
10
10
10
10
10
10
10
10
10
10
10
10
10
10
10
10
10
10
10
10
10
10
10
10
10
10
10
10
10
10
10
10
10
10
10
10
10
10
10
10
10
10
10
10
10
10
10
10
10
10
10
10
10
10
10
10
10
10
10
10
10
10
10
10
10
10
10
10
10
10
10
10
10
10
10
10
10
10
10
10
10
10
10
10
10
10
10
10
10
10
10
10
10
10
10
10
10
10
10
10
10
10
10
10
10
10
10
10
10
10
10
10
10
10
10
10
10
10
10
10
10
10
10
10
10
10
10
10
10
10
10
10
10
10
10
10
10
10
10
10
10
10
10
10
10
10
10
10
10
10
10
10
10
10
10
10
10
10
10
10
10
10
10
10
10
10
10
10
10
10
10
10
10
10
10
10
10
10
10
10
10
10
10
10
10
10
10
10
10
10
10
10
10
10
10
10
10
10
10
10
10
10
10
10
10
10
10
10
10
10
10
10
10
10
10
10
10
10
10
10
10
10
10
10
10
10
10
10
10
10
10
10
10
10
10
10
10
10
10
10
10
10
10
10
10
10
10
10
10
10
10
10
10
10
10
10
10
10
10
10
10
10
10
10
10
10
10
10
10
10
10
10
10
10
10
10
10
10
10
10
10
10
10
10
10
10
10
10
10
10
10
10
10
10
10
10
10
10
10
10
10
10
10
10
10
10
10
10
10
10
10
10
10
10
10
10
10
10
10
10
10
10
10
10
10
10
10
10
10
10
10
10
10
10
10
10
10
10
10
10
10
10
10
10
10
10
10
10
10
10
10
10
10
10
10
10
10
10
10
10
10
10
10
10
10
10
10
10
10
10
10
10
10
10
10
10
10
10
10
10
10
10
10
10
10
10
10
10
10
10
10
10
10
10
10
10
10
10
10
10
10
10
10
10
10
10
10
10
10
10
10
10
10
10
10
10
10
10
10
10
10
10
10
10
10
10
10
10
10
10
10
10
10
10
10
10
10
10
10
10
10
10
10
10
10
10
10
10
10
10
10
10
10
10
10
10
10
10
10
10
10
10
10
10
10
10
10
10
10
10
10
10
10
10
10
10
10
10
10
10
10
10
10
10
10
10
10
10
10
10
10
10
10
10
10
10
10
10
10
10
10
10
10
10
10
10
10
10
10
10
10
10
10
10
10
10
10
10
10
10
10
10
10
10
10
10
10
10
10
10
10
10
10
10
10
10
10
10
10
10
10
10
10
10
10
10
10
10
10
10
10
10
10
10
10
10
10
10
10
10
10
10
10
10
10
10
10
10
10
10
10
10
10
10
10
10
10
10
10
10
10
10
10
10
10
10
10
10
10
10
10
10
10
10
10
10
10
10
10
10
10
10
10
10
10
10
10
10
10
10
10
10
10
10
10
10
10
10
10
10
10
10
10
10
10
10
10
10
10
10
10
10
10
10
10
10
10
10
10
10
10
10
10
10
10
10
10
10
10
10
10
10
10
10
10
10
10
10
10
10
10
10
10
10
10
10
10
10
10
10
10
10
10
10
10
10
10
10
10
10
10
10
10
10
10
10
10
10
10
10
10
10
10
10
10
10
10
10
10
10
10
10
10
10
10
10
10
10
10
10
10
10
10
10
10
10
10
10
10
10
10
10
10
10
10
10
10
10
10
10
10
10
10
10
10
10
10
10
10
10
10
10
10
10
10
10
10
10
10
10
10
10
10
10
10
10
10
10
10
10
10
10
10
10
10
10
10
10
10
10
10
10
10
10
10
10
10
10
10
10
10
10
10
10
10
10
10
10
10
10
10
10
10
10
10
10
10
10
10
10
10
10
10
10
10
10
10
10
10
10
10
10
10
10
10
10
10
10
10
10
10
10
10
10
10
10
10
10
10
10
10
10
10
10
10
10
10
10
10
10
10
10
10
10
10
10
10
10
10
10
10
10
10
10
10
10
10
10
10
10
10
10
10
10
10
10
10
10
10
10
10
10
10
10
10
10
10
10
10
10
10
10
10
10
10
10
10
10
10
10
10
10
10
10
10
10
10
10
10
10
10
10
10
10
10
10
10
10
10
10
10
10
10
10
10
10
10
10
10
10
10
10
10
10
10
10
10
10
10
10
10
10
10
10
10
10
10
10
10
10
10
10
10
10
10
10
10
10
10
10
10
10
10
10
10
10
10
10
10
10
10
10
10
10
10
10
10
10
10
10
10
10
10
10
10
10
10
10
10
10
10
10
10
10
10
10
10
10
10
10
10
10
10
10
10
10
10
10
10
10
10
10
10
10
10
10
10
10
10
10
10
10
10
10
10
10
10
10
10
10
10
10
10
10
10
10
10
10
10
10
10
10
10
10
10
10
10
10
10
10
10
10
10
10
10
10
10
10
10
10
10
10
10
10
10
10
10
10
10
10
10
10
10
10
10
10
10
10
10
10
10
10
10
10
10
10
10
10
10
10
10
10
10
10
10
10
10
10
10
10
10
10
10
10
10
10
10
10
10
10
10
10
10
10
10
10
10
10
10
10
10
10
10
10
10
10
10
10
10
10
10
10
10
10
10
10
10
10
10
10
10
10
10
10
10
10
10
10
10
10
10
10
10
10
10
10
10
10
10
10
10
10
10
10
10
10
10
10
10
10
10
10
10
10
10
10
10
10
10
10
10
10
10
10
10
10
10
10
10
10
10
10
10
10
10
10
10
10
10
10
10
10
10
10
10
10
10
10
10
10
10
10
10
10
10
10
10
10
10
10
10
10
10
10
10
10
10
10
10
10
10
10
10
10
10
10
10
10
10
10
10
10
10
10
10
10
10
10
10
10
10
10
10
10
10
10
10
10
10
10
10
10
10
10
10
10
10
10
10
10
10
10
10
10
10
10
10
10
10
10
10
10
10
10
10
10
10
10
10
10
10
10
10
10
10
10
10
10
10
10
10
10
10
10
10
10
10
10
10
10
10
10
10
10
10
10
10
10
10
10
10
10
10
10
10
10
10
10
10
10
10
10
10
10
10
10
10
10
10
10
10
10
10
10
10
10
10
10
10
10
10
10
10
10
10
10
10
10
10
10
10
10
10
10
10
10
10
10
10
10
10
10
10
10
10
10
10
10
10
10
10
10
10
10
10
10
10
10
10
10
10
10
10
10
10
10
10
10
10
10
10
10
10
10
10
10
10
10
10
10
10
10
10
10
10
10
10
10
10
10
10
10
10
10
10
10
10
10
10
10
10
10
10
10
10
10
10
10
10
10
10
10
10
10
10
10
10
10
10
10
10
10
10
10
10
10
10
10
10
10
10
10
10
10
10
10
10
10
10
10
10
10
10
10
10
10
10
10
10
10
10
10
10
10
10
10
10
10
10
10
10
10
10
10
10
10
10
10
10
10
10
10
10
10
10
10
10
10
10
10
10
10
10
10
10
10
10
10
10
10
10
10
10
10
10
10
10
10
10
10
10
10
10
10
10
10
10
10
10
10
10
10
10
10
10
10
10
10
10
10
10
10
10
10
10
10
10
10
10
10
10
10
10
10
10
10
10
10
10
10
10
10
10
10
10
10
10
10
10
10
10
10
10
10
10
10
10
10
10
10
10
10
10
10
10
10
10
10
10
10
10
10
10
10
10
10
10
10
10
10
10
10
10
10
10
10
10
10
10
10
10
10
10
10
10
10
10
10
10
10
10
10
10
10
10
10
10
10
10
10
10
10
10
10
10
10
10
10
10
10
10
10
10
10
10
10
10
10
10
10
10
10
10
10
10
10
10
10
10
10
10
10
10
10
10
10
10
10
10
10
10
10
10
10
10
10
10
10
10
10
10
10
10
10
10
10
10
10
10
10
10
10
10
10
10
10
10
10
10
10
10
10
10
10
10
10
10
10
10
10
10
10
10
10
10
10
10
10
10
10
10
10
10
10
10
10
10
10
10
10
10
10
10
10
10
10
10
10
10
10
10
10
10
10
10
10
10
10
10
10
10
10
10
10
10
10
10
10
10
10
10
10
10
10
10
10
10
10
10
10
10
10
10
10
10
10
10
10
10
10
10
10
10
10
10
10
10
10
10
10
10
10
10
10
10
10
10
10
10
10
10
10
10
10
10
10
10
10
10
10
10
10
10
10
10
10
10
10
10
10
10
10
10
10
10
10
10
10
10
10
10
10
10
10
10
10
10
10
10
10
10
10
10
10
10
10
10
10
10
10
10
10
10
10
10
10
10
10
10
10
10
10
10
10
10
10
10
10
10
10
10
10
10
10
10
10
10
10
10
10
10
10
10
10
10
10
10
10
10
10
10
10
10
10
10
10
10
10
10
10
10
10
10
10
10
10
10
10
10
10
10
10
10
10
10
10
10
10
10
10
10
10
10
10
10
10
10
10
10
10
10
10
10
10
10
10
10
10
10
10
10
10
10
10
10
10
10
10
10
10
10
10
10
10
10
10
10
10
10
10
10
10
10
10
10
10
10
10
10
10
10
10
10
10
10
10
10
10
10
10
10
10
10
10
10
10
10
10
10
10
10
10
10
10
10
10
10
10
10
10
10
10
10
10
10
10
10
10
10
10
10
10
10
10
10
10
10
10
10
10
10
10
10
10
10
10
10
10
10
10
10
10
10
10
10
10
10
10
10
10
10
10
10
10
10
10
10
10
10
10
10
10
10
10
10
10
10
10
10
10
10
10
10
10
10
10
10
10
10
10
10
10
10
10
10
10
10
10
10
10
10
10
10
10
10
10
10
10
10
10
10
10
10
10
10
10
10
10
10
10
10
10
10
10
10
10
10
10
10
10
10
10
10
10
10
10
10
10
10
10
10
10
10
10
10
10
10
10
10
10
10
10
10
10
10
10
10
10
10
10
10
10
10
10
10
10
10
10
10
10
10
10
10
10
10
10
10
10
10
10
10
10
10
10
10
10
10
10
10
10
10
10
10
10
10
10
10
10
10
10
10
10
10
10
10
10
10
10
10
10
10
10
10
10
10
10
10
10
10
10
10
10
10
10
10
10
10
10
10
10
10
10
10
10
10
10
10
10
10
10
10
10
10
10
10
10
10
10
10
10
10
10
10
10
10
10
10
10
10
10
10
10
10
10
10
10
10
10
10
10
10
10
10
10
10
10
10
10
10
10
10
10
10
10
10
10
10
10
10
10
10
10
10
10
10
10
10
10
10
10
10
10
10
10
10
10
10
10
10
10
10
10
10
10
10
10
10
10
10
10
10
10
10
10
10
10
10
10
10
10
10
10
10
10
10
10
10
10
10
10
10
10
10
10
10
10
10
10
10
10
10
10
10
10
10
10
10
10
10
10
10
10
10
10
10
10
10
10
10
10
10
10
10
10
10
10
10
10
10
10
10
10
10
10
10
10
10
10
10
10
10
10
10
10
10
10
10
10
10
10
10
10
10
10
10
10
10
10
10
10
10
10
10
10
10
10
10
10
10
10
10
10
10
10
10
10
10
10
10
10
10
10
10
10
10
10
10
10
10
10
10
10
10
10
10
10
10
10
10
10
10
10
10
10
10
10
10
10
10
10
10
10
10
10
10
10
10
10
10
10
10
10
10
10
10
10
10
10
10
10
10
10
10
10
10
10
10
10
10
10
10
10
10
10
10
10
10
10
10
10
10
10
10
10
10
10
10
10
10
10
10
10
10
10
10
10
10
10
10
10
10
10
10
10
10
10
10
10
10
10
10
10
10
10
10
10
10
10
10
10
10
10
10
10
10
10
10
10
10
10
10
10
10
10
10
10
10
10
10
10
10
10
10
10
10
10
10
10
10
10
10
10
10
10
10
10
10
10
10
10
10
10
10
10
10
10
10
10
10
10
10
10
10
10
10
10
10
10
10
10
10
10
10
10
10
10
10
10
10
10
10
10
10
10
10
10
10
10
10
10
10
10
10
10
10
10
10
10
10
10
10
10
10
10
10
10
10
10
10
10
10
10
10
10
10
10
10
10
10
10
10
10
10
10
10
10
10
10
10
10
10
10
10
10
10
10
10
10
10
10
10
10
10
10
10
10
10
10
10
10
10
10
10
10
10
10
10
10
10
10
10
10
10
10
10
10
10
10
10
10
10
10
10
10
10
10
10
10
10
10
10
10
10
10
10
10
10
10
10
10
10
10
10
10
10
10
10
10
10
10
10
10
10
10
10
10
10
10
10
10
10
10
10
10
10
10
10
10
10
10
10
10
10
10
10
10
10
10
10
10
10
10
10
10
10
10
10
10
10
10
10
10
10
10
10
10
10
10
10
10
10
10
10
10
10
10
10
10
10
10
10
10
10
10
10
10
10
10
10
10
10
10
10
10
10
10
10
10
10
10
10
10
10
10
10
10
10
10
10
10
10
10
10
10
10
10
10
10
10
10
10
10
10
10
10
10
10
10
10
10
10
10
10
10
10
10
10
10
10
10
10
10
10
10
10
10
10
10
10
10
10
10
10
10
10
10
10
10
10
10
10
10
10
10
10
10
10
10
10
10
10
10
10
10
10
10
10
10
10
10
10
10
10
10
10
10
10
10
10
10
10
10
10
10
10
10
10
10
10
10
10
10
10
10
10
10
10
10
10
10
10
10
10
10
10
10
10
10
10
10
10
10
10
10
10
10
10
10
10
10
10
10
10
10
10
10
10
10
10
10
10
10
10
10
10
10
10
10
10
10
10
10
10
10
10
10
10
10
10
10
10
10
10
10
10
10
10
10
10
10
10
10
10
10
10
10
10
10
10
10
10
10
10
10
10
10
10
10
10
10
10
10
10
10
10
10
10
10
10
10
10
10
10
10
10
10
10
10
10
10
10
10
10
10
10
10
10
10
10
10
10
10
10
10
10
10
10
10
10
10
10
10
10
10
10
10
10
10
10
10
10
10
10
10
10
10
10
10
10
10
10
10
10
10
10
10
10
10
10
10
10
10
10
10
10
10
10
10
10
10
10
10
10
10
10
10
10
10
10
10
10
10
10
10
10
10
10
10
10
10
10
10
10
10
10
10
10
10
10
10
10
10
10
10
10
10
10
10
10
10
10
10
10
10
10
10
10
10
10
10
10
10
10
10
10
10
10
10
10
10
10
10
10
10
10
10
10
10
10
10
10
10
10
10
10
10
10
10
10
10
10
10
10
10
10
10
10
10
10
10
10
10
10
10
10
10
10
10
10
10
10
10
10
10
10
10
10
10
10
10
10
10
10
10
10
10
10
10
10
10
10
10
10
10
10
10
10
10
10
10
10
10
10
10
10
10
10
10
10
10
10
10
10
10
10
10
10
10
10
10
10
10
10
10
10
10
10
10
10
10
10
10
10
10
10
10
10
10
10
10
10
10
10
10
10
10
10
10
10
10
10
10
10
10
10
10
10
10
10
10
10
10
10
10
10
10
10
10
10
10
10
10
10
10
10
10
10
10
10
10
10
10
10
10
10
10
10
10
10
10
10
10
10
10
10
10
10
10
10
10
10
10
10
10
10
10
10
10
10
10
10
10
10
10
10
10
10
10
10
10
10
10
10
10
10
10
10
10
10
10
10
10
10
10
10
10
10
10
10
10
10
10
10
10
10
10
10
10
10
10
10
10
10
10
10
10
10
10
10
10
10
10
10
10
10
10
10
10
10
10
10
10
10
10
10
10
10
10
10
10
10
10
10
10
10
10
10
10
10
10
10
10
10
10
10
10
10
10
10
10
10
10
10
10
10
10
10
10
10
10
10
10
10
10
10
10
10
10
10
10
10
10
10
10
10
10
10
10
10
10
10
10
10
10
10
10
10
10
10
10
10
10
10
10
10
10
10
10
10
10
10
10
10
10
10
10
10
10
10
10
10
10
10
10
10
10
10
10
10
10
10
10
10
10
10
10
10
10
10
10
10
10
10
10
10
10
10
10
10
10
10
10
10
10
10
10
10
10
10
10
10
10
10
10
10
10
10
10
10
10
10
10
10
10
10
10
10
10
10
10
10
10
10
10
10
10
10
10
10
10
10
10
10
10
10
10
10
10
10
10
10
10
10
10
10
10
10
10
10
10
10
10
10
10
10
10
10
10
10
10
10
10
10
10
10
10
10
10
10
10
10
10
10
10
10
10
10
10
10
10
10
10
10
10
10
10
10
10
10
10
10
10
10
10
10
10
10
10
10
10
10
10
10
10
10
10
10
10
10
10
10
10
10
10
10
10
10
10
10
10
10
10
10
10
10
10
10
10
10
10
10
10
10
10
10
10
10
10
10
10
10
10
10
10
10
10
10
10
10
10
10
10
10
10
10
10
10
10
10
10
10
10
10
10
10
10
10
10
10
10
10
10
10
10
10
10
10
10
10
10
10
10
10
10
10
10
10
10
10
10
10
10
10
10
10
10
10
10
10
10
10
10
10
10
10
10
10
10
10
10
10
10
10
10
10
10
10
10
10
10
10
10
10
10
10
10
10
10
10
10
10
10
10
10
10
10
10
10
10
10
10
10
10
10
10
10
10
10
10
10
10
10
10
10
10
10
10
10
10
10
10
10
10
10
10
10
10
10
10
10
10
10
10
10
10
10
10
10
10
10
10
10
10
10
10
10
10
10
10
10
10
10
10
10
10
10
10
10
10
10
10
10
10
10
10
10
10
10
10
10
10
10
10
10
10
10
10
10
10
10
10
10
10
10
10
10
10
10
10
10
10
10
10
10
10
10
10
10
10
10
10
10
10
10
10
10
10
10
10
10
10
10
10
10
10
10
10
10
10
10
10
10
10
10
10
10
10
10
10
10
POINT_DATA      6894
VECTORS Velocities float 
     0.00000000     0.00000000     0.00000000
            NaN            NaN            NaN
            NaN            NaN            NaN
            NaN            NaN            NaN
            NaN            NaN            NaN
            NaN            NaN            NaN
            NaN            NaN            NaN
     0.00000000     0.00000000     0.00000000
            NaN            NaN            NaN
            NaN            NaN            NaN
            NaN            NaN            NaN
            NaN            NaN            NaN
            NaN            NaN            NaN
            NaN            NaN            NaN
            NaN            NaN            NaN
            NaN            NaN            NaN
            NaN            NaN            NaN
            NaN            NaN            NaN
            NaN            NaN            NaN
            NaN            NaN            NaN
     0.00000000     0.00000000     0.00000000
            NaN            NaN            NaN
            NaN            NaN            NaN
            NaN            NaN            NaN
            NaN            NaN            NaN
            NaN            NaN            NaN
            NaN            NaN            NaN
            NaN            NaN            NaN
            NaN            NaN            NaN
            NaN            NaN            NaN
            NaN            NaN            NaN
            NaN            NaN            NaN
            NaN            NaN            NaN
            NaN            NaN            NaN
            NaN            NaN            NaN
            NaN            NaN            NaN
     0.00000000     0.00000000     0.00000000
            NaN            NaN            NaN
            NaN            NaN            NaN
            NaN            NaN            NaN
            NaN            NaN            NaN
            NaN            NaN            NaN
     0.00000000     0.00000000     0.00000000
            NaN            NaN            NaN
            NaN            NaN            NaN
            NaN            NaN            NaN
            NaN            NaN            NaN
            NaN            NaN            NaN
            NaN            NaN            NaN
            NaN            NaN            NaN
            NaN            NaN            NaN
            NaN            NaN            NaN
            NaN            NaN            NaN
            NaN            NaN            NaN
            NaN            NaN            NaN
            NaN            NaN            NaN
            NaN            NaN            NaN
            NaN            NaN            NaN
            NaN            NaN            NaN
            NaN            NaN            NaN
            NaN            NaN            NaN
     0.00000000     0.00000000     0.00000000
            NaN            NaN            NaN
            NaN            NaN            NaN
            NaN            NaN            NaN
            NaN            NaN            NaN
     0.00000000     0.00000000     0.00000000
            NaN            NaN            NaN
            NaN            NaN            NaN
            NaN            NaN            NaN
            NaN            NaN            NaN
            NaN            NaN            NaN
            NaN            NaN            NaN
            NaN            NaN            NaN
            NaN            NaN            NaN
            NaN            NaN            NaN
            NaN            NaN            NaN
            NaN            NaN            NaN
            NaN            NaN            NaN
            NaN            NaN            NaN
            NaN            NaN            NaN
            NaN            NaN            NaN
            NaN            NaN            NaN
            NaN            NaN            NaN
            NaN            NaN            NaN
            NaN            NaN            NaN
            NaN            NaN            NaN
            NaN            NaN            NaN
            NaN            NaN            NaN
            NaN            NaN            NaN
            NaN            NaN            NaN
            NaN            NaN            NaN
            NaN            NaN            NaN
            NaN            NaN            NaN
            NaN            NaN            NaN
            NaN            NaN            NaN
            NaN            NaN            NaN
            NaN            NaN            NaN
     0.00000000     0.00000000     0.00000000
            NaN            NaN            NaN
            NaN            NaN            NaN
            NaN            NaN            NaN
            NaN            NaN            NaN
            NaN            NaN            NaN
            NaN            NaN            NaN
            NaN            NaN            NaN
            NaN            NaN            NaN
            NaN            NaN            NaN
            NaN            NaN            NaN
            NaN            NaN            NaN
            NaN            NaN            NaN
            NaN            NaN            NaN
            NaN            NaN            NaN
            NaN            NaN            NaN
            NaN            NaN            NaN
            NaN            NaN            NaN
            NaN            NaN            NaN
            NaN            NaN            NaN
            NaN            NaN            NaN
            NaN            NaN            NaN
            NaN            NaN            NaN
            NaN            NaN            NaN
     0.00000000     0.00000000     0.00000000
            NaN            NaN            NaN
            NaN            NaN            NaN
     0.00000000     0.00000000     0.00000000
     0.00000000     0.00000000     0.00000000
            NaN            NaN            NaN
            NaN            NaN            NaN
     0.00000000     0.00000000     0.00000000
            NaN            NaN            NaN
            NaN            NaN            NaN
            NaN            NaN            NaN
            NaN            NaN            NaN
            NaN            NaN            NaN
            NaN            NaN            NaN
            NaN            NaN            NaN
            NaN            NaN            NaN
            NaN            NaN            NaN
     0.00000000     0.00000000     0.00000000
            NaN            NaN            NaN
            NaN            NaN            NaN
            NaN            NaN            NaN
     0.00000000     0.00000000     0.00000000
            NaN            NaN            NaN
            NaN            NaN            NaN
            NaN            NaN            NaN
            NaN            NaN            NaN
            NaN            NaN            NaN
            NaN            NaN            NaN
            NaN            NaN            NaN
            NaN            NaN            NaN
            NaN            NaN            NaN
            NaN            NaN            NaN
            NaN            NaN            NaN
            NaN            NaN            NaN
            NaN            NaN            NaN
     0.00000000     0.00000000     0.00000000
            NaN            NaN            NaN
            NaN            NaN            NaN
     0.00000000     0.00000000     0.00000000
            NaN            NaN            NaN
            NaN            NaN            NaN
            NaN            NaN            NaN
            NaN            NaN            NaN
     0.00000000     0.00000000     0.00000000
            NaN            NaN            NaN
            NaN            NaN            NaN
            NaN            NaN            NaN
            NaN            NaN            NaN
            NaN            NaN            NaN
            NaN            NaN            NaN
            NaN            NaN            NaN
            NaN            NaN            NaN
     0.00000000     0.00000000     0.00000000
            NaN            NaN            NaN
            NaN            NaN            NaN
            NaN            NaN            NaN
            NaN            NaN            NaN
            NaN            NaN            NaN
     0.00000000     0.00000000     0.00000000
            NaN            NaN            NaN
            NaN            NaN            NaN
            NaN            NaN            NaN
            NaN            NaN            NaN
            NaN            NaN            NaN
            NaN            NaN            NaN
            NaN            NaN            NaN
            NaN            NaN            NaN
            NaN            NaN            NaN
            NaN            NaN            NaN
            NaN            NaN            NaN
            NaN            NaN            NaN
            NaN            NaN            NaN
            NaN            NaN            NaN
     0.00000000     0.00000000     0.00000000
            NaN            NaN            NaN
            NaN            NaN            NaN
            NaN            NaN            NaN
            NaN            NaN            NaN
            NaN            NaN            NaN
            NaN            NaN            NaN
            NaN            NaN            NaN
     0.00000000     0.00000000     0.00000000
            NaN            NaN            NaN
     0.00000000     0.00000000     0.00000000
     0.00000000     0.00000000     0.00000000
     0.00000000     0.00000000     0.00000000
     0.00000000     0.00000000     0.00000000
     0.00000000     0.00000000     0.00000000
     0.00000000     0.00000000     0.00000000
     0.00000000     0.00000000     0.00000000
     0.00000000     0.00000000     0.00000000
     0.00000000     0.00000000     0.00000000
     0.00000000     0.00000000     0.00000000
     0.00000000     0.00000000     0.00000000
     0.00000000     0.00000000     0.00000000
     0.00000000     0.00000000     0.00000000
     0.00000000     0.00000000     0.00000000
     0.00000000     0.00000000     0.00000000
     0.00000000     0.00000000     0.00000000
     0.00000000     0.00000000     0.00000000
     0.00000000     0.00000000     0.00000000
     0.00000000     0.00000000     0.00000000
     0.00000000     0.00000000     0.00000000
     0.00000000     0.00000000     0.00000000
     0.00000000     0.00000000     0.00000000
     0.00000000     0.00000000     0.00000000
     0.00000000     0.00000000     0.00000000
     0.00000000     0.00000000     0.00000000
     0.00000000     0.00000000     0.00000000
     0.00000000     0.00000000     0.00000000
     0.00000000     0.00000000     0.00000000
     0.00000000     0.00000000     0.00000000
     0.00000000     0.00000000     0.00000000
     0.00000000     0.00000000     0.00000000
     0.00000000     0.00000000     0.00000000
     0.00000000     0.00000000     0.00000000
     0.00000000     0.00000000     0.00000000
     0.00000000     0.00000000     0.00000000
     0.00000000     0.00000000     0.00000000
     0.00000000     0.00000000     0.00000000
     0.00000000     0.00000000     0.00000000
     0.00000000     0.00000000     0.00000000
     0.00000000     0.00000000     0.00000000
     0.00000000     0.00000000     0.00000000
     0.00000000     0.00000000     0.00000000
     0.00000000     0.00000000     0.00000000
     0.00000000     0.00000000     0.00000000
     0.00000000     0.00000000     0.00000000
     0.00000000     0.00000000     0.00000000
     0.00000000     0.00000000     0.00000000
     0.00000000     0.00000000     0.00000000
     0.00000000     0.00000000     0.00000000
     0.00000000     0.00000000     0.00000000
     0.00000000     0.00000000     0.00000000
     0.00000000     0.00000000     0.00000000
     0.00000000     0.00000000     0.00000000
     0.00000000     0.00000000     0.00000000
     0.00000000     0.00000000     0.00000000
     0.00000000     0.00000000     0.00000000
     0.00000000     0.00000000     0.00000000
     0.00000000     0.00000000     0.00000000
     0.00000000     0.00000000     0.00000000
     0.00000000     0.00000000     0.00000000
     0.00000000     0.00000000     0.00000000
     0.00000000     0.00000000     0.00000000
     0.00000000     0.00000000     0.00000000
     0.00000000     0.00000000     0.00000000
     0.00000000     0.00000000     0.00000000
     0.00000000     0.00000000     0.00000000
     0.00000000     0.00000000     0.00000000
     0.00000000     0.00000000     0.00000000
     0.00000000     0.00000000     0.00000000
     0.00000000     0.00000000     0.00000000
     0.00000000     0.00000000     0.00000000
     0.00000000     0.00000000     0.00000000
     0.00000000     0.00000000     0.00000000
     0.00000000     0.00000000     0.00000000
     0.00000000     0.00000000     0.00000000
     0.00000000     0.00000000     0.00000000
     0.00000000     0.00000000     0.00000000
     0.00000000     0.00000000     0.00000000
     0.00000000     0.00000000     0.00000000
     0.00000000     0.00000000     0.00000000
     0.00000000     0.00000000     0.00000000
     0.00000000     0.00000000     0.00000000
     0.00000000     0.00000000     0.00000000
     0.00000000     0.00000000     0.00000000
     0.00000000     0.00000000     0.00000000
     0.00000000     0.00000000     0.00000000
     0.00000000     0.00000000     0.00000000
     0.00000000     0.00000000     0.00000000
     0.00000000     0.00000000     0.00000000
     0.00000000     0.00000000     0.00000000
     0.00000000     0.00000000     0.00000000
     0.00000000     0.00000000     0.00000000
     0.00000000     0.00000000     0.00000000
     0.00000000     0.00000000     0.00000000
     0.00000000     0.00000000     0.00000000
     0.00000000     0.00000000     0.00000000
     0.00000000     0.00000000     0.00000000
     0.00000000     0.00000000     0.00000000
     0.00000000     0.00000000     0.00000000
     0.00000000     0.00000000     0.00000000
     0.00000000     0.00000000     0.00000000
     0.00000000     0.00000000     0.00000000
     0.00000000     0.00000000     0.00000000
     0.00000000     0.00000000     0.00000000
     0.00000000     0.00000000     0.00000000
     0.00000000     0.00000000     0.00000000
     0.00000000     0.00000000     0.00000000
     0.00000000     0.00000000     0.00000000
     0.00000000     0.00000000     0.00000000
     0.00000000     0.00000000     0.00000000
     0.00000000     0.00000000     0.00000000
     0.00000000     0.00000000     0.00000000
     0.00000000     0.00000000     0.00000000
     0.00000000     0.00000000     0.00000000
     0.00000000     0.00000000     0.00000000
     0.00000000     0.00000000     0.00000000
     0.00000000     0.00000000     0.00000000
     0.00000000     0.00000000     0.00000000
     0.00000000     0.00000000     0.00000000
     0.00000000     0.00000000     0.00000000
     0.00000000     0.00000000     0.00000000
     0.00000000     0.00000000     0.00000000
     0.00000000     0.00000000     0.00000000
     0.00000000     0.00000000     0.00000000
     0.00000000     0.00000000     0.00000000
     0.00000000     0.00000000     0.00000000
     0.00000000     0.00000000     0.00000000
     0.00000000     0.00000000     0.00000000
     0.00000000     0.00000000     0.00000000
     0.00000000     0.00000000     0.00000000
     0.00000000     0.00000000     0.00000000
     0.00000000     0.00000000     0.00000000
     0.00000000     0.00000000     0.00000000
     0.00000000     0.00000000     0.00000000
     0.00000000     0.00000000     0.00000000
     0.00000000     0.00000000     0.00000000
     0.00000000     0.00000000     0.00000000
     0.00000000     0.00000000     0.00000000
     0.00000000     0.00000000     0.00000000
     0.00000000     0.00000000     0.00000000
     0.00000000     0.00000000     0.00000000
     0.00000000     0.00000000     0.00000000
     0.00000000     0.00000000     0.00000000
     0.00000000     0.00000000     0.00000000
     0.00000000     0.00000000     0.00000000
     0.00000000     0.00000000     0.00000000
     0.00000000     0.00000000     0.00000000
     0.00000000     0.00000000     0.00000000
     0.00000000     0.00000000     0.00000000
     0.00000000     0.00000000     0.00000000
     0.00000000     0.00000000     0.00000000
     0.00000000     0.00000000     0.00000000
     0.00000000     0.00000000     0.00000000
     0.00000000     0.00000000     0.00000000
     0.00000000     0.00000000     0.00000000
     0.00000000     0.00000000     0.00000000
     0.00000000     0.00000000     0.00000000
     0.00000000     0.00000000     0.00000000
     0.00000000     0.00000000     0.00000000
     0.00000000     0.00000000     0.00000000
     0.00000000     0.00000000     0.00000000
     0.00000000     0.00000000     0.00000000
     0.00000000     0.00000000     0.00000000
     0.00000000     0.00000000     0.00000000
     0.00000000     0.00000000     0.00000000
     0.00000000     0.00000000     0.00000000
     0.00000000     0.00000000     0.00000000
     0.00000000     0.00000000     0.00000000
     0.00000000     0.00000000     0.00000000
     0.00000000     0.00000000     0.00000000
     0.00000000     0.00000000     0.00000000
     0.00000000     0.00000000     0.00000000
     0.00000000     0.00000000     0.00000000
     0.00000000     0.00000000     0.00000000
     0.00000000     0.00000000     0.00000000
     0.00000000     0.00000000     0.00000000
     0.00000000     0.00000000     0.00000000
     0.00000000     0.00000000     0.00000000
     0.00000000     0.00000000     0.00000000
     0.00000000     0.00000000     0.00000000
     0.00000000     0.00000000     0.00000000
     0.00000000     0.00000000     0.00000000
     0.00000000     0.00000000     0.00000000
     0.00000000     0.00000000     0.00000000
     0.00000000     0.00000000     0.00000000
     0.00000000     0.00000000     0.00000000
     0.00000000     0.00000000     0.00000000
     0.00000000     0.00000000     0.00000000
     0.00000000     0.00000000     0.00000000
     0.00000000     0.00000000     0.00000000
     0.00000000     0.00000000     0.00000000
     0.00000000     0.00000000     0.00000000
     0.00000000     0.00000000     0.00000000
     0.00000000     0.00000000     0.00000000
     0.00000000     0.00000000     0.00000000
     0.00000000     0.00000000     0.00000000
     0.00000000     0.00000000     0.00000000
     0.00000000     0.00000000     0.00000000
     0.00000000     0.00000000     0.00000000
     0.00000000     0.00000000     0.00000000
     0.00000000     0.00000000     0.00000000
     0.00000000     0.00000000     0.00000000
     0.00000000     0.00000000     0.00000000
     0.00000000     0.00000000     0.00000000
     0.00000000     0.00000000     0.00000000
     0.00000000     0.00000000     0.00000000
     0.00000000     0.00000000     0.00000000
     0.00000000     0.00000000     0.00000000
     0.00000000     0.00000000     0.00000000
     0.00000000     0.00000000     0.00000000
     0.00000000     0.00000000     0.00000000
     0.00000000     0.00000000     0.00000000
     0.00000000     0.00000000     0.00000000
     0.00000000     0.00000000     0.00000000
     0.00000000     0.00000000     0.00000000
     0.00000000     0.00000000     0.00000000
     0.00000000     0.00000000     0.00000000
     0.00000000     0.00000000     0.00000000
     0.00000000     0.00000000     0.00000000
     0.00000000     0.00000000     0.00000000
     0.00000000     0.00000000     0.00000000
     0.00000000     0.00000000     0.00000000
     0.00000000     0.00000000     0.00000000
     0.00000000     0.00000000     0.00000000
     0.00000000     0.00000000     0.00000000
     0.00000000     0.00000000     0.00000000
     0.00000000     0.00000000     0.00000000
     0.00000000     0.00000000     0.00000000
     0.00000000     0.00000000     0.00000000
     0.00000000     0.00000000     0.00000000
     0.00000000     0.00000000     0.00000000
     0.00000000     0.00000000     0.00000000
     0.00000000     0.00000000     0.00000000
     0.00000000     0.00000000     0.00000000
     0.00000000     0.00000000     0.00000000
     0.00000000     0.00000000     0.00000000
     0.00000000     0.00000000     0.00000000
     0.00000000     0.00000000     0.00000000
     0.00000000     0.00000000     0.00000000
     0.00000000     0.00000000     0.00000000
     0.00000000     0.00000000     0.00000000
     0.00000000     0.00000000     0.00000000
     0.00000000     0.00000000     0.00000000
     0.00000000     0.00000000     0.00000000
     0.00000000     0.00000000     0.00000000
     0.00000000     0.00000000     0.00000000
     0.00000000     0.00000000     0.00000000
     0.00000000     0.00000000     0.00000000
     0.00000000     0.00000000     0.00000000
     0.00000000     0.00000000     0.00000000
     0.00000000     0.00000000     0.00000000
     0.00000000     0.00000000     0.00000000
     0.00000000     0.00000000     0.00000000
     0.00000000     0.00000000     0.00000000
     0.00000000     0.00000000     0.00000000
     0.00000000     0.00000000     0.00000000
     0.00000000     0.00000000     0.00000000
     0.00000000     0.00000000     0.00000000
     0.00000000     0.00000000     0.00000000
     0.00000000     0.00000000     0.00000000
     0.00000000     0.00000000     0.00000000
     0.00000000     0.00000000     0.00000000
     0.00000000     0.00000000     0.00000000
     0.00000000     0.00000000     0.00000000
     0.00000000     0.00000000     0.00000000
     0.00000000     0.00000000     0.00000000
     0.00000000     0.00000000     0.00000000
     0.00000000     0.00000000     0.00000000
     0.00000000     0.00000000     0.00000000
     0.00000000     0.00000000     0.00000000
     0.00000000     0.00000000     0.00000000
     0.00000000     0.00000000     0.00000000
     0.00000000     0.00000000     0.00000000
     0.00000000     0.00000000     0.00000000
     0.00000000     0.00000000     0.00000000
     0.00000000     0.00000000     0.00000000
     0.00000000     0.00000000     0.00000000
     0.00000000     0.00000000     0.00000000
     0.00000000     0.00000000     0.00000000
     0.00000000     0.00000000     0.00000000
     0.00000000     0.00000000     0.00000000
     0.00000000     0.00000000     0.00000000
     0.00000000     0.00000000     0.00000000
     0.00000000     0.00000000     0.00000000
     0.00000000     0.00000000     0.00000000
     0.00000000     0.00000000     0.00000000
     0.00000000     0.00000000     0.00000000
     0.00000000     0.00000000     0.00000000
     0.00000000     0.00000000     0.00000000
     0.00000000     0.00000000     0.00000000
     0.00000000     0.00000000     0.00000000
     0.00000000     0.00000000     0.00000000
     0.00000000     0.00000000     0.00000000
     0.00000000     0.00000000     0.00000000
     0.00000000     0.00000000     0.00000000
     0.00000000     0.00000000     0.00000000
     0.00000000     0.00000000     0.00000000
     0.00000000     0.00000000     0.00000000
     0.00000000     0.00000000     0.00000000
     0.00000000     0.00000000     0.00000000
     0.00000000     0.00000000     0.00000000
     0.00000000     0.00000000     0.00000000
     0.00000000     0.00000000     0.00000000
     0.00000000     0.00000000     0.00000000
     0.00000000     0.00000000     0.00000000
     0.00000000     0.00000000     0.00000000
     0.00000000     0.00000000     0.00000000
     0.00000000     0.00000000     0.00000000
     0.00000000     0.00000000     0.00000000
     0.00000000     0.00000000     0.00000000
     0.00000000     0.00000000     0.00000000
     0.00000000     0.00000000     0.00000000
     0.00000000     0.00000000     0.00000000
     0.00000000     0.00000000     0.00000000
     0.00000000     0.00000000     0.00000000
     0.00000000     0.00000000     0.00000000
     0.00000000     0.00000000     0.00000000
     0.00000000     0.00000000     0.00000000
     0.00000000     0.00000000     0.00000000
     0.00000000     0.00000000     0.00000000
     0.00000000     0.00000000     0.00000000
     0.00000000     0.00000000     0.00000000
     0.00000000     0.00000000     0.00000000
     0.00000000     0.00000000     0.00000000
     0.00000000     0.00000000     0.00000000
     0.00000000     0.00000000     0.00000000
     0.00000000     0.00000000     0.00000000
     0.00000000     0.00000000     0.00000000
     0.00000000     0.00000000     0.00000000
     0.00000000     0.00000000     0.00000000
     0.00000000     0.00000000     0.00000000
     0.00000000     0.00000000     0.00000000
     0.00000000     0.00000000     0.00000000
     0.00000000     0.00000000     0.00000000
     0.00000000     0.00000000     0.00000000
     0.00000000     0.00000000     0.00000000
     0.00000000     0.00000000     0.00000000
     0.00000000     0.00000000     0.00000000
     0.00000000     0.00000000     0.00000000
     0.00000000     0.00000000     0.00000000
     0.00000000     0.00000000     0.00000000
     0.00000000     0.00000000     0.00000000
     0.00000000     0.00000000     0.00000000
     0.00000000     0.00000000     0.00000000
     0.00000000     0.00000000     0.00000000
     0.00000000     0.00000000     0.00000000
     0.00000000     0.00000000     0.00000000
     0.00000000     0.00000000     0.00000000
     0.00000000     0.00000000     0.00000000
     0.00000000     0.00000000     0.00000000
     0.00000000     0.00000000     0.00000000
     0.00000000     0.00000000     0.00000000
     0.00000000     0.00000000     0.00000000
     0.00000000     0.00000000     0.00000000
     0.00000000     0.00000000     0.00000000
     0.00000000     0.00000000     0.00000000
     0.00000000     0.00000000     0.00000000
     0.00000000     0.00000000     0.00000000
     0.00000000     0.00000000     0.00000000
     0.00000000     0.00000000     0.00000000
     0.00000000     0.00000000     0.00000000
     0.00000000     0.00000000     0.00000000
     0.00000000     0.00000000     0.00000000
     0.00000000     0.00000000     0.00000000
     0.00000000     0.00000000     0.00000000
     0.00000000     0.00000000     0.00000000
     0.00000000     0.00000000     0.00000000
     0.00000000     0.00000000     0.00000000
     0.00000000     0.00000000     0.00000000
     0.00000000     0.00000000     0.00000000
     0.00000000     0.00000000     0.00000000
     0.00000000     0.00000000     0.00000000
     0.00000000     0.00000000     0.00000000
     0.00000000     0.00000000     0.00000000
     0.00000000     0.00000000     0.00000000
     0.00000000     0.00000000     0.00000000
     0.00000000     0.00000000     0.00000000
     0.00000000     0.00000000     0.00000000
     0.00000000     0.00000000     0.00000000
     0.00000000     0.00000000     0.00000000
     0.00000000     0.00000000     0.00000000
     0.00000000     0.00000000     0.00000000
     0.00000000     0.00000000     0.00000000
     0.00000000     0.00000000     0.00000000
     0.00000000     0.00000000     0.00000000
     0.00000000     0.00000000     0.00000000
     0.00000000     0.00000000     0.00000000
     0.00000000     0.00000000     0.00000000
     0.00000000     0.00000000     0.00000000
     0.00000000     0.00000000     0.00000000
     0.00000000     0.00000000     0.00000000
     0.00000000     0.00000000     0.00000000
     0.00000000     0.00000000     0.00000000
     0.00000000     0.00000000     0.00000000
     0.00000000     0.00000000     0.00000000
     0.00000000     0.00000000     0.00000000
     0.00000000     0.00000000     0.00000000
     0.00000000     0.00000000     0.00000000
     0.00000000     0.00000000     0.00000000
     0.00000000     0.00000000     0.00000000
     0.00000000     0.00000000     0.00000000
     0.00000000     0.00000000     0.00000000
     0.00000000     0.00000000     0.00000000
     0.00000000     0.00000000     0.00000000
     0.00000000     0.00000000     0.00000000
     0.00000000     0.00000000     0.00000000
     0.00000000     0.00000000     0.00000000
     0.00000000     0.00000000     0.00000000
     0.00000000     0.00000000     0.00000000
     0.00000000     0.00000000     0.00000000
     0.00000000     0.00000000     0.00000000
     0.00000000     0.00000000     0.00000000
     0.00000000     0.00000000     0.00000000
     0.00000000     0.00000000     0.00000000
     0.00000000     0.00000000     0.00000000
     0.00000000     0.00000000     0.00000000
     0.00000000     0.00000000     0.00000000
     0.00000000     0.00000000     0.00000000
     0.00000000     0.00000000     0.00000000
     0.00000000     0.00000000     0.00000000
     0.00000000     0.00000000     0.00000000
     0.00000000     0.00000000     0.00000000
     0.00000000     0.00000000     0.00000000
     0.00000000     0.00000000     0.00000000
     0.00000000     0.00000000     0.00000000
     0.00000000     0.00000000     0.00000000
     0.00000000     0.00000000     0.00000000
     0.00000000     0.00000000     0.00000000
     0.00000000     0.00000000     0.00000000
     0.00000000     0.00000000     0.00000000
     0.00000000     0.00000000     0.00000000
     0.00000000     0.00000000     0.00000000
     0.00000000     0.00000000     0.00000000
     0.00000000     0.00000000     0.00000000
     0.00000000     0.00000000     0.00000000
     0.00000000     0.00000000     0.00000000
     0.00000000     0.00000000     0.00000000
     0.00000000     0.00000000     0.00000000
     0.00000000     0.00000000     0.00000000
     0.00000000     0.00000000     0.00000000
     0.00000000     0.00000000     0.00000000
     0.00000000     0.00000000     0.00000000
     0.00000000     0.00000000     0.00000000
     0.00000000     0.00000000     0.00000000
     0.00000000     0.00000000     0.00000000
     0.00000000     0.00000000     0.00000000
     0.00000000     0.00000000     0.00000000
     0.00000000     0.00000000     0.00000000
     0.00000000     0.00000000     0.00000000
     0.00000000     0.00000000     0.00000000
     0.00000000     0.00000000     0.00000000
     0.00000000     0.00000000     0.00000000
     0.00000000     0.00000000     0.00000000
     0.00000000     0.00000000     0.00000000
     0.00000000     0.00000000     0.00000000
     0.00000000     0.00000000     0.00000000
     0.00000000     0.00000000     0.00000000
     0.00000000     0.00000000     0.00000000
     0.00000000     0.00000000     0.00000000
     0.00000000     0.00000000     0.00000000
     0.00000000     0.00000000     0.00000000
     0.00000000     0.00000000     0.00000000
     0.00000000     0.00000000     0.00000000
     0.00000000     0.00000000     0.00000000
     0.00000000     0.00000000     0.00000000
     0.00000000     0.00000000     0.00000000
     0.00000000     0.00000000     0.00000000
     0.00000000     0.00000000     0.00000000
     0.00000000     0.00000000     0.00000000
     0.00000000     0.00000000     0.00000000
     0.00000000     0.00000000     0.00000000
     0.00000000     0.00000000     0.00000000
     0.00000000     0.00000000     0.00000000
     0.00000000     0.00000000     0.00000000
     0.00000000     0.00000000     0.00000000
     0.00000000     0.00000000     0.00000000
     0.00000000     0.00000000     0.00000000
     0.00000000     0.00000000     0.00000000
     0.00000000     0.00000000     0.00000000
     0.00000000     0.00000000     0.00000000
     0.00000000     0.00000000     0.00000000
     0.00000000     0.00000000     0.00000000
     0.00000000     0.00000000     0.00000000
     0.00000000     0.00000000     0.00000000
     0.00000000     0.00000000     0.00000000
     0.00000000     0.00000000     0.00000000
     0.00000000     0.00000000     0.00000000
     0.00000000     0.00000000     0.00000000
     0.00000000     0.00000000     0.00000000
     0.00000000     0.00000000     0.00000000
     0.00000000     0.00000000     0.00000000
     0.00000000     0.00000000     0.00000000
     0.00000000     0.00000000     0.00000000
     0.00000000     0.00000000     0.00000000
     0.00000000     0.00000000     0.00000000
     0.00000000     0.00000000     0.00000000
     0.00000000     0.00000000     0.00000000
     0.00000000     0.00000000     0.00000000
     0.00000000     0.00000000     0.00000000
     0.00000000     0.00000000     0.00000000
     0.00000000     0.00000000     0.00000000
     0.00000000     0.00000000     0.00000000
     0.00000000     0.00000000     0.00000000
     0.00000000     0.00000000     0.00000000
     0.00000000     0.00000000     0.00000000
     0.00000000     0.00000000     0.00000000
     0.00000000     0.00000000     0.00000000
     0.00000000     0.00000000     0.00000000
     0.00000000     0.00000000     0.00000000
     0.00000000     0.00000000     0.00000000
     0.00000000     0.00000000     0.00000000
     0.00000000     0.00000000     0.00000000
     0.00000000     0.00000000     0.00000000
     0.00000000     0.00000000     0.00000000
     0.00000000     0.00000000     0.00000000
     0.00000000     0.00000000     0.00000000
     0.00000000     0.00000000     0.00000000
     0.00000000     0.00000000     0.00000000
     0.00000000     0.00000000     0.00000000
     0.00000000     0.00000000     0.00000000
     0.00000000     0.00000000     0.00000000
     0.00000000     0.00000000     0.00000000
     0.00000000     0.00000000     0.00000000
     0.00000000     0.00000000     0.00000000
     0.00000000     0.00000000     0.00000000
     0.00000000     0.00000000     0.00000000
     0.00000000     0.00000000     0.00000000
     0.00000000     0.00000000     0.00000000
     0.00000000     0.00000000     0.00000000
     0.00000000     0.00000000     0.00000000
     0.00000000     0.00000000     0.00000000
     0.00000000     0.00000000     0.00000000
     0.00000000     0.00000000     0.00000000
     0.00000000     0.00000000     0.00000000
     0.00000000     0.00000000     0.00000000
     0.00000000     0.00000000     0.00000000
     0.00000000     0.00000000     0.00000000
     0.00000000     0.00000000     0.00000000
     0.00000000     0.00000000     0.00000000
     0.00000000     0.00000000     0.00000000
     0.00000000     0.00000000     0.00000000
     0.00000000     0.00000000     0.00000000
     0.00000000     0.00000000     0.00000000
     0.00000000     0.00000000     0.00000000
     0.00000000     0.00000000     0.00000000
     0.00000000     0.00000000     0.00000000
     0.00000000     0.00000000     0.00000000
     0.00000000     0.00000000     0.00000000
     0.00000000     0.00000000     0.00000000
     0.00000000     0.00000000     0.00000000
     0.00000000     0.00000000     0.00000000
     0.00000000     0.00000000     0.00000000
     0.00000000     0.00000000     0.00000000
     0.00000000     0.00000000     0.00000000
     0.00000000     0.00000000     0.00000000
     0.00000000     0.00000000     0.00000000
     0.00000000     0.00000000     0.00000000
     0.00000000     0.00000000     0.00000000
     0.00000000     0.00000000     0.00000000
     0.00000000     0.00000000     0.00000000
     0.00000000     0.00000000     0.00000000
     0.00000000     0.00000000     0.00000000
     0.00000000     0.00000000     0.00000000
     0.00000000     0.00000000     0.00000000
     0.00000000     0.00000000     0.00000000
     0.00000000     0.00000000     0.00000000
     0.00000000     0.00000000     0.00000000
     0.00000000     0.00000000     0.00000000
     0.00000000     0.00000000     0.00000000
     0.00000000     0.00000000     0.00000000
     0.00000000     0.00000000     0.00000000
     0.00000000     0.00000000     0.00000000
     0.00000000     0.00000000     0.00000000
     0.00000000     0.00000000     0.00000000
     0.00000000     0.00000000     0.00000000
     0.00000000     0.00000000     0.00000000
     0.00000000     0.00000000     0.00000000
     0.00000000     0.00000000     0.00000000
     0.00000000     0.00000000     0.00000000
     0.00000000     0.00000000     0.00000000
     0.00000000     0.00000000     0.00000000
     0.00000000     0.00000000     0.00000000
     0.00000000     0.00000000     0.00000000
     0.00000000     0.00000000     0.00000000
     0.00000000     0.00000000     0.00000000
     0.00000000     0.00000000     0.00000000
     0.00000000     0.00000000     0.00000000
     0.00000000     0.00000000     0.00000000
     0.00000000     0.00000000     0.00000000
     0.00000000     0.00000000     0.00000000
     0.00000000     0.00000000     0.00000000
     0.00000000     0.00000000     0.00000000
     0.00000000     0.00000000     0.00000000
     0.00000000     0.00000000     0.00000000
     0.00000000     0.00000000     0.00000000
     0.00000000     0.00000000     0.00000000
            NaN            NaN            NaN
            NaN            NaN            NaN
            NaN            NaN            NaN
            NaN            NaN            NaN
            NaN            NaN            NaN
            NaN            NaN            NaN
            NaN            NaN            NaN
            NaN            NaN            NaN
            NaN            NaN            NaN
            NaN            NaN            NaN
            NaN            NaN            NaN
            NaN            NaN            NaN
            NaN            NaN            NaN
            NaN            NaN            NaN
            NaN            NaN            NaN
            NaN            NaN            NaN
            NaN            NaN            NaN
            NaN            NaN            NaN
            NaN            NaN            NaN
     0.00000000     0.00000000     0.00000000
            NaN            NaN            NaN
            NaN            NaN            NaN
            NaN            NaN            NaN
     0.00000000     0.00000000     0.00000000
            NaN            NaN            NaN
            NaN            NaN            NaN
            NaN            NaN            NaN
            NaN            NaN            NaN
            NaN            NaN            NaN
            NaN            NaN            NaN
            NaN            NaN            NaN
            NaN            NaN            NaN
            NaN            NaN            NaN
            NaN            NaN            NaN
            NaN            NaN            NaN
            NaN            NaN            NaN
            NaN            NaN            NaN
            NaN            NaN            NaN
            NaN            NaN            NaN
            NaN            NaN            NaN
            NaN            NaN            NaN
            NaN            NaN            NaN
            NaN            NaN            NaN
            NaN            NaN            NaN
            NaN            NaN            NaN
            NaN            NaN            NaN
            NaN            NaN            NaN
            NaN            NaN            NaN
     0.00000000     0.00000000     0.00000000
            NaN            NaN            NaN
            NaN            NaN            NaN
            NaN            NaN            NaN
            NaN            NaN            NaN
            NaN            NaN            NaN
            NaN            NaN            NaN
            NaN            NaN            NaN
            NaN            NaN            NaN
     0.00000000     0.00000000     0.00000000
     0.00000000     0.00000000     0.00000000
            NaN            NaN            NaN
            NaN            NaN            NaN
            NaN            NaN            NaN
            NaN            NaN            NaN
            NaN            NaN            NaN
     0.00000000     0.00000000     0.00000000
            NaN            NaN            NaN
            NaN            NaN            NaN
            NaN            NaN            NaN
            NaN            NaN            NaN
            NaN            NaN            NaN
            NaN            NaN            NaN
            NaN            NaN            NaN
            NaN            NaN            NaN
            NaN            NaN            NaN
            NaN            NaN            NaN
            NaN            NaN            NaN
            NaN            NaN            NaN
            NaN            NaN            NaN
            NaN            NaN            NaN
            NaN            NaN            NaN
     0.00000000     0.00000000     0.00000000
     0.00000000     0.00000000     0.00000000
     0.00000000     0.00000000     0.00000000
     2.10871481     1.42006669    -3.08816004
     2.10878370     1.42002160    -3.08813374
     0.00000000     0.00000000     0.00000000
     0.00000000     0.00000000     0.00000000
     2.10869455     1.42002203    -3.08819441
     0.00000000     0.00000000     0.00000000
     2.10870507     1.42012370    -3.08814048
     2.10872956     1.42007614    -3.08814562
     2.10875936     1.42005969    -3.08813284
     2.10873509     1.42006402    -3.08814742
     2.10876022     1.42005181    -3.08813588
     2.10881582     1.41999145    -3.08812567
     2.10871076     1.42004473    -3.08817291
     2.10870695     1.42006181    -3.08816766
     0.00000000     0.00000000     0.00000000
            NaN            NaN            NaN
            NaN            NaN            NaN
            NaN            NaN            NaN
            NaN            NaN            NaN
            NaN            NaN            NaN
            NaN            NaN            NaN
            NaN            NaN            NaN
            NaN            NaN            NaN
            NaN            NaN            NaN
            NaN            NaN            NaN
            NaN            NaN            NaN
            NaN            NaN            NaN
            NaN            NaN            NaN
            NaN            NaN            NaN
     0.00000000     0.00000000     0.00000000
     0.00000000     0.00000000     0.00000000
            NaN            NaN            NaN
            NaN            NaN            NaN
            NaN            NaN            NaN
            NaN            NaN            NaN
            NaN            NaN            NaN
            NaN            NaN            NaN
            NaN            NaN            NaN
     0.00000000     0.00000000     0.00000000
     0.00000000     0.00000000     0.00000000
     0.00000000     0.00000000     0.00000000
     0.00000000     0.00000000     0.00000000
            NaN            NaN            NaN
            NaN            NaN            NaN
            NaN            NaN            NaN
            NaN            NaN            NaN
     0.00000000     0.00000000     0.00000000
            NaN            NaN            NaN
            NaN            NaN            NaN
            NaN            NaN            NaN
     0.00000000     0.00000000     0.00000000
     0.00000000     0.00000000     0.00000000
            NaN            NaN            NaN
     0.00000000     0.00000000     0.00000000
            NaN            NaN            NaN
            NaN            NaN            NaN
     0.00000000     0.00000000     0.00000000
            NaN            NaN            NaN
            NaN            NaN            NaN
     0.00000000     0.00000000     0.00000000
            NaN            NaN            NaN
            NaN            NaN            NaN
     0.00000000     0.00000000     0.00000000
            NaN            NaN            NaN
            NaN            NaN            NaN
            NaN            NaN            NaN
            NaN            NaN            NaN
            NaN            NaN            NaN
            NaN            NaN            NaN
            NaN            NaN            NaN
            NaN            NaN            NaN
            NaN            NaN            NaN
            NaN            NaN            NaN
            NaN            NaN            NaN
            NaN            NaN            NaN
            NaN            NaN            NaN
            NaN            NaN            NaN
            NaN            NaN            NaN
            NaN            NaN            NaN
            NaN            NaN            NaN
     0.00000000     0.00000000     0.00000000
            NaN            NaN            NaN
            NaN            NaN            NaN
            NaN            NaN            NaN
            NaN            NaN            NaN
     0.00000000     0.00000000     0.00000000
     0.00000000     0.00000000     0.00000000
            NaN            NaN            NaN
            NaN            NaN            NaN
            NaN            NaN            NaN
            NaN            NaN            NaN
            NaN            NaN            NaN
            NaN            NaN            NaN
            NaN            NaN            NaN
            NaN            NaN            NaN
            NaN            NaN            NaN
            NaN            NaN            NaN
            NaN            NaN            NaN
            NaN            NaN            NaN
     0.00000000     0.00000000     0.00000000
            NaN            NaN            NaN
            NaN            NaN            NaN
            NaN            NaN            NaN
            NaN            NaN            NaN
            NaN            NaN            NaN
            NaN            NaN            NaN
            NaN            NaN            NaN
            NaN            NaN            NaN
            NaN            NaN            NaN
            NaN            NaN            NaN
            NaN            NaN            NaN
            NaN            NaN            NaN
            NaN            NaN            NaN
            NaN            NaN            NaN
            NaN            NaN            NaN
            NaN            NaN            NaN
            NaN            NaN            NaN
            NaN            NaN            NaN
            NaN            NaN            NaN
            NaN            NaN            NaN
            NaN            NaN            NaN
            NaN            NaN            NaN
            NaN            NaN            NaN
            NaN            NaN            NaN
            NaN            NaN            NaN
     0.00000000     0.00000000     0.00000000
     0.00000000     0.00000000     0.00000000
            NaN            NaN            NaN
            NaN            NaN            NaN
            NaN            NaN            NaN
            NaN            NaN            NaN
            NaN            NaN            NaN
            NaN            NaN            NaN
            NaN            NaN            NaN
            NaN            NaN            NaN
            NaN            NaN            NaN
            NaN            NaN            NaN
            NaN            NaN            NaN
            NaN            NaN            NaN
            NaN            NaN            NaN
            NaN            NaN            NaN
            NaN            NaN            NaN
            NaN            NaN            NaN
            NaN            NaN            NaN
            NaN            NaN            NaN
            NaN            NaN            NaN
            NaN            NaN            NaN
            NaN            NaN            NaN
            NaN            NaN            NaN
            NaN            NaN            NaN
            NaN            NaN            NaN
            NaN            NaN            NaN
            NaN            NaN            NaN
            NaN            NaN            NaN
            NaN            NaN            NaN
            NaN            NaN            NaN
            NaN            NaN            NaN
            NaN            NaN            NaN
            NaN            NaN            NaN
            NaN            NaN            NaN
     0.00000000     0.00000000     0.00000000
            NaN            NaN            NaN
            NaN            NaN            NaN
            NaN            NaN            NaN
            NaN            NaN            NaN
            NaN            NaN            NaN
            NaN            NaN            NaN
     0.00000000     0.00000000     0.00000000
     0.00000000     0.00000000     0.00000000
            NaN            NaN            NaN
            NaN            NaN            NaN
            NaN            NaN            NaN
            NaN            NaN            NaN
            NaN            NaN            NaN
            NaN            NaN            NaN
            NaN            NaN            NaN
            NaN            NaN            NaN
     0.00000000     0.00000000     0.00000000
            NaN            NaN            NaN
            NaN            NaN            NaN
            NaN            NaN            NaN
            NaN            NaN            NaN
            NaN            NaN            NaN
            NaN            NaN            NaN
            NaN            NaN            NaN
            NaN            NaN            NaN
            NaN            NaN            NaN
            NaN            NaN            NaN
     0.00000000     0.00000000     0.00000000
     0.00000000     0.00000000     0.00000000
     0.00000000     0.00000000     0.00000000
     0.00000000     0.00000000     0.00000000
            NaN            NaN            NaN
     0.00000000     0.00000000     0.00000000
     0.00000000     0.00000000     0.00000000
     0.00000000     0.00000000     0.00000000
            NaN            NaN            NaN
     0.00000000     0.00000000     0.00000000
            NaN            NaN            NaN
            NaN            NaN            NaN
     0.00000000     0.00000000     0.00000000
     0.00000000     0.00000000     0.00000000
     0.00000000     0.00000000     0.00000000
     0.00000000     0.00000000     0.00000000
     0.00000000     0.00000000     0.00000000
     0.00000000     0.00000000     0.00000000
     0.00000000     0.00000000     0.00000000
     0.00000000     0.00000000     0.00000000
     0.00000000     0.00000000     0.00000000
            NaN            NaN            NaN
            NaN            NaN            NaN
            NaN            NaN            NaN
     0.00000000     0.00000000     0.00000000
            NaN            NaN            NaN
            NaN            NaN            NaN
            NaN            NaN            NaN
            NaN            NaN            NaN
            NaN            NaN            NaN
     0.00000000     0.00000000     0.00000000
            NaN            NaN            NaN
            NaN            NaN            NaN
            NaN            NaN            NaN
            NaN            NaN            NaN
            NaN            NaN            NaN
            NaN            NaN            NaN
            NaN            NaN            NaN
            NaN            NaN            NaN
            NaN            NaN            NaN
            NaN            NaN            NaN
            NaN            NaN            NaN
            NaN            NaN            NaN
            NaN            NaN            NaN
            NaN            NaN            NaN
     0.00000000     0.00000000     0.00000000
            NaN            NaN            NaN
            NaN            NaN            NaN
            NaN            NaN            NaN
            NaN            NaN            NaN
            NaN            NaN            NaN
            NaN            NaN            NaN
            NaN            NaN            NaN
            NaN            NaN            NaN
            NaN            NaN            NaN
     0.00000000     0.00000000     0.00000000
            NaN            NaN            NaN
            NaN            NaN            NaN
            NaN            NaN            NaN
            NaN            NaN            NaN
            NaN            NaN            NaN
            NaN            NaN            NaN
            NaN            NaN            NaN
            NaN            NaN            NaN
            NaN            NaN            NaN
            NaN            NaN            NaN
            NaN            NaN            NaN
            NaN            NaN            NaN
            NaN            NaN            NaN
            NaN            NaN            NaN
            NaN            NaN            NaN
            NaN            NaN            NaN
            NaN            NaN            NaN
            NaN            NaN            NaN
            NaN            NaN            NaN
            NaN            NaN            NaN
            NaN            NaN            NaN
            NaN            NaN            NaN
            NaN            NaN            NaN
            NaN            NaN            NaN
            NaN            NaN            NaN
            NaN            NaN            NaN
            NaN            NaN            NaN
            NaN            NaN            NaN
            NaN            NaN            NaN
            NaN            NaN            NaN
            NaN            NaN            NaN
     0.00000000     0.00000000     0.00000000
     0.00000000     0.00000000     0.00000000
            NaN            NaN            NaN
            NaN            NaN            NaN
            NaN            NaN            NaN
            NaN            NaN            NaN
            NaN            NaN            NaN
            NaN            NaN            NaN
            NaN            NaN            NaN
            NaN            NaN            NaN
            NaN            NaN            NaN
            NaN            NaN            NaN
            NaN            NaN            NaN
            NaN            NaN            NaN
     0.00000000     0.00000000     0.00000000
            NaN            NaN            NaN
            NaN            NaN            NaN
            NaN            NaN            NaN
     0.00000000     0.00000000     0.00000000
     0.00000000     0.00000000     0.00000000
     0.00000000     0.00000000     0.00000000
     0.00000000     0.00000000     0.00000000
     0.00000000     0.00000000     0.00000000
     0.00000000     0.00000000     0.00000000
     0.00000000     0.00000000     0.00000000
     0.00000000     0.00000000     0.00000000
     0.00000000     0.00000000     0.00000000
     0.00000000     0.00000000     0.00000000
     0.00000000     0.00000000     0.00000000
     0.00000000     0.00000000     0.00000000
     0.00000000     0.00000000     0.00000000
     0.00000000     0.00000000     0.00000000
     0.00000000     0.00000000     0.00000000
     0.00000000     0.00000000     0.00000000
     0.00000000     0.00000000     0.00000000
     0.00000000     0.00000000     0.00000000
     0.00000000     0.00000000     0.00000000
     0.00000000     0.00000000     0.00000000
     0.00000000     0.00000000     0.00000000
     0.00000000     0.00000000     0.00000000
     0.00000000     0.00000000     0.00000000
     0.00000000     0.00000000     0.00000000
     0.00000000     0.00000000     0.00000000
     0.00000000     0.00000000     0.00000000
     0.00000000     0.00000000     0.00000000
     0.00000000     0.00000000     0.00000000
     0.00000000     0.00000000     0.00000000
     0.00000000     0.00000000     0.00000000
     0.00000000     0.00000000     0.00000000
     0.00000000     0.00000000     0.00000000
     0.00000000     0.00000000     0.00000000
     0.00000000     0.00000000     0.00000000
     0.00000000     0.00000000     0.00000000
     0.00000000     0.00000000     0.00000000
     0.00000000     0.00000000     0.00000000
     0.00000000     0.00000000     0.00000000
     0.00000000     0.00000000     0.00000000
     0.00000000     0.00000000     0.00000000
     0.00000000     0.00000000     0.00000000
     0.00000000     0.00000000     0.00000000
     0.00000000     0.00000000     0.00000000
     0.00000000     0.00000000     0.00000000
     0.00000000     0.00000000     0.00000000
     0.00000000     0.00000000     0.00000000
     0.00000000     0.00000000     0.00000000
     0.00000000     0.00000000     0.00000000
     0.00000000     0.00000000     0.00000000
     0.00000000     0.00000000     0.00000000
     0.00000000     0.00000000     0.00000000
     0.00000000     0.00000000     0.00000000
     0.00000000     0.00000000     0.00000000
     0.00000000     0.00000000     0.00000000
     0.00000000     0.00000000     0.00000000
     0.00000000     0.00000000     0.00000000
     0.00000000     0.00000000     0.00000000
     0.00000000     0.00000000     0.00000000
     0.00000000     0.00000000     0.00000000
     0.00000000     0.00000000     0.00000000
     0.00000000     0.00000000     0.00000000
     0.00000000     0.00000000     0.00000000
     0.00000000     0.00000000     0.00000000
     0.00000000     0.00000000     0.00000000
     0.00000000     0.00000000     0.00000000
     0.00000000     0.00000000     0.00000000
     0.00000000     0.00000000     0.00000000
     0.00000000     0.00000000     0.00000000
     0.00000000     0.00000000     0.00000000
     0.00000000     0.00000000     0.00000000
     0.00000000     0.00000000     0.00000000
     0.00000000     0.00000000     0.00000000
     0.00000000     0.00000000     0.00000000
     0.00000000     0.00000000     0.00000000
     0.00000000     0.00000000     0.00000000
     0.00000000     0.00000000     0.00000000
     0.00000000     0.00000000     0.00000000
     0.00000000     0.00000000     0.00000000
     0.00000000     0.00000000     0.00000000
     0.00000000     0.00000000     0.00000000
     0.00000000     0.00000000     0.00000000
     0.00000000     0.00000000     0.00000000
     0.00000000     0.00000000     0.00000000
     0.00000000     0.00000000     0.00000000
     0.00000000     0.00000000     0.00000000
     0.00000000     0.00000000     0.00000000
     0.00000000     0.00000000     0.00000000
     0.00000000     0.00000000     0.00000000
     0.00000000     0.00000000     0.00000000
     0.00000000     0.00000000     0.00000000
     0.00000000     0.00000000     0.00000000
     0.00000000     0.00000000     0.00000000
     0.00000000     0.00000000     0.00000000
     0.00000000     0.00000000     0.00000000
     0.00000000     0.00000000     0.00000000
     0.00000000     0.00000000     0.00000000
     0.00000000     0.00000000     0.00000000
     0.00000000     0.00000000     0.00000000
     0.00000000     0.00000000     0.00000000
     0.00000000     0.00000000     0.00000000
     0.00000000     0.00000000     0.00000000
     0.00000000     0.00000000     0.00000000
     0.00000000     0.00000000     0.00000000
     0.00000000     0.00000000     0.00000000
     0.00000000     0.00000000     0.00000000
     0.00000000     0.00000000     0.00000000
     0.00000000     0.00000000     0.00000000
     0.00000000     0.00000000     0.00000000
     0.00000000     0.00000000     0.00000000
     0.00000000     0.00000000     0.00000000
     0.00000000     0.00000000     0.00000000
     0.00000000     0.00000000     0.00000000
     0.00000000     0.00000000     0.00000000
     0.00000000     0.00000000     0.00000000
     0.00000000     0.00000000     0.00000000
     0.00000000     0.00000000     0.00000000
     0.00000000     0.00000000     0.00000000
     0.00000000     0.00000000     0.00000000
     0.00000000     0.00000000     0.00000000
     0.00000000     0.00000000     0.00000000
     0.00000000     0.00000000     0.00000000
     0.00000000     0.00000000     0.00000000
     0.00000000     0.00000000     0.00000000
     0.00000000     0.00000000     0.00000000
     0.00000000     0.00000000     0.00000000
     0.00000000     0.00000000     0.00000000
     0.00000000     0.00000000     0.00000000
     0.00000000     0.00000000     0.00000000
     0.00000000     0.00000000     0.00000000
     0.00000000     0.00000000     0.00000000
     0.00000000     0.00000000     0.00000000
     0.00000000     0.00000000     0.00000000
     0.00000000     0.00000000     0.00000000
     0.00000000     0.00000000     0.00000000
     0.00000000     0.00000000     0.00000000
     0.00000000     0.00000000     0.00000000
     0.00000000     0.00000000     0.00000000
     0.00000000     0.00000000     0.00000000
     0.00000000     0.00000000     0.00000000
     0.00000000     0.00000000     0.00000000
     0.00000000     0.00000000     0.00000000
     0.00000000     0.00000000     0.00000000
     0.00000000     0.00000000     0.00000000
     0.00000000     0.00000000     0.00000000
     0.00000000     0.00000000     0.00000000
     0.00000000     0.00000000     0.00000000
     0.00000000     0.00000000     0.00000000
     0.00000000     0.00000000     0.00000000
     0.00000000     0.00000000     0.00000000
     0.00000000     0.00000000     0.00000000
     0.00000000     0.00000000     0.00000000
     0.00000000     0.00000000     0.00000000
     0.00000000     0.00000000     0.00000000
     0.00000000     0.00000000     0.00000000
     0.00000000     0.00000000     0.00000000
     0.00000000     0.00000000     0.00000000
     0.00000000     0.00000000     0.00000000
     0.00000000     0.00000000     0.00000000
     0.00000000     0.00000000     0.00000000
     0.00000000     0.00000000     0.00000000
     0.00000000     0.00000000     0.00000000
     0.00000000     0.00000000     0.00000000
     0.00000000     0.00000000     0.00000000
     0.00000000     0.00000000     0.00000000
     0.00000000     0.00000000     0.00000000
     0.00000000     0.00000000     0.00000000
     0.00000000     0.00000000     0.00000000
     0.00000000     0.00000000     0.00000000
     0.00000000     0.00000000     0.00000000
     0.00000000     0.00000000     0.00000000
     0.00000000     0.00000000     0.00000000
     0.00000000     0.00000000     0.00000000
     0.00000000     0.00000000     0.00000000
     0.00000000     0.00000000     0.00000000
     0.00000000     0.00000000     0.00000000
     0.00000000     0.00000000     0.00000000
     0.00000000     0.00000000     0.00000000
     0.00000000     0.00000000     0.00000000
     0.00000000     0.00000000     0.00000000
     0.00000000     0.00000000     0.00000000
     0.00000000     0.00000000     0.00000000
     0.00000000     0.00000000     0.00000000
     0.00000000     0.00000000     0.00000000
     0.00000000     0.00000000     0.00000000
     0.00000000     0.00000000     0.00000000
     0.00000000     0.00000000     0.00000000
     0.00000000     0.00000000     0.00000000
     0.00000000     0.00000000     0.00000000
     0.00000000     0.00000000     0.00000000
     0.00000000     0.00000000     0.00000000
     0.00000000     0.00000000     0.00000000
     0.00000000     0.00000000     0.00000000
     0.00000000     0.00000000     0.00000000
     0.00000000     0.00000000     0.00000000
     0.00000000     0.00000000     0.00000000
     0.00000000     0.00000000     0.00000000
     0.00000000     0.00000000     0.00000000
     0.00000000     0.00000000     0.00000000
     0.00000000     0.00000000     0.00000000
     0.00000000     0.00000000     0.00000000
     0.00000000     0.00000000     0.00000000
     0.00000000     0.00000000     0.00000000
     0.00000000     0.00000000     0.00000000
     0.00000000     0.00000000     0.00000000
     0.00000000     0.00000000     0.00000000
     0.00000000     0.00000000     0.00000000
     0.00000000     0.00000000     0.00000000
     0.00000000     0.00000000     0.00000000
     0.00000000     0.00000000     0.00000000
     0.00000000     0.00000000     0.00000000
     0.00000000     0.00000000     0.00000000
     0.00000000     0.00000000     0.00000000
     0.00000000     0.00000000     0.00000000
     0.00000000     0.00000000     0.00000000
     0.00000000     0.00000000     0.00000000
     0.00000000     0.00000000     0.00000000
     0.00000000     0.00000000     0.00000000
     0.00000000     0.00000000     0.00000000
     0.00000000     0.00000000     0.00000000
     0.00000000     0.00000000     0.00000000
     0.00000000     0.00000000     0.00000000
     0.00000000     0.00000000     0.00000000
     0.00000000     0.00000000     0.00000000
     0.00000000     0.00000000     0.00000000
     0.00000000     0.00000000     0.00000000
     0.00000000     0.00000000     0.00000000
     0.00000000     0.00000000     0.00000000
     0.00000000     0.00000000     0.00000000
     0.00000000     0.00000000     0.00000000
     0.00000000     0.00000000     0.00000000
     0.00000000     0.00000000     0.00000000
     0.00000000     0.00000000     0.00000000
     0.00000000     0.00000000     0.00000000
     0.00000000     0.00000000     0.00000000
     0.00000000     0.00000000     0.00000000
     0.00000000     0.00000000     0.00000000
     0.00000000     0.00000000     0.00000000
     0.00000000     0.00000000     0.00000000
     0.00000000     0.00000000     0.00000000
     0.00000000     0.00000000     0.00000000
     0.00000000     0.00000000     0.00000000
     0.00000000     0.00000000     0.00000000
     0.00000000     0.00000000     0.00000000
     0.00000000     0.00000000     0.00000000
     0.00000000     0.00000000     0.00000000
     0.00000000     0.00000000     0.00000000
     0.00000000     0.00000000     0.00000000
     0.00000000     0.00000000     0.00000000
     0.00000000     0.00000000     0.00000000
     0.00000000     0.00000000     0.00000000
     0.00000000     0.00000000     0.00000000
     0.00000000     0.00000000     0.00000000
     0.00000000     0.00000000     0.00000000
     0.00000000     0.00000000     0.00000000
     0.00000000     0.00000000     0.00000000
     0.00000000     0.00000000     0.00000000
     0.00000000     0.00000000     0.00000000
     0.00000000     0.00000000     0.00000000
     0.00000000     0.00000000     0.00000000
     0.00000000     0.00000000     0.00000000
     0.00000000     0.00000000     0.00000000
     0.00000000     0.00000000     0.00000000
     0.00000000     0.00000000     0.00000000
     0.00000000     0.00000000     0.00000000
     0.00000000     0.00000000     0.00000000
     0.00000000     0.00000000     0.00000000
     0.00000000     0.00000000     0.00000000
     0.00000000     0.00000000     0.00000000
     0.00000000     0.00000000     0.00000000
     0.00000000     0.00000000     0.00000000
     0.00000000     0.00000000     0.00000000
     0.00000000     0.00000000     0.00000000
     0.00000000     0.00000000     0.00000000
     0.00000000     0.00000000     0.00000000
     0.00000000     0.00000000     0.00000000
     0.00000000     0.00000000     0.00000000
     0.00000000     0.00000000     0.00000000
     0.00000000     0.00000000     0.00000000
     0.00000000     0.00000000     0.00000000
     0.00000000     0.00000000     0.00000000
     0.00000000     0.00000000     0.00000000
     0.00000000     0.00000000     0.00000000
     0.00000000     0.00000000     0.00000000
     0.00000000     0.00000000     0.00000000
     0.00000000     0.00000000     0.00000000
     0.00000000     0.00000000     0.00000000
     0.00000000     0.00000000     0.00000000
     0.00000000     0.00000000     0.00000000
     0.00000000     0.00000000     0.00000000
     0.00000000     0.00000000     0.00000000
     0.00000000     0.00000000     0.00000000
     0.00000000     0.00000000     0.00000000
     0.00000000     0.00000000     0.00000000
     0.00000000     0.00000000     0.00000000
     0.00000000     0.00000000     0.00000000
     0.00000000     0.00000000     0.00000000
     0.00000000     0.00000000     0.00000000
     0.00000000     0.00000000     0.00000000
     0.00000000     0.00000000     0.00000000
     0.00000000     0.00000000     0.00000000
     0.00000000     0.00000000     0.00000000
     0.00000000     0.00000000     0.00000000
     0.00000000     0.00000000     0.00000000
     0.00000000     0.00000000     0.00000000
     0.00000000     0.00000000     0.00000000
     0.00000000     0.00000000     0.00000000
     0.00000000     0.00000000     0.00000000
     0.00000000     0.00000000     0.00000000
     0.00000000     0.00000000     0.00000000
     0.00000000     0.00000000     0.00000000
     0.00000000     0.00000000     0.00000000
     0.00000000     0.00000000     0.00000000
            NaN            NaN            NaN
            NaN            NaN            NaN
            NaN            NaN            NaN
            NaN            NaN            NaN
            NaN            NaN            NaN
            NaN            NaN            NaN
            NaN            NaN            NaN
            NaN            NaN            NaN
            NaN            NaN            NaN
            NaN            NaN            NaN
     0.00000000     0.00000000     0.00000000
     0.00000000     0.00000000     0.00000000
     0.00000000     0.00000000     0.00000000
            NaN            NaN            NaN
            NaN            NaN            NaN
            NaN            NaN            NaN
            NaN            NaN            NaN
            NaN            NaN            NaN
            NaN            NaN            NaN
            NaN            NaN            NaN
            NaN            NaN            NaN
     0.00000000     0.00000000     0.00000000
            NaN            NaN            NaN
            NaN            NaN            NaN
            NaN            NaN            NaN
            NaN            NaN            NaN
            NaN            NaN            NaN
            NaN            NaN            NaN
     0.00000000     0.00000000     0.00000000
            NaN            NaN            NaN
            NaN            NaN            NaN
            NaN            NaN            NaN
            NaN            NaN            NaN
            NaN            NaN            NaN
            NaN            NaN            NaN
     0.00000000     0.00000000     0.00000000
            NaN            NaN            NaN
            NaN            NaN            NaN
            NaN            NaN            NaN
            NaN            NaN            NaN
            NaN            NaN            NaN
            NaN            NaN            NaN
            NaN            NaN            NaN
            NaN            NaN            NaN
            NaN            NaN            NaN
            NaN            NaN            NaN
            NaN            NaN            NaN
            NaN            NaN            NaN
            NaN            NaN            NaN
            NaN            NaN            NaN
            NaN            NaN            NaN
            NaN            NaN            NaN
     0.00000000     0.00000000     0.00000000
            NaN            NaN            NaN
            NaN            NaN            NaN
            NaN            NaN            NaN
            NaN            NaN            NaN
            NaN            NaN            NaN
            NaN            NaN            NaN
            NaN            NaN            NaN
            NaN            NaN            NaN
            NaN            NaN            NaN
     0.00000000     0.00000000     0.00000000
     0.00000000     0.00000000     0.00000000
            NaN            NaN            NaN
            NaN            NaN            NaN
     0.00000000     0.00000000     0.00000000
            NaN            NaN            NaN
            NaN            NaN            NaN
            NaN            NaN            NaN
            NaN            NaN            NaN
            NaN            NaN            NaN
            NaN            NaN            NaN
            NaN            NaN            NaN
            NaN            NaN            NaN
            NaN            NaN            NaN
            NaN            NaN            NaN
            NaN            NaN            NaN
            NaN            NaN            NaN
            NaN            NaN            NaN
            NaN            NaN            NaN
            NaN            NaN            NaN
            NaN            NaN            NaN
            NaN            NaN            NaN
            NaN            NaN            NaN
            NaN            NaN            NaN
     0.00000000     0.00000000     0.00000000
            NaN            NaN            NaN
            NaN            NaN            NaN
     0.00000000     0.00000000     0.00000000
            NaN            NaN            NaN
            NaN            NaN            NaN
            NaN            NaN            NaN
            NaN            NaN            NaN
            NaN            NaN            NaN
            NaN            NaN            NaN
            NaN            NaN            NaN
            NaN            NaN            NaN
            NaN            NaN            NaN
            NaN            NaN            NaN
            NaN            NaN            NaN
            NaN            NaN            NaN
            NaN            NaN            NaN
            NaN            NaN            NaN
            NaN            NaN            NaN
            NaN            NaN            NaN
     0.00000000     0.00000000     0.00000000
            NaN            NaN            NaN
            NaN            NaN            NaN
     0.00000000     0.00000000     0.00000000
            NaN            NaN            NaN
            NaN            NaN            NaN
            NaN            NaN            NaN
            NaN            NaN            NaN
            NaN            NaN            NaN
            NaN            NaN            NaN
            NaN            NaN            NaN
            NaN            NaN            NaN
            NaN            NaN            NaN
            NaN            NaN            NaN
            NaN            NaN            NaN
            NaN            NaN            NaN
            NaN            NaN            NaN
            NaN            NaN            NaN
            NaN            NaN            NaN
            NaN            NaN            NaN
            NaN            NaN            NaN
            NaN            NaN            NaN
            NaN            NaN            NaN
            NaN            NaN            NaN
            NaN            NaN            NaN
     0.00000000     0.00000000     0.00000000
            NaN            NaN            NaN
            NaN            NaN            NaN
            NaN            NaN            NaN
            NaN            NaN            NaN
            NaN            NaN            NaN
     0.00000000     0.00000000     0.00000000
            NaN            NaN            NaN
            NaN            NaN            NaN
     0.00000000     0.00000000     0.00000000
            NaN            NaN            NaN
            NaN            NaN            NaN
            NaN            NaN            NaN
            NaN            NaN            NaN
            NaN            NaN            NaN
            NaN            NaN            NaN
            NaN            NaN            NaN
            NaN            NaN            NaN
            NaN            NaN            NaN
     0.00000000     0.00000000     0.00000000
     0.00000000     0.00000000     0.00000000
     0.00000000     0.00000000     0.00000000
     0.00000000     0.00000000     0.00000000
     0.00000000     0.00000000     0.00000000
     0.00000000     0.00000000     0.00000000
     0.00000000     0.00000000     0.00000000
     0.00000000     0.00000000     0.00000000
     0.00000000     0.00000000     0.00000000
     0.00000000     0.00000000     0.00000000
     0.00000000     0.00000000     0.00000000
     0.00000000     0.00000000     0.00000000
     0.00000000     0.00000000     0.00000000
     0.00000000     0.00000000     0.00000000
     0.00000000     0.00000000     0.00000000
     0.00000000     0.00000000     0.00000000
     0.00000000     0.00000000     0.00000000
     0.00000000     0.00000000     0.00000000
     0.00000000     0.00000000     0.00000000
     0.00000000     0.00000000     0.00000000
     0.00000000     0.00000000     0.00000000
     0.00000000     0.00000000     0.00000000
     0.00000000     0.00000000     0.00000000
     0.00000000     0.00000000     0.00000000
     0.00000000     0.00000000     0.00000000
     0.00000000     0.00000000     0.00000000
     0.00000000     0.00000000     0.00000000
     0.00000000     0.00000000     0.00000000
     0.00000000     0.00000000     0.00000000
     0.00000000     0.00000000     0.00000000
            NaN            NaN            NaN
     0.00000000     0.00000000     0.00000000
     0.00000000     0.00000000     0.00000000
            NaN            NaN            NaN
            NaN            NaN            NaN
            NaN            NaN            NaN
            NaN            NaN            NaN
            NaN            NaN            NaN
     0.00000000     0.00000000     0.00000000
            NaN            NaN            NaN
            NaN            NaN            NaN
            NaN            NaN            NaN
     0.00000000     0.00000000     0.00000000
            NaN            NaN            NaN
            NaN            NaN            NaN
            NaN            NaN            NaN
            NaN            NaN            NaN
            NaN            NaN            NaN
            NaN            NaN            NaN
            NaN            NaN            NaN
            NaN            NaN            NaN
            NaN            NaN            NaN
            NaN            NaN            NaN
            NaN            NaN            NaN
            NaN            NaN            NaN
            NaN            NaN            NaN
            NaN            NaN            NaN
            NaN            NaN            NaN
            NaN            NaN            NaN
            NaN            NaN            NaN
            NaN            NaN            NaN
            NaN            NaN            NaN
            NaN            NaN            NaN
            NaN            NaN            NaN
     0.00000000     0.00000000     0.00000000
            NaN            NaN            NaN
            NaN            NaN            NaN
            NaN            NaN            NaN
            NaN            NaN            NaN
            NaN            NaN            NaN
            NaN            NaN            NaN
            NaN            NaN            NaN
            NaN            NaN            NaN
            NaN            NaN            NaN
            NaN            NaN            NaN
            NaN            NaN            NaN
            NaN            NaN            NaN
            NaN            NaN            NaN
            NaN            NaN            NaN
            NaN            NaN            NaN
            NaN            NaN            NaN
            NaN            NaN            NaN
            NaN            NaN            NaN
            NaN            NaN            NaN
            NaN            NaN            NaN
            NaN            NaN            NaN
            NaN            NaN            NaN
            NaN            NaN            NaN
            NaN            NaN            NaN
            NaN            NaN            NaN
            NaN            NaN            NaN
            NaN            NaN            NaN
            NaN            NaN            NaN
            NaN            NaN            NaN
            NaN            NaN            NaN
            NaN            NaN            NaN
            NaN            NaN            NaN
     0.00000000     0.00000000     0.00000000
     0.00000000     0.00000000     0.00000000
            NaN            NaN            NaN
     0.00000000     0.00000000     0.00000000
            NaN            NaN            NaN
     0.00000000     0.00000000     0.00000000
            NaN            NaN            NaN
     0.00000000     0.00000000     0.00000000
            NaN            NaN            NaN
     0.00000000     0.00000000     0.00000000
            NaN            NaN            NaN
     0.00000000     0.00000000     0.00000000
     0.00000000     0.00000000     0.00000000
     0.00000000     0.00000000     0.00000000
     0.00000000     0.00000000     0.00000000
            NaN            NaN            NaN
     0.00000000     0.00000000     0.00000000
     0.00000000     0.00000000     0.00000000
            NaN            NaN            NaN
            NaN            NaN            NaN
            NaN            NaN            NaN
            NaN            NaN            NaN
     0.00000000     0.00000000     0.00000000
            NaN            NaN            NaN
            NaN            NaN            NaN
            NaN            NaN            NaN
            NaN            NaN            NaN
            NaN            NaN            NaN
     0.00000000     0.00000000     0.00000000
            NaN            NaN            NaN
            NaN            NaN            NaN
            NaN            NaN            NaN
            NaN            NaN            NaN
            NaN            NaN            NaN
            NaN            NaN            NaN
            NaN            NaN            NaN
            NaN            NaN            NaN
            NaN            NaN            NaN
            NaN            NaN            NaN
            NaN            NaN            NaN
     0.00000000     0.00000000     0.00000000
            NaN            NaN            NaN
            NaN            NaN            NaN
            NaN            NaN            NaN
            NaN            NaN            NaN
            NaN            NaN            NaN
            NaN            NaN            NaN
            NaN            NaN            NaN
            NaN            NaN            NaN
            NaN            NaN            NaN
            NaN            NaN            NaN
            NaN            NaN            NaN
            NaN            NaN            NaN
     0.00000000     0.00000000     0.00000000
            NaN            NaN            NaN
     0.00000000     0.00000000     0.00000000
            NaN            NaN            NaN
     0.00000000     0.00000000     0.00000000
     0.00000000     0.00000000     0.00000000
     0.00000000     0.00000000     0.00000000
     0.00000000     0.00000000     0.00000000
     0.00000000     0.00000000     0.00000000
     0.00000000     0.00000000     0.00000000
     0.00000000     0.00000000     0.00000000
     0.00000000     0.00000000     0.00000000
     0.00000000     0.00000000     0.00000000
     0.00000000     0.00000000     0.00000000
     0.00000000     0.00000000     0.00000000
     0.00000000     0.00000000     0.00000000
     0.00000000     0.00000000     0.00000000
     0.00000000     0.00000000     0.00000000
     0.00000000     0.00000000     0.00000000
     0.00000000     0.00000000     0.00000000
     0.00000000     0.00000000     0.00000000
     0.00000000     0.00000000     0.00000000
     0.00000000     0.00000000     0.00000000
     0.00000000     0.00000000     0.00000000
     0.00000000     0.00000000     0.00000000
     0.00000000     0.00000000     0.00000000
     0.00000000     0.00000000     0.00000000
     0.00000000     0.00000000     0.00000000
     0.00000000     0.00000000     0.00000000
     0.00000000     0.00000000     0.00000000
     0.00000000     0.00000000     0.00000000
     0.00000000     0.00000000     0.00000000
     0.00000000     0.00000000     0.00000000
     0.00000000     0.00000000     0.00000000
     0.00000000     0.00000000     0.00000000
     0.00000000     0.00000000     0.00000000
     0.00000000     0.00000000     0.00000000
     0.00000000     0.00000000     0.00000000
     0.00000000     0.00000000     0.00000000
     0.00000000     0.00000000     0.00000000
     0.00000000     0.00000000     0.00000000
     0.00000000     0.00000000     0.00000000
     0.00000000     0.00000000     0.00000000
     0.00000000     0.00000000     0.00000000
     0.00000000     0.00000000     0.00000000
     0.00000000     0.00000000     0.00000000
     0.00000000     0.00000000     0.00000000
     0.00000000     0.00000000     0.00000000
     0.00000000     0.00000000     0.00000000
     0.00000000     0.00000000     0.00000000
     0.00000000     0.00000000     0.00000000
     0.00000000     0.00000000     0.00000000
     0.00000000     0.00000000     0.00000000
     0.00000000     0.00000000     0.00000000
     0.00000000     0.00000000     0.00000000
     0.00000000     0.00000000     0.00000000
     0.00000000     0.00000000     0.00000000
     0.00000000     0.00000000     0.00000000
     0.00000000     0.00000000     0.00000000
     0.00000000     0.00000000     0.00000000
     0.00000000     0.00000000     0.00000000
     0.00000000     0.00000000     0.00000000
     0.00000000     0.00000000     0.00000000
     0.00000000     0.00000000     0.00000000
     0.00000000     0.00000000     0.00000000
     0.00000000     0.00000000     0.00000000
     0.00000000     0.00000000     0.00000000
     0.00000000     0.00000000     0.00000000
     0.00000000     0.00000000     0.00000000
     0.00000000     0.00000000     0.00000000
     0.00000000     0.00000000     0.00000000
     0.00000000     0.00000000     0.00000000
     0.00000000     0.00000000     0.00000000
     0.00000000     0.00000000     0.00000000
     0.00000000     0.00000000     0.00000000
     0.00000000     0.00000000     0.00000000
     0.00000000     0.00000000     0.00000000
     0.00000000     0.00000000     0.00000000
     0.00000000     0.00000000     0.00000000
     0.00000000     0.00000000     0.00000000
     0.00000000     0.00000000     0.00000000
     0.00000000     0.00000000     0.00000000
     0.00000000     0.00000000     0.00000000
     0.00000000     0.00000000     0.00000000
     0.00000000     0.00000000     0.00000000
     0.00000000     0.00000000     0.00000000
     0.00000000     0.00000000     0.00000000
     0.00000000     0.00000000     0.00000000
     0.00000000     0.00000000     0.00000000
     0.00000000     0.00000000     0.00000000
     0.00000000     0.00000000     0.00000000
     0.00000000     0.00000000     0.00000000
     0.00000000     0.00000000     0.00000000
     0.00000000     0.00000000     0.00000000
     0.00000000     0.00000000     0.00000000
     0.00000000     0.00000000     0.00000000
     0.00000000     0.00000000     0.00000000
     0.00000000     0.00000000     0.00000000
     0.00000000     0.00000000     0.00000000
     0.00000000     0.00000000     0.00000000
     0.00000000     0.00000000     0.00000000
     0.00000000     0.00000000     0.00000000
     0.00000000     0.00000000     0.00000000
     0.00000000     0.00000000     0.00000000
     0.00000000     0.00000000     0.00000000
     0.00000000     0.00000000     0.00000000
     0.00000000     0.00000000     0.00000000
     0.00000000     0.00000000     0.00000000
     0.00000000     0.00000000     0.00000000
     0.00000000     0.00000000     0.00000000
     0.00000000     0.00000000     0.00000000
     0.00000000     0.00000000     0.00000000
     0.00000000     0.00000000     0.00000000
     0.00000000     0.00000000     0.00000000
     0.00000000     0.00000000     0.00000000
     0.00000000     0.00000000     0.00000000
     0.00000000     0.00000000     0.00000000
     0.00000000     0.00000000     0.00000000
     0.00000000     0.00000000     0.00000000
     0.00000000     0.00000000     0.00000000
     0.00000000     0.00000000     0.00000000
     0.00000000     0.00000000     0.00000000
     0.00000000     0.00000000     0.00000000
     0.00000000     0.00000000     0.00000000
     0.00000000     0.00000000     0.00000000
     0.00000000     0.00000000     0.00000000
     0.00000000     0.00000000     0.00000000
     0.00000000     0.00000000     0.00000000
     0.00000000     0.00000000     0.00000000
     0.00000000     0.00000000     0.00000000
     0.00000000     0.00000000     0.00000000
     0.00000000     0.00000000     0.00000000
     0.00000000     0.00000000     0.00000000
     0.00000000     0.00000000     0.00000000
     0.00000000     0.00000000     0.00000000
     0.00000000     0.00000000     0.00000000
     0.00000000     0.00000000     0.00000000
     0.00000000     0.00000000     0.00000000
     0.00000000     0.00000000     0.00000000
     0.00000000     0.00000000     0.00000000
     0.00000000     0.00000000     0.00000000
     0.00000000     0.00000000     0.00000000
     0.00000000     0.00000000     0.00000000
     0.00000000     0.00000000     0.00000000
     0.00000000     0.00000000     0.00000000
     0.00000000     0.00000000     0.00000000
     0.00000000     0.00000000     0.00000000
     0.00000000     0.00000000     0.00000000
     0.00000000     0.00000000     0.00000000
     0.00000000     0.00000000     0.00000000
     0.00000000     0.00000000     0.00000000
     0.00000000     0.00000000     0.00000000
     0.00000000     0.00000000     0.00000000
     0.00000000     0.00000000     0.00000000
     0.00000000     0.00000000     0.00000000
     0.00000000     0.00000000     0.00000000
     0.00000000     0.00000000     0.00000000
     0.00000000     0.00000000     0.00000000
     0.00000000     0.00000000     0.00000000
     0.00000000     0.00000000     0.00000000
     0.00000000     0.00000000     0.00000000
     0.00000000     0.00000000     0.00000000
     0.00000000     0.00000000     0.00000000
     0.00000000     0.00000000     0.00000000
     0.00000000     0.00000000     0.00000000
     0.00000000     0.00000000     0.00000000
     0.00000000     0.00000000     0.00000000
     0.00000000     0.00000000     0.00000000
     0.00000000     0.00000000     0.00000000
     0.00000000     0.00000000     0.00000000
     0.00000000     0.00000000     0.00000000
     0.00000000     0.00000000     0.00000000
     0.00000000     0.00000000     0.00000000
     0.00000000     0.00000000     0.00000000
     0.00000000     0.00000000     0.00000000
     0.00000000     0.00000000     0.00000000
     0.00000000     0.00000000     0.00000000
     0.00000000     0.00000000     0.00000000
     0.00000000     0.00000000     0.00000000
     0.00000000     0.00000000     0.00000000
     0.00000000     0.00000000     0.00000000
     0.00000000     0.00000000     0.00000000
     0.00000000     0.00000000     0.00000000
     0.00000000     0.00000000     0.00000000
     0.00000000     0.00000000     0.00000000
     0.00000000     0.00000000     0.00000000
     0.00000000     0.00000000     0.00000000
     0.00000000     0.00000000     0.00000000
     0.00000000     0.00000000     0.00000000
     0.00000000     0.00000000     0.00000000
     0.00000000     0.00000000     0.00000000
     0.00000000     0.00000000     0.00000000
     0.00000000     0.00000000     0.00000000
     0.00000000     0.00000000     0.00000000
     0.00000000     0.00000000     0.00000000
     0.00000000     0.00000000     0.00000000
     0.00000000     0.00000000     0.00000000
     0.00000000     0.00000000     0.00000000
     0.00000000     0.00000000     0.00000000
     0.00000000     0.00000000     0.00000000
     0.00000000     0.00000000     0.00000000
     0.00000000     0.00000000     0.00000000
     0.00000000     0.00000000     0.00000000
     0.00000000     0.00000000     0.00000000
     0.00000000     0.00000000     0.00000000
     0.00000000     0.00000000     0.00000000
     0.00000000     0.00000000     0.00000000
     0.00000000     0.00000000     0.00000000
     0.00000000     0.00000000     0.00000000
     0.00000000     0.00000000     0.00000000
     0.00000000     0.00000000     0.00000000
     0.00000000     0.00000000     0.00000000
     0.00000000     0.00000000     0.00000000
     0.00000000     0.00000000     0.00000000
            NaN            NaN            NaN
            NaN            NaN            NaN
            NaN            NaN            NaN
            NaN            NaN            NaN
     0.00000000     0.00000000     0.00000000
     0.00000000     0.00000000     0.00000000
            NaN            NaN            NaN
            NaN            NaN            NaN
            NaN            NaN            NaN
            NaN            NaN            NaN
            NaN            NaN            NaN
     0.00000000     0.00000000     0.00000000
     0.00000000     0.00000000     0.00000000
            NaN            NaN            NaN
            NaN            NaN            NaN
            NaN            NaN            NaN
            NaN            NaN            NaN
            NaN            NaN            NaN
            NaN            NaN            NaN
            NaN            NaN            NaN
            NaN            NaN            NaN
            NaN            NaN            NaN
     0.00000000     0.00000000     0.00000000
            NaN            NaN            NaN
            NaN            NaN            NaN
            NaN            NaN            NaN
            NaN            NaN            NaN
     0.00000000     0.00000000     0.00000000
     0.00000000     0.00000000     0.00000000
     0.00000000     0.00000000     0.00000000
     0.00000000     0.00000000     0.00000000
     0.00000000     0.00000000     0.00000000
     0.00000000     0.00000000     0.00000000
     0.00000000     0.00000000     0.00000000
     0.00000000     0.00000000     0.00000000
     0.00000000     0.00000000     0.00000000
     0.00000000     0.00000000     0.00000000
     0.00000000     0.00000000     0.00000000
     0.00000000     0.00000000     0.00000000
     0.00000000     0.00000000     0.00000000
     0.00000000     0.00000000     0.00000000
     0.00000000     0.00000000     0.00000000
     0.00000000     0.00000000     0.00000000
     0.00000000     0.00000000     0.00000000
     0.00000000     0.00000000     0.00000000
     0.00000000     0.00000000     0.00000000
     0.00000000     0.00000000     0.00000000
     0.00000000     0.00000000     0.00000000
     0.00000000     0.00000000     0.00000000
     0.00000000     0.00000000     0.00000000
     0.00000000     0.00000000     0.00000000
     0.00000000     0.00000000     0.00000000
     0.00000000     0.00000000     0.00000000
     0.00000000     0.00000000     0.00000000
     0.00000000     0.00000000     0.00000000
     0.00000000     0.00000000     0.00000000
     0.00000000     0.00000000     0.00000000
     0.00000000     0.00000000     0.00000000
     0.00000000     0.00000000     0.00000000
     0.00000000     0.00000000     0.00000000
     0.00000000     0.00000000     0.00000000
     0.00000000     0.00000000     0.00000000
     0.00000000     0.00000000     0.00000000
     0.00000000     0.00000000     0.00000000
     0.00000000     0.00000000     0.00000000
     0.00000000     0.00000000     0.00000000
     0.00000000     0.00000000     0.00000000
     0.00000000     0.00000000     0.00000000
     0.00000000     0.00000000     0.00000000
     0.00000000     0.00000000     0.00000000
     0.00000000     0.00000000     0.00000000
     0.00000000     0.00000000     0.00000000
     0.00000000     0.00000000     0.00000000
     0.00000000     0.00000000     0.00000000
     0.00000000     0.00000000     0.00000000
     0.00000000     0.00000000     0.00000000
     0.00000000     0.00000000     0.00000000
     0.00000000     0.00000000     0.00000000
     0.00000000     0.00000000     0.00000000
     0.00000000     0.00000000     0.00000000
     0.00000000     0.00000000     0.00000000
     0.00000000     0.00000000     0.00000000
     0.00000000     0.00000000     0.00000000
     0.00000000     0.00000000     0.00000000
     0.00000000     0.00000000     0.00000000
     0.00000000     0.00000000     0.00000000
     0.00000000     0.00000000     0.00000000
     0.00000000     0.00000000     0.00000000
     0.00000000     0.00000000     0.00000000
     0.00000000     0.00000000     0.00000000
     0.00000000     0.00000000     0.00000000
     0.00000000     0.00000000     0.00000000
     0.00000000     0.00000000     0.00000000
     0.00000000     0.00000000     0.00000000
     0.00000000     0.00000000     0.00000000
     0.00000000     0.00000000     0.00000000
     0.00000000     0.00000000     0.00000000
     0.00000000     0.00000000     0.00000000
     0.00000000     0.00000000     0.00000000
     0.00000000     0.00000000     0.00000000
     0.00000000     0.00000000     0.00000000
     0.00000000     0.00000000     0.00000000
     0.00000000     0.00000000     0.00000000
     0.00000000     0.00000000     0.00000000
     0.00000000     0.00000000     0.00000000
     0.00000000     0.00000000     0.00000000
     0.00000000     0.00000000     0.00000000
     0.00000000     0.00000000     0.00000000
     0.00000000     0.00000000     0.00000000
     0.00000000     0.00000000     0.00000000
     0.00000000     0.00000000     0.00000000
     0.00000000     0.00000000     0.00000000
     0.00000000     0.00000000     0.00000000
     0.00000000     0.00000000     0.00000000
     0.00000000     0.00000000     0.00000000
     0.00000000     0.00000000     0.00000000
     0.00000000     0.00000000     0.00000000
     0.00000000     0.00000000     0.00000000
     0.00000000     0.00000000     0.00000000
     0.00000000     0.00000000     0.00000000
     0.00000000     0.00000000     0.00000000
     0.00000000     0.00000000     0.00000000
     0.00000000     0.00000000     0.00000000
     0.00000000     0.00000000     0.00000000
     0.00000000     0.00000000     0.00000000
     0.00000000     0.00000000     0.00000000
     0.00000000     0.00000000     0.00000000
     0.00000000     0.00000000     0.00000000
     0.00000000     0.00000000     0.00000000
     0.00000000     0.00000000     0.00000000
     0.00000000     0.00000000     0.00000000
     0.00000000     0.00000000     0.00000000
     0.00000000     0.00000000     0.00000000
     0.00000000     0.00000000     0.00000000
     0.00000000     0.00000000     0.00000000
     0.00000000     0.00000000     0.00000000
     0.00000000     0.00000000     0.00000000
     0.00000000     0.00000000     0.00000000
     0.00000000     0.00000000     0.00000000
     0.00000000     0.00000000     0.00000000
     0.00000000     0.00000000     0.00000000
     0.00000000     0.00000000     0.00000000
     0.00000000     0.00000000     0.00000000
     0.00000000     0.00000000     0.00000000
     0.00000000     0.00000000     0.00000000
     0.00000000     0.00000000     0.00000000
     0.00000000     0.00000000     0.00000000
     0.00000000     0.00000000     0.00000000
     0.00000000     0.00000000     0.00000000
     0.00000000     0.00000000     0.00000000
     0.00000000     0.00000000     0.00000000
     0.00000000     0.00000000     0.00000000
     0.00000000     0.00000000     0.00000000
     0.00000000     0.00000000     0.00000000
     0.00000000     0.00000000     0.00000000
     0.00000000     0.00000000     0.00000000
     0.00000000     0.00000000     0.00000000
     0.00000000     0.00000000     0.00000000
     0.00000000     0.00000000     0.00000000
     0.00000000     0.00000000     0.00000000
     0.00000000     0.00000000     0.00000000
     0.00000000     0.00000000     0.00000000
     0.00000000     0.00000000     0.00000000
     0.00000000     0.00000000     0.00000000
     0.00000000     0.00000000     0.00000000
     0.00000000     0.00000000     0.00000000
     0.00000000     0.00000000     0.00000000
     0.00000000     0.00000000     0.00000000
     0.00000000     0.00000000     0.00000000
     0.00000000     0.00000000     0.00000000
     0.00000000     0.00000000     0.00000000
     0.00000000     0.00000000     0.00000000
     0.00000000     0.00000000     0.00000000
     0.00000000     0.00000000     0.00000000
     0.00000000     0.00000000     0.00000000
     0.00000000     0.00000000     0.00000000
     0.00000000     0.00000000     0.00000000
     0.00000000     0.00000000     0.00000000
     0.00000000     0.00000000     0.00000000
     0.00000000     0.00000000     0.00000000
     0.00000000     0.00000000     0.00000000
     0.00000000     0.00000000     0.00000000
     0.00000000     0.00000000     0.00000000
     0.00000000     0.00000000     0.00000000
     0.00000000     0.00000000     0.00000000
     0.00000000     0.00000000     0.00000000
     0.00000000     0.00000000     0.00000000
     0.00000000     0.00000000     0.00000000
     0.00000000     0.00000000     0.00000000
     0.00000000     0.00000000     0.00000000
     0.00000000     0.00000000     0.00000000
     0.00000000     0.00000000     0.00000000
     0.00000000     0.00000000     0.00000000
     0.00000000     0.00000000     0.00000000
     0.00000000     0.00000000     0.00000000
     0.00000000     0.00000000     0.00000000
     0.00000000     0.00000000     0.00000000
     0.00000000     0.00000000     0.00000000
     0.00000000     0.00000000     0.00000000
     0.00000000     0.00000000     0.00000000
     0.00000000     0.00000000     0.00000000
     0.00000000     0.00000000     0.00000000
     0.00000000     0.00000000     0.00000000
     0.00000000     0.00000000     0.00000000
     0.00000000     0.00000000     0.00000000
     0.00000000     0.00000000     0.00000000
     0.00000000     0.00000000     0.00000000
     0.00000000     0.00000000     0.00000000
     0.00000000     0.00000000     0.00000000
     0.00000000     0.00000000     0.00000000
     0.00000000     0.00000000     0.00000000
     0.00000000     0.00000000     0.00000000
     0.00000000     0.00000000     0.00000000
     0.00000000     0.00000000     0.00000000
     0.00000000     0.00000000     0.00000000
     0.00000000     0.00000000     0.00000000
     0.00000000     0.00000000     0.00000000
     0.00000000     0.00000000     0.00000000
     0.00000000     0.00000000     0.00000000
     0.00000000     0.00000000     0.00000000
     0.00000000     0.00000000     0.00000000
     0.00000000     0.00000000     0.00000000
     0.00000000     0.00000000     0.00000000
     0.00000000     0.00000000     0.00000000
     0.00000000     0.00000000     0.00000000
     0.00000000     0.00000000     0.00000000
     0.00000000     0.00000000     0.00000000
     0.00000000     0.00000000     0.00000000
     0.00000000     0.00000000     0.00000000
     0.00000000     0.00000000     0.00000000
     0.00000000     0.00000000     0.00000000
     0.00000000     0.00000000     0.00000000
     0.00000000     0.00000000     0.00000000
     0.00000000     0.00000000     0.00000000
     0.00000000     0.00000000     0.00000000
     0.00000000     0.00000000     0.00000000
     0.00000000     0.00000000     0.00000000
     0.00000000     0.00000000     0.00000000
     0.00000000     0.00000000     0.00000000
     0.00000000     0.00000000     0.00000000
     0.00000000     0.00000000     0.00000000
     0.00000000     0.00000000     0.00000000
     0.00000000     0.00000000     0.00000000
     0.00000000     0.00000000     0.00000000
     0.00000000     0.00000000     0.00000000
     0.00000000     0.00000000     0.00000000
     0.00000000     0.00000000     0.00000000
     0.00000000     0.00000000     0.00000000
     0.00000000     0.00000000     0.00000000
     0.00000000     0.00000000     0.00000000
     0.00000000     0.00000000     0.00000000
     0.00000000     0.00000000     0.00000000
     0.00000000     0.00000000     0.00000000
     0.00000000     0.00000000     0.00000000
     0.00000000     0.00000000     0.00000000
     0.00000000     0.00000000     0.00000000
     0.00000000     0.00000000     0.00000000
     0.00000000     0.00000000     0.00000000
     0.00000000     0.00000000     0.00000000
     0.00000000     0.00000000     0.00000000
     0.00000000     0.00000000     0.00000000
     0.00000000     0.00000000     0.00000000
     0.00000000     0.00000000     0.00000000
     0.00000000     0.00000000     0.00000000
     0.00000000     0.00000000     0.00000000
     0.00000000     0.00000000     0.00000000
     0.00000000     0.00000000     0.00000000
     0.00000000     0.00000000     0.00000000
     0.00000000     0.00000000     0.00000000
     0.00000000     0.00000000     0.00000000
     0.00000000     0.00000000     0.00000000
     0.00000000     0.00000000     0.00000000
     0.00000000     0.00000000     0.00000000
     0.00000000     0.00000000     0.00000000
     0.00000000     0.00000000     0.00000000
     0.00000000     0.00000000     0.00000000
     0.00000000     0.00000000     0.00000000
     0.00000000     0.00000000     0.00000000
     0.00000000     0.00000000     0.00000000
     0.00000000     0.00000000     0.00000000
     0.00000000     0.00000000     0.00000000
     0.00000000     0.00000000     0.00000000
     0.00000000     0.00000000     0.00000000
     0.00000000     0.00000000     0.00000000
     0.00000000     0.00000000     0.00000000
     0.00000000     0.00000000     0.00000000
     0.00000000     0.00000000     0.00000000
     0.00000000     0.00000000     0.00000000
     0.00000000     0.00000000     0.00000000
     0.00000000     0.00000000     0.00000000
     0.00000000     0.00000000     0.00000000
     0.00000000     0.00000000     0.00000000
     0.00000000     0.00000000     0.00000000
     0.00000000     0.00000000     0.00000000
     0.00000000     0.00000000     0.00000000
     0.00000000     0.00000000     0.00000000
     0.00000000     0.00000000     0.00000000
     0.00000000     0.00000000     0.00000000
     0.00000000     0.00000000     0.00000000
     0.00000000     0.00000000     0.00000000
     0.00000000     0.00000000     0.00000000
     0.00000000     0.00000000     0.00000000
     0.00000000     0.00000000     0.00000000
     0.00000000     0.00000000     0.00000000
     0.00000000     0.00000000     0.00000000
     0.00000000     0.00000000     0.00000000
     0.00000000     0.00000000     0.00000000
     0.00000000     0.00000000     0.00000000
     0.00000000     0.00000000     0.00000000
     0.00000000     0.00000000     0.00000000
     0.00000000     0.00000000     0.00000000
     0.00000000     0.00000000     0.00000000
     0.00000000     0.00000000     0.00000000
     0.00000000     0.00000000     0.00000000
     0.00000000     0.00000000     0.00000000
     0.00000000     0.00000000     0.00000000
     0.00000000     0.00000000     0.00000000
     0.00000000     0.00000000     0.00000000
     0.00000000     0.00000000     0.00000000
     0.00000000     0.00000000     0.00000000
     0.00000000     0.00000000     0.00000000
     0.00000000     0.00000000     0.00000000
     0.00000000     0.00000000     0.00000000
     0.00000000     0.00000000     0.00000000
     0.00000000     0.00000000     0.00000000
     0.00000000     0.00000000     0.00000000
     0.00000000     0.00000000     0.00000000
     0.00000000     0.00000000     0.00000000
     0.00000000     0.00000000     0.00000000
     0.00000000     0.00000000     0.00000000
     0.00000000     0.00000000     0.00000000
     0.00000000     0.00000000     0.00000000
     0.00000000     0.00000000     0.00000000
     0.00000000     0.00000000     0.00000000
     0.00000000     0.00000000     0.00000000
     0.00000000     0.00000000     0.00000000
     0.00000000     0.00000000     0.00000000
     0.00000000     0.00000000     0.00000000
     0.00000000     0.00000000     0.00000000
     0.00000000     0.00000000     0.00000000
     0.00000000     0.00000000     0.00000000
     0.00000000     0.00000000     0.00000000
     0.00000000     0.00000000     0.00000000
     0.00000000     0.00000000     0.00000000
     0.00000000     0.00000000     0.00000000
     0.00000000     0.00000000     0.00000000
     0.00000000     0.00000000     0.00000000
     0.00000000     0.00000000     0.00000000
     0.00000000     0.00000000     0.00000000
     0.00000000     0.00000000     0.00000000
     0.00000000     0.00000000     0.00000000
     0.00000000     0.00000000     0.00000000
     0.00000000     0.00000000     0.00000000
     0.00000000     0.00000000     0.00000000
     0.00000000     0.00000000     0.00000000
     0.00000000     0.00000000     0.00000000
     0.00000000     0.00000000     0.00000000
     0.00000000     0.00000000     0.00000000
     0.00000000     0.00000000     0.00000000
     0.00000000     0.00000000     0.00000000
     0.00000000     0.00000000     0.00000000
     0.00000000     0.00000000     0.00000000
     0.00000000     0.00000000     0.00000000
     0.00000000     0.00000000     0.00000000
     0.00000000     0.00000000     0.00000000
     0.00000000     0.00000000     0.00000000
     0.00000000     0.00000000     0.00000000
     0.00000000     0.00000000     0.00000000
     0.00000000     0.00000000     0.00000000
     0.00000000     0.00000000     0.00000000
     0.00000000     0.00000000     0.00000000
     0.00000000     0.00000000     0.00000000
     0.00000000     0.00000000     0.00000000
     0.00000000     0.00000000     0.00000000
     0.00000000     0.00000000     0.00000000
     0.00000000     0.00000000     0.00000000
     0.00000000     0.00000000     0.00000000
     0.00000000     0.00000000     0.00000000
     0.00000000     0.00000000     0.00000000
     0.00000000     0.00000000     0.00000000
     0.00000000     0.00000000     0.00000000
     0.00000000     0.00000000     0.00000000
     0.00000000     0.00000000     0.00000000
     0.00000000     0.00000000     0.00000000
     0.00000000     0.00000000     0.00000000
     0.00000000     0.00000000     0.00000000
     0.00000000     0.00000000     0.00000000
     0.00000000     0.00000000     0.00000000
     0.00000000     0.00000000     0.00000000
     0.00000000     0.00000000     0.00000000
     0.00000000     0.00000000     0.00000000
     0.00000000     0.00000000     0.00000000
     0.00000000     0.00000000     0.00000000
     0.00000000     0.00000000     0.00000000
     0.00000000     0.00000000     0.00000000
     0.00000000     0.00000000     0.00000000
     0.00000000     0.00000000     0.00000000
     0.00000000     0.00000000     0.00000000
     0.00000000     0.00000000     0.00000000
     0.00000000     0.00000000     0.00000000
     0.00000000     0.00000000     0.00000000
     0.00000000     0.00000000     0.00000000
     0.00000000     0.00000000     0.00000000
     0.00000000     0.00000000     0.00000000
     0.00000000     0.00000000     0.00000000
     0.00000000     0.00000000     0.00000000
     0.00000000     0.00000000     0.00000000
     0.00000000     0.00000000     0.00000000
     0.00000000     0.00000000     0.00000000
     0.00000000     0.00000000     0.00000000
     0.00000000     0.00000000     0.00000000
     0.00000000     0.00000000     0.00000000
     0.00000000     0.00000000     0.00000000
     0.00000000     0.00000000     0.00000000
     0.00000000     0.00000000     0.00000000
     0.00000000     0.00000000     0.00000000
     0.00000000     0.00000000     0.00000000
     0.00000000     0.00000000     0.00000000
     0.00000000     0.00000000     0.00000000
     0.00000000     0.00000000     0.00000000
     0.00000000     0.00000000     0.00000000
     0.00000000     0.00000000     0.00000000
     0.00000000     0.00000000     0.00000000
     0.00000000     0.00000000     0.00000000
     0.00000000     0.00000000     0.00000000
     0.00000000     0.00000000     0.00000000
     0.00000000     0.00000000     0.00000000
     0.00000000     0.00000000     0.00000000
     0.00000000     0.00000000     0.00000000
     0.00000000     0.00000000     0.00000000
     0.00000000     0.00000000     0.00000000
     0.00000000     0.00000000     0.00000000
     0.00000000     0.00000000     0.00000000
     0.00000000     0.00000000     0.00000000
     0.00000000     0.00000000     0.00000000
     0.00000000     0.00000000     0.00000000
     0.00000000     0.00000000     0.00000000
     0.00000000     0.00000000     0.00000000
     0.00000000     0.00000000     0.00000000
     0.00000000     0.00000000     0.00000000
     0.00000000     0.00000000     0.00000000
     0.00000000     0.00000000     0.00000000
     0.00000000     0.00000000     0.00000000
     0.00000000     0.00000000     0.00000000
     0.00000000     0.00000000     0.00000000
     0.00000000     0.00000000     0.00000000
     0.00000000     0.00000000     0.00000000
     0.00000000     0.00000000     0.00000000
     0.00000000     0.00000000     0.00000000
     0.00000000     0.00000000     0.00000000
     0.00000000     0.00000000     0.00000000
     0.00000000     0.00000000     0.00000000
     0.00000000     0.00000000     0.00000000
     0.00000000     0.00000000     0.00000000
     0.00000000     0.00000000     0.00000000
     0.00000000     0.00000000     0.00000000
     0.00000000     0.00000000     0.00000000
     0.00000000     0.00000000     0.00000000
     0.00000000     0.00000000     0.00000000
     0.00000000     0.00000000     0.00000000
     0.00000000     0.00000000     0.00000000
     0.00000000     0.00000000     0.00000000
     0.00000000     0.00000000     0.00000000
     0.00000000     0.00000000     0.00000000
     0.00000000     0.00000000     0.00000000
     0.00000000     0.00000000     0.00000000
     0.00000000     0.00000000     0.00000000
     0.00000000     0.00000000     0.00000000
     0.00000000     0.00000000     0.00000000
     0.00000000     0.00000000     0.00000000
     0.00000000     0.00000000     0.00000000
     0.00000000     0.00000000     0.00000000
     0.00000000     0.00000000     0.00000000
     0.00000000     0.00000000     0.00000000
     0.00000000     0.00000000     0.00000000
     0.00000000     0.00000000     0.00000000
     0.00000000     0.00000000     0.00000000
     0.00000000     0.00000000     0.00000000
     0.00000000     0.00000000     0.00000000
     0.00000000     0.00000000     0.00000000
     0.00000000     0.00000000     0.00000000
     0.00000000     0.00000000     0.00000000
     0.00000000     0.00000000     0.00000000
     0.00000000     0.00000000     0.00000000
     0.00000000     0.00000000     0.00000000
     0.00000000     0.00000000     0.00000000
     0.00000000     0.00000000     0.00000000
     0.00000000     0.00000000     0.00000000
     0.00000000     0.00000000     0.00000000
     0.00000000     0.00000000     0.00000000
     0.00000000     0.00000000     0.00000000
     0.00000000     0.00000000     0.00000000
     0.00000000     0.00000000     0.00000000
     0.00000000     0.00000000     0.00000000
     0.00000000     0.00000000     0.00000000
     0.00000000     0.00000000     0.00000000
     0.00000000     0.00000000     0.00000000
     0.00000000     0.00000000     0.00000000
     0.00000000     0.00000000     0.00000000
     0.00000000     0.00000000     0.00000000
     0.00000000     0.00000000     0.00000000
     0.00000000     0.00000000     0.00000000
     0.00000000     0.00000000     0.00000000
     0.00000000     0.00000000     0.00000000
     0.00000000     0.00000000     0.00000000
     0.00000000     0.00000000     0.00000000
     0.00000000     0.00000000     0.00000000
     0.00000000     0.00000000     0.00000000
     0.00000000     0.00000000     0.00000000
     0.00000000     0.00000000     0.00000000
     0.00000000     0.00000000     0.00000000
     0.00000000     0.00000000     0.00000000
     0.00000000     0.00000000     0.00000000
     0.00000000     0.00000000     0.00000000
     0.00000000     0.00000000     0.00000000
     0.00000000     0.00000000     0.00000000
     0.00000000     0.00000000     0.00000000
     0.00000000     0.00000000     0.00000000
     0.00000000     0.00000000     0.00000000
     0.00000000     0.00000000     0.00000000
     0.00000000     0.00000000     0.00000000
     0.00000000     0.00000000     0.00000000
     0.00000000     0.00000000     0.00000000
     0.00000000     0.00000000     0.00000000
     0.00000000     0.00000000     0.00000000
     0.00000000     0.00000000     0.00000000
     0.00000000     0.00000000     0.00000000
     0.00000000     0.00000000     0.00000000
     0.00000000     0.00000000     0.00000000
     0.00000000     0.00000000     0.00000000
     0.00000000     0.00000000     0.00000000
     0.00000000     0.00000000     0.00000000
     0.00000000     0.00000000     0.00000000
     0.00000000     0.00000000     0.00000000
     0.00000000     0.00000000     0.00000000
     0.00000000     0.00000000     0.00000000
     0.00000000     0.00000000     0.00000000
     0.00000000     0.00000000     0.00000000
     0.00000000     0.00000000     0.00000000
     0.00000000     0.00000000     0.00000000
     0.00000000     0.00000000     0.00000000
     0.00000000     0.00000000     0.00000000
     0.00000000     0.00000000     0.00000000
     0.00000000     0.00000000     0.00000000
     0.00000000     0.00000000     0.00000000
     0.00000000     0.00000000     0.00000000
     0.00000000     0.00000000     0.00000000
     0.00000000     0.00000000     0.00000000
     0.00000000     0.00000000     0.00000000
     0.00000000     0.00000000     0.00000000
     0.00000000     0.00000000     0.00000000
     0.00000000     0.00000000     0.00000000
     0.00000000     0.00000000     0.00000000
     0.00000000     0.00000000     0.00000000
     0.00000000     0.00000000     0.00000000
     0.00000000     0.00000000     0.00000000
     0.00000000     0.00000000     0.00000000
     0.00000000     0.00000000     0.00000000
     0.00000000     0.00000000     0.00000000
     0.00000000     0.00000000     0.00000000
     0.00000000     0.00000000     0.00000000
     0.00000000     0.00000000     0.00000000
     0.00000000     0.00000000     0.00000000
     0.00000000     0.00000000     0.00000000
     0.00000000     0.00000000     0.00000000
     0.00000000     0.00000000     0.00000000
     0.00000000     0.00000000     0.00000000
     0.00000000     0.00000000     0.00000000
     0.00000000     0.00000000     0.00000000
     0.00000000     0.00000000     0.00000000
     0.00000000     0.00000000     0.00000000
     0.00000000     0.00000000     0.00000000
     0.00000000     0.00000000     0.00000000
     0.00000000     0.00000000     0.00000000
     0.00000000     0.00000000     0.00000000
     0.00000000     0.00000000     0.00000000
     0.00000000     0.00000000     0.00000000
     0.00000000     0.00000000     0.00000000
     0.00000000     0.00000000     0.00000000
     0.00000000     0.00000000     0.00000000
     0.00000000     0.00000000     0.00000000
     0.00000000     0.00000000     0.00000000
     0.00000000     0.00000000     0.00000000
     0.00000000     0.00000000     0.00000000
     0.00000000     0.00000000     0.00000000
     0.00000000     0.00000000     0.00000000
     0.00000000     0.00000000     0.00000000
     0.00000000     0.00000000     0.00000000
     0.00000000     0.00000000     0.00000000
     0.00000000     0.00000000     0.00000000
     0.00000000     0.00000000     0.00000000
     0.00000000     0.00000000     0.00000000
     0.00000000     0.00000000     0.00000000
     0.00000000     0.00000000     0.00000000
     0.00000000     0.00000000     0.00000000
     0.00000000     0.00000000     0.00000000
     0.00000000     0.00000000     0.00000000
     0.00000000     0.00000000     0.00000000
     0.00000000     0.00000000     0.00000000
     0.00000000     0.00000000     0.00000000
     0.00000000     0.00000000     0.00000000
     0.00000000     0.00000000     0.00000000
     0.00000000     0.00000000     0.00000000
     0.00000000     0.00000000     0.00000000
     0.00000000     0.00000000     0.00000000
     0.00000000     0.00000000     0.00000000
     0.00000000     0.00000000     0.00000000
     0.00000000     0.00000000     0.00000000
     0.00000000     0.00000000     0.00000000
     0.00000000     0.00000000     0.00000000
     0.00000000     0.00000000     0.00000000
     0.00000000     0.00000000     0.00000000
     0.00000000     0.00000000     0.00000000
     0.00000000     0.00000000     0.00000000
     0.00000000     0.00000000     0.00000000
     0.00000000     0.00000000     0.00000000
     0.00000000     0.00000000     0.00000000
     0.00000000     0.00000000     0.00000000
     0.00000000     0.00000000     0.00000000
     0.00000000     0.00000000     0.00000000
     0.00000000     0.00000000     0.00000000
     0.00000000     0.00000000     0.00000000
     0.00000000     0.00000000     0.00000000
     0.00000000     0.00000000     0.00000000
     0.00000000     0.00000000     0.00000000
     0.00000000     0.00000000     0.00000000
     0.00000000     0.00000000     0.00000000
     0.00000000     0.00000000     0.00000000
     0.00000000     0.00000000     0.00000000
     0.00000000     0.00000000     0.00000000
     0.00000000     0.00000000     0.00000000
     0.00000000     0.00000000     0.00000000
     0.00000000     0.00000000     0.00000000
     0.00000000     0.00000000     0.00000000
     0.00000000     0.00000000     0.00000000
     0.00000000     0.00000000     0.00000000
     0.00000000     0.00000000     0.00000000
     0.00000000     0.00000000     0.00000000
     0.00000000     0.00000000     0.00000000
     0.00000000     0.00000000     0.00000000
     0.00000000     0.00000000     0.00000000
     0.00000000     0.00000000     0.00000000
     0.00000000     0.00000000     0.00000000
     0.00000000     0.00000000     0.00000000
     0.00000000     0.00000000     0.00000000
     0.00000000     0.00000000     0.00000000
     0.00000000     0.00000000     0.00000000
     0.00000000     0.00000000     0.00000000
     0.00000000     0.00000000     0.00000000
     0.00000000     0.00000000     0.00000000
     0.00000000     0.00000000     0.00000000
     0.00000000     0.00000000     0.00000000
     0.00000000     0.00000000     0.00000000
     0.00000000     0.00000000     0.00000000
     0.00000000     0.00000000     0.00000000
     0.00000000     0.00000000     0.00000000
     0.00000000     0.00000000     0.00000000
     0.00000000     0.00000000     0.00000000
     0.00000000     0.00000000     0.00000000
     0.00000000     0.00000000     0.00000000
     0.00000000     0.00000000     0.00000000
     0.00000000     0.00000000     0.00000000
     0.00000000     0.00000000     0.00000000
     0.00000000     0.00000000     0.00000000
     0.00000000     0.00000000     0.00000000
     0.00000000     0.00000000     0.00000000
     0.00000000     0.00000000     0.00000000
     0.00000000     0.00000000     0.00000000
     0.00000000     0.00000000     0.00000000
     0.00000000     0.00000000     0.00000000
     0.00000000     0.00000000     0.00000000
     0.00000000     0.00000000     0.00000000
     0.00000000     0.00000000     0.00000000
     0.00000000     0.00000000     0.00000000
     0.00000000     0.00000000     0.00000000
     0.00000000     0.00000000     0.00000000
     0.00000000     0.00000000     0.00000000
     0.00000000     0.00000000     0.00000000
     0.00000000     0.00000000     0.00000000
     0.00000000     0.00000000     0.00000000
     0.00000000     0.00000000     0.00000000
     0.00000000     0.00000000     0.00000000
     0.00000000     0.00000000     0.00000000
     0.00000000     0.00000000     0.00000000
     0.00000000     0.00000000     0.00000000
     0.00000000     0.00000000     0.00000000
     0.00000000     0.00000000     0.00000000
     0.00000000     0.00000000     0.00000000
     0.00000000     0.00000000     0.00000000
     0.00000000     0.00000000     0.00000000
     0.00000000     0.00000000     0.00000000
     0.00000000     0.00000000     0.00000000
     0.00000000     0.00000000     0.00000000
     0.00000000     0.00000000     0.00000000
     0.00000000     0.00000000     0.00000000
     0.00000000     0.00000000     0.00000000
     0.00000000     0.00000000     0.00000000
     0.00000000     0.00000000     0.00000000
     0.00000000     0.00000000     0.00000000
     0.00000000     0.00000000     0.00000000
     0.00000000     0.00000000     0.00000000
     0.00000000     0.00000000     0.00000000
     0.00000000     0.00000000     0.00000000
     0.00000000     0.00000000     0.00000000
     0.00000000     0.00000000     0.00000000
     0.00000000     0.00000000     0.00000000
     0.00000000     0.00000000     0.00000000
     0.00000000     0.00000000     0.00000000
     0.00000000     0.00000000     0.00000000
     0.00000000     0.00000000     0.00000000
     0.00000000     0.00000000     0.00000000
     0.00000000     0.00000000     0.00000000
     0.00000000     0.00000000     0.00000000
     0.00000000     0.00000000     0.00000000
     0.00000000     0.00000000     0.00000000
     0.00000000     0.00000000     0.00000000
     0.00000000     0.00000000     0.00000000
     0.00000000     0.00000000     0.00000000
     0.00000000     0.00000000     0.00000000
     0.00000000     0.00000000     0.00000000
     0.00000000     0.00000000     0.00000000
     0.00000000     0.00000000     0.00000000
     0.00000000     0.00000000     0.00000000
     0.00000000     0.00000000     0.00000000
     0.00000000     0.00000000     0.00000000
     0.00000000     0.00000000     0.00000000
     0.00000000     0.00000000     0.00000000
     0.00000000     0.00000000     0.00000000
     0.00000000     0.00000000     0.00000000
     0.00000000     0.00000000     0.00000000
     0.00000000     0.00000000     0.00000000
     0.00000000     0.00000000     0.00000000
     0.00000000     0.00000000     0.00000000
     0.00000000     0.00000000     0.00000000
     0.00000000     0.00000000     0.00000000
     0.00000000     0.00000000     0.00000000
     0.00000000     0.00000000     0.00000000
     0.00000000     0.00000000     0.00000000
     0.00000000     0.00000000     0.00000000
     0.00000000     0.00000000     0.00000000
     0.00000000     0.00000000     0.00000000
     0.00000000     0.00000000     0.00000000
     0.00000000     0.00000000     0.00000000
     0.00000000     0.00000000     0.00000000
     0.00000000     0.00000000     0.00000000
     0.00000000     0.00000000     0.00000000
     0.00000000     0.00000000     0.00000000
     0.00000000     0.00000000     0.00000000
     0.00000000     0.00000000     0.00000000
     0.00000000     0.00000000     0.00000000
     0.00000000     0.00000000     0.00000000
     0.00000000     0.00000000     0.00000000
     0.00000000     0.00000000     0.00000000
     0.00000000     0.00000000     0.00000000
     0.00000000     0.00000000     0.00000000
     0.00000000     0.00000000     0.00000000
     0.00000000     0.00000000     0.00000000
     0.00000000     0.00000000     0.00000000
     0.00000000     0.00000000     0.00000000
     0.00000000     0.00000000     0.00000000
     0.00000000     0.00000000     0.00000000
     0.00000000     0.00000000     0.00000000
     0.00000000     0.00000000     0.00000000
     0.00000000     0.00000000     0.00000000
     0.00000000     0.00000000     0.00000000
     0.00000000     0.00000000     0.00000000
     0.00000000     0.00000000     0.00000000
     0.00000000     0.00000000     0.00000000
     0.00000000     0.00000000     0.00000000
     0.00000000     0.00000000     0.00000000
     0.00000000     0.00000000     0.00000000
     0.00000000     0.00000000     0.00000000
     0.00000000     0.00000000     0.00000000
     0.00000000     0.00000000     0.00000000
     0.00000000     0.00000000     0.00000000
     0.00000000     0.00000000     0.00000000
     0.00000000     0.00000000     0.00000000
     0.00000000     0.00000000     0.00000000
     0.00000000     0.00000000     0.00000000
     0.00000000     0.00000000     0.00000000
     0.00000000     0.00000000     0.00000000
     0.00000000     0.00000000     0.00000000
     0.00000000     0.00000000     0.00000000
     0.00000000     0.00000000     0.00000000
     0.00000000     0.00000000     0.00000000
     0.00000000     0.00000000     0.00000000
     0.00000000     0.00000000     0.00000000
     0.00000000     0.00000000     0.00000000
     0.00000000     0.00000000     0.00000000
     0.00000000     0.00000000     0.00000000
     0.00000000     0.00000000     0.00000000
     0.00000000     0.00000000     0.00000000
     0.00000000     0.00000000     0.00000000
     0.00000000     0.00000000     0.00000000
     0.00000000     0.00000000     0.00000000
     0.00000000     0.00000000     0.00000000
     0.00000000     0.00000000     0.00000000
     0.00000000     0.00000000     0.00000000
     0.00000000     0.00000000     0.00000000
     0.00000000     0.00000000     0.00000000
     0.00000000     0.00000000     0.00000000
     0.00000000     0.00000000     0.00000000
     0.00000000     0.00000000     0.00000000
     0.00000000     0.00000000     0.00000000
     0.00000000     0.00000000     0.00000000
     0.00000000     0.00000000     0.00000000
     0.00000000     0.00000000     0.00000000
     0.00000000     0.00000000     0.00000000
     0.00000000     0.00000000     0.00000000
     0.00000000     0.00000000     0.00000000
     0.00000000     0.00000000     0.00000000
     0.00000000     0.00000000     0.00000000
     0.00000000     0.00000000     0.00000000
     0.00000000     0.00000000     0.00000000
     0.00000000     0.00000000     0.00000000
     0.00000000     0.00000000     0.00000000
     0.00000000     0.00000000     0.00000000
     0.00000000     0.00000000     0.00000000
     0.00000000     0.00000000     0.00000000
     0.00000000     0.00000000     0.00000000
     0.00000000     0.00000000     0.00000000
     0.00000000     0.00000000     0.00000000
     0.00000000     0.00000000     0.00000000
     0.00000000     0.00000000     0.00000000
     0.00000000     0.00000000     0.00000000
     0.00000000     0.00000000     0.00000000
     0.00000000     0.00000000     0.00000000
     0.00000000     0.00000000     0.00000000
     0.00000000     0.00000000     0.00000000
     0.00000000     0.00000000     0.00000000
     0.00000000     0.00000000     0.00000000
     0.00000000     0.00000000     0.00000000
     0.00000000     0.00000000     0.00000000
     0.00000000     0.00000000     0.00000000
     0.00000000     0.00000000     0.00000000
     0.00000000     0.00000000     0.00000000
     0.00000000     0.00000000     0.00000000
     0.00000000     0.00000000     0.00000000
     0.00000000     0.00000000     0.00000000
     0.00000000     0.00000000     0.00000000
     0.00000000     0.00000000     0.00000000
     0.00000000     0.00000000     0.00000000
     0.00000000     0.00000000     0.00000000
     0.00000000     0.00000000     0.00000000
     0.00000000     0.00000000     0.00000000
     0.00000000     0.00000000     0.00000000
     0.00000000     0.00000000     0.00000000
     0.00000000     0.00000000     0.00000000
     0.00000000     0.00000000     0.00000000
     0.00000000     0.00000000     0.00000000
     0.00000000     0.00000000     0.00000000
     0.00000000     0.00000000     0.00000000
     0.00000000     0.00000000     0.00000000
     0.00000000     0.00000000     0.00000000
     0.00000000     0.00000000     0.00000000
     0.00000000     0.00000000     0.00000000
     0.00000000     0.00000000     0.00000000
     0.00000000     0.00000000     0.00000000
     0.00000000     0.00000000     0.00000000
     0.00000000     0.00000000     0.00000000
     0.00000000     0.00000000     0.00000000
     0.00000000     0.00000000     0.00000000
     0.00000000     0.00000000     0.00000000
     0.00000000     0.00000000     0.00000000
     0.00000000     0.00000000     0.00000000
     0.00000000     0.00000000     0.00000000
     0.00000000     0.00000000     0.00000000
     0.00000000     0.00000000     0.00000000
     0.00000000     0.00000000     0.00000000
     0.00000000     0.00000000     0.00000000
     0.00000000     0.00000000     0.00000000
     0.00000000     0.00000000     0.00000000
     0.00000000     0.00000000     0.00000000
     0.00000000     0.00000000     0.00000000
     0.00000000     0.00000000     0.00000000
     0.00000000     0.00000000     0.00000000
     0.00000000     0.00000000     0.00000000
     0.00000000     0.00000000     0.00000000
     0.00000000     0.00000000     0.00000000
     0.00000000     0.00000000     0.00000000
     0.00000000     0.00000000     0.00000000
     0.00000000     0.00000000     0.00000000
     0.00000000     0.00000000     0.00000000
     0.00000000     0.00000000     0.00000000
     0.00000000     0.00000000     0.00000000
     0.00000000     0.00000000     0.00000000
     0.00000000     0.00000000     0.00000000
     0.00000000     0.00000000     0.00000000
     0.00000000     0.00000000     0.00000000
     0.00000000     0.00000000     0.00000000
     0.00000000     0.00000000     0.00000000
     0.00000000     0.00000000     0.00000000
     0.00000000     0.00000000     0.00000000
     0.00000000     0.00000000     0.00000000
     0.00000000     0.00000000     0.00000000
     0.00000000     0.00000000     0.00000000
     0.00000000     0.00000000     0.00000000
     0.00000000     0.00000000     0.00000000
     0.00000000     0.00000000     0.00000000
     0.00000000     0.00000000     0.00000000
     0.00000000     0.00000000     0.00000000
     0.00000000     0.00000000     0.00000000
     0.00000000     0.00000000     0.00000000
     0.00000000     0.00000000     0.00000000
     0.00000000     0.00000000     0.00000000
     0.00000000     0.00000000     0.00000000
     0.00000000     0.00000000     0.00000000
     0.00000000     0.00000000     0.00000000
     0.00000000     0.00000000     0.00000000
     0.00000000     0.00000000     0.00000000
     0.00000000     0.00000000     0.00000000
     0.00000000     0.00000000     0.00000000
     0.00000000     0.00000000     0.00000000
     0.00000000     0.00000000     0.00000000
     0.00000000     0.00000000     0.00000000
     0.00000000     0.00000000     0.00000000
     0.00000000     0.00000000     0.00000000
     0.00000000     0.00000000     0.00000000
     0.00000000     0.00000000     0.00000000
     0.00000000     0.00000000     0.00000000
     0.00000000     0.00000000     0.00000000
     0.00000000     0.00000000     0.00000000
     0.00000000     0.00000000     0.00000000
     0.00000000     0.00000000     0.00000000
     0.00000000     0.00000000     0.00000000
     0.00000000     0.00000000     0.00000000
     0.00000000     0.00000000     0.00000000
     0.00000000     0.00000000     0.00000000
     0.00000000     0.00000000     0.00000000
     0.00000000     0.00000000     0.00000000
     0.00000000     0.00000000     0.00000000
     0.00000000     0.00000000     0.00000000
     0.00000000     0.00000000     0.00000000
     0.00000000     0.00000000     0.00000000
     0.00000000     0.00000000     0.00000000
     0.00000000     0.00000000     0.00000000
     0.00000000     0.00000000     0.00000000
     0.00000000     0.00000000     0.00000000
     0.00000000     0.00000000     0.00000000
     0.00000000     0.00000000     0.00000000
     0.00000000     0.00000000     0.00000000
     0.00000000     0.00000000     0.00000000
     0.00000000     0.00000000     0.00000000
     0.00000000     0.00000000     0.00000000
     0.00000000     0.00000000     0.00000000
     0.00000000     0.00000000     0.00000000
     0.00000000     0.00000000     0.00000000
     0.00000000     0.00000000     0.00000000
     0.00000000     0.00000000     0.00000000
     0.00000000     0.00000000     0.00000000
     0.00000000     0.00000000     0.00000000
     0.00000000     0.00000000     0.00000000
     0.00000000     0.00000000     0.00000000
     0.00000000     0.00000000     0.00000000
     0.00000000     0.00000000     0.00000000
     0.00000000     0.00000000     0.00000000
     0.00000000     0.00000000     0.00000000
     0.00000000     0.00000000     0.00000000
     0.00000000     0.00000000     0.00000000
     0.00000000     0.00000000     0.00000000
     0.00000000     0.00000000     0.00000000
     0.00000000     0.00000000     0.00000000
     0.00000000     0.00000000     0.00000000
     0.00000000     0.00000000     0.00000000
     0.00000000     0.00000000     0.00000000
     0.00000000     0.00000000     0.00000000
     0.00000000     0.00000000     0.00000000
     0.00000000     0.00000000     0.00000000
     0.00000000     0.00000000     0.00000000
     0.00000000     0.00000000     0.00000000
     0.00000000     0.00000000     0.00000000
     0.00000000     0.00000000     0.00000000
     0.00000000     0.00000000     0.00000000
     0.00000000     0.00000000     0.00000000
     0.00000000     0.00000000     0.00000000
     0.00000000     0.00000000     0.00000000
     0.00000000     0.00000000     0.00000000
     0.00000000     0.00000000     0.00000000
     0.00000000     0.00000000     0.00000000
     0.00000000     0.00000000     0.00000000
     0.00000000     0.00000000     0.00000000
     0.00000000     0.00000000     0.00000000
     0.00000000     0.00000000     0.00000000
     0.00000000     0.00000000     0.00000000
     0.00000000     0.00000000     0.00000000
     0.00000000     0.00000000     0.00000000
     0.00000000     0.00000000     0.00000000
     0.00000000     0.00000000     0.00000000
     0.00000000     0.00000000     0.00000000
     0.00000000     0.00000000     0.00000000
     0.00000000     0.00000000     0.00000000
     0.00000000     0.00000000     0.00000000
     0.00000000     0.00000000     0.00000000
     0.00000000     0.00000000     0.00000000
     0.00000000     0.00000000     0.00000000
     0.00000000     0.00000000     0.00000000
     0.00000000     0.00000000     0.00000000
     0.00000000     0.00000000     0.00000000
     0.00000000     0.00000000     0.00000000
     0.00000000     0.00000000     0.00000000
     0.00000000     0.00000000     0.00000000
     0.00000000     0.00000000     0.00000000
     0.00000000     0.00000000     0.00000000
     0.00000000     0.00000000     0.00000000
     0.00000000     0.00000000     0.00000000
     0.00000000     0.00000000     0.00000000
     0.00000000     0.00000000     0.00000000
     0.00000000     0.00000000     0.00000000
     0.00000000     0.00000000     0.00000000
     0.00000000     0.00000000     0.00000000
     0.00000000     0.00000000     0.00000000
     0.00000000     0.00000000     0.00000000
     0.00000000     0.00000000     0.00000000
     0.00000000     0.00000000     0.00000000
     0.00000000     0.00000000     0.00000000
     0.00000000     0.00000000     0.00000000
     0.00000000     0.00000000     0.00000000
     0.00000000     0.00000000     0.00000000
     0.00000000     0.00000000     0.00000000
     0.00000000     0.00000000     0.00000000
     0.00000000     0.00000000     0.00000000
     0.00000000     0.00000000     0.00000000
     0.00000000     0.00000000     0.00000000
     0.00000000     0.00000000     0.00000000
     0.00000000     0.00000000     0.00000000
     0.00000000     0.00000000     0.00000000
     0.00000000     0.00000000     0.00000000
     0.00000000     0.00000000     0.00000000
     0.00000000     0.00000000     0.00000000
     0.00000000     0.00000000     0.00000000
     0.00000000     0.00000000     0.00000000
     0.00000000     0.00000000     0.00000000
     0.00000000     0.00000000     0.00000000
     0.00000000     0.00000000     0.00000000
     0.00000000     0.00000000     0.00000000
     0.00000000     0.00000000     0.00000000
     0.00000000     0.00000000     0.00000000
     0.00000000     0.00000000     0.00000000
     0.00000000     0.00000000     0.00000000
     0.00000000     0.00000000     0.00000000
     0.00000000     0.00000000     0.00000000
     0.00000000     0.00000000     0.00000000
     0.00000000     0.00000000     0.00000000
     0.00000000     0.00000000     0.00000000
     0.00000000     0.00000000     0.00000000
     0.00000000     0.00000000     0.00000000
     0.00000000     0.00000000     0.00000000
     0.00000000     0.00000000     0.00000000
     0.00000000     0.00000000     0.00000000
     0.00000000     0.00000000     0.00000000
     0.00000000     0.00000000     0.00000000
     0.00000000     0.00000000     0.00000000
     0.00000000     0.00000000     0.00000000
     0.00000000     0.00000000     0.00000000
     0.00000000     0.00000000     0.00000000
     0.00000000     0.00000000     0.00000000
     0.00000000     0.00000000     0.00000000
     0.00000000     0.00000000     0.00000000
     0.00000000     0.00000000     0.00000000
     0.00000000     0.00000000     0.00000000
     0.00000000     0.00000000     0.00000000
     0.00000000     0.00000000     0.00000000
     0.00000000     0.00000000     0.00000000
     0.00000000     0.00000000     0.00000000
     0.00000000     0.00000000     0.00000000
     0.00000000     0.00000000     0.00000000
     0.00000000     0.00000000     0.00000000
     0.00000000     0.00000000     0.00000000
     0.00000000     0.00000000     0.00000000
     0.00000000     0.00000000     0.00000000
     0.00000000     0.00000000     0.00000000
     0.00000000     0.00000000     0.00000000
     0.00000000     0.00000000     0.00000000
     0.00000000     0.00000000     0.00000000
     0.00000000     0.00000000     0.00000000
     0.00000000     0.00000000     0.00000000
     0.00000000     0.00000000     0.00000000
     0.00000000     0.00000000     0.00000000
     0.00000000     0.00000000     0.00000000
     0.00000000     0.00000000     0.00000000
     0.00000000     0.00000000     0.00000000
     0.00000000     0.00000000     0.00000000
     0.00000000     0.00000000     0.00000000
     0.00000000     0.00000000     0.00000000
     0.00000000     0.00000000     0.00000000
     0.00000000     0.00000000     0.00000000
     0.00000000     0.00000000     0.00000000
     0.00000000     0.00000000     0.00000000
     0.00000000     0.00000000     0.00000000
     0.00000000     0.00000000     0.00000000
     0.00000000     0.00000000     0.00000000
     0.00000000     0.00000000     0.00000000
     0.00000000     0.00000000     0.00000000
     0.00000000     0.00000000     0.00000000
     0.00000000     0.00000000     0.00000000
     0.00000000     0.00000000     0.00000000
     0.00000000     0.00000000     0.00000000
     0.00000000     0.00000000     0.00000000
     0.00000000     0.00000000     0.00000000
     0.00000000     0.00000000     0.00000000
     0.00000000     0.00000000     0.00000000
     0.00000000     0.00000000     0.00000000
     0.00000000     0.00000000     0.00000000
     0.00000000     0.00000000     0.00000000
     0.00000000     0.00000000     0.00000000
     0.00000000     0.00000000     0.00000000
     0.00000000     0.00000000     0.00000000
     0.00000000     0.00000000     0.00000000
     0.00000000     0.00000000     0.00000000
     0.00000000     0.00000000     0.00000000
     0.00000000     0.00000000     0.00000000
     0.00000000     0.00000000     0.00000000
     0.00000000     0.00000000     0.00000000
     0.00000000     0.00000000     0.00000000
     0.00000000     0.00000000     0.00000000
     0.00000000     0.00000000     0.00000000
     0.00000000     0.00000000     0.00000000
     0.00000000     0.00000000     0.00000000
     0.00000000     0.00000000     0.00000000
     0.00000000     0.00000000     0.00000000
     0.00000000     0.00000000     0.00000000
     0.00000000     0.00000000     0.00000000
     0.00000000     0.00000000     0.00000000
     0.00000000     0.00000000     0.00000000
     0.00000000     0.00000000     0.00000000
     0.00000000     0.00000000     0.00000000
     0.00000000     0.00000000     0.00000000
     0.00000000     0.00000000     0.00000000
     0.00000000     0.00000000     0.00000000
     0.00000000     0.00000000     0.00000000
     0.00000000     0.00000000     0.00000000
     0.00000000     0.00000000     0.00000000
     0.00000000     0.00000000     0.00000000
     0.00000000     0.00000000     0.00000000
     0.00000000     0.00000000     0.00000000
     0.00000000     0.00000000     0.00000000
     0.00000000     0.00000000     0.00000000
     0.00000000     0.00000000     0.00000000
     0.00000000     0.00000000     0.00000000
     0.00000000     0.00000000     0.00000000
     0.00000000     0.00000000     0.00000000
     0.00000000     0.00000000     0.00000000
     0.00000000     0.00000000     0.00000000
     0.00000000     0.00000000     0.00000000
     0.00000000     0.00000000     0.00000000
     0.00000000     0.00000000     0.00000000
     0.00000000     0.00000000     0.00000000
     0.00000000     0.00000000     0.00000000
     0.00000000     0.00000000     0.00000000
     0.00000000     0.00000000     0.00000000
     0.00000000     0.00000000     0.00000000
     0.00000000     0.00000000     0.00000000
     0.00000000     0.00000000     0.00000000
     0.00000000     0.00000000     0.00000000
     0.00000000     0.00000000     0.00000000
     0.00000000     0.00000000     0.00000000
     0.00000000     0.00000000     0.00000000
     0.00000000     0.00000000     0.00000000
     0.00000000     0.00000000     0.00000000
     0.00000000     0.00000000     0.00000000
     0.00000000     0.00000000     0.00000000
     0.00000000     0.00000000     0.00000000
     0.00000000     0.00000000     0.00000000
     0.00000000     0.00000000     0.00000000
     0.00000000     0.00000000     0.00000000
     0.00000000     0.00000000     0.00000000
     0.00000000     0.00000000     0.00000000
     0.00000000     0.00000000     0.00000000
     0.00000000     0.00000000     0.00000000
     0.00000000     0.00000000     0.00000000
     0.00000000     0.00000000     0.00000000
     0.00000000     0.00000000     0.00000000
     0.00000000     0.00000000     0.00000000
     0.00000000     0.00000000     0.00000000
     0.00000000     0.00000000     0.00000000
     0.00000000     0.00000000     0.00000000
     0.00000000     0.00000000     0.00000000
     0.00000000     0.00000000     0.00000000
     0.00000000     0.00000000     0.00000000
     0.00000000     0.00000000     0.00000000
     0.00000000     0.00000000     0.00000000
     0.00000000     0.00000000     0.00000000
     0.00000000     0.00000000     0.00000000
     0.00000000     0.00000000     0.00000000
     0.00000000     0.00000000     0.00000000
     0.00000000     0.00000000     0.00000000
     0.00000000     0.00000000     0.00000000
     0.00000000     0.00000000     0.00000000
     0.00000000     0.00000000     0.00000000
     0.00000000     0.00000000     0.00000000
     0.00000000     0.00000000     0.00000000
     0.00000000     0.00000000     0.00000000
     0.00000000     0.00000000     0.00000000
     0.00000000     0.00000000     0.00000000
     0.00000000     0.00000000     0.00000000
     0.00000000     0.00000000     0.00000000
     0.00000000     0.00000000     0.00000000
     0.00000000     0.00000000     0.00000000
     0.00000000     0.00000000     0.00000000
     0.00000000     0.00000000     0.00000000
     0.00000000     0.00000000     0.00000000
     0.00000000     0.00000000     0.00000000
     0.00000000     0.00000000     0.00000000
     0.00000000     0.00000000     0.00000000
     0.00000000     0.00000000     0.00000000
     0.00000000     0.00000000     0.00000000
     0.00000000     0.00000000     0.00000000
     0.00000000     0.00000000     0.00000000
     0.00000000     0.00000000     0.00000000
     0.00000000     0.00000000     0.00000000
     0.00000000     0.00000000     0.00000000
     0.00000000     0.00000000     0.00000000
     0.00000000     0.00000000     0.00000000
     0.00000000     0.00000000     0.00000000
     0.00000000     0.00000000     0.00000000
     0.00000000     0.00000000     0.00000000
     0.00000000     0.00000000     0.00000000
     0.00000000     0.00000000     0.00000000
     0.00000000     0.00000000     0.00000000
     0.00000000     0.00000000     0.00000000
     0.00000000     0.00000000     0.00000000
     0.00000000     0.00000000     0.00000000
     0.00000000     0.00000000     0.00000000
     0.00000000     0.00000000     0.00000000
     0.00000000     0.00000000     0.00000000
     0.00000000     0.00000000     0.00000000
     0.00000000     0.00000000     0.00000000
     0.00000000     0.00000000     0.00000000
     0.00000000     0.00000000     0.00000000
     0.00000000     0.00000000     0.00000000
     0.00000000     0.00000000     0.00000000
     0.00000000     0.00000000     0.00000000
     0.00000000     0.00000000     0.00000000
     0.00000000     0.00000000     0.00000000
     0.00000000     0.00000000     0.00000000
     0.00000000     0.00000000     0.00000000
     0.00000000     0.00000000     0.00000000
     0.00000000     0.00000000     0.00000000
     0.00000000     0.00000000     0.00000000
     0.00000000     0.00000000     0.00000000
     0.00000000     0.00000000     0.00000000
     0.00000000     0.00000000     0.00000000
     0.00000000     0.00000000     0.00000000
     0.00000000     0.00000000     0.00000000
     0.00000000     0.00000000     0.00000000
     0.00000000     0.00000000     0.00000000
     0.00000000     0.00000000     0.00000000
     0.00000000     0.00000000     0.00000000
     0.00000000     0.00000000     0.00000000
     0.00000000     0.00000000     0.00000000
     0.00000000     0.00000000     0.00000000
     0.00000000     0.00000000     0.00000000
     0.00000000     0.00000000     0.00000000
     0.00000000     0.00000000     0.00000000
     0.00000000     0.00000000     0.00000000
     0.00000000     0.00000000     0.00000000
     0.00000000     0.00000000     0.00000000
     0.00000000     0.00000000     0.00000000
     0.00000000     0.00000000     0.00000000
     0.00000000     0.00000000     0.00000000
     0.00000000     0.00000000     0.00000000
     0.00000000     0.00000000     0.00000000
     0.00000000     0.00000000     0.00000000
     0.00000000     0.00000000     0.00000000
     0.00000000     0.00000000     0.00000000
     0.00000000     0.00000000     0.00000000
     0.00000000     0.00000000     0.00000000
     0.00000000     0.00000000     0.00000000
     0.00000000     0.00000000     0.00000000
     0.00000000     0.00000000     0.00000000
     0.00000000     0.00000000     0.00000000
     0.00000000     0.00000000     0.00000000
     0.00000000     0.00000000     0.00000000
     0.00000000     0.00000000     0.00000000
     0.00000000     0.00000000     0.00000000
     0.00000000     0.00000000     0.00000000
     0.00000000     0.00000000     0.00000000
     0.00000000     0.00000000     0.00000000
     0.00000000     0.00000000     0.00000000
     0.00000000     0.00000000     0.00000000
     0.00000000     0.00000000     0.00000000
     0.00000000     0.00000000     0.00000000
     0.00000000     0.00000000     0.00000000
     0.00000000     0.00000000     0.00000000
     0.00000000     0.00000000     0.00000000
     0.00000000     0.00000000     0.00000000
     0.00000000     0.00000000     0.00000000
     0.00000000     0.00000000     0.00000000
     0.00000000     0.00000000     0.00000000
     0.00000000     0.00000000     0.00000000
     0.00000000     0.00000000     0.00000000
     0.00000000     0.00000000     0.00000000
     0.00000000     0.00000000     0.00000000
     0.00000000     0.00000000     0.00000000
     0.00000000     0.00000000     0.00000000
     0.00000000     0.00000000     0.00000000
     0.00000000     0.00000000     0.00000000
     0.00000000     0.00000000     0.00000000
     0.00000000     0.00000000     0.00000000
     0.00000000     0.00000000     0.00000000
     0.00000000     0.00000000     0.00000000
     0.00000000     0.00000000     0.00000000
     0.00000000     0.00000000     0.00000000
     0.00000000     0.00000000     0.00000000
     0.00000000     0.00000000     0.00000000
     0.00000000     0.00000000     0.00000000
     0.00000000     0.00000000     0.00000000
     0.00000000     0.00000000     0.00000000
     0.00000000     0.00000000     0.00000000
     0.00000000     0.00000000     0.00000000
     0.00000000     0.00000000     0.00000000
     0.00000000     0.00000000     0.00000000
     0.00000000     0.00000000     0.00000000
     0.00000000     0.00000000     0.00000000
     0.00000000     0.00000000     0.00000000
     0.00000000     0.00000000     0.00000000
     0.00000000     0.00000000     0.00000000
     0.00000000     0.00000000     0.00000000
     0.00000000     0.00000000     0.00000000
     0.00000000     0.00000000     0.00000000
     0.00000000     0.00000000     0.00000000
     0.00000000     0.00000000     0.00000000
     0.00000000     0.00000000     0.00000000
     0.00000000     0.00000000     0.00000000
     0.00000000     0.00000000     0.00000000
     0.00000000     0.00000000     0.00000000
     0.00000000     0.00000000     0.00000000
     0.00000000     0.00000000     0.00000000
     0.00000000     0.00000000     0.00000000
     0.00000000     0.00000000     0.00000000
     0.00000000     0.00000000     0.00000000
     0.00000000     0.00000000     0.00000000
     0.00000000     0.00000000     0.00000000
     0.00000000     0.00000000     0.00000000
     0.00000000     0.00000000     0.00000000
     0.00000000     0.00000000     0.00000000
     0.00000000     0.00000000     0.00000000
     0.00000000     0.00000000     0.00000000
     0.00000000     0.00000000     0.00000000
     0.00000000     0.00000000     0.00000000
     0.00000000     0.00000000     0.00000000
     0.00000000     0.00000000     0.00000000
     0.00000000     0.00000000     0.00000000
     0.00000000     0.00000000     0.00000000
     0.00000000     0.00000000     0.00000000
     0.00000000     0.00000000     0.00000000
     0.00000000     0.00000000     0.00000000
     0.00000000     0.00000000     0.00000000
     0.00000000     0.00000000     0.00000000
     0.00000000     0.00000000     0.00000000
     0.00000000     0.00000000     0.00000000
     0.00000000     0.00000000     0.00000000
     0.00000000     0.00000000     0.00000000
     0.00000000     0.00000000     0.00000000
     0.00000000     0.00000000     0.00000000
     0.00000000     0.00000000     0.00000000
     0.00000000     0.00000000     0.00000000
     0.00000000     0.00000000     0.00000000
     0.00000000     0.00000000     0.00000000
     0.00000000     0.00000000     0.00000000
     0.00000000     0.00000000     0.00000000
     0.00000000     0.00000000     0.00000000
     0.00000000     0.00000000     0.00000000
     0.00000000     0.00000000     0.00000000
     0.00000000     0.00000000     0.00000000
     0.00000000     0.00000000     0.00000000
     0.00000000     0.00000000     0.00000000
     0.00000000     0.00000000     0.00000000
     0.00000000     0.00000000     0.00000000
     0.00000000     0.00000000     0.00000000
     0.00000000     0.00000000     0.00000000
     0.00000000     0.00000000     0.00000000
     0.00000000     0.00000000     0.00000000
     0.00000000     0.00000000     0.00000000
     0.00000000     0.00000000     0.00000000
     0.00000000     0.00000000     0.00000000
     0.00000000     0.00000000     0.00000000
     0.00000000     0.00000000     0.00000000
     0.00000000     0.00000000     0.00000000
     0.00000000     0.00000000     0.00000000
     0.00000000     0.00000000     0.00000000
     0.00000000     0.00000000     0.00000000
     0.00000000     0.00000000     0.00000000
     0.00000000     0.00000000     0.00000000
     0.00000000     0.00000000     0.00000000
     0.00000000     0.00000000     0.00000000
     0.00000000     0.00000000     0.00000000
     0.00000000     0.00000000     0.00000000
     0.00000000     0.00000000     0.00000000
     0.00000000     0.00000000     0.00000000
     0.00000000     0.00000000     0.00000000
     0.00000000     0.00000000     0.00000000
     0.00000000     0.00000000     0.00000000
     0.00000000     0.00000000     0.00000000
     0.00000000     0.00000000     0.00000000
     0.00000000     0.00000000     0.00000000
     0.00000000     0.00000000     0.00000000
     0.00000000     0.00000000     0.00000000
     0.00000000     0.00000000     0.00000000
     0.00000000     0.00000000     0.00000000
     0.00000000     0.00000000     0.00000000
     0.00000000     0.00000000     0.00000000
     0.00000000     0.00000000     0.00000000
     0.00000000     0.00000000     0.00000000
     0.00000000     0.00000000     0.00000000
     0.00000000     0.00000000     0.00000000
     0.00000000     0.00000000     0.00000000
     0.00000000     0.00000000     0.00000000
     0.00000000     0.00000000     0.00000000
     0.00000000     0.00000000     0.00000000
     0.00000000     0.00000000     0.00000000
     0.00000000     0.00000000     0.00000000
     0.00000000     0.00000000     0.00000000
     0.00000000     0.00000000     0.00000000
     0.00000000     0.00000000     0.00000000
     0.00000000     0.00000000     0.00000000
     0.00000000     0.00000000     0.00000000
     0.00000000     0.00000000     0.00000000
     0.00000000     0.00000000     0.00000000
     0.00000000     0.00000000     0.00000000
     0.00000000     0.00000000     0.00000000
     0.00000000     0.00000000     0.00000000
     0.00000000     0.00000000     0.00000000
     0.00000000     0.00000000     0.00000000
     0.00000000     0.00000000     0.00000000
     0.00000000     0.00000000     0.00000000
     0.00000000     0.00000000     0.00000000
     0.00000000     0.00000000     0.00000000
     0.00000000     0.00000000     0.00000000
     0.00000000     0.00000000     0.00000000
     0.00000000     0.00000000     0.00000000
     0.00000000     0.00000000     0.00000000
     0.00000000     0.00000000     0.00000000
     0.00000000     0.00000000     0.00000000
     0.00000000     0.00000000     0.00000000
     0.00000000     0.00000000     0.00000000
     0.00000000     0.00000000     0.00000000
     0.00000000     0.00000000     0.00000000
     0.00000000     0.00000000     0.00000000
     0.00000000     0.00000000     0.00000000
     0.00000000     0.00000000     0.00000000
     0.00000000     0.00000000     0.00000000
     0.00000000     0.00000000     0.00000000
     0.00000000     0.00000000     0.00000000
     0.00000000     0.00000000     0.00000000
     0.00000000     0.00000000     0.00000000
     0.00000000     0.00000000     0.00000000
     0.00000000     0.00000000     0.00000000
     0.00000000     0.00000000     0.00000000
     0.00000000     0.00000000     0.00000000
     0.00000000     0.00000000     0.00000000
     0.00000000     0.00000000     0.00000000
     0.00000000     0.00000000     0.00000000
     0.00000000     0.00000000     0.00000000
     0.00000000     0.00000000     0.00000000
     0.00000000     0.00000000     0.00000000
     0.00000000     0.00000000     0.00000000
     0.00000000     0.00000000     0.00000000
     0.00000000     0.00000000     0.00000000
     0.00000000     0.00000000     0.00000000
     0.00000000     0.00000000     0.00000000
     0.00000000     0.00000000     0.00000000
     0.00000000     0.00000000     0.00000000
     0.00000000     0.00000000     0.00000000
     0.00000000     0.00000000     0.00000000
     0.00000000     0.00000000     0.00000000
     0.00000000     0.00000000     0.00000000
     0.00000000     0.00000000     0.00000000
     0.00000000     0.00000000     0.00000000
     0.00000000     0.00000000     0.00000000
     0.00000000     0.00000000     0.00000000
     0.00000000     0.00000000     0.00000000
     0.00000000     0.00000000     0.00000000
     0.00000000     0.00000000     0.00000000
     0.00000000     0.00000000     0.00000000
     0.00000000     0.00000000     0.00000000
     0.00000000     0.00000000     0.00000000
     0.00000000     0.00000000     0.00000000
     0.00000000     0.00000000     0.00000000
     0.00000000     0.00000000     0.00000000
     0.00000000     0.00000000     0.00000000
     0.00000000     0.00000000     0.00000000
     0.00000000     0.00000000     0.00000000
     0.00000000     0.00000000     0.00000000
     0.00000000     0.00000000     0.00000000
     0.00000000     0.00000000     0.00000000
     0.00000000     0.00000000     0.00000000
     0.00000000     0.00000000     0.00000000
     0.00000000     0.00000000     0.00000000
     0.00000000     0.00000000     0.00000000
     0.00000000     0.00000000     0.00000000
     0.00000000     0.00000000     0.00000000
     0.00000000     0.00000000     0.00000000
     0.00000000     0.00000000     0.00000000
     0.00000000     0.00000000     0.00000000
     0.00000000     0.00000000     0.00000000
     0.00000000     0.00000000     0.00000000
     0.00000000     0.00000000     0.00000000
     0.00000000     0.00000000     0.00000000
     0.00000000     0.00000000     0.00000000
     0.00000000     0.00000000     0.00000000
     0.00000000     0.00000000     0.00000000
     0.00000000     0.00000000     0.00000000
     0.00000000     0.00000000     0.00000000
     0.00000000     0.00000000     0.00000000
     0.00000000     0.00000000     0.00000000
     0.00000000     0.00000000     0.00000000
     0.00000000     0.00000000     0.00000000
     0.00000000     0.00000000     0.00000000
     0.00000000     0.00000000     0.00000000
     0.00000000     0.00000000     0.00000000
     0.00000000     0.00000000     0.00000000
     0.00000000     0.00000000     0.00000000
     0.00000000     0.00000000     0.00000000
     0.00000000     0.00000000     0.00000000
     0.00000000     0.00000000     0.00000000
     0.00000000     0.00000000     0.00000000
     0.00000000     0.00000000     0.00000000
     0.00000000     0.00000000     0.00000000
     0.00000000     0.00000000     0.00000000
     0.00000000     0.00000000     0.00000000
     0.00000000     0.00000000     0.00000000
     0.00000000     0.00000000     0.00000000
     0.00000000     0.00000000     0.00000000
     0.00000000     0.00000000     0.00000000
     0.00000000     0.00000000     0.00000000
     0.00000000     0.00000000     0.00000000
     0.00000000     0.00000000     0.00000000
     0.00000000     0.00000000     0.00000000
     0.00000000     0.00000000     0.00000000
     0.00000000     0.00000000     0.00000000
     0.00000000     0.00000000     0.00000000
     0.00000000     0.00000000     0.00000000
     0.00000000     0.00000000     0.00000000
     0.00000000     0.00000000     0.00000000
     0.00000000     0.00000000     0.00000000
     0.00000000     0.00000000     0.00000000
     0.00000000     0.00000000     0.00000000
     0.00000000     0.00000000     0.00000000
     0.00000000     0.00000000     0.00000000
     0.00000000     0.00000000     0.00000000
     0.00000000     0.00000000     0.00000000
     0.00000000     0.00000000     0.00000000
     0.00000000     0.00000000     0.00000000
     0.00000000     0.00000000     0.00000000
     0.00000000     0.00000000     0.00000000
     0.00000000     0.00000000     0.00000000
     0.00000000     0.00000000     0.00000000
     0.00000000     0.00000000     0.00000000
     0.00000000     0.00000000     0.00000000
     0.00000000     0.00000000     0.00000000
     0.00000000     0.00000000     0.00000000
     0.00000000     0.00000000     0.00000000
     0.00000000     0.00000000     0.00000000
     0.00000000     0.00000000     0.00000000
     0.00000000     0.00000000     0.00000000
     0.00000000     0.00000000     0.00000000
     0.00000000     0.00000000     0.00000000
     0.00000000     0.00000000     0.00000000
     0.00000000     0.00000000     0.00000000
     0.00000000     0.00000000     0.00000000
     0.00000000     0.00000000     0.00000000
     0.00000000     0.00000000     0.00000000
     0.00000000     0.00000000     0.00000000
     0.00000000     0.00000000     0.00000000
     0.00000000     0.00000000     0.00000000
     0.00000000     0.00000000     0.00000000
     0.00000000     0.00000000     0.00000000
     0.00000000     0.00000000     0.00000000
     0.00000000     0.00000000     0.00000000
     0.00000000     0.00000000     0.00000000
     0.00000000     0.00000000     0.00000000
     0.00000000     0.00000000     0.00000000
     0.00000000     0.00000000     0.00000000
     0.00000000     0.00000000     0.00000000
     0.00000000     0.00000000     0.00000000
     0.00000000     0.00000000     0.00000000
     0.00000000     0.00000000     0.00000000
     0.00000000     0.00000000     0.00000000
     0.00000000     0.00000000     0.00000000
     0.00000000     0.00000000     0.00000000
     0.00000000     0.00000000     0.00000000
     0.00000000     0.00000000     0.00000000
     0.00000000     0.00000000     0.00000000
     0.00000000     0.00000000     0.00000000
     0.00000000     0.00000000     0.00000000
     0.00000000     0.00000000     0.00000000
     0.00000000     0.00000000     0.00000000
     0.00000000     0.00000000     0.00000000
     0.00000000     0.00000000     0.00000000
     0.00000000     0.00000000     0.00000000
     0.00000000     0.00000000     0.00000000
     0.00000000     0.00000000     0.00000000
     0.00000000     0.00000000     0.00000000
     0.00000000     0.00000000     0.00000000
     0.00000000     0.00000000     0.00000000
     0.00000000     0.00000000     0.00000000
     0.00000000     0.00000000     0.00000000
     0.00000000     0.00000000     0.00000000
     0.00000000     0.00000000     0.00000000
     0.00000000     0.00000000     0.00000000
     0.00000000     0.00000000     0.00000000
     0.00000000     0.00000000     0.00000000
     0.00000000     0.00000000     0.00000000
     0.00000000     0.00000000     0.00000000
     0.00000000     0.00000000     0.00000000
     0.00000000     0.00000000     0.00000000
     0.00000000     0.00000000     0.00000000
     0.00000000     0.00000000     0.00000000
     0.00000000     0.00000000     0.00000000
     0.00000000     0.00000000     0.00000000
     0.00000000     0.00000000     0.00000000
     0.00000000     0.00000000     0.00000000
     0.00000000     0.00000000     0.00000000
     0.00000000     0.00000000     0.00000000
     0.00000000     0.00000000     0.00000000
     0.00000000     0.00000000     0.00000000
     0.00000000     0.00000000     0.00000000
     0.00000000     0.00000000     0.00000000
     0.00000000     0.00000000     0.00000000
     0.00000000     0.00000000     0.00000000
     0.00000000     0.00000000     0.00000000
     0.00000000     0.00000000     0.00000000
     0.00000000     0.00000000     0.00000000
     0.00000000     0.00000000     0.00000000
     0.00000000     0.00000000     0.00000000
     0.00000000     0.00000000     0.00000000
     0.00000000     0.00000000     0.00000000
     0.00000000     0.00000000     0.00000000
     0.00000000     0.00000000     0.00000000
     0.00000000     0.00000000     0.00000000
     0.00000000     0.00000000     0.00000000
     0.00000000     0.00000000     0.00000000
     0.00000000     0.00000000     0.00000000
     0.00000000     0.00000000     0.00000000
     0.00000000     0.00000000     0.00000000
     0.00000000     0.00000000     0.00000000
     0.00000000     0.00000000     0.00000000
     0.00000000     0.00000000     0.00000000
     0.00000000     0.00000000     0.00000000
     0.00000000     0.00000000     0.00000000
     0.00000000     0.00000000     0.00000000
     0.00000000     0.00000000     0.00000000
     0.00000000     0.00000000     0.00000000
     0.00000000     0.00000000     0.00000000
     0.00000000     0.00000000     0.00000000
     0.00000000     0.00000000     0.00000000
     0.00000000     0.00000000     0.00000000
     0.00000000     0.00000000     0.00000000
     0.00000000     0.00000000     0.00000000
     0.00000000     0.00000000     0.00000000
     0.00000000     0.00000000     0.00000000
     0.00000000     0.00000000     0.00000000
     0.00000000     0.00000000     0.00000000
     0.00000000     0.00000000     0.00000000
     0.00000000     0.00000000     0.00000000
     0.00000000     0.00000000     0.00000000
     0.00000000     0.00000000     0.00000000
     0.00000000     0.00000000     0.00000000
     0.00000000     0.00000000     0.00000000
     0.00000000     0.00000000     0.00000000
     0.00000000     0.00000000     0.00000000
     0.00000000     0.00000000     0.00000000
     0.00000000     0.00000000     0.00000000
     0.00000000     0.00000000     0.00000000
     0.00000000     0.00000000     0.00000000
     0.00000000     0.00000000     0.00000000
     0.00000000     0.00000000     0.00000000
     0.00000000     0.00000000     0.00000000
     0.00000000     0.00000000     0.00000000
     0.00000000     0.00000000     0.00000000
     0.00000000     0.00000000     0.00000000
     0.00000000     0.00000000     0.00000000
     0.00000000     0.00000000     0.00000000
     0.00000000     0.00000000     0.00000000
     0.00000000     0.00000000     0.00000000
     0.00000000     0.00000000     0.00000000
     0.00000000     0.00000000     0.00000000
     0.00000000     0.00000000     0.00000000
     0.00000000     0.00000000     0.00000000
     0.00000000     0.00000000     0.00000000
     0.00000000     0.00000000     0.00000000
     0.00000000     0.00000000     0.00000000
     0.00000000     0.00000000     0.00000000
     0.00000000     0.00000000     0.00000000
     0.00000000     0.00000000     0.00000000
     0.00000000     0.00000000     0.00000000
     0.00000000     0.00000000     0.00000000
     0.00000000     0.00000000     0.00000000
     0.00000000     0.00000000     0.00000000
     0.00000000     0.00000000     0.00000000
     0.00000000     0.00000000     0.00000000
     0.00000000     0.00000000     0.00000000
     0.00000000     0.00000000     0.00000000
     0.00000000     0.00000000     0.00000000
     0.00000000     0.00000000     0.00000000
     0.00000000     0.00000000     0.00000000
     0.00000000     0.00000000     0.00000000
     0.00000000     0.00000000     0.00000000
     0.00000000     0.00000000     0.00000000
     0.00000000     0.00000000     0.00000000
     0.00000000     0.00000000     0.00000000
     0.00000000     0.00000000     0.00000000
     0.00000000     0.00000000     0.00000000
     0.00000000     0.00000000     0.00000000
     0.00000000     0.00000000     0.00000000
     0.00000000     0.00000000     0.00000000
     0.00000000     0.00000000     0.00000000
     0.00000000     0.00000000     0.00000000
     0.00000000     0.00000000     0.00000000
     0.00000000     0.00000000     0.00000000
     0.00000000     0.00000000     0.00000000
     0.00000000     0.00000000     0.00000000
     0.00000000     0.00000000     0.00000000
     0.00000000     0.00000000     0.00000000
     0.00000000     0.00000000     0.00000000
     0.00000000     0.00000000     0.00000000
     0.00000000     0.00000000     0.00000000
     0.00000000     0.00000000     0.00000000
     0.00000000     0.00000000     0.00000000
     0.00000000     0.00000000     0.00000000
     0.00000000     0.00000000     0.00000000
     0.00000000     0.00000000     0.00000000
     0.00000000     0.00000000     0.00000000
     0.00000000     0.00000000     0.00000000
     0.00000000     0.00000000     0.00000000
     0.00000000     0.00000000     0.00000000
     0.00000000     0.00000000     0.00000000
     0.00000000     0.00000000     0.00000000
     0.00000000     0.00000000     0.00000000
     0.00000000     0.00000000     0.00000000
     0.00000000     0.00000000     0.00000000
     0.00000000     0.00000000     0.00000000
     0.00000000     0.00000000     0.00000000
     0.00000000     0.00000000     0.00000000
     0.00000000     0.00000000     0.00000000
     0.00000000     0.00000000     0.00000000
     0.00000000     0.00000000     0.00000000
     0.00000000     0.00000000     0.00000000
     0.00000000     0.00000000     0.00000000
     0.00000000     0.00000000     0.00000000
     0.00000000     0.00000000     0.00000000
     0.00000000     0.00000000     0.00000000
     0.00000000     0.00000000     0.00000000
     0.00000000     0.00000000     0.00000000
     0.00000000     0.00000000     0.00000000
     0.00000000     0.00000000     0.00000000
     0.00000000     0.00000000     0.00000000
     0.00000000     0.00000000     0.00000000
     0.00000000     0.00000000     0.00000000
     0.00000000     0.00000000     0.00000000
     0.00000000     0.00000000     0.00000000
     0.00000000     0.00000000     0.00000000
     0.00000000     0.00000000     0.00000000
     0.00000000     0.00000000     0.00000000
     0.00000000     0.00000000     0.00000000
     0.00000000     0.00000000     0.00000000
     0.00000000     0.00000000     0.00000000
     0.00000000     0.00000000     0.00000000
     0.00000000     0.00000000     0.00000000
     0.00000000     0.00000000     0.00000000
     0.00000000     0.00000000     0.00000000
     0.00000000     0.00000000     0.00000000
     0.00000000     0.00000000     0.00000000
     0.00000000     0.00000000     0.00000000
     0.00000000     0.00000000     0.00000000
     0.00000000     0.00000000     0.00000000
     0.00000000     0.00000000     0.00000000
     0.00000000     0.00000000     0.00000000
     0.00000000     0.00000000     0.00000000
     0.00000000     0.00000000     0.00000000
     0.00000000     0.00000000     0.00000000
     0.00000000     0.00000000     0.00000000
     0.00000000     0.00000000     0.00000000
     0.00000000     0.00000000     0.00000000
     0.00000000     0.00000000     0.00000000
     0.00000000     0.00000000     0.00000000
     0.00000000     0.00000000     0.00000000
     0.00000000     0.00000000     0.00000000
     0.00000000     0.00000000     0.00000000
     0.00000000     0.00000000     0.00000000
     0.00000000     0.00000000     0.00000000
     0.00000000     0.00000000     0.00000000
     0.00000000     0.00000000     0.00000000
     0.00000000     0.00000000     0.00000000
     0.00000000     0.00000000     0.00000000
     0.00000000     0.00000000     0.00000000
     0.00000000     0.00000000     0.00000000
     0.00000000     0.00000000     0.00000000
     0.00000000     0.00000000     0.00000000
     0.00000000     0.00000000     0.00000000
     0.00000000     0.00000000     0.00000000
     0.00000000     0.00000000     0.00000000
     0.00000000     0.00000000     0.00000000
     0.00000000     0.00000000     0.00000000
     0.00000000     0.00000000     0.00000000
     0.00000000     0.00000000     0.00000000
     0.00000000     0.00000000     0.00000000
     0.00000000     0.00000000     0.00000000
     0.00000000     0.00000000     0.00000000
     0.00000000     0.00000000     0.00000000
     0.00000000     0.00000000     0.00000000
     0.00000000     0.00000000     0.00000000
     0.00000000     0.00000000     0.00000000
     0.00000000     0.00000000     0.00000000
     0.00000000     0.00000000     0.00000000
     0.00000000     0.00000000     0.00000000
     0.00000000     0.00000000     0.00000000
     0.00000000     0.00000000     0.00000000
     0.00000000     0.00000000     0.00000000
     0.00000000     0.00000000     0.00000000
     0.00000000     0.00000000     0.00000000
     0.00000000     0.00000000     0.00000000
     0.00000000     0.00000000     0.00000000
     0.00000000     0.00000000     0.00000000
     0.00000000     0.00000000     0.00000000
     0.00000000     0.00000000     0.00000000
     0.00000000     0.00000000     0.00000000
     0.00000000     0.00000000     0.00000000
     0.00000000     0.00000000     0.00000000
     0.00000000     0.00000000     0.00000000
     0.00000000     0.00000000     0.00000000
     0.00000000     0.00000000     0.00000000
     0.00000000     0.00000000     0.00000000
     0.00000000     0.00000000     0.00000000
     0.00000000     0.00000000     0.00000000
     0.00000000     0.00000000     0.00000000
     0.00000000     0.00000000     0.00000000
     0.00000000     0.00000000     0.00000000
     0.00000000     0.00000000     0.00000000
     0.00000000     0.00000000     0.00000000
     0.00000000     0.00000000     0.00000000
     0.00000000     0.00000000     0.00000000
     0.00000000     0.00000000     0.00000000
     0.00000000     0.00000000     0.00000000
     0.00000000     0.00000000     0.00000000
     0.00000000     0.00000000     0.00000000
     0.00000000     0.00000000     0.00000000
     0.00000000     0.00000000     0.00000000
     0.00000000     0.00000000     0.00000000
     0.00000000     0.00000000     0.00000000
     0.00000000     0.00000000     0.00000000
     0.00000000     0.00000000     0.00000000
     0.00000000     0.00000000     0.00000000
     0.00000000     0.00000000     0.00000000
     0.00000000     0.00000000     0.00000000
     0.00000000     0.00000000     0.00000000
     0.00000000     0.00000000     0.00000000
     0.00000000     0.00000000     0.00000000
     0.00000000     0.00000000     0.00000000
     0.00000000     0.00000000     0.00000000
     0.00000000     0.00000000     0.00000000
     0.00000000     0.00000000     0.00000000
     0.00000000     0.00000000     0.00000000
     0.00000000     0.00000000     0.00000000
     0.00000000     0.00000000     0.00000000
     0.00000000     0.00000000     0.00000000
     0.00000000     0.00000000     0.00000000
     0.00000000     0.00000000     0.00000000
     0.00000000     0.00000000     0.00000000
     0.00000000     0.00000000     0.00000000
     0.00000000     0.00000000     0.00000000
     0.00000000     0.00000000     0.00000000
     0.00000000     0.00000000     0.00000000
     0.00000000     0.00000000     0.00000000
     0.00000000     0.00000000     0.00000000
     0.00000000     0.00000000     0.00000000
     0.00000000     0.00000000     0.00000000
     0.00000000     0.00000000     0.00000000
     0.00000000     0.00000000     0.00000000
     0.00000000     0.00000000     0.00000000
     0.00000000     0.00000000     0.00000000
     0.00000000     0.00000000     0.00000000
     0.00000000     0.00000000     0.00000000
     0.00000000     0.00000000     0.00000000
     0.00000000     0.00000000     0.00000000
     0.00000000     0.00000000     0.00000000
     0.00000000     0.00000000     0.00000000
     0.00000000     0.00000000     0.00000000
     0.00000000     0.00000000     0.00000000
     0.00000000     0.00000000     0.00000000
     0.00000000     0.00000000     0.00000000
     0.00000000     0.00000000     0.00000000
     0.00000000     0.00000000     0.00000000
     0.00000000     0.00000000     0.00000000
     0.00000000     0.00000000     0.00000000
     0.00000000     0.00000000     0.00000000
     0.00000000     0.00000000     0.00000000
     0.00000000     0.00000000     0.00000000
     0.00000000     0.00000000     0.00000000
     0.00000000     0.00000000     0.00000000
     0.00000000     0.00000000     0.00000000
     0.00000000     0.00000000     0.00000000
     0.00000000     0.00000000     0.00000000
     0.00000000     0.00000000     0.00000000
     0.00000000     0.00000000     0.00000000
     0.00000000     0.00000000     0.00000000
     0.00000000     0.00000000     0.00000000
     0.00000000     0.00000000     0.00000000
     0.00000000     0.00000000     0.00000000
     0.00000000     0.00000000     0.00000000
     0.00000000     0.00000000     0.00000000
     0.00000000     0.00000000     0.00000000
     0.00000000     0.00000000     0.00000000
     0.00000000     0.00000000     0.00000000
     0.00000000     0.00000000     0.00000000
     0.00000000     0.00000000     0.00000000
     0.00000000     0.00000000     0.00000000
     0.00000000     0.00000000     0.00000000
     0.00000000     0.00000000     0.00000000
     0.00000000     0.00000000     0.00000000
     0.00000000     0.00000000     0.00000000
     0.00000000     0.00000000     0.00000000
     0.00000000     0.00000000     0.00000000
     0.00000000     0.00000000     0.00000000
     0.00000000     0.00000000     0.00000000
     0.00000000     0.00000000     0.00000000
     0.00000000     0.00000000     0.00000000
     0.00000000     0.00000000     0.00000000
     0.00000000     0.00000000     0.00000000
     0.00000000     0.00000000     0.00000000
     0.00000000     0.00000000     0.00000000
     0.00000000     0.00000000     0.00000000
     0.00000000     0.00000000     0.00000000
     0.00000000     0.00000000     0.00000000
     0.00000000     0.00000000     0.00000000
     0.00000000     0.00000000     0.00000000
     0.00000000     0.00000000     0.00000000
     0.00000000     0.00000000     0.00000000
     0.00000000     0.00000000     0.00000000
     0.00000000     0.00000000     0.00000000
     0.00000000     0.00000000     0.00000000
     0.00000000     0.00000000     0.00000000
     0.00000000     0.00000000     0.00000000
     0.00000000     0.00000000     0.00000000
     0.00000000     0.00000000     0.00000000
     0.00000000     0.00000000     0.00000000
     0.00000000     0.00000000     0.00000000
     0.00000000     0.00000000     0.00000000
     0.00000000     0.00000000     0.00000000
     0.00000000     0.00000000     0.00000000
     0.00000000     0.00000000     0.00000000
     0.00000000     0.00000000     0.00000000
     0.00000000     0.00000000     0.00000000
     0.00000000     0.00000000     0.00000000
     0.00000000     0.00000000     0.00000000
     0.00000000     0.00000000     0.00000000
     0.00000000     0.00000000     0.00000000
     0.00000000     0.00000000     0.00000000
     0.00000000     0.00000000     0.00000000
     0.00000000     0.00000000     0.00000000
     0.00000000     0.00000000     0.00000000
     0.00000000     0.00000000     0.00000000
     0.00000000     0.00000000     0.00000000
     0.00000000     0.00000000     0.00000000
     0.00000000     0.00000000     0.00000000
     0.00000000     0.00000000     0.00000000
     0.00000000     0.00000000     0.00000000
     0.00000000     0.00000000     0.00000000
     0.00000000     0.00000000     0.00000000
     0.00000000     0.00000000     0.00000000
     0.00000000     0.00000000     0.00000000
     0.00000000     0.00000000     0.00000000
     0.00000000     0.00000000     0.00000000
     0.00000000     0.00000000     0.00000000
     0.00000000     0.00000000     0.00000000
     0.00000000     0.00000000     0.00000000
     0.00000000     0.00000000     0.00000000
     0.00000000     0.00000000     0.00000000
     0.00000000     0.00000000     0.00000000
     0.00000000     0.00000000     0.00000000
     0.00000000     0.00000000     0.00000000
     0.00000000     0.00000000     0.00000000
     0.00000000     0.00000000     0.00000000
     0.00000000     0.00000000     0.00000000
     0.00000000     0.00000000     0.00000000
     0.00000000     0.00000000     0.00000000
     0.00000000     0.00000000     0.00000000
     0.00000000     0.00000000     0.00000000
     0.00000000     0.00000000     0.00000000
     0.00000000     0.00000000     0.00000000
     0.00000000     0.00000000     0.00000000
     0.00000000     0.00000000     0.00000000
     0.00000000     0.00000000     0.00000000
     0.00000000     0.00000000     0.00000000
     0.00000000     0.00000000     0.00000000
     0.00000000     0.00000000     0.00000000
     0.00000000     0.00000000     0.00000000
     0.00000000     0.00000000     0.00000000
     0.00000000     0.00000000     0.00000000
     0.00000000     0.00000000     0.00000000
     0.00000000     0.00000000     0.00000000
     0.00000000     0.00000000     0.00000000
     0.00000000     0.00000000     0.00000000
     0.00000000     0.00000000     0.00000000
     0.00000000     0.00000000     0.00000000
     0.00000000     0.00000000     0.00000000
     0.00000000     0.00000000     0.00000000
     0.00000000     0.00000000     0.00000000
     0.00000000     0.00000000     0.00000000
     0.00000000     0.00000000     0.00000000
     0.00000000     0.00000000     0.00000000
     0.00000000     0.00000000     0.00000000
     0.00000000     0.00000000     0.00000000
     0.00000000     0.00000000     0.00000000
     0.00000000     0.00000000     0.00000000
     0.00000000     0.00000000     0.00000000
     0.00000000     0.00000000     0.00000000
     0.00000000     0.00000000     0.00000000
     0.00000000     0.00000000     0.00000000
     0.00000000     0.00000000     0.00000000
     0.00000000     0.00000000     0.00000000
     0.00000000     0.00000000     0.00000000
     0.00000000     0.00000000     0.00000000
     0.00000000     0.00000000     0.00000000
     0.00000000     0.00000000     0.00000000
     0.00000000     0.00000000     0.00000000
     0.00000000     0.00000000     0.00000000
     0.00000000     0.00000000     0.00000000
     0.00000000     0.00000000     0.00000000
     0.00000000     0.00000000     0.00000000
     0.00000000     0.00000000     0.00000000
     0.00000000     0.00000000     0.00000000
     0.00000000     0.00000000     0.00000000
     0.00000000     0.00000000     0.00000000
     0.00000000     0.00000000     0.00000000
     0.00000000     0.00000000     0.00000000
     0.00000000     0.00000000     0.00000000
     0.00000000     0.00000000     0.00000000
     0.00000000     0.00000000     0.00000000
     0.00000000     0.00000000     0.00000000
     0.00000000     0.00000000     0.00000000
     0.00000000     0.00000000     0.00000000
     0.00000000     0.00000000     0.00000000
     0.00000000     0.00000000     0.00000000
     0.00000000     0.00000000     0.00000000
     0.00000000     0.00000000     0.00000000
     0.00000000     0.00000000     0.00000000
     0.00000000     0.00000000     0.00000000
     0.00000000     0.00000000     0.00000000
     0.00000000     0.00000000     0.00000000
     0.00000000     0.00000000     0.00000000
     0.00000000     0.00000000     0.00000000
     0.00000000     0.00000000     0.00000000
     0.00000000     0.00000000     0.00000000
     0.00000000     0.00000000     0.00000000
     0.00000000     0.00000000     0.00000000
     0.00000000     0.00000000     0.00000000
     0.00000000     0.00000000     0.00000000
     0.00000000     0.00000000     0.00000000
     0.00000000     0.00000000     0.00000000
     0.00000000     0.00000000     0.00000000
     0.00000000     0.00000000     0.00000000
     0.00000000     0.00000000     0.00000000
     0.00000000     0.00000000     0.00000000
     0.00000000     0.00000000     0.00000000
     0.00000000     0.00000000     0.00000000
     0.00000000     0.00000000     0.00000000
     0.00000000     0.00000000     0.00000000
     0.00000000     0.00000000     0.00000000
     0.00000000     0.00000000     0.00000000
     0.00000000     0.00000000     0.00000000
     0.00000000     0.00000000     0.00000000
     0.00000000     0.00000000     0.00000000
     0.00000000     0.00000000     0.00000000
     0.00000000     0.00000000     0.00000000
     0.00000000     0.00000000     0.00000000
     0.00000000     0.00000000     0.00000000
     0.00000000     0.00000000     0.00000000
     0.00000000     0.00000000     0.00000000
     0.00000000     0.00000000     0.00000000
     0.00000000     0.00000000     0.00000000
     0.00000000     0.00000000     0.00000000
     0.00000000     0.00000000     0.00000000
     0.00000000     0.00000000     0.00000000
     0.00000000     0.00000000     0.00000000
     0.00000000     0.00000000     0.00000000
     0.00000000     0.00000000     0.00000000
     0.00000000     0.00000000     0.00000000
     0.00000000     0.00000000     0.00000000
     0.00000000     0.00000000     0.00000000
     0.00000000     0.00000000     0.00000000
     0.00000000     0.00000000     0.00000000
     0.00000000     0.00000000     0.00000000
     0.00000000     0.00000000     0.00000000
     0.00000000     0.00000000     0.00000000
     0.00000000     0.00000000     0.00000000
     0.00000000     0.00000000     0.00000000
     0.00000000     0.00000000     0.00000000
     0.00000000     0.00000000     0.00000000
     0.00000000     0.00000000     0.00000000
     0.00000000     0.00000000     0.00000000
     0.00000000     0.00000000     0.00000000
     0.00000000     0.00000000     0.00000000
     0.00000000     0.00000000     0.00000000
     0.00000000     0.00000000     0.00000000
     0.00000000     0.00000000     0.00000000
     0.00000000     0.00000000     0.00000000
     0.00000000     0.00000000     0.00000000
     0.00000000     0.00000000     0.00000000
     0.00000000     0.00000000     0.00000000
     0.00000000     0.00000000     0.00000000
     0.00000000     0.00000000     0.00000000
     0.00000000     0.00000000     0.00000000
     0.00000000     0.00000000     0.00000000
     0.00000000     0.00000000     0.00000000
     0.00000000     0.00000000     0.00000000
     0.00000000     0.00000000     0.00000000
     0.00000000     0.00000000     0.00000000
     0.00000000     0.00000000     0.00000000
     0.00000000     0.00000000     0.00000000
     0.00000000     0.00000000     0.00000000
     0.00000000     0.00000000     0.00000000
     0.00000000     0.00000000     0.00000000
     0.00000000     0.00000000     0.00000000
     0.00000000     0.00000000     0.00000000
     0.00000000     0.00000000     0.00000000
     0.00000000     0.00000000     0.00000000
     0.00000000     0.00000000     0.00000000
     0.00000000     0.00000000     0.00000000
     0.00000000     0.00000000     0.00000000
     0.00000000     0.00000000     0.00000000
     0.00000000     0.00000000     0.00000000
     0.00000000     0.00000000     0.00000000
     0.00000000     0.00000000     0.00000000
     0.00000000     0.00000000     0.00000000
     0.00000000     0.00000000     0.00000000
     0.00000000     0.00000000     0.00000000
     0.00000000     0.00000000     0.00000000
     0.00000000     0.00000000     0.00000000
     0.00000000     0.00000000     0.00000000
     0.00000000     0.00000000     0.00000000
     0.00000000     0.00000000     0.00000000
     0.00000000     0.00000000     0.00000000
     0.00000000     0.00000000     0.00000000
     0.00000000     0.00000000     0.00000000
     0.00000000     0.00000000     0.00000000
     0.00000000     0.00000000     0.00000000
     0.00000000     0.00000000     0.00000000
     0.00000000     0.00000000     0.00000000
     0.00000000     0.00000000     0.00000000
     0.00000000     0.00000000     0.00000000
     0.00000000     0.00000000     0.00000000
     0.00000000     0.00000000     0.00000000
     0.00000000     0.00000000     0.00000000
     0.00000000     0.00000000     0.00000000
     0.00000000     0.00000000     0.00000000
     0.00000000     0.00000000     0.00000000
     0.00000000     0.00000000     0.00000000
     0.00000000     0.00000000     0.00000000
     0.00000000     0.00000000     0.00000000
     0.00000000     0.00000000     0.00000000
     0.00000000     0.00000000     0.00000000
     0.00000000     0.00000000     0.00000000
     0.00000000     0.00000000     0.00000000
     0.00000000     0.00000000     0.00000000
     0.00000000     0.00000000     0.00000000
     0.00000000     0.00000000     0.00000000
     0.00000000     0.00000000     0.00000000
     0.00000000     0.00000000     0.00000000
     0.00000000     0.00000000     0.00000000
     0.00000000     0.00000000     0.00000000
     0.00000000     0.00000000     0.00000000
     0.00000000     0.00000000     0.00000000
     0.00000000     0.00000000     0.00000000
     0.00000000     0.00000000     0.00000000
     0.00000000     0.00000000     0.00000000
     0.00000000     0.00000000     0.00000000
     0.00000000     0.00000000     0.00000000
     0.00000000     0.00000000     0.00000000
     0.00000000     0.00000000     0.00000000
     0.00000000     0.00000000     0.00000000
     0.00000000     0.00000000     0.00000000
     0.00000000     0.00000000     0.00000000
     0.00000000     0.00000000     0.00000000
     0.00000000     0.00000000     0.00000000
     0.00000000     0.00000000     0.00000000
     0.00000000     0.00000000     0.00000000
     0.00000000     0.00000000     0.00000000
     0.00000000     0.00000000     0.00000000
     0.00000000     0.00000000     0.00000000
     0.00000000     0.00000000     0.00000000
     0.00000000     0.00000000     0.00000000
     0.00000000     0.00000000     0.00000000
     0.00000000     0.00000000     0.00000000
     0.00000000     0.00000000     0.00000000
     0.00000000     0.00000000     0.00000000
     0.00000000     0.00000000     0.00000000
     0.00000000     0.00000000     0.00000000
     0.00000000     0.00000000     0.00000000
     0.00000000     0.00000000     0.00000000
     0.00000000     0.00000000     0.00000000
     0.00000000     0.00000000     0.00000000
     0.00000000     0.00000000     0.00000000
     0.00000000     0.00000000     0.00000000
     0.00000000     0.00000000     0.00000000
     0.00000000     0.00000000     0.00000000
     0.00000000     0.00000000     0.00000000
     0.00000000     0.00000000     0.00000000
     0.00000000     0.00000000     0.00000000
     0.00000000     0.00000000     0.00000000
     0.00000000     0.00000000     0.00000000
     0.00000000     0.00000000     0.00000000
     0.00000000     0.00000000     0.00000000
     0.00000000     0.00000000     0.00000000
     0.00000000     0.00000000     0.00000000
     0.00000000     0.00000000     0.00000000
     0.00000000     0.00000000     0.00000000
     0.00000000     0.00000000     0.00000000
     0.00000000     0.00000000     0.00000000
     0.00000000     0.00000000     0.00000000
     0.00000000     0.00000000     0.00000000
     0.00000000     0.00000000     0.00000000
     0.00000000     0.00000000     0.00000000
     0.00000000     0.00000000     0.00000000
     0.00000000     0.00000000     0.00000000
     0.00000000     0.00000000     0.00000000
     0.00000000     0.00000000     0.00000000
     0.00000000     0.00000000     0.00000000
     0.00000000     0.00000000     0.00000000
     0.00000000     0.00000000     0.00000000
     0.00000000     0.00000000     0.00000000
     0.00000000     0.00000000     0.00000000
     0.00000000     0.00000000     0.00000000
     0.00000000     0.00000000     0.00000000
     0.00000000     0.00000000     0.00000000
     0.00000000     0.00000000     0.00000000
     0.00000000     0.00000000     0.00000000
     0.00000000     0.00000000     0.00000000
     0.00000000     0.00000000     0.00000000
     0.00000000     0.00000000     0.00000000
     0.00000000     0.00000000     0.00000000
     0.00000000     0.00000000     0.00000000
     0.00000000     0.00000000     0.00000000
     0.00000000     0.00000000     0.00000000
     0.00000000     0.00000000     0.00000000
     0.00000000     0.00000000     0.00000000
     0.00000000     0.00000000     0.00000000
     0.00000000     0.00000000     0.00000000
     0.00000000     0.00000000     0.00000000
     0.00000000     0.00000000     0.00000000
     0.00000000     0.00000000     0.00000000
     0.00000000     0.00000000     0.00000000
     0.00000000     0.00000000     0.00000000
     0.00000000     0.00000000     0.00000000
     0.00000000     0.00000000     0.00000000
     0.00000000     0.00000000     0.00000000
     0.00000000     0.00000000     0.00000000
     0.00000000     0.00000000     0.00000000
     0.00000000     0.00000000     0.00000000
     0.00000000     0.00000000     0.00000000
     0.00000000     0.00000000     0.00000000
     0.00000000     0.00000000     0.00000000
     0.00000000     0.00000000     0.00000000
     0.00000000     0.00000000     0.00000000
     0.00000000     0.00000000     0.00000000
     0.00000000     0.00000000     0.00000000
     0.00000000     0.00000000     0.00000000
     0.00000000     0.00000000     0.00000000
     0.00000000     0.00000000     0.00000000
     0.00000000     0.00000000     0.00000000
     0.00000000     0.00000000     0.00000000
     0.00000000     0.00000000     0.00000000
     0.00000000     0.00000000     0.00000000
     0.00000000     0.00000000     0.00000000
     0.00000000     0.00000000     0.00000000
     0.00000000     0.00000000     0.00000000
     0.00000000     0.00000000     0.00000000
     0.00000000     0.00000000     0.00000000
     0.00000000     0.00000000     0.00000000
     0.00000000     0.00000000     0.00000000
     0.00000000     0.00000000     0.00000000
     0.00000000     0.00000000     0.00000000
     0.00000000     0.00000000     0.00000000
     0.00000000     0.00000000     0.00000000
     0.00000000     0.00000000     0.00000000
     0.00000000     0.00000000     0.00000000
     0.00000000     0.00000000     0.00000000
     0.00000000     0.00000000     0.00000000
     0.00000000     0.00000000     0.00000000
     0.00000000     0.00000000     0.00000000
     0.00000000     0.00000000     0.00000000
     0.00000000     0.00000000     0.00000000
     0.00000000     0.00000000     0.00000000
     0.00000000     0.00000000     0.00000000
     0.00000000     0.00000000     0.00000000
     0.00000000     0.00000000     0.00000000
     0.00000000     0.00000000     0.00000000
     0.00000000     0.00000000     0.00000000
     0.00000000     0.00000000     0.00000000
     0.00000000     0.00000000     0.00000000
     0.00000000     0.00000000     0.00000000
     0.00000000     0.00000000     0.00000000
     0.00000000     0.00000000     0.00000000
     0.00000000     0.00000000     0.00000000
     0.00000000     0.00000000     0.00000000
     0.00000000     0.00000000     0.00000000
     0.00000000     0.00000000     0.00000000
     0.00000000     0.00000000     0.00000000
     0.00000000     0.00000000     0.00000000
     0.00000000     0.00000000     0.00000000
     0.00000000     0.00000000     0.00000000
     0.00000000     0.00000000     0.00000000
     0.00000000     0.00000000     0.00000000
     0.00000000     0.00000000     0.00000000
     0.00000000     0.00000000     0.00000000
     0.00000000     0.00000000     0.00000000
     0.00000000     0.00000000     0.00000000
     0.00000000     0.00000000     0.00000000
     0.00000000     0.00000000     0.00000000
     0.00000000     0.00000000     0.00000000
     0.00000000     0.00000000     0.00000000
     0.00000000     0.00000000     0.00000000
     0.00000000     0.00000000     0.00000000
     0.00000000     0.00000000     0.00000000
     0.00000000     0.00000000     0.00000000
     0.00000000     0.00000000     0.00000000
     0.00000000     0.00000000     0.00000000
     0.00000000     0.00000000     0.00000000
     0.00000000     0.00000000     0.00000000
     0.00000000     0.00000000     0.00000000
     0.00000000     0.00000000     0.00000000
     0.00000000     0.00000000     0.00000000
     0.00000000     0.00000000     0.00000000
     0.00000000     0.00000000     0.00000000
     0.00000000     0.00000000     0.00000000
     0.00000000     0.00000000     0.00000000
     0.00000000     0.00000000     0.00000000
     0.00000000     0.00000000     0.00000000
     0.00000000     0.00000000     0.00000000
     0.00000000     0.00000000     0.00000000
     0.00000000     0.00000000     0.00000000
     0.00000000     0.00000000     0.00000000
     0.00000000     0.00000000     0.00000000
     0.00000000     0.00000000     0.00000000
     0.00000000     0.00000000     0.00000000
     0.00000000     0.00000000     0.00000000
     0.00000000     0.00000000     0.00000000
     0.00000000     0.00000000     0.00000000
     0.00000000     0.00000000     0.00000000
     0.00000000     0.00000000     0.00000000
     0.00000000     0.00000000     0.00000000
     0.00000000     0.00000000     0.00000000
     0.00000000     0.00000000     0.00000000
     0.00000000     0.00000000     0.00000000
     0.00000000     0.00000000     0.00000000
     0.00000000     0.00000000     0.00000000
     0.00000000     0.00000000     0.00000000
     0.00000000     0.00000000     0.00000000
     0.00000000     0.00000000     0.00000000
     0.00000000     0.00000000     0.00000000
     0.00000000     0.00000000     0.00000000
     0.00000000     0.00000000     0.00000000
     0.00000000     0.00000000     0.00000000
     0.00000000     0.00000000     0.00000000
     0.00000000     0.00000000     0.00000000
     0.00000000     0.00000000     0.00000000
     0.00000000     0.00000000     0.00000000
     0.00000000     0.00000000     0.00000000
     0.00000000     0.00000000     0.00000000
     0.00000000     0.00000000     0.00000000
     0.00000000     0.00000000     0.00000000
     0.00000000     0.00000000     0.00000000
     0.00000000     0.00000000     0.00000000
     0.00000000     0.00000000     0.00000000
     0.00000000     0.00000000     0.00000000
     0.00000000     0.00000000     0.00000000
     0.00000000     0.00000000     0.00000000
     0.00000000     0.00000000     0.00000000
     0.00000000     0.00000000     0.00000000
     0.00000000     0.00000000     0.00000000
     0.00000000     0.00000000     0.00000000
     0.00000000     0.00000000     0.00000000
     0.00000000     0.00000000     0.00000000
     0.00000000     0.00000000     0.00000000
     0.00000000     0.00000000     0.00000000
     0.00000000     0.00000000     0.00000000
     0.00000000     0.00000000     0.00000000
     0.00000000     0.00000000     0.00000000
     0.00000000     0.00000000     0.00000000
     0.00000000     0.00000000     0.00000000
     0.00000000     0.00000000     0.00000000
     0.00000000     0.00000000     0.00000000
     0.00000000     0.00000000     0.00000000
     0.00000000     0.00000000     0.00000000
     0.00000000     0.00000000     0.00000000
     0.00000000     0.00000000     0.00000000
     0.00000000     0.00000000     0.00000000
     0.00000000     0.00000000     0.00000000
     0.00000000     0.00000000     0.00000000
     0.00000000     0.00000000     0.00000000
     0.00000000     0.00000000     0.00000000
     0.00000000     0.00000000     0.00000000
     0.00000000     0.00000000     0.00000000
     0.00000000     0.00000000     0.00000000
     0.00000000     0.00000000     0.00000000
     0.00000000     0.00000000     0.00000000
     0.00000000     0.00000000     0.00000000
     0.00000000     0.00000000     0.00000000
     0.00000000     0.00000000     0.00000000
     0.00000000     0.00000000     0.00000000
     0.00000000     0.00000000     0.00000000
     0.00000000     0.00000000     0.00000000
     0.00000000     0.00000000     0.00000000
     0.00000000     0.00000000     0.00000000
     0.00000000     0.00000000     0.00000000
     0.00000000     0.00000000     0.00000000
     0.00000000     0.00000000     0.00000000
     0.00000000     0.00000000     0.00000000
     0.00000000     0.00000000     0.00000000
     0.00000000     0.00000000     0.00000000
     0.00000000     0.00000000     0.00000000
     0.00000000     0.00000000     0.00000000
     0.00000000     0.00000000     0.00000000
     0.00000000     0.00000000     0.00000000
     0.00000000     0.00000000     0.00000000
     0.00000000     0.00000000     0.00000000
     0.00000000     0.00000000     0.00000000
     0.00000000     0.00000000     0.00000000
     0.00000000     0.00000000     0.00000000
     0.00000000     0.00000000     0.00000000
     0.00000000     0.00000000     0.00000000
     0.00000000     0.00000000     0.00000000
     0.00000000     0.00000000     0.00000000
     0.00000000     0.00000000     0.00000000
     0.00000000     0.00000000     0.00000000
     0.00000000     0.00000000     0.00000000
     0.00000000     0.00000000     0.00000000
     0.00000000     0.00000000     0.00000000
     0.00000000     0.00000000     0.00000000
     0.00000000     0.00000000     0.00000000
     0.00000000     0.00000000     0.00000000
     0.00000000     0.00000000     0.00000000
     0.00000000     0.00000000     0.00000000
     0.00000000     0.00000000     0.00000000
     0.00000000     0.00000000     0.00000000
     0.00000000     0.00000000     0.00000000
     0.00000000     0.00000000     0.00000000
     0.00000000     0.00000000     0.00000000
     0.00000000     0.00000000     0.00000000
     0.00000000     0.00000000     0.00000000
     0.00000000     0.00000000     0.00000000
     0.00000000     0.00000000     0.00000000
     0.00000000     0.00000000     0.00000000
     0.00000000     0.00000000     0.00000000
     0.00000000     0.00000000     0.00000000
     0.00000000     0.00000000     0.00000000
     0.00000000     0.00000000     0.00000000
     0.00000000     0.00000000     0.00000000
     0.00000000     0.00000000     0.00000000
     0.00000000     0.00000000     0.00000000
     0.00000000     0.00000000     0.00000000
     0.00000000     0.00000000     0.00000000
     0.00000000     0.00000000     0.00000000
     0.00000000     0.00000000     0.00000000
     0.00000000     0.00000000     0.00000000
     0.00000000     0.00000000     0.00000000
     0.00000000     0.00000000     0.00000000
     0.00000000     0.00000000     0.00000000
     0.00000000     0.00000000     0.00000000
     0.00000000     0.00000000     0.00000000
     0.00000000     0.00000000     0.00000000
     0.00000000     0.00000000     0.00000000
     0.00000000     0.00000000     0.00000000
     0.00000000     0.00000000     0.00000000
     0.00000000     0.00000000     0.00000000
     0.00000000     0.00000000     0.00000000
     0.00000000     0.00000000     0.00000000
     0.00000000     0.00000000     0.00000000
     0.00000000     0.00000000     0.00000000
     0.00000000     0.00000000     0.00000000
     0.00000000     0.00000000     0.00000000
     0.00000000     0.00000000     0.00000000
     0.00000000     0.00000000     0.00000000
     0.00000000     0.00000000     0.00000000
     0.00000000     0.00000000     0.00000000
     0.00000000     0.00000000     0.00000000
     0.00000000     0.00000000     0.00000000
     0.00000000     0.00000000     0.00000000
     0.00000000     0.00000000     0.00000000
     0.00000000     0.00000000     0.00000000
     0.00000000     0.00000000     0.00000000
     0.00000000     0.00000000     0.00000000
     0.00000000     0.00000000     0.00000000
     0.00000000     0.00000000     0.00000000
     0.00000000     0.00000000     0.00000000
     0.00000000     0.00000000     0.00000000
     0.00000000     0.00000000     0.00000000
     0.00000000     0.00000000     0.00000000
     0.00000000     0.00000000     0.00000000
     0.00000000     0.00000000     0.00000000
     0.00000000     0.00000000     0.00000000
     0.00000000     0.00000000     0.00000000
     0.00000000     0.00000000     0.00000000
     0.00000000     0.00000000     0.00000000
     0.00000000     0.00000000     0.00000000
     0.00000000     0.00000000     0.00000000
     0.00000000     0.00000000     0.00000000
     0.00000000     0.00000000     0.00000000
     0.00000000     0.00000000     0.00000000
     0.00000000     0.00000000     0.00000000
     0.00000000     0.00000000     0.00000000
     0.00000000     0.00000000     0.00000000
     0.00000000     0.00000000     0.00000000
     0.00000000     0.00000000     0.00000000
     0.00000000     0.00000000     0.00000000
     0.00000000     0.00000000     0.00000000
     0.00000000     0.00000000     0.00000000
     0.00000000     0.00000000     0.00000000
     0.00000000     0.00000000     0.00000000
     0.00000000     0.00000000     0.00000000
     0.00000000     0.00000000     0.00000000
     0.00000000     0.00000000     0.00000000
     0.00000000     0.00000000     0.00000000
     0.00000000     0.00000000     0.00000000
     0.00000000     0.00000000     0.00000000
     0.00000000     0.00000000     0.00000000
     0.00000000     0.00000000     0.00000000
     0.00000000     0.00000000     0.00000000
     0.00000000     0.00000000     0.00000000
     0.00000000     0.00000000     0.00000000
     0.00000000     0.00000000     0.00000000
     0.00000000     0.00000000     0.00000000
     0.00000000     0.00000000     0.00000000
     0.00000000     0.00000000     0.00000000
     0.00000000     0.00000000     0.00000000
     0.00000000     0.00000000     0.00000000
     0.00000000     0.00000000     0.00000000
     0.00000000     0.00000000     0.00000000
     0.00000000     0.00000000     0.00000000
     0.00000000     0.00000000     0.00000000
     0.00000000     0.00000000     0.00000000
     0.00000000     0.00000000     0.00000000
     0.00000000     0.00000000     0.00000000
     0.00000000     0.00000000     0.00000000
     0.00000000     0.00000000     0.00000000
     0.00000000     0.00000000     0.00000000
     0.00000000     0.00000000     0.00000000
     0.00000000     0.00000000     0.00000000
     0.00000000     0.00000000     0.00000000
     0.00000000     0.00000000     0.00000000
     0.00000000     0.00000000     0.00000000
     0.00000000     0.00000000     0.00000000
     0.00000000     0.00000000     0.00000000
     0.00000000     0.00000000     0.00000000
     0.00000000     0.00000000     0.00000000
     0.00000000     0.00000000     0.00000000
     0.00000000     0.00000000     0.00000000
     0.00000000     0.00000000     0.00000000
     0.00000000     0.00000000     0.00000000
     0.00000000     0.00000000     0.00000000
     0.00000000     0.00000000     0.00000000
     0.00000000     0.00000000     0.00000000
     0.00000000     0.00000000     0.00000000
     0.00000000     0.00000000     0.00000000
     0.00000000     0.00000000     0.00000000
     0.00000000     0.00000000     0.00000000
     0.00000000     0.00000000     0.00000000
     0.00000000     0.00000000     0.00000000
     0.00000000     0.00000000     0.00000000
     0.00000000     0.00000000     0.00000000
     0.00000000     0.00000000     0.00000000
     0.00000000     0.00000000     0.00000000
     0.00000000     0.00000000     0.00000000
     0.00000000     0.00000000     0.00000000
     0.00000000     0.00000000     0.00000000
     0.00000000     0.00000000     0.00000000
     0.00000000     0.00000000     0.00000000
     0.00000000     0.00000000     0.00000000
     0.00000000     0.00000000     0.00000000
     0.00000000     0.00000000     0.00000000
     0.00000000     0.00000000     0.00000000
     0.00000000     0.00000000     0.00000000
     0.00000000     0.00000000     0.00000000
     0.00000000     0.00000000     0.00000000
     0.00000000     0.00000000     0.00000000
     0.00000000     0.00000000     0.00000000
     0.00000000     0.00000000     0.00000000
     0.00000000     0.00000000     0.00000000
     0.00000000     0.00000000     0.00000000
     0.00000000     0.00000000     0.00000000
     0.00000000     0.00000000     0.00000000
     0.00000000     0.00000000     0.00000000
     0.00000000     0.00000000     0.00000000
     0.00000000     0.00000000     0.00000000
     0.00000000     0.00000000     0.00000000
     0.00000000     0.00000000     0.00000000
     0.00000000     0.00000000     0.00000000
     0.00000000     0.00000000     0.00000000
     0.00000000     0.00000000     0.00000000
     0.00000000     0.00000000     0.00000000
     0.00000000     0.00000000     0.00000000
     0.00000000     0.00000000     0.00000000
     0.00000000     0.00000000     0.00000000
     0.00000000     0.00000000     0.00000000
     0.00000000     0.00000000     0.00000000
     0.00000000     0.00000000     0.00000000
     0.00000000     0.00000000     0.00000000
     0.00000000     0.00000000     0.00000000
     0.00000000     0.00000000     0.00000000
     0.00000000     0.00000000     0.00000000
     0.00000000     0.00000000     0.00000000
     0.00000000     0.00000000     0.00000000
     0.00000000     0.00000000     0.00000000
     0.00000000     0.00000000     0.00000000
     0.00000000     0.00000000     0.00000000
     0.00000000     0.00000000     0.00000000
     0.00000000     0.00000000     0.00000000
     0.00000000     0.00000000     0.00000000
     0.00000000     0.00000000     0.00000000
     0.00000000     0.00000000     0.00000000
     0.00000000     0.00000000     0.00000000
     0.00000000     0.00000000     0.00000000
     0.00000000     0.00000000     0.00000000
     0.00000000     0.00000000     0.00000000
     0.00000000     0.00000000     0.00000000
     0.00000000     0.00000000     0.00000000
     0.00000000     0.00000000     0.00000000
     0.00000000     0.00000000     0.00000000
     0.00000000     0.00000000     0.00000000
     0.00000000     0.00000000     0.00000000
     0.00000000     0.00000000     0.00000000
     0.00000000     0.00000000     0.00000000
     0.00000000     0.00000000     0.00000000
     0.00000000     0.00000000     0.00000000
     0.00000000     0.00000000     0.00000000
     0.00000000     0.00000000     0.00000000
     0.00000000     0.00000000     0.00000000
     0.00000000     0.00000000     0.00000000
     0.00000000     0.00000000     0.00000000
     0.00000000     0.00000000     0.00000000
     0.00000000     0.00000000     0.00000000
     0.00000000     0.00000000     0.00000000
     0.00000000     0.00000000     0.00000000
     0.00000000     0.00000000     0.00000000
     0.00000000     0.00000000     0.00000000
     0.00000000     0.00000000     0.00000000
     0.00000000     0.00000000     0.00000000
     0.00000000     0.00000000     0.00000000
     0.00000000     0.00000000     0.00000000
     0.00000000     0.00000000     0.00000000
     0.00000000     0.00000000     0.00000000
     0.00000000     0.00000000     0.00000000
     0.00000000     0.00000000     0.00000000
     0.00000000     0.00000000     0.00000000
     0.00000000     0.00000000     0.00000000
     0.00000000     0.00000000     0.00000000
     0.00000000     0.00000000     0.00000000
     0.00000000     0.00000000     0.00000000
     0.00000000     0.00000000     0.00000000
     0.00000000     0.00000000     0.00000000
     0.00000000     0.00000000     0.00000000
     0.00000000     0.00000000     0.00000000
     0.00000000     0.00000000     0.00000000
     0.00000000     0.00000000     0.00000000
     0.00000000     0.00000000     0.00000000
     0.00000000     0.00000000     0.00000000
     0.00000000     0.00000000     0.00000000
     0.00000000     0.00000000     0.00000000
     0.00000000     0.00000000     0.00000000
     0.00000000     0.00000000     0.00000000
     0.00000000     0.00000000     0.00000000
     0.00000000     0.00000000     0.00000000
     0.00000000     0.00000000     0.00000000
     0.00000000     0.00000000     0.00000000
     0.00000000     0.00000000     0.00000000
     0.00000000     0.00000000     0.00000000
     0.00000000     0.00000000     0.00000000
     0.00000000     0.00000000     0.00000000
     0.00000000     0.00000000     0.00000000
     0.00000000     0.00000000     0.00000000
     0.00000000     0.00000000     0.00000000
     0.00000000     0.00000000     0.00000000
     0.00000000     0.00000000     0.00000000
     0.00000000     0.00000000     0.00000000
     0.00000000     0.00000000     0.00000000
     0.00000000     0.00000000     0.00000000
     0.00000000     0.00000000     0.00000000
     0.00000000     0.00000000     0.00000000
     0.00000000     0.00000000     0.00000000
     0.00000000     0.00000000     0.00000000
     0.00000000     0.00000000     0.00000000
     0.00000000     0.00000000     0.00000000
     0.00000000     0.00000000     0.00000000
     0.00000000     0.00000000     0.00000000
     0.00000000     0.00000000     0.00000000
     0.00000000     0.00000000     0.00000000
     0.00000000     0.00000000     0.00000000
     0.00000000     0.00000000     0.00000000
     0.00000000     0.00000000     0.00000000
     0.00000000     0.00000000     0.00000000
     0.00000000     0.00000000     0.00000000
     0.00000000     0.00000000     0.00000000
     0.00000000     0.00000000     0.00000000
     0.00000000     0.00000000     0.00000000
     0.00000000     0.00000000     0.00000000
     0.00000000     0.00000000     0.00000000
     0.00000000     0.00000000     0.00000000
     0.00000000     0.00000000     0.00000000
     0.00000000     0.00000000     0.00000000
     0.00000000     0.00000000     0.00000000
     0.00000000     0.00000000     0.00000000
     0.00000000     0.00000000     0.00000000
     0.00000000     0.00000000     0.00000000
     0.00000000     0.00000000     0.00000000
     0.00000000     0.00000000     0.00000000
     0.00000000     0.00000000     0.00000000
     0.00000000     0.00000000     0.00000000
     0.00000000     0.00000000     0.00000000
     0.00000000     0.00000000     0.00000000
     0.00000000     0.00000000     0.00000000
     0.00000000     0.00000000     0.00000000
     0.00000000     0.00000000     0.00000000
     0.00000000     0.00000000     0.00000000
     0.00000000     0.00000000     0.00000000
     0.00000000     0.00000000     0.00000000
     0.00000000     0.00000000     0.00000000
     0.00000000     0.00000000     0.00000000
     0.00000000     0.00000000     0.00000000
     0.00000000     0.00000000     0.00000000
     0.00000000     0.00000000     0.00000000
     0.00000000     0.00000000     0.00000000
     0.00000000     0.00000000     0.00000000
     0.00000000     0.00000000     0.00000000
     0.00000000     0.00000000     0.00000000
     0.00000000     0.00000000     0.00000000
     0.00000000     0.00000000     0.00000000
     0.00000000     0.00000000     0.00000000
     0.00000000     0.00000000     0.00000000
     0.00000000     0.00000000     0.00000000
     0.00000000     0.00000000     0.00000000
     0.00000000     0.00000000     0.00000000
     0.00000000     0.00000000     0.00000000
     0.00000000     0.00000000     0.00000000
     0.00000000     0.00000000     0.00000000
     0.00000000     0.00000000     0.00000000
     0.00000000     0.00000000     0.00000000
     0.00000000     0.00000000     0.00000000
     0.00000000     0.00000000     0.00000000
     0.00000000     0.00000000     0.00000000
     0.00000000     0.00000000     0.00000000
     0.00000000     0.00000000     0.00000000
     0.00000000     0.00000000     0.00000000
     0.00000000     0.00000000     0.00000000
     0.00000000     0.00000000     0.00000000
     0.00000000     0.00000000     0.00000000
     0.00000000     0.00000000     0.00000000
     0.00000000     0.00000000     0.00000000
     0.00000000     0.00000000     0.00000000
     0.00000000     0.00000000     0.00000000
     0.00000000     0.00000000     0.00000000
     0.00000000     0.00000000     0.00000000
     0.00000000     0.00000000     0.00000000
     0.00000000     0.00000000     0.00000000
     0.00000000     0.00000000     0.00000000
     0.00000000     0.00000000     0.00000000
     0.00000000     0.00000000     0.00000000
     0.00000000     0.00000000     0.00000000
     0.00000000     0.00000000     0.00000000
     0.00000000     0.00000000     0.00000000
     0.00000000     0.00000000     0.00000000
     0.00000000     0.00000000     0.00000000
     0.00000000     0.00000000     0.00000000
     0.00000000     0.00000000     0.00000000
     0.00000000     0.00000000     0.00000000
     0.00000000     0.00000000     0.00000000
     0.00000000     0.00000000     0.00000000
     0.00000000     0.00000000     0.00000000
     0.00000000     0.00000000     0.00000000
     0.00000000     0.00000000     0.00000000
     0.00000000     0.00000000     0.00000000
     0.00000000     0.00000000     0.00000000
     0.00000000     0.00000000     0.00000000
     0.00000000     0.00000000     0.00000000
     0.00000000     0.00000000     0.00000000
     0.00000000     0.00000000     0.00000000
     0.00000000     0.00000000     0.00000000
     0.00000000     0.00000000     0.00000000
     0.00000000     0.00000000     0.00000000
     0.00000000     0.00000000     0.00000000
     0.00000000     0.00000000     0.00000000
     0.00000000     0.00000000     0.00000000
     0.00000000     0.00000000     0.00000000
     0.00000000     0.00000000     0.00000000
     0.00000000     0.00000000     0.00000000
     0.00000000     0.00000000     0.00000000
     0.00000000     0.00000000     0.00000000
     0.00000000     0.00000000     0.00000000
     0.00000000     0.00000000     0.00000000
     0.00000000     0.00000000     0.00000000
     0.00000000     0.00000000     0.00000000
     0.00000000     0.00000000     0.00000000
     0.00000000     0.00000000     0.00000000
     0.00000000     0.00000000     0.00000000
     0.00000000     0.00000000     0.00000000
     0.00000000     0.00000000     0.00000000
     0.00000000     0.00000000     0.00000000
     0.00000000     0.00000000     0.00000000
     0.00000000     0.00000000     0.00000000
     0.00000000     0.00000000     0.00000000
     0.00000000     0.00000000     0.00000000
     0.00000000     0.00000000     0.00000000
     0.00000000     0.00000000     0.00000000
     0.00000000     0.00000000     0.00000000
     0.00000000     0.00000000     0.00000000
     0.00000000     0.00000000     0.00000000
     0.00000000     0.00000000     0.00000000
     0.00000000     0.00000000     0.00000000
     0.00000000     0.00000000     0.00000000
     0.00000000     0.00000000     0.00000000
     0.00000000     0.00000000     0.00000000
     0.00000000     0.00000000     0.00000000
     0.00000000     0.00000000     0.00000000
     0.00000000     0.00000000     0.00000000
     0.00000000     0.00000000     0.00000000
     0.00000000     0.00000000     0.00000000
     0.00000000     0.00000000     0.00000000
     0.00000000     0.00000000     0.00000000
     0.00000000     0.00000000     0.00000000
     0.00000000     0.00000000     0.00000000
     0.00000000     0.00000000     0.00000000
     0.00000000     0.00000000     0.00000000
     0.00000000     0.00000000     0.00000000
     0.00000000     0.00000000     0.00000000
     0.00000000     0.00000000     0.00000000
     0.00000000     0.00000000     0.00000000
     0.00000000     0.00000000     0.00000000
     0.00000000     0.00000000     0.00000000
     0.00000000     0.00000000     0.00000000
     0.00000000     0.00000000     0.00000000
     0.00000000     0.00000000     0.00000000
     0.00000000     0.00000000     0.00000000
     0.00000000     0.00000000     0.00000000
     0.00000000     0.00000000     0.00000000
     0.00000000     0.00000000     0.00000000
     0.00000000     0.00000000     0.00000000
     0.00000000     0.00000000     0.00000000
     0.00000000     0.00000000     0.00000000
     0.00000000     0.00000000     0.00000000
     0.00000000     0.00000000     0.00000000
     0.00000000     0.00000000     0.00000000
     0.00000000     0.00000000     0.00000000
     0.00000000     0.00000000     0.00000000
     0.00000000     0.00000000     0.00000000
     0.00000000     0.00000000     0.00000000
     0.00000000     0.00000000     0.00000000
     0.00000000     0.00000000     0.00000000
     0.00000000     0.00000000     0.00000000
     0.00000000     0.00000000     0.00000000
     0.00000000     0.00000000     0.00000000
     0.00000000     0.00000000     0.00000000
     0.00000000     0.00000000     0.00000000
     0.00000000     0.00000000     0.00000000
     0.00000000     0.00000000     0.00000000
     0.00000000     0.00000000     0.00000000
     0.00000000     0.00000000     0.00000000
     0.00000000     0.00000000     0.00000000
     0.00000000     0.00000000     0.00000000
     0.00000000     0.00000000     0.00000000
     0.00000000     0.00000000     0.00000000
     0.00000000     0.00000000     0.00000000
     0.00000000     0.00000000     0.00000000
     0.00000000     0.00000000     0.00000000
     0.00000000     0.00000000     0.00000000
     0.00000000     0.00000000     0.00000000
     0.00000000     0.00000000     0.00000000
     0.00000000     0.00000000     0.00000000
     0.00000000     0.00000000     0.00000000
     0.00000000     0.00000000     0.00000000
     0.00000000     0.00000000     0.00000000
     0.00000000     0.00000000     0.00000000
     0.00000000     0.00000000     0.00000000
     0.00000000     0.00000000     0.00000000
     0.00000000     0.00000000     0.00000000
     0.00000000     0.00000000     0.00000000
     0.00000000     0.00000000     0.00000000
     0.00000000     0.00000000     0.00000000
     0.00000000     0.00000000     0.00000000
     0.00000000     0.00000000     0.00000000
     0.00000000     0.00000000     0.00000000
     0.00000000     0.00000000     0.00000000
     0.00000000     0.00000000     0.00000000
     0.00000000     0.00000000     0.00000000
     0.00000000     0.00000000     0.00000000
     0.00000000     0.00000000     0.00000000
     0.00000000     0.00000000     0.00000000
     0.00000000     0.00000000     0.00000000
     0.00000000     0.00000000     0.00000000
     0.00000000     0.00000000     0.00000000
     0.00000000     0.00000000     0.00000000
     0.00000000     0.00000000     0.00000000
     0.00000000     0.00000000     0.00000000
     0.00000000     0.00000000     0.00000000
     0.00000000     0.00000000     0.00000000
     0.00000000     0.00000000     0.00000000
     0.00000000     0.00000000     0.00000000
     0.00000000     0.00000000     0.00000000
     0.00000000     0.00000000     0.00000000
     0.00000000     0.00000000     0.00000000
     0.00000000     0.00000000     0.00000000
     0.00000000     0.00000000     0.00000000
     0.00000000     0.00000000     0.00000000
     0.00000000     0.00000000     0.00000000
     0.00000000     0.00000000     0.00000000
     0.00000000     0.00000000     0.00000000
     0.00000000     0.00000000     0.00000000
     0.00000000     0.00000000     0.00000000
     0.00000000     0.00000000     0.00000000
     0.00000000     0.00000000     0.00000000
     0.00000000     0.00000000     0.00000000
     0.00000000     0.00000000     0.00000000
     0.00000000     0.00000000     0.00000000
     0.00000000     0.00000000     0.00000000
     0.00000000     0.00000000     0.00000000
     0.00000000     0.00000000     0.00000000
     0.00000000     0.00000000     0.00000000
     0.00000000     0.00000000     0.00000000
     0.00000000     0.00000000     0.00000000
     0.00000000     0.00000000     0.00000000
     0.00000000     0.00000000     0.00000000
     0.00000000     0.00000000     0.00000000
     0.00000000     0.00000000     0.00000000
     0.00000000     0.00000000     0.00000000
     0.00000000     0.00000000     0.00000000
     0.00000000     0.00000000     0.00000000
     0.00000000     0.00000000     0.00000000
     0.00000000     0.00000000     0.00000000
     0.00000000     0.00000000     0.00000000
     0.00000000     0.00000000     0.00000000
     0.00000000     0.00000000     0.00000000
     0.00000000     0.00000000     0.00000000
     0.00000000     0.00000000     0.00000000
     0.00000000     0.00000000     0.00000000
     0.00000000     0.00000000     0.00000000
     0.00000000     0.00000000     0.00000000
     0.00000000     0.00000000     0.00000000
     0.00000000     0.00000000     0.00000000
     0.00000000     0.00000000     0.00000000
     0.00000000     0.00000000     0.00000000
     0.00000000     0.00000000     0.00000000
     0.00000000     0.00000000     0.00000000
     0.00000000     0.00000000     0.00000000
     0.00000000     0.00000000     0.00000000
     0.00000000     0.00000000     0.00000000
     0.00000000     0.00000000     0.00000000
     0.00000000     0.00000000     0.00000000
     0.00000000     0.00000000     0.00000000
     0.00000000     0.00000000     0.00000000
     0.00000000     0.00000000     0.00000000
     0.00000000     0.00000000     0.00000000
     0.00000000     0.00000000     0.00000000
     0.00000000     0.00000000     0.00000000
     0.00000000     0.00000000     0.00000000
     0.00000000     0.00000000     0.00000000
     0.00000000     0.00000000     0.00000000
     0.00000000     0.00000000     0.00000000
     0.00000000     0.00000000     0.00000000
     0.00000000     0.00000000     0.00000000
     0.00000000     0.00000000     0.00000000
     0.00000000     0.00000000     0.00000000
     0.00000000     0.00000000     0.00000000
     0.00000000     0.00000000     0.00000000
     0.00000000     0.00000000     0.00000000
     0.00000000     0.00000000     0.00000000
     0.00000000     0.00000000     0.00000000
     0.00000000     0.00000000     0.00000000
     0.00000000     0.00000000     0.00000000
     0.00000000     0.00000000     0.00000000
     0.00000000     0.00000000     0.00000000
     0.00000000     0.00000000     0.00000000
     0.00000000     0.00000000     0.00000000
     0.00000000     0.00000000     0.00000000
     0.00000000     0.00000000     0.00000000
     0.00000000     0.00000000     0.00000000
     0.00000000     0.00000000     0.00000000
     0.00000000     0.00000000     0.00000000
     0.00000000     0.00000000     0.00000000
     0.00000000     0.00000000     0.00000000
     0.00000000     0.00000000     0.00000000
     0.00000000     0.00000000     0.00000000
     0.00000000     0.00000000     0.00000000
     0.00000000     0.00000000     0.00000000
     0.00000000     0.00000000     0.00000000
     0.00000000     0.00000000     0.00000000
     0.00000000     0.00000000     0.00000000
     0.00000000     0.00000000     0.00000000
     0.00000000     0.00000000     0.00000000
     0.00000000     0.00000000     0.00000000
     0.00000000     0.00000000     0.00000000
     0.00000000     0.00000000     0.00000000
     0.00000000     0.00000000     0.00000000
     0.00000000     0.00000000     0.00000000
     0.00000000     0.00000000     0.00000000
     0.00000000     0.00000000     0.00000000
     0.00000000     0.00000000     0.00000000
     0.00000000     0.00000000     0.00000000
     0.00000000     0.00000000     0.00000000
     0.00000000     0.00000000     0.00000000
     0.00000000     0.00000000     0.00000000
     0.00000000     0.00000000     0.00000000
     0.00000000     0.00000000     0.00000000
     0.00000000     0.00000000     0.00000000
     0.00000000     0.00000000     0.00000000
     0.00000000     0.00000000     0.00000000
     0.00000000     0.00000000     0.00000000
     0.00000000     0.00000000     0.00000000
     0.00000000     0.00000000     0.00000000
     0.00000000     0.00000000     0.00000000
     0.00000000     0.00000000     0.00000000
     0.00000000     0.00000000     0.00000000
     0.00000000     0.00000000     0.00000000
     0.00000000     0.00000000     0.00000000
     0.00000000     0.00000000     0.00000000
     0.00000000     0.00000000     0.00000000
     0.00000000     0.00000000     0.00000000
     0.00000000     0.00000000     0.00000000
     0.00000000     0.00000000     0.00000000
     0.00000000     0.00000000     0.00000000
     0.00000000     0.00000000     0.00000000
     0.00000000     0.00000000     0.00000000
     0.00000000     0.00000000     0.00000000
     0.00000000     0.00000000     0.00000000
     0.00000000     0.00000000     0.00000000
     0.00000000     0.00000000     0.00000000
     0.00000000     0.00000000     0.00000000
     0.00000000     0.00000000     0.00000000
     0.00000000     0.00000000     0.00000000
     0.00000000     0.00000000     0.00000000
     0.00000000     0.00000000     0.00000000
     0.00000000     0.00000000     0.00000000
     0.00000000     0.00000000     0.00000000
     0.00000000     0.00000000     0.00000000
     0.00000000     0.00000000     0.00000000
     0.00000000     0.00000000     0.00000000
     0.00000000     0.00000000     0.00000000
     0.00000000     0.00000000     0.00000000
     0.00000000     0.00000000     0.00000000
     0.00000000     0.00000000     0.00000000
     0.00000000     0.00000000     0.00000000
     0.00000000     0.00000000     0.00000000
     0.00000000     0.00000000     0.00000000
     0.00000000     0.00000000     0.00000000
     0.00000000     0.00000000     0.00000000
     0.00000000     0.00000000     0.00000000
     0.00000000     0.00000000     0.00000000
     0.00000000     0.00000000     0.00000000
     0.00000000     0.00000000     0.00000000
     0.00000000     0.00000000     0.00000000
     0.00000000     0.00000000     0.00000000
     0.00000000     0.00000000     0.00000000
     0.00000000     0.00000000     0.00000000
     0.00000000     0.00000000     0.00000000
     0.00000000     0.00000000     0.00000000
     0.00000000     0.00000000     0.00000000
     0.00000000     0.00000000     0.00000000
     0.00000000     0.00000000     0.00000000
     0.00000000     0.00000000     0.00000000
     0.00000000     0.00000000     0.00000000
     0.00000000     0.00000000     0.00000000
     0.00000000     0.00000000     0.00000000
     0.00000000     0.00000000     0.00000000
     0.00000000     0.00000000     0.00000000
     0.00000000     0.00000000     0.00000000
     0.00000000     0.00000000     0.00000000
     0.00000000     0.00000000     0.00000000
     0.00000000     0.00000000     0.00000000
     0.00000000     0.00000000     0.00000000
     0.00000000     0.00000000     0.00000000
     0.00000000     0.00000000     0.00000000
     0.00000000     0.00000000     0.00000000
     0.00000000     0.00000000     0.00000000
     0.00000000     0.00000000     0.00000000
     0.00000000     0.00000000     0.00000000
     0.00000000     0.00000000     0.00000000
     0.00000000     0.00000000     0.00000000
     0.00000000     0.00000000     0.00000000
     0.00000000     0.00000000     0.00000000
     0.00000000     0.00000000     0.00000000
     0.00000000     0.00000000     0.00000000
     0.00000000     0.00000000     0.00000000
     0.00000000     0.00000000     0.00000000
     0.00000000     0.00000000     0.00000000
     0.00000000     0.00000000     0.00000000
     0.00000000     0.00000000     0.00000000
     0.00000000     0.00000000     0.00000000
     0.00000000     0.00000000     0.00000000
     0.00000000     0.00000000     0.00000000
     0.00000000     0.00000000     0.00000000
     0.00000000     0.00000000     0.00000000
     0.00000000     0.00000000     0.00000000
     0.00000000     0.00000000     0.00000000
     0.00000000     0.00000000     0.00000000
     0.00000000     0.00000000     0.00000000
     0.00000000     0.00000000     0.00000000
     0.00000000     0.00000000     0.00000000
     0.00000000     0.00000000     0.00000000
     0.00000000     0.00000000     0.00000000
     0.00000000     0.00000000     0.00000000
     0.00000000     0.00000000     0.00000000
     0.00000000     0.00000000     0.00000000
     0.00000000     0.00000000     0.00000000
     0.00000000     0.00000000     0.00000000
     0.00000000     0.00000000     0.00000000
     0.00000000     0.00000000     0.00000000
     0.00000000     0.00000000     0.00000000
     0.00000000     0.00000000     0.00000000
     0.00000000     0.00000000     0.00000000
     0.00000000     0.00000000     0.00000000
     0.00000000     0.00000000     0.00000000
     0.00000000     0.00000000     0.00000000
     0.00000000     0.00000000     0.00000000
     0.00000000     0.00000000     0.00000000
     0.00000000     0.00000000     0.00000000
     0.00000000     0.00000000     0.00000000
     0.00000000     0.00000000     0.00000000
     0.00000000     0.00000000     0.00000000
     0.00000000     0.00000000     0.00000000
     0.00000000     0.00000000     0.00000000
     0.00000000     0.00000000     0.00000000
     0.00000000     0.00000000     0.00000000
     0.00000000     0.00000000     0.00000000
     0.00000000     0.00000000     0.00000000
     0.00000000     0.00000000     0.00000000
     0.00000000     0.00000000     0.00000000
     0.00000000     0.00000000     0.00000000
     0.00000000     0.00000000     0.00000000
     0.00000000     0.00000000     0.00000000
     0.00000000     0.00000000     0.00000000
     0.00000000     0.00000000     0.00000000
     0.00000000     0.00000000     0.00000000
     0.00000000     0.00000000     0.00000000
     0.00000000     0.00000000     0.00000000
     0.00000000     0.00000000     0.00000000
     0.00000000     0.00000000     0.00000000
     0.00000000     0.00000000     0.00000000
     0.00000000     0.00000000     0.00000000
     0.00000000     0.00000000     0.00000000
     0.00000000     0.00000000     0.00000000
     0.00000000     0.00000000     0.00000000
     0.00000000     0.00000000     0.00000000
     0.00000000     0.00000000     0.00000000
     0.00000000     0.00000000     0.00000000
     0.00000000     0.00000000     0.00000000
     0.00000000     0.00000000     0.00000000
     0.00000000     0.00000000     0.00000000
     0.00000000     0.00000000     0.00000000
     0.00000000     0.00000000     0.00000000
     0.00000000     0.00000000     0.00000000
     0.00000000     0.00000000     0.00000000
     0.00000000     0.00000000     0.00000000
     0.00000000     0.00000000     0.00000000
     0.00000000     0.00000000     0.00000000
     0.00000000     0.00000000     0.00000000
     0.00000000     0.00000000     0.00000000
     0.00000000     0.00000000     0.00000000
     0.00000000     0.00000000     0.00000000
     0.00000000     0.00000000     0.00000000
     0.00000000     0.00000000     0.00000000
     0.00000000     0.00000000     0.00000000
     0.00000000     0.00000000     0.00000000
     0.00000000     0.00000000     0.00000000
     0.00000000     0.00000000     0.00000000
     0.00000000     0.00000000     0.00000000
     0.00000000     0.00000000     0.00000000
     0.00000000     0.00000000     0.00000000
     0.00000000     0.00000000     0.00000000
     0.00000000     0.00000000     0.00000000
     0.00000000     0.00000000     0.00000000
     0.00000000     0.00000000     0.00000000
     0.00000000     0.00000000     0.00000000
     0.00000000     0.00000000     0.00000000
     0.00000000     0.00000000     0.00000000
     0.00000000     0.00000000     0.00000000
     0.00000000     0.00000000     0.00000000
     0.00000000     0.00000000     0.00000000
     0.00000000     0.00000000     0.00000000
     0.00000000     0.00000000     0.00000000
     0.00000000     0.00000000     0.00000000
     0.00000000     0.00000000     0.00000000
     0.00000000     0.00000000     0.00000000
     0.00000000     0.00000000     0.00000000
     0.00000000     0.00000000     0.00000000
     0.00000000     0.00000000     0.00000000
     0.00000000     0.00000000     0.00000000
     0.00000000     0.00000000     0.00000000
     0.00000000     0.00000000     0.00000000
     0.00000000     0.00000000     0.00000000
     0.00000000     0.00000000     0.00000000
     0.00000000     0.00000000     0.00000000
     0.00000000     0.00000000     0.00000000
     0.00000000     0.00000000     0.00000000
     0.00000000     0.00000000     0.00000000
     0.00000000     0.00000000     0.00000000
     0.00000000     0.00000000     0.00000000
     0.00000000     0.00000000     0.00000000
     0.00000000     0.00000000     0.00000000
     0.00000000     0.00000000     0.00000000
     0.00000000     0.00000000     0.00000000
     0.00000000     0.00000000     0.00000000
     0.00000000     0.00000000     0.00000000
     0.00000000     0.00000000     0.00000000
     0.00000000     0.00000000     0.00000000
     0.00000000     0.00000000     0.00000000
     0.00000000     0.00000000     0.00000000
     0.00000000     0.00000000     0.00000000
     0.00000000     0.00000000     0.00000000
     0.00000000     0.00000000     0.00000000
     0.00000000     0.00000000     0.00000000
     0.00000000     0.00000000     0.00000000
     0.00000000     0.00000000     0.00000000
     0.00000000     0.00000000     0.00000000
     0.00000000     0.00000000     0.00000000
     0.00000000     0.00000000     0.00000000
     0.00000000     0.00000000     0.00000000
     0.00000000     0.00000000     0.00000000
     0.00000000     0.00000000     0.00000000
     0.00000000     0.00000000     0.00000000
     0.00000000     0.00000000     0.00000000
     0.00000000     0.00000000     0.00000000
     0.00000000     0.00000000     0.00000000
     0.00000000     0.00000000     0.00000000
     0.00000000     0.00000000     0.00000000
     0.00000000     0.00000000     0.00000000
     0.00000000     0.00000000     0.00000000
     0.00000000     0.00000000     0.00000000
     0.00000000     0.00000000     0.00000000
     0.00000000     0.00000000     0.00000000
     0.00000000     0.00000000     0.00000000
     0.00000000     0.00000000     0.00000000
     0.00000000     0.00000000     0.00000000
     0.00000000     0.00000000     0.00000000
     0.00000000     0.00000000     0.00000000
     0.00000000     0.00000000     0.00000000
     0.00000000     0.00000000     0.00000000
     0.00000000     0.00000000     0.00000000
     0.00000000     0.00000000     0.00000000
     0.00000000     0.00000000     0.00000000
     0.00000000     0.00000000     0.00000000
     0.00000000     0.00000000     0.00000000
     0.00000000     0.00000000     0.00000000
     0.00000000     0.00000000     0.00000000
     0.00000000     0.00000000     0.00000000
     0.00000000     0.00000000     0.00000000
     0.00000000     0.00000000     0.00000000
     0.00000000     0.00000000     0.00000000
     0.00000000     0.00000000     0.00000000
     0.00000000     0.00000000     0.00000000
     0.00000000     0.00000000     0.00000000
     0.00000000     0.00000000     0.00000000
     0.00000000     0.00000000     0.00000000
     0.00000000     0.00000000     0.00000000
     0.00000000     0.00000000     0.00000000
     0.00000000     0.00000000     0.00000000
     0.00000000     0.00000000     0.00000000
     0.00000000     0.00000000     0.00000000
     0.00000000     0.00000000     0.00000000
     0.00000000     0.00000000     0.00000000
     0.00000000     0.00000000     0.00000000
     0.00000000     0.00000000     0.00000000
     0.00000000     0.00000000     0.00000000
     0.00000000     0.00000000     0.00000000
     0.00000000     0.00000000     0.00000000
     0.00000000     0.00000000     0.00000000
     0.00000000     0.00000000     0.00000000
     0.00000000     0.00000000     0.00000000
     0.00000000     0.00000000     0.00000000
     0.00000000     0.00000000     0.00000000
     0.00000000     0.00000000     0.00000000
     0.00000000     0.00000000     0.00000000
     0.00000000     0.00000000     0.00000000
     0.00000000     0.00000000     0.00000000
     0.00000000     0.00000000     0.00000000
     0.00000000     0.00000000     0.00000000
     0.00000000     0.00000000     0.00000000
     0.00000000     0.00000000     0.00000000
     0.00000000     0.00000000     0.00000000
     0.00000000     0.00000000     0.00000000
     0.00000000     0.00000000     0.00000000
     0.00000000     0.00000000     0.00000000
     0.00000000     0.00000000     0.00000000
     0.00000000     0.00000000     0.00000000
     0.00000000     0.00000000     0.00000000
     0.00000000     0.00000000     0.00000000
     0.00000000     0.00000000     0.00000000
     0.00000000     0.00000000     0.00000000
     0.00000000     0.00000000     0.00000000
     0.00000000     0.00000000     0.00000000
     0.00000000     0.00000000     0.00000000
     0.00000000     0.00000000     0.00000000
     0.00000000     0.00000000     0.00000000
     0.00000000     0.00000000     0.00000000
     0.00000000     0.00000000     0.00000000
     0.00000000     0.00000000     0.00000000
     0.00000000     0.00000000     0.00000000
     0.00000000     0.00000000     0.00000000
     0.00000000     0.00000000     0.00000000
     0.00000000     0.00000000     0.00000000
     0.00000000     0.00000000     0.00000000
     0.00000000     0.00000000     0.00000000
     0.00000000     0.00000000     0.00000000
     0.00000000     0.00000000     0.00000000
     0.00000000     0.00000000     0.00000000
     0.00000000     0.00000000     0.00000000
     0.00000000     0.00000000     0.00000000
     0.00000000     0.00000000     0.00000000
     0.00000000     0.00000000     0.00000000
     0.00000000     0.00000000     0.00000000
     0.00000000     0.00000000     0.00000000
     0.00000000     0.00000000     0.00000000
     0.00000000     0.00000000     0.00000000
     0.00000000     0.00000000     0.00000000
     0.00000000     0.00000000     0.00000000
     0.00000000     0.00000000     0.00000000
     0.00000000     0.00000000     0.00000000
     0.00000000     0.00000000     0.00000000
     0.00000000     0.00000000     0.00000000
     0.00000000     0.00000000     0.00000000
     0.00000000     0.00000000     0.00000000
     0.00000000     0.00000000     0.00000000
     0.00000000     0.00000000     0.00000000
     0.00000000     0.00000000     0.00000000
     0.00000000     0.00000000     0.00000000
     0.00000000     0.00000000     0.00000000
     0.00000000     0.00000000     0.00000000
     0.00000000     0.00000000     0.00000000
     0.00000000     0.00000000     0.00000000
     0.00000000     0.00000000     0.00000000
     0.00000000     0.00000000     0.00000000
     0.00000000     0.00000000     0.00000000
     0.00000000     0.00000000     0.00000000
     0.00000000     0.00000000     0.00000000
     0.00000000     0.00000000     0.00000000
     0.00000000     0.00000000     0.00000000
     0.00000000     0.00000000     0.00000000
     0.00000000     0.00000000     0.00000000
     0.00000000     0.00000000     0.00000000
     0.00000000     0.00000000     0.00000000
     0.00000000     0.00000000     0.00000000
     0.00000000     0.00000000     0.00000000
     0.00000000     0.00000000     0.00000000
     0.00000000     0.00000000     0.00000000
     0.00000000     0.00000000     0.00000000
     0.00000000     0.00000000     0.00000000
     0.00000000     0.00000000     0.00000000
     0.00000000     0.00000000     0.00000000
     0.00000000     0.00000000     0.00000000
     0.00000000     0.00000000     0.00000000
     0.00000000     0.00000000     0.00000000
     0.00000000     0.00000000     0.00000000
     0.00000000     0.00000000     0.00000000
     0.00000000     0.00000000     0.00000000
     0.00000000     0.00000000     0.00000000
     0.00000000     0.00000000     0.00000000
     0.00000000     0.00000000     0.00000000
     0.00000000     0.00000000     0.00000000
     0.00000000     0.00000000     0.00000000
     0.00000000     0.00000000     0.00000000
     0.00000000     0.00000000     0.00000000
     0.00000000     0.00000000     0.00000000
     0.00000000     0.00000000     0.00000000
     0.00000000     0.00000000     0.00000000
     0.00000000     0.00000000     0.00000000
     0.00000000     0.00000000     0.00000000
     0.00000000     0.00000000     0.00000000
     0.00000000     0.00000000     0.00000000
     0.00000000     0.00000000     0.00000000
     0.00000000     0.00000000     0.00000000
     0.00000000     0.00000000     0.00000000
     0.00000000     0.00000000     0.00000000
     0.00000000     0.00000000     0.00000000
     0.00000000     0.00000000     0.00000000
     0.00000000     0.00000000     0.00000000
     0.00000000     0.00000000     0.00000000
     0.00000000     0.00000000     0.00000000
     0.00000000     0.00000000     0.00000000
     0.00000000     0.00000000     0.00000000
     0.00000000     0.00000000     0.00000000
     0.00000000     0.00000000     0.00000000
     0.00000000     0.00000000     0.00000000
     0.00000000     0.00000000     0.00000000
     0.00000000     0.00000000     0.00000000
     0.00000000     0.00000000     0.00000000
     0.00000000     0.00000000     0.00000000
     0.00000000     0.00000000     0.00000000
     0.00000000     0.00000000     0.00000000
     0.00000000     0.00000000     0.00000000
     0.00000000     0.00000000     0.00000000
     0.00000000     0.00000000     0.00000000
     0.00000000     0.00000000     0.00000000
     0.00000000     0.00000000     0.00000000
     0.00000000     0.00000000     0.00000000
     0.00000000     0.00000000     0.00000000
     0.00000000     0.00000000     0.00000000
     0.00000000     0.00000000     0.00000000
     0.00000000     0.00000000     0.00000000
     0.00000000     0.00000000     0.00000000
     0.00000000     0.00000000     0.00000000
     0.00000000     0.00000000     0.00000000
     0.00000000     0.00000000     0.00000000
     0.00000000     0.00000000     0.00000000
     0.00000000     0.00000000     0.00000000
     0.00000000     0.00000000     0.00000000
     0.00000000     0.00000000     0.00000000
     0.00000000     0.00000000     0.00000000
     0.00000000     0.00000000     0.00000000
     0.00000000     0.00000000     0.00000000
     0.00000000     0.00000000     0.00000000
     0.00000000     0.00000000     0.00000000
     0.00000000     0.00000000     0.00000000
     0.00000000     0.00000000     0.00000000
     0.00000000     0.00000000     0.00000000
     0.00000000     0.00000000     0.00000000
     0.00000000     0.00000000     0.00000000
     0.00000000     0.00000000     0.00000000
     0.00000000     0.00000000     0.00000000
     0.00000000     0.00000000     0.00000000
     0.00000000     0.00000000     0.00000000
     0.00000000     0.00000000     0.00000000
     0.00000000     0.00000000     0.00000000
     0.00000000     0.00000000     0.00000000
     0.00000000     0.00000000     0.00000000
     0.00000000     0.00000000     0.00000000
     0.00000000     0.00000000     0.00000000
     0.00000000     0.00000000     0.00000000
     0.00000000     0.00000000     0.00000000
     0.00000000     0.00000000     0.00000000
     0.00000000     0.00000000     0.00000000
     0.00000000     0.00000000     0.00000000
     0.00000000     0.00000000     0.00000000
     0.00000000     0.00000000     0.00000000
     0.00000000     0.00000000     0.00000000
     0.00000000     0.00000000     0.00000000
     0.00000000     0.00000000     0.00000000
     0.00000000     0.00000000     0.00000000
     0.00000000     0.00000000     0.00000000
     0.00000000     0.00000000     0.00000000
     0.00000000     0.00000000     0.00000000
     0.00000000     0.00000000     0.00000000
     0.00000000     0.00000000     0.00000000
     0.00000000     0.00000000     0.00000000
     0.00000000     0.00000000     0.00000000
     0.00000000     0.00000000     0.00000000
     0.00000000     0.00000000     0.00000000
     0.00000000     0.00000000     0.00000000
     0.00000000     0.00000000     0.00000000
     0.00000000     0.00000000     0.00000000
     0.00000000     0.00000000     0.00000000
     0.00000000     0.00000000     0.00000000
     0.00000000     0.00000000     0.00000000
     0.00000000     0.00000000     0.00000000
     0.00000000     0.00000000     0.00000000
     0.00000000     0.00000000     0.00000000
     0.00000000     0.00000000     0.00000000
     0.00000000     0.00000000     0.00000000
     0.00000000     0.00000000     0.00000000
     0.00000000     0.00000000     0.00000000
     0.00000000     0.00000000     0.00000000
     0.00000000     0.00000000     0.00000000
     0.00000000     0.00000000     0.00000000
     0.00000000     0.00000000     0.00000000
     0.00000000     0.00000000     0.00000000
     0.00000000     0.00000000     0.00000000
     0.00000000     0.00000000     0.00000000
     0.00000000     0.00000000     0.00000000
     0.00000000     0.00000000     0.00000000
     0.00000000     0.00000000     0.00000000
     0.00000000     0.00000000     0.00000000
     0.00000000     0.00000000     0.00000000
     0.00000000     0.00000000     0.00000000
     0.00000000     0.00000000     0.00000000
     0.00000000     0.00000000     0.00000000
     0.00000000     0.00000000     0.00000000
     0.00000000     0.00000000     0.00000000
     0.00000000     0.00000000     0.00000000
     0.00000000     0.00000000     0.00000000
     0.00000000     0.00000000     0.00000000
     0.00000000     0.00000000     0.00000000
     0.00000000     0.00000000     0.00000000
     0.00000000     0.00000000     0.00000000
     0.00000000     0.00000000     0.00000000
     0.00000000     0.00000000     0.00000000
     0.00000000     0.00000000     0.00000000
     0.00000000     0.00000000     0.00000000
     0.00000000     0.00000000     0.00000000
     0.00000000     0.00000000     0.00000000
     0.00000000     0.00000000     0.00000000
     0.00000000     0.00000000     0.00000000
     0.00000000     0.00000000     0.00000000
     0.00000000     0.00000000     0.00000000
     0.00000000     0.00000000     0.00000000
     0.00000000     0.00000000     0.00000000
     0.00000000     0.00000000     0.00000000
     0.00000000     0.00000000     0.00000000
     0.00000000     0.00000000     0.00000000
     0.00000000     0.00000000     0.00000000
     0.00000000     0.00000000     0.00000000
     0.00000000     0.00000000     0.00000000
     0.00000000     0.00000000     0.00000000
     0.00000000     0.00000000     0.00000000
     0.00000000     0.00000000     0.00000000
     0.00000000     0.00000000     0.00000000
     0.00000000     0.00000000     0.00000000
     0.00000000     0.00000000     0.00000000
     0.00000000     0.00000000     0.00000000
     0.00000000     0.00000000     0.00000000
     0.00000000     0.00000000     0.00000000
     0.00000000     0.00000000     0.00000000
     0.00000000     0.00000000     0.00000000
     0.00000000     0.00000000     0.00000000
     0.00000000     0.00000000     0.00000000
     0.00000000     0.00000000     0.00000000
     0.00000000     0.00000000     0.00000000
     0.00000000     0.00000000     0.00000000
     0.00000000     0.00000000     0.00000000
     0.00000000     0.00000000     0.00000000
     0.00000000     0.00000000     0.00000000
     0.00000000     0.00000000     0.00000000
     0.00000000     0.00000000     0.00000000
     0.00000000     0.00000000     0.00000000
     0.00000000     0.00000000     0.00000000
     0.00000000     0.00000000     0.00000000
     0.00000000     0.00000000     0.00000000
     0.00000000     0.00000000     0.00000000
     0.00000000     0.00000000     0.00000000
     0.00000000     0.00000000     0.00000000
     0.00000000     0.00000000     0.00000000
     0.00000000     0.00000000     0.00000000
     0.00000000     0.00000000     0.00000000
     0.00000000     0.00000000     0.00000000
     0.00000000     0.00000000     0.00000000
     0.00000000     0.00000000     0.00000000
     0.00000000     0.00000000     0.00000000
     0.00000000     0.00000000     0.00000000
     0.00000000     0.00000000     0.00000000
     0.00000000     0.00000000     0.00000000
     0.00000000     0.00000000     0.00000000
     0.00000000     0.00000000     0.00000000
     0.00000000     0.00000000     0.00000000
     0.00000000     0.00000000     0.00000000
     0.00000000     0.00000000     0.00000000
     0.00000000     0.00000000     0.00000000
     0.00000000     0.00000000     0.00000000
     0.00000000     0.00000000     0.00000000
     0.00000000     0.00000000     0.00000000
     0.00000000     0.00000000     0.00000000
     0.00000000     0.00000000     0.00000000
     0.00000000     0.00000000     0.00000000
     0.00000000     0.00000000     0.00000000
     0.00000000     0.00000000     0.00000000
     0.00000000     0.00000000     0.00000000
     0.00000000     0.00000000     0.00000000
     0.00000000     0.00000000     0.00000000
     0.00000000     0.00000000     0.00000000
     0.00000000     0.00000000     0.00000000
     0.00000000     0.00000000     0.00000000
     0.00000000     0.00000000     0.00000000
     0.00000000     0.00000000     0.00000000
     0.00000000     0.00000000     0.00000000
     0.00000000     0.00000000     0.00000000
     0.00000000     0.00000000     0.00000000
     0.00000000     0.00000000     0.00000000
     0.00000000     0.00000000     0.00000000
     0.00000000     0.00000000     0.00000000
     0.00000000     0.00000000     0.00000000
     0.00000000     0.00000000     0.00000000
     0.00000000     0.00000000     0.00000000
     0.00000000     0.00000000     0.00000000
     0.00000000     0.00000000     0.00000000
     0.00000000     0.00000000     0.00000000
     0.00000000     0.00000000     0.00000000
     0.00000000     0.00000000     0.00000000
     0.00000000     0.00000000     0.00000000
     0.00000000     0.00000000     0.00000000
     0.00000000     0.00000000     0.00000000
     0.00000000     0.00000000     0.00000000
     0.00000000     0.00000000     0.00000000
     0.00000000     0.00000000     0.00000000
     0.00000000     0.00000000     0.00000000
     0.00000000     0.00000000     0.00000000
     0.00000000     0.00000000     0.00000000
     0.00000000     0.00000000     0.00000000
     0.00000000     0.00000000     0.00000000
     0.00000000     0.00000000     0.00000000
     0.00000000     0.00000000     0.00000000
     0.00000000     0.00000000     0.00000000
     0.00000000     0.00000000     0.00000000
     0.00000000     0.00000000     0.00000000
     0.00000000     0.00000000     0.00000000
     0.00000000     0.00000000     0.00000000
     0.00000000     0.00000000     0.00000000
     0.00000000     0.00000000     0.00000000
     0.00000000     0.00000000     0.00000000
     0.00000000     0.00000000     0.00000000
     0.00000000     0.00000000     0.00000000
     0.00000000     0.00000000     0.00000000
     0.00000000     0.00000000     0.00000000
     0.00000000     0.00000000     0.00000000
     0.00000000     0.00000000     0.00000000
     0.00000000     0.00000000     0.00000000
     0.00000000     0.00000000     0.00000000
     0.00000000     0.00000000     0.00000000
     0.00000000     0.00000000     0.00000000
     0.00000000     0.00000000     0.00000000
     0.00000000     0.00000000     0.00000000
     0.00000000     0.00000000     0.00000000
     0.00000000     0.00000000     0.00000000
     0.00000000     0.00000000     0.00000000
     0.00000000     0.00000000     0.00000000
     0.00000000     0.00000000     0.00000000
     0.00000000     0.00000000     0.00000000
     0.00000000     0.00000000     0.00000000
     0.00000000     0.00000000     0.00000000
     0.00000000     0.00000000     0.00000000
     0.00000000     0.00000000     0.00000000
     0.00000000     0.00000000     0.00000000
     0.00000000     0.00000000     0.00000000
     0.00000000     0.00000000     0.00000000
     0.00000000     0.00000000     0.00000000
     0.00000000     0.00000000     0.00000000
     0.00000000     0.00000000     0.00000000
     0.00000000     0.00000000     0.00000000
     0.00000000     0.00000000     0.00000000
     0.00000000     0.00000000     0.00000000
     0.00000000     0.00000000     0.00000000
     0.00000000     0.00000000     0.00000000
     0.00000000     0.00000000     0.00000000
     0.00000000     0.00000000     0.00000000
     0.00000000     0.00000000     0.00000000
     0.00000000     0.00000000     0.00000000
     0.00000000     0.00000000     0.00000000
     0.00000000     0.00000000     0.00000000
     0.00000000     0.00000000     0.00000000
     0.00000000     0.00000000     0.00000000
     0.00000000     0.00000000     0.00000000
     0.00000000     0.00000000     0.00000000
     0.00000000     0.00000000     0.00000000
     0.00000000     0.00000000     0.00000000
     0.00000000     0.00000000     0.00000000
     0.00000000     0.00000000     0.00000000
     0.00000000     0.00000000     0.00000000
     0.00000000     0.00000000     0.00000000
     0.00000000     0.00000000     0.00000000
     0.00000000     0.00000000     0.00000000
     0.00000000     0.00000000     0.00000000
     0.00000000     0.00000000     0.00000000
     0.00000000     0.00000000     0.00000000
     0.00000000     0.00000000     0.00000000
     0.00000000     0.00000000     0.00000000
     0.00000000     0.00000000     0.00000000
     0.00000000     0.00000000     0.00000000
     0.00000000     0.00000000     0.00000000
     0.00000000     0.00000000     0.00000000
     0.00000000     0.00000000     0.00000000
     0.00000000     0.00000000     0.00000000
     0.00000000     0.00000000     0.00000000
     0.00000000     0.00000000     0.00000000
     0.00000000     0.00000000     0.00000000
     0.00000000     0.00000000     0.00000000
     0.00000000     0.00000000     0.00000000
     0.00000000     0.00000000     0.00000000
     0.00000000     0.00000000     0.00000000
     0.00000000     0.00000000     0.00000000
     0.00000000     0.00000000     0.00000000
     0.00000000     0.00000000     0.00000000
     0.00000000     0.00000000     0.00000000
     0.00000000     0.00000000     0.00000000
     0.00000000     0.00000000     0.00000000
     0.00000000     0.00000000     0.00000000
     0.00000000     0.00000000     0.00000000
     0.00000000     0.00000000     0.00000000
     0.00000000     0.00000000     0.00000000
     0.00000000     0.00000000     0.00000000
     0.00000000     0.00000000     0.00000000
     0.00000000     0.00000000     0.00000000
     0.00000000     0.00000000     0.00000000
     0.00000000     0.00000000     0.00000000
     0.00000000     0.00000000     0.00000000
     0.00000000     0.00000000     0.00000000
     0.00000000     0.00000000     0.00000000
     0.00000000     0.00000000     0.00000000
     0.00000000     0.00000000     0.00000000
     0.00000000     0.00000000     0.00000000
     0.00000000     0.00000000     0.00000000
     0.00000000     0.00000000     0.00000000
     0.00000000     0.00000000     0.00000000
     0.00000000     0.00000000     0.00000000
     0.00000000     0.00000000     0.00000000
     0.00000000     0.00000000     0.00000000
     0.00000000     0.00000000     0.00000000
     0.00000000     0.00000000     0.00000000
     0.00000000     0.00000000     0.00000000
     0.00000000     0.00000000     0.00000000
     0.00000000     0.00000000     0.00000000
     0.00000000     0.00000000     0.00000000
     0.00000000     0.00000000     0.00000000
     0.00000000     0.00000000     0.00000000
     0.00000000     0.00000000     0.00000000
     0.00000000     0.00000000     0.00000000
     0.00000000     0.00000000     0.00000000
     0.00000000     0.00000000     0.00000000
     0.00000000     0.00000000     0.00000000
     0.00000000     0.00000000     0.00000000
     0.00000000     0.00000000     0.00000000
     0.00000000     0.00000000     0.00000000
     0.00000000     0.00000000     0.00000000
     0.00000000     0.00000000     0.00000000
     0.00000000     0.00000000     0.00000000
     0.00000000     0.00000000     0.00000000
     0.00000000     0.00000000     0.00000000
     0.00000000     0.00000000     0.00000000
     0.00000000     0.00000000     0.00000000
     0.00000000     0.00000000     0.00000000
     0.00000000     0.00000000     0.00000000
     0.00000000     0.00000000     0.00000000
     0.00000000     0.00000000     0.00000000
     0.00000000     0.00000000     0.00000000
     0.00000000     0.00000000     0.00000000
     0.00000000     0.00000000     0.00000000
     0.00000000     0.00000000     0.00000000
     0.00000000     0.00000000     0.00000000
     0.00000000     0.00000000     0.00000000
     0.00000000     0.00000000     0.00000000
     0.00000000     0.00000000     0.00000000
     0.00000000     0.00000000     0.00000000
     0.00000000     0.00000000     0.00000000
     0.00000000     0.00000000     0.00000000
     0.00000000     0.00000000     0.00000000
     0.00000000     0.00000000     0.00000000
     0.00000000     0.00000000     0.00000000
     0.00000000     0.00000000     0.00000000
     0.00000000     0.00000000     0.00000000
     0.00000000     0.00000000     0.00000000
     0.00000000     0.00000000     0.00000000
     0.00000000     0.00000000     0.00000000
     0.00000000     0.00000000     0.00000000
     0.00000000     0.00000000     0.00000000
     0.00000000     0.00000000     0.00000000
     0.00000000     0.00000000     0.00000000
     0.00000000     0.00000000     0.00000000
     0.00000000     0.00000000     0.00000000
     0.00000000     0.00000000     0.00000000
     0.00000000     0.00000000     0.00000000
     0.00000000     0.00000000     0.00000000
     0.00000000     0.00000000     0.00000000
     0.00000000     0.00000000     0.00000000
     0.00000000     0.00000000     0.00000000
     0.00000000     0.00000000     0.00000000
     0.00000000     0.00000000     0.00000000
     0.00000000     0.00000000     0.00000000
     0.00000000     0.00000000     0.00000000
     0.00000000     0.00000000     0.00000000
     0.00000000     0.00000000     0.00000000
     0.00000000     0.00000000     0.00000000
     0.00000000     0.00000000     0.00000000
     0.00000000     0.00000000     0.00000000
     0.00000000     0.00000000     0.00000000
     0.00000000     0.00000000     0.00000000
     0.00000000     0.00000000     0.00000000
     0.00000000     0.00000000     0.00000000
     0.00000000     0.00000000     0.00000000
     0.00000000     0.00000000     0.00000000
     0.00000000     0.00000000     0.00000000
     0.00000000     0.00000000     0.00000000
     0.00000000     0.00000000     0.00000000
     0.00000000     0.00000000     0.00000000
     0.00000000     0.00000000     0.00000000
     0.00000000     0.00000000     0.00000000
     0.00000000     0.00000000     0.00000000
     0.00000000     0.00000000     0.00000000
     0.00000000     0.00000000     0.00000000
     0.00000000     0.00000000     0.00000000
     0.00000000     0.00000000     0.00000000
     0.00000000     0.00000000     0.00000000
     0.00000000     0.00000000     0.00000000
     0.00000000     0.00000000     0.00000000
     0.00000000     0.00000000     0.00000000
     0.00000000     0.00000000     0.00000000
     0.00000000     0.00000000     0.00000000
     0.00000000     0.00000000     0.00000000
     0.00000000     0.00000000     0.00000000
     0.00000000     0.00000000     0.00000000
     0.00000000     0.00000000     0.00000000
     0.00000000     0.00000000     0.00000000
     0.00000000     0.00000000     0.00000000
     0.00000000     0.00000000     0.00000000
     0.00000000     0.00000000     0.00000000
     0.00000000     0.00000000     0.00000000
     0.00000000     0.00000000     0.00000000
     0.00000000     0.00000000     0.00000000
     0.00000000     0.00000000     0.00000000
     0.00000000     0.00000000     0.00000000
     0.00000000     0.00000000     0.00000000
     0.00000000     0.00000000     0.00000000
     0.00000000     0.00000000     0.00000000
     0.00000000     0.00000000     0.00000000
     0.00000000     0.00000000     0.00000000
     0.00000000     0.00000000     0.00000000
     0.00000000     0.00000000     0.00000000
     0.00000000     0.00000000     0.00000000
     0.00000000     0.00000000     0.00000000
     0.00000000     0.00000000     0.00000000
     0.00000000     0.00000000     0.00000000
     0.00000000     0.00000000     0.00000000
     0.00000000     0.00000000     0.00000000
     0.00000000     0.00000000     0.00000000
     0.00000000     0.00000000     0.00000000
     0.00000000     0.00000000     0.00000000
     0.00000000     0.00000000     0.00000000
     0.00000000     0.00000000     0.00000000
     0.00000000     0.00000000     0.00000000
     0.00000000     0.00000000     0.00000000
     0.00000000     0.00000000     0.00000000
     0.00000000     0.00000000     0.00000000
     0.00000000     0.00000000     0.00000000
     0.00000000     0.00000000     0.00000000
     0.00000000     0.00000000     0.00000000
     0.00000000     0.00000000     0.00000000
     0.00000000     0.00000000     0.00000000
     0.00000000     0.00000000     0.00000000
     0.00000000     0.00000000     0.00000000
     0.00000000     0.00000000     0.00000000
     0.00000000     0.00000000     0.00000000
     0.00000000     0.00000000     0.00000000
     0.00000000     0.00000000     0.00000000
     0.00000000     0.00000000     0.00000000
     0.00000000     0.00000000     0.00000000
     0.00000000     0.00000000     0.00000000
     0.00000000     0.00000000     0.00000000
     0.00000000     0.00000000     0.00000000
     0.00000000     0.00000000     0.00000000
     0.00000000     0.00000000     0.00000000
     0.00000000     0.00000000     0.00000000
     0.00000000     0.00000000     0.00000000
     0.00000000     0.00000000     0.00000000
     0.00000000     0.00000000     0.00000000
     0.00000000     0.00000000     0.00000000
     0.00000000     0.00000000     0.00000000
     0.00000000     0.00000000     0.00000000
     0.00000000     0.00000000     0.00000000
     0.00000000     0.00000000     0.00000000
     0.00000000     0.00000000     0.00000000
     0.00000000     0.00000000     0.00000000
     0.00000000     0.00000000     0.00000000
     0.00000000     0.00000000     0.00000000
     0.00000000     0.00000000     0.00000000
     0.00000000     0.00000000     0.00000000
     0.00000000     0.00000000     0.00000000
     0.00000000     0.00000000     0.00000000
     0.00000000     0.00000000     0.00000000
     0.00000000     0.00000000     0.00000000
     0.00000000     0.00000000     0.00000000
     0.00000000     0.00000000     0.00000000
     0.00000000     0.00000000     0.00000000
     0.00000000     0.00000000     0.00000000
     0.00000000     0.00000000     0.00000000
     0.00000000     0.00000000     0.00000000
     0.00000000     0.00000000     0.00000000
     0.00000000     0.00000000     0.00000000
     0.00000000     0.00000000     0.00000000
     0.00000000     0.00000000     0.00000000
     0.00000000     0.00000000     0.00000000
     0.00000000     0.00000000     0.00000000
     0.00000000     0.00000000     0.00000000
     0.00000000     0.00000000     0.00000000
     0.00000000     0.00000000     0.00000000
     0.00000000     0.00000000     0.00000000
     0.00000000     0.00000000     0.00000000
     0.00000000     0.00000000     0.00000000
     0.00000000     0.00000000     0.00000000
     0.00000000     0.00000000     0.00000000
     0.00000000     0.00000000     0.00000000
     0.00000000     0.00000000     0.00000000
     0.00000000     0.00000000     0.00000000
     0.00000000     0.00000000     0.00000000
     0.00000000     0.00000000     0.00000000
     0.00000000     0.00000000     0.00000000
     0.00000000     0.00000000     0.00000000
     0.00000000     0.00000000     0.00000000
     0.00000000     0.00000000     0.00000000
     0.00000000     0.00000000     0.00000000
     0.00000000     0.00000000     0.00000000
     0.00000000     0.00000000     0.00000000
     0.00000000     0.00000000     0.00000000
     0.00000000     0.00000000     0.00000000
     0.00000000     0.00000000     0.00000000
     0.00000000     0.00000000     0.00000000
     0.00000000     0.00000000     0.00000000
     0.00000000     0.00000000     0.00000000
     0.00000000     0.00000000     0.00000000
     0.00000000     0.00000000     0.00000000
     0.00000000     0.00000000     0.00000000
     0.00000000     0.00000000     0.00000000
     0.00000000     0.00000000     0.00000000
     0.00000000     0.00000000     0.00000000
     0.00000000     0.00000000     0.00000000
     0.00000000     0.00000000     0.00000000
     0.00000000     0.00000000     0.00000000
     0.00000000     0.00000000     0.00000000
     0.00000000     0.00000000     0.00000000
     0.00000000     0.00000000     0.00000000
     0.00000000     0.00000000     0.00000000
     0.00000000     0.00000000     0.00000000
     0.00000000     0.00000000     0.00000000
     0.00000000     0.00000000     0.00000000
     0.00000000     0.00000000     0.00000000
     0.00000000     0.00000000     0.00000000
     0.00000000     0.00000000     0.00000000
     0.00000000     0.00000000     0.00000000
     0.00000000     0.00000000     0.00000000
     0.00000000     0.00000000     0.00000000
     0.00000000     0.00000000     0.00000000
     0.00000000     0.00000000     0.00000000
     0.00000000     0.00000000     0.00000000
     0.00000000     0.00000000     0.00000000
     0.00000000     0.00000000     0.00000000
     0.00000000     0.00000000     0.00000000
     0.00000000     0.00000000     0.00000000
     0.00000000     0.00000000     0.00000000
     0.00000000     0.00000000     0.00000000
     0.00000000     0.00000000     0.00000000
     0.00000000     0.00000000     0.00000000
     0.00000000     0.00000000     0.00000000
     0.00000000     0.00000000     0.00000000
     0.00000000     0.00000000     0.00000000
     0.00000000     0.00000000     0.00000000
     0.00000000     0.00000000     0.00000000
     0.00000000     0.00000000     0.00000000
     0.00000000     0.00000000     0.00000000
     0.00000000     0.00000000     0.00000000
     0.00000000     0.00000000     0.00000000
     0.00000000     0.00000000     0.00000000
     0.00000000     0.00000000     0.00000000
     0.00000000     0.00000000     0.00000000
     0.00000000     0.00000000     0.00000000
     0.00000000     0.00000000     0.00000000
     0.00000000     0.00000000     0.00000000
     0.00000000     0.00000000     0.00000000
     0.00000000     0.00000000     0.00000000
     0.00000000     0.00000000     0.00000000
     0.00000000     0.00000000     0.00000000
     0.00000000     0.00000000     0.00000000
     0.00000000     0.00000000     0.00000000
     0.00000000     0.00000000     0.00000000
     0.00000000     0.00000000     0.00000000
     0.00000000     0.00000000     0.00000000
     0.00000000     0.00000000     0.00000000
     0.00000000     0.00000000     0.00000000
     0.00000000     0.00000000     0.00000000
     0.00000000     0.00000000     0.00000000
     0.00000000     0.00000000     0.00000000
     0.00000000     0.00000000     0.00000000
     0.00000000     0.00000000     0.00000000
     0.00000000     0.00000000     0.00000000
     0.00000000     0.00000000     0.00000000
     0.00000000     0.00000000     0.00000000
     0.00000000     0.00000000     0.00000000
     0.00000000     0.00000000     0.00000000
     0.00000000     0.00000000     0.00000000
     0.00000000     0.00000000     0.00000000
     0.00000000     0.00000000     0.00000000
     0.00000000     0.00000000     0.00000000
     0.00000000     0.00000000     0.00000000
     0.00000000     0.00000000     0.00000000
     0.00000000     0.00000000     0.00000000
     0.00000000     0.00000000     0.00000000
     0.00000000     0.00000000     0.00000000
     0.00000000     0.00000000     0.00000000
     0.00000000     0.00000000     0.00000000
     0.00000000     0.00000000     0.00000000
     0.00000000     0.00000000     0.00000000
     0.00000000     0.00000000     0.00000000
     0.00000000     0.00000000     0.00000000
     0.00000000     0.00000000     0.00000000
     0.00000000     0.00000000     0.00000000
     0.00000000     0.00000000     0.00000000
     0.00000000     0.00000000     0.00000000
     0.00000000     0.00000000     0.00000000
     0.00000000     0.00000000     0.00000000
     0.00000000     0.00000000     0.00000000
     0.00000000     0.00000000     0.00000000
     0.00000000     0.00000000     0.00000000
     0.00000000     0.00000000     0.00000000
     0.00000000     0.00000000     0.00000000
     0.00000000     0.00000000     0.00000000
     0.00000000     0.00000000     0.00000000
     0.00000000     0.00000000     0.00000000
     0.00000000     0.00000000     0.00000000
     0.00000000     0.00000000     0.00000000
     0.00000000     0.00000000     0.00000000
     0.00000000     0.00000000     0.00000000
     0.00000000     0.00000000     0.00000000
     0.00000000     0.00000000     0.00000000
     0.00000000     0.00000000     0.00000000
     0.00000000     0.00000000     0.00000000
     0.00000000     0.00000000     0.00000000
     0.00000000     0.00000000     0.00000000
     0.00000000     0.00000000     0.00000000
     0.00000000     0.00000000     0.00000000
     0.00000000     0.00000000     0.00000000
     0.00000000     0.00000000     0.00000000
     0.00000000     0.00000000     0.00000000
     0.00000000     0.00000000     0.00000000
     0.00000000     0.00000000     0.00000000
     0.00000000     0.00000000     0.00000000
     0.00000000     0.00000000     0.00000000
     0.00000000     0.00000000     0.00000000
     0.00000000     0.00000000     0.00000000
     0.00000000     0.00000000     0.00000000
     0.00000000     0.00000000     0.00000000
     0.00000000     0.00000000     0.00000000
     0.00000000     0.00000000     0.00000000
     0.00000000     0.00000000     0.00000000
     0.00000000     0.00000000     0.00000000
     0.00000000     0.00000000     0.00000000
     0.00000000     0.00000000     0.00000000
     0.00000000     0.00000000     0.00000000
     0.00000000     0.00000000     0.00000000
     0.00000000     0.00000000     0.00000000
     0.00000000     0.00000000     0.00000000
     0.00000000     0.00000000     0.00000000
     0.00000000     0.00000000     0.00000000
     0.00000000     0.00000000     0.00000000
     0.00000000     0.00000000     0.00000000
     0.00000000     0.00000000     0.00000000
     0.00000000     0.00000000     0.00000000
     0.00000000     0.00000000     0.00000000
     0.00000000     0.00000000     0.00000000
     0.00000000     0.00000000     0.00000000
     0.00000000     0.00000000     0.00000000
     0.00000000     0.00000000     0.00000000
     0.00000000     0.00000000     0.00000000
     0.00000000     0.00000000     0.00000000
     0.00000000     0.00000000     0.00000000
     0.00000000     0.00000000     0.00000000
     0.00000000     0.00000000     0.00000000
     0.00000000     0.00000000     0.00000000
     0.00000000     0.00000000     0.00000000
     0.00000000     0.00000000     0.00000000
     0.00000000     0.00000000     0.00000000
     0.00000000     0.00000000     0.00000000
     0.00000000     0.00000000     0.00000000
     0.00000000     0.00000000     0.00000000
     0.00000000     0.00000000     0.00000000
     0.00000000     0.00000000     0.00000000
     0.00000000     0.00000000     0.00000000
     0.00000000     0.00000000     0.00000000
     0.00000000     0.00000000     0.00000000
     0.00000000     0.00000000     0.00000000
     0.00000000     0.00000000     0.00000000
     0.00000000     0.00000000     0.00000000
     0.00000000     0.00000000     0.00000000
     0.00000000     0.00000000     0.00000000
     0.00000000     0.00000000     0.00000000
     0.00000000     0.00000000     0.00000000
     0.00000000     0.00000000     0.00000000
     0.00000000     0.00000000     0.00000000
     0.00000000     0.00000000     0.00000000
     0.00000000     0.00000000     0.00000000
     0.00000000     0.00000000     0.00000000
     0.00000000     0.00000000     0.00000000
     0.00000000     0.00000000     0.00000000
     0.00000000     0.00000000     0.00000000
     0.00000000     0.00000000     0.00000000
     0.00000000     0.00000000     0.00000000
     0.00000000     0.00000000     0.00000000
     0.00000000     0.00000000     0.00000000
     0.00000000     0.00000000     0.00000000
     0.00000000     0.00000000     0.00000000
     0.00000000     0.00000000     0.00000000
     0.00000000     0.00000000     0.00000000
     0.00000000     0.00000000     0.00000000
     0.00000000     0.00000000     0.00000000
     0.00000000     0.00000000     0.00000000
     0.00000000     0.00000000     0.00000000
     0.00000000     0.00000000     0.00000000
     0.00000000     0.00000000     0.00000000
     0.00000000     0.00000000     0.00000000
     0.00000000     0.00000000     0.00000000
     0.00000000     0.00000000     0.00000000
     0.00000000     0.00000000     0.00000000
     0.00000000     0.00000000     0.00000000
     0.00000000     0.00000000     0.00000000
     0.00000000     0.00000000     0.00000000
     0.00000000     0.00000000     0.00000000
     0.00000000     0.00000000     0.00000000
     0.00000000     0.00000000     0.00000000
     0.00000000     0.00000000     0.00000000
     0.00000000     0.00000000     0.00000000
     0.00000000     0.00000000     0.00000000
     0.00000000     0.00000000     0.00000000
     0.00000000     0.00000000     0.00000000
     0.00000000     0.00000000     0.00000000
     0.00000000     0.00000000     0.00000000
     0.00000000     0.00000000     0.00000000
     0.00000000     0.00000000     0.00000000
     0.00000000     0.00000000     0.00000000
     0.00000000     0.00000000     0.00000000
     0.00000000     0.00000000     0.00000000
     0.00000000     0.00000000     0.00000000
     0.00000000     0.00000000     0.00000000
     0.00000000     0.00000000     0.00000000
     0.00000000     0.00000000     0.00000000
     0.00000000     0.00000000     0.00000000
     0.00000000     0.00000000     0.00000000
     0.00000000     0.00000000     0.00000000
     0.00000000     0.00000000     0.00000000
     0.00000000     0.00000000     0.00000000
     0.00000000     0.00000000     0.00000000
     0.00000000     0.00000000     0.00000000
     0.00000000     0.00000000     0.00000000
     0.00000000     0.00000000     0.00000000
     0.00000000     0.00000000     0.00000000
     0.00000000     0.00000000     0.00000000
     0.00000000     0.00000000     0.00000000
     0.00000000     0.00000000     0.00000000
     0.00000000     0.00000000     0.00000000
     0.00000000     0.00000000     0.00000000
     0.00000000     0.00000000     0.00000000
     0.00000000     0.00000000     0.00000000
     0.00000000     0.00000000     0.00000000
     0.00000000     0.00000000     0.00000000
     0.00000000     0.00000000     0.00000000
     0.00000000     0.00000000     0.00000000
     0.00000000     0.00000000     0.00000000
     0.00000000     0.00000000     0.00000000
     0.00000000     0.00000000     0.00000000
     0.00000000     0.00000000     0.00000000
     0.00000000     0.00000000     0.00000000
     0.00000000     0.00000000     0.00000000
     0.00000000     0.00000000     0.00000000
     0.00000000     0.00000000     0.00000000
     0.00000000     0.00000000     0.00000000
     0.00000000     0.00000000     0.00000000
     0.00000000     0.00000000     0.00000000
     0.00000000     0.00000000     0.00000000
     0.00000000     0.00000000     0.00000000
     0.00000000     0.00000000     0.00000000
     0.00000000     0.00000000     0.00000000
     0.00000000     0.00000000     0.00000000
     0.00000000     0.00000000     0.00000000
     0.00000000     0.00000000     0.00000000
     0.00000000     0.00000000     0.00000000
     0.00000000     0.00000000     0.00000000
     0.00000000     0.00000000     0.00000000
     0.00000000     0.00000000     0.00000000
     0.00000000     0.00000000     0.00000000
     0.00000000     0.00000000     0.00000000
     0.00000000     0.00000000     0.00000000
     0.00000000     0.00000000     0.00000000
     0.00000000     0.00000000     0.00000000
     0.00000000     0.00000000     0.00000000
     0.00000000     0.00000000     0.00000000
     0.00000000     0.00000000     0.00000000
     0.00000000     0.00000000     0.00000000
     0.00000000     0.00000000     0.00000000
     0.00000000     0.00000000     0.00000000
     0.00000000     0.00000000     0.00000000
     0.00000000     0.00000000     0.00000000
     0.00000000     0.00000000     0.00000000
     0.00000000     0.00000000     0.00000000
     0.00000000     0.00000000     0.00000000
     0.00000000     0.00000000     0.00000000
     0.00000000     0.00000000     0.00000000
     0.00000000     0.00000000     0.00000000
     0.00000000     0.00000000     0.00000000
     0.00000000     0.00000000     0.00000000
     0.00000000     0.00000000     0.00000000
     0.00000000     0.00000000     0.00000000
     0.00000000     0.00000000     0.00000000
     0.00000000     0.00000000     0.00000000
     0.00000000     0.00000000     0.00000000
     0.00000000     0.00000000     0.00000000
     0.00000000     0.00000000     0.00000000
     0.00000000     0.00000000     0.00000000
     0.00000000     0.00000000     0.00000000
     0.00000000     0.00000000     0.00000000
     0.00000000     0.00000000     0.00000000
     0.00000000     0.00000000     0.00000000
     0.00000000     0.00000000     0.00000000
     0.00000000     0.00000000     0.00000000
     0.00000000     0.00000000     0.00000000
     0.00000000     0.00000000     0.00000000
     0.00000000     0.00000000     0.00000000
     0.00000000     0.00000000     0.00000000
     0.00000000     0.00000000     0.00000000
     0.00000000     0.00000000     0.00000000
     0.00000000     0.00000000     0.00000000
     0.00000000     0.00000000     0.00000000
     0.00000000     0.00000000     0.00000000
     0.00000000     0.00000000     0.00000000
     0.00000000     0.00000000     0.00000000
     0.00000000     0.00000000     0.00000000
     0.00000000     0.00000000     0.00000000
     0.00000000     0.00000000     0.00000000
     0.00000000     0.00000000     0.00000000
     0.00000000     0.00000000     0.00000000
     0.00000000     0.00000000     0.00000000
     0.00000000     0.00000000     0.00000000
     0.00000000     0.00000000     0.00000000
     0.00000000     0.00000000     0.00000000
     0.00000000     0.00000000     0.00000000
     0.00000000     0.00000000     0.00000000
     0.00000000     0.00000000     0.00000000
     0.00000000     0.00000000     0.00000000
     0.00000000     0.00000000     0.00000000
     0.00000000     0.00000000     0.00000000
     0.00000000     0.00000000     0.00000000
     0.00000000     0.00000000     0.00000000
     0.00000000     0.00000000     0.00000000
     0.00000000     0.00000000     0.00000000
     0.00000000     0.00000000     0.00000000
     0.00000000     0.00000000     0.00000000
     0.00000000     0.00000000     0.00000000
     0.00000000     0.00000000     0.00000000
     0.00000000     0.00000000     0.00000000
     0.00000000     0.00000000     0.00000000
     0.00000000     0.00000000     0.00000000
     0.00000000     0.00000000     0.00000000
     0.00000000     0.00000000     0.00000000
     0.00000000     0.00000000     0.00000000
     0.00000000     0.00000000     0.00000000
     0.00000000     0.00000000     0.00000000
     0.00000000     0.00000000     0.00000000
     0.00000000     0.00000000     0.00000000
     0.00000000     0.00000000     0.00000000
     0.00000000     0.00000000     0.00000000
     0.00000000     0.00000000     0.00000000
     0.00000000     0.00000000     0.00000000
     0.00000000     0.00000000     0.00000000
     0.00000000     0.00000000     0.00000000
     0.00000000     0.00000000     0.00000000
     0.00000000     0.00000000     0.00000000
     0.00000000     0.00000000     0.00000000
     0.00000000     0.00000000     0.00000000
     0.00000000     0.00000000     0.00000000
     0.00000000     0.00000000     0.00000000
     0.00000000     0.00000000     0.00000000
     0.00000000     0.00000000     0.00000000
     0.00000000     0.00000000     0.00000000
     0.00000000     0.00000000     0.00000000
     0.00000000     0.00000000     0.00000000
     0.00000000     0.00000000     0.00000000
     0.00000000     0.00000000     0.00000000
     0.00000000     0.00000000     0.00000000
     0.00000000     0.00000000     0.00000000
     0.00000000     0.00000000     0.00000000
     0.00000000     0.00000000     0.00000000
     0.00000000     0.00000000     0.00000000
     0.00000000     0.00000000     0.00000000
     0.00000000     0.00000000     0.00000000
     0.00000000     0.00000000     0.00000000
     0.00000000     0.00000000     0.00000000
     0.00000000     0.00000000     0.00000000
     0.00000000     0.00000000     0.00000000
     0.00000000     0.00000000     0.00000000
     0.00000000     0.00000000     0.00000000
     0.00000000     0.00000000     0.00000000
     0.00000000     0.00000000     0.00000000
     0.00000000     0.00000000     0.00000000
     0.00000000     0.00000000     0.00000000
     0.00000000     0.00000000     0.00000000
     0.00000000     0.00000000     0.00000000
     0.00000000     0.00000000     0.00000000
     0.00000000     0.00000000     0.00000000
     0.00000000     0.00000000     0.00000000
     0.00000000     0.00000000     0.00000000
     0.00000000     0.00000000     0.00000000
     0.00000000     0.00000000     0.00000000
     0.00000000     0.00000000     0.00000000
     0.00000000     0.00000000     0.00000000
     0.00000000     0.00000000     0.00000000
     0.00000000     0.00000000     0.00000000
     0.00000000     0.00000000     0.00000000
     0.00000000     0.00000000     0.00000000
     0.00000000     0.00000000     0.00000000
     0.00000000     0.00000000     0.00000000
     0.00000000     0.00000000     0.00000000
     0.00000000     0.00000000     0.00000000
     0.00000000     0.00000000     0.00000000
     0.00000000     0.00000000     0.00000000
     0.00000000     0.00000000     0.00000000
     0.00000000     0.00000000     0.00000000
     0.00000000     0.00000000     0.00000000
     0.00000000     0.00000000     0.00000000
     0.00000000     0.00000000     0.00000000
     0.00000000     0.00000000     0.00000000
     0.00000000     0.00000000     0.00000000
     0.00000000     0.00000000     0.00000000
     0.00000000     0.00000000     0.00000000
     0.00000000     0.00000000     0.00000000
     0.00000000     0.00000000     0.00000000
     0.00000000     0.00000000     0.00000000
     0.00000000     0.00000000     0.00000000
     0.00000000     0.00000000     0.00000000
     0.00000000     0.00000000     0.00000000
     0.00000000     0.00000000     0.00000000
     0.00000000     0.00000000     0.00000000
     0.00000000     0.00000000     0.00000000
     0.00000000     0.00000000     0.00000000
     0.00000000     0.00000000     0.00000000
     0.00000000     0.00000000     0.00000000
     0.00000000     0.00000000     0.00000000
     0.00000000     0.00000000     0.00000000
     0.00000000     0.00000000     0.00000000
     0.00000000     0.00000000     0.00000000
     0.00000000     0.00000000     0.00000000
     0.00000000     0.00000000     0.00000000
     0.00000000     0.00000000     0.00000000
     0.00000000     0.00000000     0.00000000
     0.00000000     0.00000000     0.00000000
     0.00000000     0.00000000     0.00000000
     0.00000000     0.00000000     0.00000000
     0.00000000     0.00000000     0.00000000
     0.00000000     0.00000000     0.00000000
     0.00000000     0.00000000     0.00000000
     0.00000000     0.00000000     0.00000000
     0.00000000     0.00000000     0.00000000
     0.00000000     0.00000000     0.00000000
     0.00000000     0.00000000     0.00000000
     0.00000000     0.00000000     0.00000000
     0.00000000     0.00000000     0.00000000
     0.00000000     0.00000000     0.00000000
     0.00000000     0.00000000     0.00000000
     0.00000000     0.00000000     0.00000000
     0.00000000     0.00000000     0.00000000
     0.00000000     0.00000000     0.00000000
     0.00000000     0.00000000     0.00000000
     0.00000000     0.00000000     0.00000000
     0.00000000     0.00000000     0.00000000
     0.00000000     0.00000000     0.00000000
     0.00000000     0.00000000     0.00000000
     0.00000000     0.00000000     0.00000000
     0.00000000     0.00000000     0.00000000
     0.00000000     0.00000000     0.00000000
     0.00000000     0.00000000     0.00000000
     0.00000000     0.00000000     0.00000000
     0.00000000     0.00000000     0.00000000
     0.00000000     0.00000000     0.00000000
     0.00000000     0.00000000     0.00000000
     0.00000000     0.00000000     0.00000000
     0.00000000     0.00000000     0.00000000
     0.00000000     0.00000000     0.00000000
     0.00000000     0.00000000     0.00000000
     0.00000000     0.00000000     0.00000000
     0.00000000     0.00000000     0.00000000
     0.00000000     0.00000000     0.00000000
     0.00000000     0.00000000     0.00000000
     0.00000000     0.00000000     0.00000000
     0.00000000     0.00000000     0.00000000
     0.00000000     0.00000000     0.00000000
     0.00000000     0.00000000     0.00000000
     0.00000000     0.00000000     0.00000000
     0.00000000     0.00000000     0.00000000
     0.00000000     0.00000000     0.00000000
     0.00000000     0.00000000     0.00000000
     0.00000000     0.00000000     0.00000000
     0.00000000     0.00000000     0.00000000
     0.00000000     0.00000000     0.00000000
     0.00000000     0.00000000     0.00000000
     0.00000000     0.00000000     0.00000000
     0.00000000     0.00000000     0.00000000
     0.00000000     0.00000000     0.00000000
     0.00000000     0.00000000     0.00000000
     0.00000000     0.00000000     0.00000000
     0.00000000     0.00000000     0.00000000
     0.00000000     0.00000000     0.00000000
     0.00000000     0.00000000     0.00000000
     0.00000000     0.00000000     0.00000000
     0.00000000     0.00000000     0.00000000
     0.00000000     0.00000000     0.00000000
     0.00000000     0.00000000     0.00000000
     0.00000000     0.00000000     0.00000000
     0.00000000     0.00000000     0.00000000
     0.00000000     0.00000000     0.00000000
     0.00000000     0.00000000     0.00000000
     0.00000000     0.00000000     0.00000000
     0.00000000     0.00000000     0.00000000
     0.00000000     0.00000000     0.00000000
     0.00000000     0.00000000     0.00000000
     0.00000000     0.00000000     0.00000000
     0.00000000     0.00000000     0.00000000
     0.00000000     0.00000000     0.00000000
     0.00000000     0.00000000     0.00000000
     0.00000000     0.00000000     0.00000000
     0.00000000     0.00000000     0.00000000
     0.00000000     0.00000000     0.00000000
     0.00000000     0.00000000     0.00000000
     0.00000000     0.00000000     0.00000000
     0.00000000     0.00000000     0.00000000
     0.00000000     0.00000000     0.00000000
     0.00000000     0.00000000     0.00000000
     0.00000000     0.00000000     0.00000000
     0.00000000     0.00000000     0.00000000
     0.00000000     0.00000000     0.00000000
     0.00000000     0.00000000     0.00000000
     0.00000000     0.00000000     0.00000000
     0.00000000     0.00000000     0.00000000
     0.00000000     0.00000000     0.00000000
     0.00000000     0.00000000     0.00000000
     0.00000000     0.00000000     0.00000000
     0.00000000     0.00000000     0.00000000
     0.00000000     0.00000000     0.00000000
     0.00000000     0.00000000     0.00000000
     0.00000000     0.00000000     0.00000000
     0.00000000     0.00000000     0.00000000
     0.00000000     0.00000000     0.00000000
     0.00000000     0.00000000     0.00000000
     0.00000000     0.00000000     0.00000000
     0.00000000     0.00000000     0.00000000
     0.00000000     0.00000000     0.00000000
     0.00000000     0.00000000     0.00000000
     0.00000000     0.00000000     0.00000000
     0.00000000     0.00000000     0.00000000
     0.00000000     0.00000000     0.00000000
     0.00000000     0.00000000     0.00000000
     0.00000000     0.00000000     0.00000000
     0.00000000     0.00000000     0.00000000
     0.00000000     0.00000000     0.00000000
     0.00000000     0.00000000     0.00000000
     0.00000000     0.00000000     0.00000000
     0.00000000     0.00000000     0.00000000
     0.00000000     0.00000000     0.00000000
     0.00000000     0.00000000     0.00000000
     0.00000000     0.00000000     0.00000000
     0.00000000     0.00000000     0.00000000
     0.00000000     0.00000000     0.00000000
     0.00000000     0.00000000     0.00000000
     0.00000000     0.00000000     0.00000000
     0.00000000     0.00000000     0.00000000
     0.00000000     0.00000000     0.00000000
     0.00000000     0.00000000     0.00000000
     0.00000000     0.00000000     0.00000000
     0.00000000     0.00000000     0.00000000
     0.00000000     0.00000000     0.00000000
     0.00000000     0.00000000     0.00000000
     0.00000000     0.00000000     0.00000000
     0.00000000     0.00000000     0.00000000
     0.00000000     0.00000000     0.00000000
     0.00000000     0.00000000     0.00000000
     0.00000000     0.00000000     0.00000000
     0.00000000     0.00000000     0.00000000
     0.00000000     0.00000000     0.00000000
     0.00000000     0.00000000     0.00000000
     0.00000000     0.00000000     0.00000000
     0.00000000     0.00000000     0.00000000
     0.00000000     0.00000000     0.00000000
     0.00000000     0.00000000     0.00000000
     0.00000000     0.00000000     0.00000000
     0.00000000     0.00000000     0.00000000
     0.00000000     0.00000000     0.00000000
     0.00000000     0.00000000     0.00000000
     0.00000000     0.00000000     0.00000000
     0.00000000     0.00000000     0.00000000
     0.00000000     0.00000000     0.00000000
     0.00000000     0.00000000     0.00000000
     0.00000000     0.00000000     0.00000000
     0.00000000     0.00000000     0.00000000
     0.00000000     0.00000000     0.00000000
     0.00000000     0.00000000     0.00000000
     0.00000000     0.00000000     0.00000000
     0.00000000     0.00000000     0.00000000
     0.00000000     0.00000000     0.00000000
     0.00000000     0.00000000     0.00000000
     0.00000000     0.00000000     0.00000000
     0.00000000     0.00000000     0.00000000
     0.00000000     0.00000000     0.00000000
     0.00000000     0.00000000     0.00000000
     0.00000000     0.00000000     0.00000000
     0.00000000     0.00000000     0.00000000
     0.00000000     0.00000000     0.00000000
     0.00000000     0.00000000     0.00000000
     0.00000000     0.00000000     0.00000000
     0.00000000     0.00000000     0.00000000
     0.00000000     0.00000000     0.00000000
     0.00000000     0.00000000     0.00000000
     0.00000000     0.00000000     0.00000000
     0.00000000     0.00000000     0.00000000
     0.00000000     0.00000000     0.00000000
     0.00000000     0.00000000     0.00000000
     0.00000000     0.00000000     0.00000000
     0.00000000     0.00000000     0.00000000
     0.00000000     0.00000000     0.00000000
     0.00000000     0.00000000     0.00000000
     0.00000000     0.00000000     0.00000000
     0.00000000     0.00000000     0.00000000
     0.00000000     0.00000000     0.00000000
     0.00000000     0.00000000     0.00000000
     0.00000000     0.00000000     0.00000000
     0.00000000     0.00000000     0.00000000
     0.00000000     0.00000000     0.00000000
     0.00000000     0.00000000     0.00000000
     0.00000000     0.00000000     0.00000000
     0.00000000     0.00000000     0.00000000
     0.00000000     0.00000000     0.00000000
     0.00000000     0.00000000     0.00000000
     0.00000000     0.00000000     0.00000000
     0.00000000     0.00000000     0.00000000
     0.00000000     0.00000000     0.00000000
     0.00000000     0.00000000     0.00000000
     0.00000000     0.00000000     0.00000000
     0.00000000     0.00000000     0.00000000
     0.00000000     0.00000000     0.00000000
     0.00000000     0.00000000     0.00000000
     0.00000000     0.00000000     0.00000000
     0.00000000     0.00000000     0.00000000
     0.00000000     0.00000000     0.00000000
     0.00000000     0.00000000     0.00000000
     0.00000000     0.00000000     0.00000000
     0.00000000     0.00000000     0.00000000
     0.00000000     0.00000000     0.00000000
     0.00000000     0.00000000     0.00000000
     0.00000000     0.00000000     0.00000000
     0.00000000     0.00000000     0.00000000
     0.00000000     0.00000000     0.00000000
     0.00000000     0.00000000     0.00000000
     0.00000000     0.00000000     0.00000000
     0.00000000     0.00000000     0.00000000
     0.00000000     0.00000000     0.00000000
     0.00000000     0.00000000     0.00000000
     0.00000000     0.00000000     0.00000000
     0.00000000     0.00000000     0.00000000
     0.00000000     0.00000000     0.00000000
     0.00000000     0.00000000     0.00000000
     0.00000000     0.00000000     0.00000000
     0.00000000     0.00000000     0.00000000
     0.00000000     0.00000000     0.00000000
     0.00000000     0.00000000     0.00000000
     0.00000000     0.00000000     0.00000000
     0.00000000     0.00000000     0.00000000
     0.00000000     0.00000000     0.00000000
     0.00000000     0.00000000     0.00000000
     0.00000000     0.00000000     0.00000000
     0.00000000     0.00000000     0.00000000
     0.00000000     0.00000000     0.00000000
     0.00000000     0.00000000     0.00000000
     0.00000000     0.00000000     0.00000000
     0.00000000     0.00000000     0.00000000
     0.00000000     0.00000000     0.00000000
     0.00000000     0.00000000     0.00000000
     0.00000000     0.00000000     0.00000000
     0.00000000     0.00000000     0.00000000
     0.00000000     0.00000000     0.00000000
     0.00000000     0.00000000     0.00000000
     0.00000000     0.00000000     0.00000000
     0.00000000     0.00000000     0.00000000
     0.00000000     0.00000000     0.00000000
     0.00000000     0.00000000     0.00000000
     0.00000000     0.00000000     0.00000000
     0.00000000     0.00000000     0.00000000
     0.00000000     0.00000000     0.00000000
     0.00000000     0.00000000     0.00000000
     0.00000000     0.00000000     0.00000000
     0.00000000     0.00000000     0.00000000
     0.00000000     0.00000000     0.00000000
     0.00000000     0.00000000     0.00000000
     0.00000000     0.00000000     0.00000000
     0.00000000     0.00000000     0.00000000
     0.00000000     0.00000000     0.00000000
     0.00000000     0.00000000     0.00000000
     0.00000000     0.00000000     0.00000000
     0.00000000     0.00000000     0.00000000
     0.00000000     0.00000000     0.00000000
     0.00000000     0.00000000     0.00000000
     0.00000000     0.00000000     0.00000000
     0.00000000     0.00000000     0.00000000
     0.00000000     0.00000000     0.00000000
     0.00000000     0.00000000     0.00000000
     0.00000000     0.00000000     0.00000000
     0.00000000     0.00000000     0.00000000
     0.00000000     0.00000000     0.00000000
     0.00000000     0.00000000     0.00000000
     0.00000000     0.00000000     0.00000000
     0.00000000     0.00000000     0.00000000
     0.00000000     0.00000000     0.00000000
     0.00000000     0.00000000     0.00000000
     0.00000000     0.00000000     0.00000000
     0.00000000     0.00000000     0.00000000
     0.00000000     0.00000000     0.00000000
     0.00000000     0.00000000     0.00000000
     0.00000000     0.00000000     0.00000000
     0.00000000     0.00000000     0.00000000
     0.00000000     0.00000000     0.00000000
     0.00000000     0.00000000     0.00000000
     0.00000000     0.00000000     0.00000000
     0.00000000     0.00000000     0.00000000
     0.00000000     0.00000000     0.00000000
     0.00000000     0.00000000     0.00000000
     0.00000000     0.00000000     0.00000000
     0.00000000     0.00000000     0.00000000
     0.00000000     0.00000000     0.00000000
     0.00000000     0.00000000     0.00000000
     0.00000000     0.00000000     0.00000000
     0.00000000     0.00000000     0.00000000
     0.00000000     0.00000000     0.00000000
     0.00000000     0.00000000     0.00000000
     0.00000000     0.00000000     0.00000000
     0.00000000     0.00000000     0.00000000
     0.00000000     0.00000000     0.00000000
     0.00000000     0.00000000     0.00000000
     0.00000000     0.00000000     0.00000000
     0.00000000     0.00000000     0.00000000
     0.00000000     0.00000000     0.00000000
     0.00000000     0.00000000     0.00000000
     0.00000000     0.00000000     0.00000000
     0.00000000     0.00000000     0.00000000
     0.00000000     0.00000000     0.00000000
     0.00000000     0.00000000     0.00000000
     0.00000000     0.00000000     0.00000000
     0.00000000     0.00000000     0.00000000
     0.00000000     0.00000000     0.00000000
     0.00000000     0.00000000     0.00000000
     0.00000000     0.00000000     0.00000000
     0.00000000     0.00000000     0.00000000
     0.00000000     0.00000000     0.00000000
     0.00000000     0.00000000     0.00000000
     0.00000000     0.00000000     0.00000000
     0.00000000     0.00000000     0.00000000
     0.00000000     0.00000000     0.00000000
     0.00000000     0.00000000     0.00000000
     0.00000000     0.00000000     0.00000000
     0.00000000     0.00000000     0.00000000
     0.00000000     0.00000000     0.00000000
     0.00000000     0.00000000     0.00000000
     0.00000000     0.00000000     0.00000000
     0.00000000     0.00000000     0.00000000
     0.00000000     0.00000000     0.00000000
     0.00000000     0.00000000     0.00000000
     0.00000000     0.00000000     0.00000000
     0.00000000     0.00000000     0.00000000
     0.00000000     0.00000000     0.00000000
     0.00000000     0.00000000     0.00000000
     0.00000000     0.00000000     0.00000000
     0.00000000     0.00000000     0.00000000
     0.00000000     0.00000000     0.00000000
     0.00000000     0.00000000     0.00000000
     0.00000000     0.00000000     0.00000000
     0.00000000     0.00000000     0.00000000
     0.00000000     0.00000000     0.00000000
     0.00000000     0.00000000     0.00000000
     0.00000000     0.00000000     0.00000000
     0.00000000     0.00000000     0.00000000
     0.00000000     0.00000000     0.00000000
     0.00000000     0.00000000     0.00000000
     0.00000000     0.00000000     0.00000000
     0.00000000     0.00000000     0.00000000
     0.00000000     0.00000000     0.00000000
     0.00000000     0.00000000     0.00000000
     0.00000000     0.00000000     0.00000000
     0.00000000     0.00000000     0.00000000
     0.00000000     0.00000000     0.00000000
     0.00000000     0.00000000     0.00000000
     0.00000000     0.00000000     0.00000000
     0.00000000     0.00000000     0.00000000
     0.00000000     0.00000000     0.00000000
     0.00000000     0.00000000     0.00000000
     0.00000000     0.00000000     0.00000000
     0.00000000     0.00000000     0.00000000
     0.00000000     0.00000000     0.00000000
     0.00000000     0.00000000     0.00000000
     0.00000000     0.00000000     0.00000000
     0.00000000     0.00000000     0.00000000
     0.00000000     0.00000000     0.00000000
     0.00000000     0.00000000     0.00000000
     0.00000000     0.00000000     0.00000000
     0.00000000     0.00000000     0.00000000
     0.00000000     0.00000000     0.00000000
     0.00000000     0.00000000     0.00000000
     0.00000000     0.00000000     0.00000000
     0.00000000     0.00000000     0.00000000
     0.00000000     0.00000000     0.00000000
     0.00000000     0.00000000     0.00000000
     0.00000000     0.00000000     0.00000000
     0.00000000     0.00000000     0.00000000
     0.00000000     0.00000000     0.00000000
     0.00000000     0.00000000     0.00000000
     0.00000000     0.00000000     0.00000000
     0.00000000     0.00000000     0.00000000
     0.00000000     0.00000000     0.00000000
     0.00000000     0.00000000     0.00000000
     0.00000000     0.00000000     0.00000000
     0.00000000     0.00000000     0.00000000
     0.00000000     0.00000000     0.00000000
     0.00000000     0.00000000     0.00000000
     0.00000000     0.00000000     0.00000000
     0.00000000     0.00000000     0.00000000
     0.00000000     0.00000000     0.00000000
     0.00000000     0.00000000     0.00000000
     0.00000000     0.00000000     0.00000000
     0.00000000     0.00000000     0.00000000
     0.00000000     0.00000000     0.00000000
     0.00000000     0.00000000     0.00000000
     0.00000000     0.00000000     0.00000000
     0.00000000     0.00000000     0.00000000
     0.00000000     0.00000000     0.00000000
     0.00000000     0.00000000     0.00000000
     0.00000000     0.00000000     0.00000000
     0.00000000     0.00000000     0.00000000
     0.00000000     0.00000000     0.00000000
     0.00000000     0.00000000     0.00000000
     0.00000000     0.00000000     0.00000000
     0.00000000     0.00000000     0.00000000
     0.00000000     0.00000000     0.00000000
     0.00000000     0.00000000     0.00000000
     0.00000000     0.00000000     0.00000000
     0.00000000     0.00000000     0.00000000
     0.00000000     0.00000000     0.00000000
     0.00000000     0.00000000     0.00000000
     0.00000000     0.00000000     0.00000000
     0.00000000     0.00000000     0.00000000
     0.00000000     0.00000000     0.00000000
     0.00000000     0.00000000     0.00000000
     0.00000000     0.00000000     0.00000000
     0.00000000     0.00000000     0.00000000
     0.00000000     0.00000000     0.00000000
     0.00000000     0.00000000     0.00000000
     0.00000000     0.00000000     0.00000000
     0.00000000     0.00000000     0.00000000
     0.00000000     0.00000000     0.00000000
     0.00000000     0.00000000     0.00000000
     0.00000000     0.00000000     0.00000000
     0.00000000     0.00000000     0.00000000
     0.00000000     0.00000000     0.00000000
     0.00000000     0.00000000     0.00000000
     0.00000000     0.00000000     0.00000000
     0.00000000     0.00000000     0.00000000
     0.00000000     0.00000000     0.00000000
     0.00000000     0.00000000     0.00000000
     0.00000000     0.00000000     0.00000000
     0.00000000     0.00000000     0.00000000
     0.00000000     0.00000000     0.00000000
     0.00000000     0.00000000     0.00000000
     0.00000000     0.00000000     0.00000000
     0.00000000     0.00000000     0.00000000
     0.00000000     0.00000000     0.00000000
     0.00000000     0.00000000     0.00000000
     0.00000000     0.00000000     0.00000000
     0.00000000     0.00000000     0.00000000
     0.00000000     0.00000000     0.00000000
     0.00000000     0.00000000     0.00000000
     0.00000000     0.00000000     0.00000000
     0.00000000     0.00000000     0.00000000
     0.00000000     0.00000000     0.00000000
     0.00000000     0.00000000     0.00000000
     0.00000000     0.00000000     0.00000000
     0.00000000     0.00000000     0.00000000
     0.00000000     0.00000000     0.00000000
     0.00000000     0.00000000     0.00000000
     0.00000000     0.00000000     0.00000000
     0.00000000     0.00000000     0.00000000
     0.00000000     0.00000000     0.00000000
     0.00000000     0.00000000     0.00000000
     0.00000000     0.00000000     0.00000000
     0.00000000     0.00000000     0.00000000
     0.00000000     0.00000000     0.00000000
     0.00000000     0.00000000     0.00000000
     0.00000000     0.00000000     0.00000000
     0.00000000     0.00000000     0.00000000
     0.00000000     0.00000000     0.00000000
     0.00000000     0.00000000     0.00000000
     0.00000000     0.00000000     0.00000000
     0.00000000     0.00000000     0.00000000
     0.00000000     0.00000000     0.00000000
     0.00000000     0.00000000     0.00000000
     0.00000000     0.00000000     0.00000000
     0.00000000     0.00000000     0.00000000
     0.00000000     0.00000000     0.00000000
     0.00000000     0.00000000     0.00000000
     0.00000000     0.00000000     0.00000000
     0.00000000     0.00000000     0.00000000
     0.00000000     0.00000000     0.00000000
     0.00000000     0.00000000     0.00000000
     0.00000000     0.00000000     0.00000000
     0.00000000     0.00000000     0.00000000
     0.00000000     0.00000000     0.00000000
     0.00000000     0.00000000     0.00000000
     0.00000000     0.00000000     0.00000000
     0.00000000     0.00000000     0.00000000
     0.00000000     0.00000000     0.00000000
     0.00000000     0.00000000     0.00000000
     0.00000000     0.00000000     0.00000000
     0.00000000     0.00000000     0.00000000
     0.00000000     0.00000000     0.00000000
     0.00000000     0.00000000     0.00000000
     0.00000000     0.00000000     0.00000000
     0.00000000     0.00000000     0.00000000
     0.00000000     0.00000000     0.00000000
     0.00000000     0.00000000     0.00000000
     0.00000000     0.00000000     0.00000000
     0.00000000     0.00000000     0.00000000
     0.00000000     0.00000000     0.00000000
     0.00000000     0.00000000     0.00000000
     0.00000000     0.00000000     0.00000000
     0.00000000     0.00000000     0.00000000
     0.00000000     0.00000000     0.00000000
     0.00000000     0.00000000     0.00000000
     0.00000000     0.00000000     0.00000000
     0.00000000     0.00000000     0.00000000
     0.00000000     0.00000000     0.00000000
     0.00000000     0.00000000     0.00000000
     0.00000000     0.00000000     0.00000000
     0.00000000     0.00000000     0.00000000
     0.00000000     0.00000000     0.00000000
     0.00000000     0.00000000     0.00000000
     0.00000000     0.00000000     0.00000000
     0.00000000     0.00000000     0.00000000
     0.00000000     0.00000000     0.00000000
     0.00000000     0.00000000     0.00000000
     0.00000000     0.00000000     0.00000000
     0.00000000     0.00000000     0.00000000
     0.00000000     0.00000000     0.00000000
     0.00000000     0.00000000     0.00000000
     0.00000000     0.00000000     0.00000000
     0.00000000     0.00000000     0.00000000
     0.00000000     0.00000000     0.00000000
     0.00000000     0.00000000     0.00000000
     0.00000000     0.00000000     0.00000000
     0.00000000     0.00000000     0.00000000
     0.00000000     0.00000000     0.00000000
     0.00000000     0.00000000     0.00000000
     0.00000000     0.00000000     0.00000000
     0.00000000     0.00000000     0.00000000
     0.00000000     0.00000000     0.00000000
     0.00000000     0.00000000     0.00000000
     0.00000000     0.00000000     0.00000000
     0.00000000     0.00000000     0.00000000
     0.00000000     0.00000000     0.00000000
     0.00000000     0.00000000     0.00000000
     0.00000000     0.00000000     0.00000000
     0.00000000     0.00000000     0.00000000
     0.00000000     0.00000000     0.00000000
     0.00000000     0.00000000     0.00000000
     0.00000000     0.00000000     0.00000000
     0.00000000     0.00000000     0.00000000
     0.00000000     0.00000000     0.00000000
     0.00000000     0.00000000     0.00000000
     0.00000000     0.00000000     0.00000000
     0.00000000     0.00000000     0.00000000
     0.00000000     0.00000000     0.00000000
     0.00000000     0.00000000     0.00000000
     0.00000000     0.00000000     0.00000000
     0.00000000     0.00000000     0.00000000
     0.00000000     0.00000000     0.00000000
     0.00000000     0.00000000     0.00000000
     0.00000000     0.00000000     0.00000000
     0.00000000     0.00000000     0.00000000
     0.00000000     0.00000000     0.00000000
     0.00000000     0.00000000     0.00000000
     0.00000000     0.00000000     0.00000000
     0.00000000     0.00000000     0.00000000
     0.00000000     0.00000000     0.00000000
     0.00000000     0.00000000     0.00000000
     0.00000000     0.00000000     0.00000000
     0.00000000     0.00000000     0.00000000
     0.00000000     0.00000000     0.00000000
     0.00000000     0.00000000     0.00000000
     0.00000000     0.00000000     0.00000000
     0.00000000     0.00000000     0.00000000
     0.00000000     0.00000000     0.00000000
     0.00000000     0.00000000     0.00000000
     0.00000000     0.00000000     0.00000000
     0.00000000     0.00000000     0.00000000
     0.00000000     0.00000000     0.00000000
     0.00000000     0.00000000     0.00000000
     0.00000000     0.00000000     0.00000000
     0.00000000     0.00000000     0.00000000
     0.00000000     0.00000000     0.00000000
     0.00000000     0.00000000     0.00000000
     0.00000000     0.00000000     0.00000000
     0.00000000     0.00000000     0.00000000
     0.00000000     0.00000000     0.00000000
     0.00000000     0.00000000     0.00000000
     0.00000000     0.00000000     0.00000000
     0.00000000     0.00000000     0.00000000
     0.00000000     0.00000000     0.00000000
     0.00000000     0.00000000     0.00000000
     0.00000000     0.00000000     0.00000000
     0.00000000     0.00000000     0.00000000
     0.00000000     0.00000000     0.00000000
     0.00000000     0.00000000     0.00000000
     0.00000000     0.00000000     0.00000000
     0.00000000     0.00000000     0.00000000
     0.00000000     0.00000000     0.00000000
     0.00000000     0.00000000     0.00000000
     0.00000000     0.00000000     0.00000000
     0.00000000     0.00000000     0.00000000
     0.00000000     0.00000000     0.00000000
     0.00000000     0.00000000     0.00000000
     0.00000000     0.00000000     0.00000000
     0.00000000     0.00000000     0.00000000
     0.00000000     0.00000000     0.00000000
     0.00000000     0.00000000     0.00000000
SCALARS Temperatures float
LOOKUP_TABLE default
     0.00000000
     0.00000000
     0.00000000
     0.00000000
     0.00000000
     0.00000000
     0.00000000
     0.00000000
     0.00000000
     0.00000000
     0.00000000
     0.00000000
     0.00000000
     0.00000000
     0.00000000
     0.00000000
     0.00000000
     0.00000000
     0.00000000
     0.00000000
     0.00000000
     0.00000000
     0.00000000
     0.00000000
     0.00000000
     0.00000000
     0.00000000
     0.00000000
     0.00000000
     0.00000000
     0.00000000
     0.00000000
     0.00000000
     0.00000000
     0.00000000
     0.00000000
     0.00000000
     0.00000000
     0.00000000
     0.00000000
     0.00000000
     0.00000000
     0.00000000
     0.00000000
     0.00000000
     0.00000000
     0.00000000
     0.00000000
     0.00000000
     0.00000000
     0.00000000
     0.00000000
     0.00000000
     0.00000000
     0.00000000
     0.00000000
     0.00000000
     0.00000000
     0.00000000
     0.00000000
     0.00000000
     0.00000000
     0.00000000
     0.00000000
     0.00000000
     0.00000000
     0.00000000
     0.00000000
     0.00000000
     0.00000000
     0.00000000
     0.00000000
     0.00000000
     0.00000000
     0.00000000
     0.00000000
     0.00000000
     0.00000000
     0.00000000
     0.00000000
     0.00000000
     0.00000000
     0.00000000
     0.00000000
     0.00000000
     0.00000000
     0.00000000
     0.00000000
     0.00000000
     0.00000000
     0.00000000
     0.00000000
     0.00000000
     0.00000000
     0.00000000
     0.00000000
     0.00000000
     0.00000000
     0.00000000
     0.00000000
     0.00000000
     0.00000000
     0.00000000
     0.00000000
     0.00000000
     0.00000000
     0.00000000
     0.00000000
     0.00000000
     0.00000000
     0.00000000
     0.00000000
     0.00000000
     0.00000000
     0.00000000
     0.00000000
     0.00000000
     0.00000000
     0.00000000
     0.00000000
     0.00000000
     0.00000000
     0.00000000
     0.00000000
     0.00000000
     0.00000000
     0.00000000
     0.00000000
     0.00000000
     0.00000000
     0.00000000
     0.00000000
     0.00000000
     0.00000000
     0.00000000
     0.00000000
     0.00000000
     0.00000000
     0.00000000
     0.00000000
     0.00000000
     0.00000000
     0.00000000
     0.00000000
     0.00000000
     0.00000000
     0.00000000
     0.00000000
     0.00000000
     0.00000000
     0.00000000
     0.00000000
     0.00000000
     0.00000000
     0.00000000
     0.00000000
     0.00000000
     0.00000000
     0.00000000
     0.00000000
     0.00000000
     0.00000000
     0.00000000
     0.00000000
     0.00000000
     0.00000000
     0.00000000
     0.00000000
     0.00000000
     0.00000000
     0.00000000
     0.00000000
     0.00000000
     0.00000000
     0.00000000
     0.00000000
     0.00000000
     0.00000000
     0.00000000
     0.00000000
     0.00000000
     0.00000000
     0.00000000
     0.00000000
     0.00000000
     0.00000000
     0.00000000
     0.00000000
     0.00000000
     0.00000000
     0.00000000
     0.00000000
     0.00000000
     0.00000000
     0.00000000
     0.00000000
     0.00000000
     0.00000000
     0.00000000
     0.00000000
     0.00000000
     0.00000000
     0.00000000
     0.00000000
     0.00000000
     0.00000000
     0.00000000
     0.00000000
     0.00000000
     0.00000000
     0.00000000
     0.00000000
     0.00000000
     0.00000000
     0.00000000
     0.00000000
     0.00000000
     0.00000000
     0.00000000
     0.00000000
     0.00000000
     0.00000000
     0.00000000
     0.00000000
     0.00000000
     0.00000000
     0.00000000
     0.00000000
     0.00000000
     0.00000000
     0.00000000
     0.00000000
     0.00000000
     0.00000000
     0.00000000
     0.00000000
     0.00000000
     0.00000000
     0.00000000
     0.00000000
     0.00000000
     0.00000000
     0.00000000
     0.00000000
     0.00000000
     0.00000000
     0.00000000
     0.00000000
     0.00000000
     0.00000000
     0.00000000
     0.00000000
     0.00000000
     0.00000000
     0.00000000
     0.00000000
     0.00000000
     0.00000000
     0.00000000
     0.00000000
     0.00000000
     0.00000000
     0.00000000
     0.00000000
     0.00000000
     0.00000000
     0.00000000
     0.00000000
     0.00000000
     0.00000000
     0.00000000
     0.00000000
     0.00000000
     0.00000000
     0.00000000
     0.00000000
     0.00000000
     0.00000000
     0.00000000
     0.00000000
     0.00000000
     0.00000000
     0.00000000
     0.00000000
     0.00000000
     0.00000000
     0.00000000
     0.00000000
     0.00000000
     0.00000000
     0.00000000
     0.00000000
     0.00000000
     0.00000000
     0.00000000
     0.00000000
     0.00000000
     0.00000000
     0.00000000
     0.00000000
     0.00000000
     0.00000000
     0.00000000
     0.00000000
     0.00000000
     0.00000000
     0.00000000
     0.00000000
     0.00000000
     0.00000000
     0.00000000
     0.00000000
     0.00000000
     0.00000000
     0.00000000
     0.00000000
     0.00000000
     0.00000000
     0.00000000
     0.00000000
     0.00000000
     0.00000000
     0.00000000
     0.00000000
     0.00000000
     0.00000000
     0.00000000
     0.00000000
     0.00000000
     0.00000000
     0.00000000
     0.00000000
     0.00000000
     0.00000000
     0.00000000
     0.00000000
     0.00000000
     0.00000000
     0.00000000
     0.00000000
     0.00000000
     0.00000000
     0.00000000
     0.00000000
     0.00000000
     0.00000000
     0.00000000
     0.00000000
     0.00000000
     0.00000000
     0.00000000
     0.00000000
     0.00000000
     0.00000000
     0.00000000
     0.00000000
     0.00000000
     0.00000000
     0.00000000
     0.00000000
     0.00000000
     0.00000000
     0.00000000
     0.00000000
     0.00000000
     0.00000000
     0.00000000
     0.00000000
     0.00000000
     0.00000000
     0.00000000
     0.00000000
     0.00000000
     0.00000000
     0.00000000
     0.00000000
     0.00000000
     0.00000000
     0.00000000
     0.00000000
     0.00000000
     0.00000000
     0.00000000
     0.00000000
     0.00000000
     0.00000000
     0.00000000
     0.00000000
     0.00000000
     0.00000000
     0.00000000
     0.00000000
     0.00000000
     0.00000000
     0.00000000
     0.00000000
     0.00000000
     0.00000000
     0.00000000
     0.00000000
     0.00000000
     0.00000000
     0.00000000
     0.00000000
     0.00000000
     0.00000000
     0.00000000
     0.00000000
     0.00000000
     0.00000000
     0.00000000
     0.00000000
     0.00000000
     0.00000000
     0.00000000
     0.00000000
     0.00000000
     0.00000000
     0.00000000
     0.00000000
     0.00000000
     0.00000000
     0.00000000
     0.00000000
     0.00000000
     0.00000000
     0.00000000
     0.00000000
     0.00000000
     0.00000000
     0.00000000
     0.00000000
     0.00000000
     0.00000000
     0.00000000
     0.00000000
     0.00000000
     0.00000000
     0.00000000
     0.00000000
     0.00000000
     0.00000000
     0.00000000
     0.00000000
     0.00000000
     0.00000000
     0.00000000
     0.00000000
     0.00000000
     0.00000000
     0.00000000
     0.00000000
     0.00000000
     0.00000000
     0.00000000
     0.00000000
     0.00000000
     0.00000000
     0.00000000
     0.00000000
     0.00000000
     0.00000000
     0.00000000
     0.00000000
     0.00000000
     0.00000000
     0.00000000
     0.00000000
     0.00000000
     0.00000000
     0.00000000
     0.00000000
     0.00000000
     0.00000000
     0.00000000
     0.00000000
     0.00000000
     0.00000000
     0.00000000
     0.00000000
     0.00000000
     0.00000000
     0.00000000
     0.00000000
     0.00000000
     0.00000000
     0.00000000
     0.00000000
     0.00000000
     0.00000000
     0.00000000
     0.00000000
     0.00000000
     0.00000000
     0.00000000
     0.00000000
     0.00000000
     0.00000000
     0.00000000
     0.00000000
     0.00000000
     0.00000000
     0.00000000
     0.00000000
     0.00000000
     0.00000000
     0.00000000
     0.00000000
     0.00000000
     0.00000000
     0.00000000
     0.00000000
     0.00000000
     0.00000000
     0.00000000
     0.00000000
     0.00000000
     0.00000000
     0.00000000
     0.00000000
     0.00000000
     0.00000000
     0.00000000
     0.00000000
     0.00000000
     0.00000000
     0.00000000
     0.00000000
     0.00000000
     0.00000000
     0.00000000
     0.00000000
     0.00000000
     0.00000000
     0.00000000
     0.00000000
     0.00000000
     0.00000000
     0.00000000
     0.00000000
     0.00000000
     0.00000000
     0.00000000
     0.00000000
     0.00000000
     0.00000000
     0.00000000
     0.00000000
     0.00000000
     0.00000000
     0.00000000
     0.00000000
     0.00000000
     0.00000000
     0.00000000
     0.00000000
     0.00000000
     0.00000000
     0.00000000
     0.00000000
     0.00000000
     0.00000000
     0.00000000
     0.00000000
     0.00000000
     0.00000000
     0.00000000
     0.00000000
     0.00000000
     0.00000000
     0.00000000
     0.00000000
     0.00000000
     0.00000000
     0.00000000
     0.00000000
     0.00000000
     0.00000000
     0.00000000
     0.00000000
     0.00000000
     0.00000000
     0.00000000
     0.00000000
     0.00000000
     0.00000000
     0.00000000
     0.00000000
     0.00000000
     0.00000000
     0.00000000
     0.00000000
     0.00000000
     0.00000000
     0.00000000
     0.00000000
     0.00000000
     0.00000000
     0.00000000
     0.00000000
     0.00000000
     0.00000000
     0.00000000
     0.00000000
     0.00000000
     0.00000000
     0.00000000
     0.00000000
     0.00000000
     0.00000000
     0.00000000
     0.00000000
     0.00000000
     0.00000000
     0.00000000
     0.00000000
     0.00000000
     0.00000000
     0.00000000
     0.00000000
     0.00000000
     0.00000000
     0.00000000
     0.00000000
     0.00000000
     0.00000000
     0.00000000
     0.00000000
     0.00000000
     0.00000000
     0.00000000
     0.00000000
     0.00000000
     0.00000000
     0.00000000
     0.00000000
     0.00000000
     0.00000000
     0.00000000
     0.00000000
     0.00000000
     0.00000000
     0.00000000
     0.00000000
     0.00000000
     0.00000000
     0.00000000
     0.00000000
     0.00000000
     0.00000000
     0.00000000
     0.00000000
     0.00000000
     0.00000000
     0.00000000
     0.00000000
     0.00000000
     0.00000000
     0.00000000
     0.00000000
     0.00000000
     0.00000000
     0.00000000
     0.00000000
     0.00000000
     0.00000000
     0.00000000
     0.00000000
     0.00000000
     0.00000000
     0.00000000
     0.00000000
     0.00000000
     0.00000000
     0.00000000
     0.00000000
     0.00000000
     0.00000000
     0.00000000
     0.00000000
     0.00000000
     0.00000000
     0.00000000
     0.00000000
     0.00000000
     0.00000000
     0.00000000
     0.00000000
     0.00000000
     0.00000000
     0.00000000
     0.00000000
     0.00000000
     0.00000000
     0.00000000
     0.00000000
     0.00000000
     0.00000000
     0.00000000
     0.00000000
     0.00000000
     0.00000000
     0.00000000
     0.00000000
     0.00000000
     0.00000000
     0.00000000
     0.00000000
     0.00000000
     0.00000000
     0.00000000
     0.00000000
     0.00000000
     0.00000000
     0.00000000
     0.00000000
     0.00000000
     0.00000000
     0.00000000
     0.00000000
     0.00000000
     0.00000000
     0.00000000
     0.00000000
     0.00000000
     0.00000000
     0.00000000
     0.00000000
     0.00000000
     0.00000000
     0.00000000
     0.00000000
     0.00000000
     0.00000000
     0.00000000
     0.00000000
     0.00000000
     0.00000000
     0.00000000
     0.00000000
     0.00000000
     0.00000000
     0.00000000
     0.00000000
     0.00000000
     0.00000000
     0.00000000
     0.00000000
     0.00000000
     0.00000000
     0.00000000
     0.00000000
     0.00000000
     0.00000000
     0.00000000
     0.00000000
     0.00000000
     0.00000000
     0.00000000
     0.00000000
     0.00000000
     0.00000000
     0.00000000
     0.00000000
     0.00000000
     0.00000000
     0.00000000
     0.00000000
     0.00000000
     0.00000000
     0.00000000
     0.00000000
     0.00000000
     0.00000000
     0.00000000
     0.00000000
     0.00000000
     0.00000000
     0.00000000
     0.00000000
     0.00000000
     0.00000000
     0.00000000
     0.00000000
     0.00000000
     0.00000000
     0.00000000
     0.00000000
     0.00000000
     0.00000000
     0.00000000
     0.00000000
     0.00000000
     0.00000000
     0.00000000
     0.00000000
     0.00000000
     0.00000000
     0.00000000
     0.00000000
     0.00000000
     0.00000000
     0.00000000
     0.00000000
     0.00000000
     0.00000000
     0.00000000
     0.00000000
     0.00000000
     0.00000000
     0.00000000
     0.00000000
     0.00000000
     0.00000000
     0.00000000
     0.00000000
     0.00000000
     0.00000000
     0.00000000
     0.00000000
     0.00000000
     0.00000000
     0.00000000
     0.00000000
     0.00000000
     0.00000000
     0.00000000
     0.00000000
     0.00000000
     0.00000000
     0.00000000
     0.00000000
     0.00000000
     0.00000000
     0.00000000
     0.00000000
     0.00000000
     0.00000000
     0.00000000
     0.00000000
     0.00000000
     0.00000000
     0.00000000
     0.00000000
     0.00000000
     0.00000000
     0.00000000
     0.00000000
     0.00000000
     0.00000000
     0.00000000
     0.00000000
     0.00000000
     0.00000000
     0.00000000
     0.00000000
     0.00000000
     0.00000000
     0.00000000
     0.00000000
     0.00000000
     0.00000000
     0.00000000
     0.00000000
     0.00000000
     0.00000000
     0.00000000
     0.00000000
     0.00000000
     0.00000000
     0.00000000
     0.00000000
     0.00000000
     0.00000000
     0.00000000
     0.00000000
     0.00000000
     0.00000000
     0.00000000
     0.00000000
     0.00000000
     0.00000000
     0.00000000
     0.00000000
     0.00000000
     0.00000000
     0.00000000
     0.00000000
     0.00000000
     0.00000000
     0.00000000
     0.00000000
     0.00000000
     0.00000000
     0.00000000
     0.00000000
     0.00000000
     0.00000000
     0.00000000
     0.00000000
     0.00000000
     0.00000000
     0.00000000
     0.00000000
     0.00000000
     0.00000000
     0.00000000
     0.00000000
     0.00000000
     0.00000000
     0.00000000
     0.00000000
     0.00000000
     0.00000000
     0.00000000
     0.00000000
     0.00000000
     0.00000000
     0.00000000
     0.00000000
     0.00000000
     0.00000000
     0.00000000
     0.00000000
     0.00000000
     0.00000000
     0.00000000
     0.00000000
     0.00000000
     0.00000000
     0.00000000
     0.00000000
     0.00000000
     0.00000000
     0.00000000
     0.00000000
     0.00000000
     0.00000000
     0.00000000
     0.00000000
     0.00000000
     0.00000000
     0.00000000
     0.00000000
     0.00000000
     0.00000000
     0.00000000
     0.00000000
     0.00000000
     0.00000000
     0.00000000
     0.00000000
     0.00000000
     0.00000000
     0.00000000
     0.00000000
     0.00000000
     0.00000000
     0.00000000
     0.00000000
     0.00000000
     0.00000000
     0.00000000
     0.00000000
     0.00000000
     0.00000000
     0.00000000
     0.00000000
     0.00000000
     0.00000000
     0.00000000
     0.00000000
     0.00000000
     0.00000000
     0.00000000
     0.00000000
     0.00000000
     0.00000000
     0.00000000
     0.00000000
     0.00000000
     0.00000000
     0.00000000
     0.00000000
     0.00000000
     0.00000000
     0.00000000
     0.00000000
     0.00000000
     0.00000000
     0.00000000
     0.00000000
     0.00000000
     0.00000000
     0.00000000
     0.00000000
     0.00000000
     0.00000000
     0.00000000
     0.00000000
     0.00000000
     0.00000000
     0.00000000
     0.00000000
     0.00000000
     0.00000000
     0.00000000
     0.00000000
     0.00000000
     0.00000000
     0.00000000
     0.00000000
     0.00000000
     0.00000000
     0.00000000
     0.00000000
     0.00000000
     0.00000000
     0.00000000
     0.00000000
     0.00000000
     0.00000000
     0.00000000
     0.00000000
     0.00000000
     0.00000000
     0.00000000
     0.00000000
     0.00000000
     0.00000000
     0.00000000
     0.00000000
     0.00000000
     0.00000000
     0.00000000
     0.00000000
     0.00000000
     0.00000000
     0.00000000
     0.00000000
     0.00000000
     0.00000000
     0.00000000
     0.00000000
     0.00000000
     0.00000000
     0.00000000
     0.00000000
     0.00000000
     0.00000000
     0.00000000
     0.00000000
     0.00000000
     0.00000000
     0.00000000
     0.00000000
     0.00000000
     0.00000000
     0.00000000
     0.00000000
     0.00000000
     0.00000000
     0.00000000
     0.00000000
     0.00000000
     0.00000000
     0.00000000
     0.00000000
     0.00000000
     0.00000000
     0.00000000
     0.00000000
     0.00000000
     0.00000000
     0.00000000
     0.00000000
     0.00000000
     0.00000000
     0.00000000
     0.00000000
     0.00000000
     0.00000000
     0.00000000
     0.00000000
     0.00000000
     0.00000000
     0.00000000
     0.00000000
     0.00000000
     0.00000000
     0.00000000
     0.00000000
     0.00000000
     0.00000000
     0.00000000
     0.00000000
     0.00000000
     0.00000000
     0.00000000
     0.00000000
     0.00000000
     0.00000000
     0.00000000
     0.00000000
     0.00000000
     0.00000000
     0.00000000
     0.00000000
     0.00000000
     0.00000000
     0.00000000
     0.00000000
     0.00000000
     0.00000000
     0.00000000
     0.00000000
     0.00000000
     0.00000000
     0.00000000
     0.00000000
     0.00000000
     0.00000000
     0.00000000
     0.00000000
     0.00000000
     0.00000000
     0.00000000
     0.00000000
     0.00000000
     0.00000000
     0.00000000
     0.00000000
     0.00000000
     0.00000000
     0.00000000
     0.00000000
     0.00000000
     0.00000000
     0.00000000
     0.00000000
     0.00000000
     0.00000000
     0.00000000
     0.00000000
     0.00000000
     0.00000000
     0.00000000
     0.00000000
     0.00000000
     0.00000000
     0.00000000
     0.00000000
     0.00000000
     0.00000000
     0.00000000
     0.00000000
     0.00000000
     0.00000000
     0.00000000
     0.00000000
     0.00000000
     0.00000000
     0.00000000
     0.00000000
     0.00000000
     0.00000000
     0.00000000
     0.00000000
     0.00000000
     0.00000000
     0.00000000
     0.00000000
     0.00000000
     0.00000000
     0.00000000
     0.00000000
     0.00000000
     0.00000000
     0.00000000
     0.00000000
     0.00000000
     0.00000000
     0.00000000
     0.00000000
     0.00000000
     0.00000000
     0.00000000
     0.00000000
     0.00000000
     0.00000000
     0.00000000
     0.00000000
     0.00000000
     0.00000000
     0.00000000
     0.00000000
     0.00000000
     0.00000000
     0.00000000
     0.00000000
     0.00000000
     0.00000000
     0.00000000
     0.00000000
     0.00000000
     0.00000000
     0.00000000
     0.00000000
     0.00000000
     0.00000000
     0.00000000
     0.00000000
     0.00000000
     0.00000000
     0.00000000
     0.00000000
     0.00000000
     0.00000000
     0.00000000
     0.00000000
     0.00000000
     0.00000000
     0.00000000
     0.00000000
     0.00000000
     0.00000000
     0.00000000
     0.00000000
     0.00000000
     0.00000000
     0.00000000
     0.00000000
     0.00000000
     0.00000000
     0.00000000
     0.00000000
     0.00000000
     0.00000000
     0.00000000
     0.00000000
     0.00000000
     0.00000000
     0.00000000
     0.00000000
     0.00000000
     0.00000000
     0.00000000
     0.00000000
     0.00000000
     0.00000000
     0.00000000
     0.00000000
     0.00000000
     0.00000000
     0.00000000
     0.00000000
     0.00000000
     0.00000000
     0.00000000
     0.00000000
     0.00000000
     0.00000000
     0.00000000
     0.00000000
     0.00000000
     0.00000000
     0.00000000
     0.00000000
     0.00000000
     0.00000000
     0.00000000
     0.00000000
     0.00000000
     0.00000000
     0.00000000
     0.00000000
     0.00000000
     0.00000000
     0.00000000
     0.00000000
     0.00000000
     0.00000000
     0.00000000
     0.00000000
     0.00000000
     0.00000000
     0.00000000
     0.00000000
     0.00000000
     0.00000000
     0.00000000
     0.00000000
     0.00000000
     0.00000000
     0.00000000
     0.00000000
     0.00000000
     0.00000000
     0.00000000
     0.00000000
     0.00000000
     0.00000000
     0.00000000
     0.00000000
     0.00000000
     0.00000000
     0.00000000
     0.00000000
     0.00000000
     0.00000000
     0.00000000
     0.00000000
     0.00000000
     0.00000000
     0.00000000
     0.00000000
     0.00000000
     0.00000000
     0.00000000
     0.00000000
     0.00000000
     0.00000000
     0.00000000
     0.00000000
     0.00000000
     0.00000000
     0.00000000
     0.00000000
     0.00000000
     0.00000000
     0.00000000
     0.00000000
     0.00000000
     0.00000000
     0.00000000
     0.00000000
     0.00000000
     0.00000000
     0.00000000
     0.00000000
     0.00000000
     0.00000000
     0.00000000
     0.00000000
     0.00000000
     0.00000000
     0.00000000
     0.00000000
     0.00000000
     0.00000000
     0.00000000
     0.00000000
     0.00000000
     0.00000000
     0.00000000
     0.00000000
     0.00000000
     0.00000000
     0.00000000
     0.00000000
     0.00000000
     0.00000000
     0.00000000
     0.00000000
     0.00000000
     0.00000000
     0.00000000
     0.00000000
     0.00000000
     0.00000000
     0.00000000
     0.00000000
     0.00000000
     0.00000000
     0.00000000
     0.00000000
     0.00000000
     0.00000000
     0.00000000
     0.00000000
     0.00000000
     0.00000000
     0.00000000
     0.00000000
     0.00000000
     0.00000000
     0.00000000
     0.00000000
     0.00000000
     0.00000000
     0.00000000
     0.00000000
     0.00000000
     0.00000000
     0.00000000
     0.00000000
     0.00000000
     0.00000000
     0.00000000
     0.00000000
     0.00000000
     0.00000000
     0.00000000
     0.00000000
     0.00000000
     0.00000000
     0.00000000
     0.00000000
     0.00000000
     0.00000000
     0.00000000
     0.00000000
     0.00000000
     0.00000000
     0.00000000
     0.00000000
     0.00000000
     0.00000000
     0.00000000
     0.00000000
     0.00000000
     0.00000000
     0.00000000
     0.00000000
     0.00000000
     0.00000000
     0.00000000
     0.00000000
     0.00000000
     0.00000000
     0.00000000
     0.00000000
     0.00000000
     0.00000000
     0.00000000
     0.00000000
     0.00000000
     0.00000000
     0.00000000
     0.00000000
     0.00000000
     0.00000000
     0.00000000
     0.00000000
     0.00000000
     0.00000000
     0.00000000
     0.00000000
     0.00000000
     0.00000000
     0.00000000
     0.00000000
     0.00000000
     0.00000000
     0.00000000
     0.00000000
     0.00000000
     0.00000000
     0.00000000
     0.00000000
     0.00000000
     0.00000000
     0.00000000
     0.00000000
     0.00000000
     0.00000000
     0.00000000
     0.00000000
     0.00000000
     0.00000000
     0.00000000
     0.00000000
     0.00000000
     0.00000000
     0.00000000
     0.00000000
     0.00000000
     0.00000000
     0.00000000
     0.00000000
     0.00000000
     0.00000000
     0.00000000
     0.00000000
     0.00000000
     0.00000000
     0.00000000
     0.00000000
     0.00000000
     0.00000000
     0.00000000
     0.00000000
     0.00000000
     0.00000000
     0.00000000
     0.00000000
     0.00000000
     0.00000000
     0.00000000
     0.00000000
     0.00000000
     0.00000000
     0.00000000
     0.00000000
     0.00000000
     0.00000000
     0.00000000
     0.00000000
     0.00000000
     0.00000000
     0.00000000
     0.00000000
     0.00000000
     0.00000000
     0.00000000
     0.00000000
     0.00000000
     0.00000000
     0.00000000
     0.00000000
     0.00000000
     0.00000000
     0.00000000
     0.00000000
     0.00000000
     0.00000000
     0.00000000
     0.00000000
     0.00000000
     0.00000000
     0.00000000
     0.00000000
     0.00000000
     0.00000000
     0.00000000
     0.00000000
     0.00000000
     0.00000000
     0.00000000
     0.00000000
     0.00000000
     0.00000000
     0.00000000
     0.00000000
     0.00000000
     0.00000000
     0.00000000
     0.00000000
     0.00000000
     0.00000000
     0.00000000
     0.00000000
     0.00000000
     0.00000000
     0.00000000
     0.00000000
     0.00000000
     0.00000000
     0.00000000
     0.00000000
     0.00000000
     0.00000000
     0.00000000
     0.00000000
     0.00000000
     0.00000000
     0.00000000
     0.00000000
     0.00000000
     0.00000000
     0.00000000
     0.00000000
     0.00000000
     0.00000000
     0.00000000
     0.00000000
     0.00000000
     0.00000000
     0.00000000
     0.00000000
     0.00000000
     0.00000000
     0.00000000
     0.00000000
     0.00000000
     0.00000000
     0.00000000
     0.00000000
     0.00000000
     0.00000000
     0.00000000
     0.00000000
     0.00000000
     0.00000000
     0.00000000
     0.00000000
     0.00000000
     0.00000000
     0.00000000
     0.00000000
     0.00000000
     0.00000000
     0.00000000
     0.00000000
     0.00000000
     0.00000000
     0.00000000
     0.00000000
     0.00000000
     0.00000000
     0.00000000
     0.00000000
     0.00000000
     0.00000000
     0.00000000
     0.00000000
     0.00000000
     0.00000000
     0.00000000
     0.00000000
     0.00000000
     0.00000000
     0.00000000
     0.00000000
     0.00000000
     0.00000000
     0.00000000
     0.00000000
     0.00000000
     0.00000000
     0.00000000
     0.00000000
     0.00000000
     0.00000000
     0.00000000
     0.00000000
     0.00000000
     0.00000000
     0.00000000
     0.00000000
     0.00000000
     0.00000000
     0.00000000
     0.00000000
     0.00000000
     0.00000000
     0.00000000
     0.00000000
     0.00000000
     0.00000000
     0.00000000
     0.00000000
     0.00000000
     0.00000000
     0.00000000
     0.00000000
     0.00000000
     0.00000000
     0.00000000
     0.00000000
     0.00000000
     0.00000000
     0.00000000
     0.00000000
     0.00000000
     0.00000000
     0.00000000
     0.00000000
     0.00000000
     0.00000000
     0.00000000
     0.00000000
     0.00000000
     0.00000000
     0.00000000
     0.00000000
     0.00000000
     0.00000000
     0.00000000
     0.00000000
     0.00000000
     0.00000000
     0.00000000
     0.00000000
     0.00000000
     0.00000000
     0.00000000
     0.00000000
     0.00000000
     0.00000000
     0.00000000
     0.00000000
     0.00000000
     0.00000000
     0.00000000
     0.00000000
     0.00000000
     0.00000000
     0.00000000
     0.00000000
     0.00000000
     0.00000000
     0.00000000
     0.00000000
     0.00000000
     0.00000000
     0.00000000
     0.00000000
     0.00000000
     0.00000000
     0.00000000
     0.00000000
     0.00000000
     0.00000000
     0.00000000
     0.00000000
     0.00000000
     0.00000000
     0.00000000
     0.00000000
     0.00000000
     0.00000000
     0.00000000
     0.00000000
     0.00000000
     0.00000000
     0.00000000
     0.00000000
     0.00000000
     0.00000000
     0.00000000
     0.00000000
     0.00000000
     0.00000000
     0.00000000
     0.00000000
     0.00000000
     0.00000000
     0.00000000
     0.00000000
     0.00000000
     0.00000000
     0.00000000
     0.00000000
     0.00000000
     0.00000000
     0.00000000
     0.00000000
     0.00000000
     0.00000000
     0.00000000
     0.00000000
     0.00000000
     0.00000000
     0.00000000
     0.00000000
     0.00000000
     0.00000000
     0.00000000
     0.00000000
     0.00000000
     0.00000000
     0.00000000
     0.00000000
     0.00000000
     0.00000000
     0.00000000
     0.00000000
     0.00000000
     0.00000000
     0.00000000
     0.00000000
     0.00000000
     0.00000000
     0.00000000
     0.00000000
     0.00000000
     0.00000000
     0.00000000
     0.00000000
     0.00000000
     0.00000000
     0.00000000
     0.00000000
     0.00000000
     0.00000000
     0.00000000
     0.00000000
     0.00000000
     0.00000000
     0.00000000
     0.00000000
     0.00000000
     0.00000000
     0.00000000
     0.00000000
     0.00000000
     0.00000000
     0.00000000
     0.00000000
     0.00000000
     0.00000000
     0.00000000
     0.00000000
     0.00000000
     0.00000000
     0.00000000
     0.00000000
     0.00000000
     0.00000000
     0.00000000
     0.00000000
     0.00000000
     0.00000000
     0.00000000
     0.00000000
     0.00000000
     0.00000000
     0.00000000
     0.00000000
     0.00000000
     0.00000000
     0.00000000
     0.00000000
     0.00000000
     0.00000000
     0.00000000
     0.00000000
     0.00000000
     0.00000000
     0.00000000
     0.00000000
     0.00000000
     0.00000000
     0.00000000
     0.00000000
     0.00000000
     0.00000000
     0.00000000
     0.00000000
     0.00000000
     0.00000000
     0.00000000
     0.00000000
     0.00000000
     0.00000000
     0.00000000
     0.00000000
     0.00000000
     0.00000000
     0.00000000
     0.00000000
     0.00000000
     0.00000000
     0.00000000
     0.00000000
     0.00000000
     0.00000000
     0.00000000
     0.00000000
     0.00000000
     0.00000000
     0.00000000
     0.00000000
     0.00000000
     0.00000000
     0.00000000
     0.00000000
     0.00000000
     0.00000000
     0.00000000
     0.00000000
     0.00000000
     0.00000000
     0.00000000
     0.00000000
     0.00000000
     0.00000000
     0.00000000
     0.00000000
     0.00000000
     0.00000000
     0.00000000
     0.00000000
     0.00000000
     0.00000000
     0.00000000
     0.00000000
     0.00000000
     0.00000000
     0.00000000
     0.00000000
     0.00000000
     0.00000000
     0.00000000
     0.00000000
     0.00000000
     0.00000000
     0.00000000
     0.00000000
     0.00000000
     0.00000000
     0.00000000
     0.00000000
     0.00000000
     0.00000000
     0.00000000
     0.00000000
     0.00000000
     0.00000000
     0.00000000
     0.00000000
     0.00000000
     0.00000000
     0.00000000
     0.00000000
     0.00000000
     0.00000000
     0.00000000
     0.00000000
     0.00000000
     0.00000000
     0.00000000
     0.00000000
     0.00000000
     0.00000000
     0.00000000
     0.00000000
     0.00000000
     0.00000000
     0.00000000
     0.00000000
     0.00000000
     0.00000000
     0.00000000
     0.00000000
     0.00000000
     0.00000000
     0.00000000
     0.00000000
     0.00000000
     0.00000000
     0.00000000
     0.00000000
     0.00000000
     0.00000000
     0.00000000
     0.00000000
     0.00000000
     0.00000000
     0.00000000
     0.00000000
     0.00000000
     0.00000000
     0.00000000
     0.00000000
     0.00000000
     0.00000000
     0.00000000
     0.00000000
     0.00000000
     0.00000000
     0.00000000
     0.00000000
     0.00000000
     0.00000000
     0.00000000
     0.00000000
     0.00000000
     0.00000000
     0.00000000
     0.00000000
     0.00000000
     0.00000000
     0.00000000
     0.00000000
     0.00000000
     0.00000000
     0.00000000
     0.00000000
     0.00000000
     0.00000000
     0.00000000
     0.00000000
     0.00000000
     0.00000000
     0.00000000
     0.00000000
     0.00000000
     0.00000000
     0.00000000
     0.00000000
     0.00000000
     0.00000000
     0.00000000
     0.00000000
     0.00000000
     0.00000000
     0.00000000
     0.00000000
     0.00000000
     0.00000000
     0.00000000
     0.00000000
     0.00000000
     0.00000000
     0.00000000
     0.00000000
     0.00000000
     0.00000000
     0.00000000
     0.00000000
     0.00000000
     0.00000000
     0.00000000
     0.00000000
     0.00000000
     0.00000000
     0.00000000
     0.00000000
     0.00000000
     0.00000000
     0.00000000
     0.00000000
     0.00000000
     0.00000000
     0.00000000
     0.00000000
     0.00000000
     0.00000000
     0.00000000
     0.00000000
     0.00000000
     0.00000000
     0.00000000
     0.00000000
     0.00000000
     0.00000000
     0.00000000
     0.00000000
     0.00000000
     0.00000000
     0.00000000
     0.00000000
     0.00000000
     0.00000000
     0.00000000
     0.00000000
     0.00000000
     0.00000000
     0.00000000
     0.00000000
     0.00000000
     0.00000000
     0.00000000
     0.00000000
     0.00000000
     0.00000000
     0.00000000
     0.00000000
     0.00000000
     0.00000000
     0.00000000
     0.00000000
     0.00000000
     0.00000000
     0.00000000
     0.00000000
     0.00000000
     0.00000000
     0.00000000
     0.00000000
     0.00000000
     0.00000000
     0.00000000
     0.00000000
     0.00000000
     0.00000000
     0.00000000
     0.00000000
     0.00000000
     0.00000000
     0.00000000
     0.00000000
     0.00000000
     0.00000000
     0.00000000
     0.00000000
     0.00000000
     0.00000000
     0.00000000
     0.00000000
     0.00000000
     0.00000000
     0.00000000
     0.00000000
     0.00000000
     0.00000000
     0.00000000
     0.00000000
     0.00000000
     0.00000000
     0.00000000
     0.00000000
     0.00000000
     0.00000000
     0.00000000
     0.00000000
     0.00000000
     0.00000000
     0.00000000
     0.00000000
     0.00000000
     0.00000000
     0.00000000
     0.00000000
     0.00000000
     0.00000000
     0.00000000
     0.00000000
     0.00000000
     0.00000000
     0.00000000
     0.00000000
     0.00000000
     0.00000000
     0.00000000
     0.00000000
     0.00000000
     0.00000000
     0.00000000
     0.00000000
     0.00000000
     0.00000000
     0.00000000
     0.00000000
     0.00000000
     0.00000000
     0.00000000
     0.00000000
     0.00000000
     0.00000000
     0.00000000
     0.00000000
     0.00000000
     0.00000000
     0.00000000
     0.00000000
     0.00000000
     0.00000000
     0.00000000
     0.00000000
     0.00000000
     0.00000000
     0.00000000
     0.00000000
     0.00000000
     0.00000000
     0.00000000
     0.00000000
     0.00000000
     0.00000000
     0.00000000
     0.00000000
     0.00000000
     0.00000000
     0.00000000
     0.00000000
     0.00000000
     0.00000000
     0.00000000
     0.00000000
     0.00000000
     0.00000000
     0.00000000
     0.00000000
     0.00000000
     0.00000000
     0.00000000
     0.00000000
     0.00000000
     0.00000000
     0.00000000
     0.00000000
     0.00000000
     0.00000000
     0.00000000
     0.00000000
     0.00000000
     0.00000000
     0.00000000
     0.00000000
     0.00000000
     0.00000000
     0.00000000
     0.00000000
     0.00000000
     0.00000000
     0.00000000
     0.00000000
     0.00000000
     0.00000000
     0.00000000
     0.00000000
     0.00000000
     0.00000000
     0.00000000
     0.00000000
     0.00000000
     0.00000000
     0.00000000
     0.00000000
     0.00000000
     0.00000000
     0.00000000
     0.00000000
     0.00000000
     0.00000000
     0.00000000
     0.00000000
     0.00000000
     0.00000000
     0.00000000
     0.00000000
     0.00000000
     0.00000000
     0.00000000
     0.00000000
     0.00000000
     0.00000000
     0.00000000
     0.00000000
     0.00000000
     0.00000000
     0.00000000
     0.00000000
     0.00000000
     0.00000000
     0.00000000
     0.00000000
     0.00000000
     0.00000000
     0.00000000
     0.00000000
     0.00000000
     0.00000000
     0.00000000
     0.00000000
     0.00000000
     0.00000000
     0.00000000
     0.00000000
     0.00000000
     0.00000000
     0.00000000
     0.00000000
     0.00000000
     0.00000000
     0.00000000
     0.00000000
     0.00000000
     0.00000000
     0.00000000
     0.00000000
     0.00000000
     0.00000000
     0.00000000
     0.00000000
     0.00000000
     0.00000000
     0.00000000
     0.00000000
     0.00000000
     0.00000000
     0.00000000
     0.00000000
     0.00000000
     0.00000000
     0.00000000
     0.00000000
     0.00000000
     0.00000000
     0.00000000
     0.00000000
     0.00000000
     0.00000000
     0.00000000
     0.00000000
     0.00000000
     0.00000000
     0.00000000
     0.00000000
     0.00000000
     0.00000000
     0.00000000
     0.00000000
     0.00000000
     0.00000000
     0.00000000
     0.00000000
     0.00000000
     0.00000000
     0.00000000
     0.00000000
     0.00000000
     0.00000000
     0.00000000
     0.00000000
     0.00000000
     0.00000000
     0.00000000
     0.00000000
     0.00000000
     0.00000000
     0.00000000
     0.00000000
     0.00000000
     0.00000000
     0.00000000
     0.00000000
     0.00000000
     0.00000000
     0.00000000
     0.00000000
     0.00000000
     0.00000000
     0.00000000
     0.00000000
     0.00000000
     0.00000000
     0.00000000
     0.00000000
     0.00000000
     0.00000000
     0.00000000
     0.00000000
     0.00000000
     0.00000000
     0.00000000
     0.00000000
     0.00000000
     0.00000000
     0.00000000
     0.00000000
     0.00000000
     0.00000000
     0.00000000
     0.00000000
     0.00000000
     0.00000000
     0.00000000
     0.00000000
     0.00000000
     0.00000000
     0.00000000
     0.00000000
     0.00000000
     0.00000000
     0.00000000
     0.00000000
     0.00000000
     0.00000000
     0.00000000
     0.00000000
     0.00000000
     0.00000000
     0.00000000
     0.00000000
     0.00000000
     0.00000000
     0.00000000
     0.00000000
     0.00000000
     0.00000000
     0.00000000
     0.00000000
     0.00000000
     0.00000000
     0.00000000
     0.00000000
     0.00000000
     0.00000000
     0.00000000
     0.00000000
     0.00000000
     0.00000000
     0.00000000
     0.00000000
     0.00000000
     0.00000000
     0.00000000
     0.00000000
     0.00000000
     0.00000000
     0.00000000
     0.00000000
     0.00000000
     0.00000000
     0.00000000
     0.00000000
     0.00000000
     0.00000000
     0.00000000
     0.00000000
     0.00000000
     0.00000000
     0.00000000
     0.00000000
     0.00000000
     0.00000000
     0.00000000
     0.00000000
     0.00000000
     0.00000000
     0.00000000
     0.00000000
     0.00000000
     0.00000000
     0.00000000
     0.00000000
     0.00000000
     0.00000000
     0.00000000
     0.00000000
     0.00000000
     0.00000000
     0.00000000
     0.00000000
     0.00000000
     0.00000000
     0.00000000
     0.00000000
     0.00000000
     0.00000000
     0.00000000
     0.00000000
     0.00000000
     0.00000000
     0.00000000
     0.00000000
     0.00000000
     0.00000000
     0.00000000
     0.00000000
     0.00000000
     0.00000000
     0.00000000
     0.00000000
     0.00000000
     0.00000000
     0.00000000
     0.00000000
     0.00000000
     0.00000000
     0.00000000
     0.00000000
     0.00000000
     0.00000000
     0.00000000
     0.00000000
     0.00000000
     0.00000000
     0.00000000
     0.00000000
     0.00000000
     0.00000000
     0.00000000
     0.00000000
     0.00000000
     0.00000000
     0.00000000
     0.00000000
     0.00000000
     0.00000000
     0.00000000
     0.00000000
     0.00000000
     0.00000000
     0.00000000
     0.00000000
     0.00000000
     0.00000000
     0.00000000
     0.00000000
     0.00000000
     0.00000000
     0.00000000
     0.00000000
     0.00000000
     0.00000000
     0.00000000
     0.00000000
     0.00000000
     0.00000000
     0.00000000
     0.00000000
     0.00000000
     0.00000000
     0.00000000
     0.00000000
     0.00000000
     0.00000000
     0.00000000
     0.00000000
     0.00000000
     0.00000000
     0.00000000
     0.00000000
     0.00000000
     0.00000000
     0.00000000
     0.00000000
     0.00000000
     0.00000000
     0.00000000
     0.00000000
     0.00000000
     0.00000000
     0.00000000
     0.00000000
     0.00000000
     0.00000000
     0.00000000
     0.00000000
     0.00000000
     0.00000000
     0.00000000
     0.00000000
     0.00000000
     0.00000000
     0.00000000
     0.00000000
     0.00000000
     0.00000000
     0.00000000
     0.00000000
     0.00000000
     0.00000000
     0.00000000
     0.00000000
     0.00000000
     0.00000000
     0.00000000
     0.00000000
     0.00000000
     0.00000000
     0.00000000
     0.00000000
     0.00000000
     0.00000000
     0.00000000
     0.00000000
     0.00000000
     0.00000000
     0.00000000
     0.00000000
     0.00000000
     0.00000000
     0.00000000
     0.00000000
     0.00000000
     0.00000000
     0.00000000
     0.00000000
     0.00000000
     0.00000000
     0.00000000
     0.00000000
     0.00000000
     0.00000000
     0.00000000
     0.00000000
     0.00000000
     0.00000000
     0.00000000
     0.00000000
     0.00000000
     0.00000000
     0.00000000
     0.00000000
     0.00000000
     0.00000000
     0.00000000
     0.00000000
     0.00000000
     0.00000000
     0.00000000
     0.00000000
     0.00000000
     0.00000000
     0.00000000
     0.00000000
     0.00000000
     0.00000000
     0.00000000
     0.00000000
     0.00000000
     0.00000000
     0.00000000
     0.00000000
     0.00000000
     0.00000000
     0.00000000
     0.00000000
     0.00000000
     0.00000000
     0.00000000
     0.00000000
     0.00000000
     0.00000000
     0.00000000
     0.00000000
     0.00000000
     0.00000000
     0.00000000
     0.00000000
     0.00000000
     0.00000000
     0.00000000
     0.00000000
     0.00000000
     0.00000000
     0.00000000
     0.00000000
     0.00000000
     0.00000000
     0.00000000
     0.00000000
     0.00000000
     0.00000000
     0.00000000
     0.00000000
     0.00000000
     0.00000000
     0.00000000
     0.00000000
     0.00000000
     0.00000000
     0.00000000
     0.00000000
     0.00000000
     0.00000000
     0.00000000
     0.00000000
     0.00000000
     0.00000000
     0.00000000
     0.00000000
     0.00000000
     0.00000000
     0.00000000
     0.00000000
     0.00000000
     0.00000000
     0.00000000
     0.00000000
     0.00000000
     0.00000000
     0.00000000
     0.00000000
     0.00000000
     0.00000000
     0.00000000
     0.00000000
     0.00000000
     0.00000000
     0.00000000
     0.00000000
     0.00000000
     0.00000000
     0.00000000
     0.00000000
     0.00000000
     0.00000000
     0.00000000
     0.00000000
     0.00000000
     0.00000000
     0.00000000
     0.00000000
     0.00000000
     0.00000000
     0.00000000
     0.00000000
     0.00000000
     0.00000000
     0.00000000
     0.00000000
     0.00000000
     0.00000000
     0.00000000
     0.00000000
     0.00000000
     0.00000000
     0.00000000
     0.00000000
     0.00000000
     0.00000000
     0.00000000
     0.00000000
     0.00000000
     0.00000000
     0.00000000
     0.00000000
     0.00000000
     0.00000000
     0.00000000
     0.00000000
     0.00000000
     0.00000000
     0.00000000
     0.00000000
     0.00000000
     0.00000000
     0.00000000
     0.00000000
     0.00000000
     0.00000000
     0.00000000
     0.00000000
     0.00000000
     0.00000000
     0.00000000
     0.00000000
     0.00000000
     0.00000000
     0.00000000
     0.00000000
     0.00000000
     0.00000000
     0.00000000
     0.00000000
     0.00000000
     0.00000000
     0.00000000
     0.00000000
     0.00000000
     0.00000000
     0.00000000
     0.00000000
     0.00000000
     0.00000000
     0.00000000
     0.00000000
     0.00000000
     0.00000000
     0.00000000
     0.00000000
     0.00000000
     0.00000000
     0.00000000
     0.00000000
     0.00000000
     0.00000000
     0.00000000
     0.00000000
     0.00000000
     0.00000000
     0.00000000
     0.00000000
     0.00000000
     0.00000000
     0.00000000
     0.00000000
     0.00000000
     0.00000000
     0.00000000
     0.00000000
     0.00000000
     0.00000000
     0.00000000
     0.00000000
     0.00000000
     0.00000000
     0.00000000
     0.00000000
     0.00000000
     0.00000000
     0.00000000
     0.00000000
     0.00000000
     0.00000000
     0.00000000
     0.00000000
     0.00000000
     0.00000000
     0.00000000
     0.00000000
     0.00000000
     0.00000000
     0.00000000
     0.00000000
     0.00000000
     0.00000000
     0.00000000
     0.00000000
     0.00000000
     0.00000000
     0.00000000
     0.00000000
     0.00000000
     0.00000000
     0.00000000
     0.00000000
     0.00000000
     0.00000000
     0.00000000
     0.00000000
     0.00000000
     0.00000000
     0.00000000
     0.00000000
     0.00000000
     0.00000000
     0.00000000
     0.00000000
     0.00000000
     0.00000000
     0.00000000
     0.00000000
     0.00000000
     0.00000000
     0.00000000
     0.00000000
     0.00000000
     0.00000000
     0.00000000
     0.00000000
     0.00000000
     0.00000000
     0.00000000
     0.00000000
     0.00000000
     0.00000000
     0.00000000
     0.00000000
     0.00000000
     0.00000000
     0.00000000
     0.00000000
     0.00000000
     0.00000000
     0.00000000
     0.00000000
     0.00000000
     0.00000000
     0.00000000
     0.00000000
     0.00000000
     0.00000000
     0.00000000
     0.00000000
     0.00000000
     0.00000000
     0.00000000
     0.00000000
     0.00000000
     0.00000000
     0.00000000
     0.00000000
     0.00000000
     0.00000000
     0.00000000
     0.00000000
     0.00000000
     0.00000000
     0.00000000
     0.00000000
     0.00000000
     0.00000000
     0.00000000
     0.00000000
     0.00000000
     0.00000000
     0.00000000
     0.00000000
     0.00000000
     0.00000000
     0.00000000
     0.00000000
     0.00000000
     0.00000000
     0.00000000
     0.00000000
     0.00000000
     0.00000000
     0.00000000
     0.00000000
     0.00000000
     0.00000000
     0.00000000
     0.00000000
     0.00000000
     0.00000000
     0.00000000
     0.00000000
     0.00000000
     0.00000000
     0.00000000
     0.00000000
     0.00000000
     0.00000000
     0.00000000
     0.00000000
     0.00000000
     0.00000000
     0.00000000
     0.00000000
     0.00000000
     0.00000000
     0.00000000
     0.00000000
     0.00000000
     0.00000000
     0.00000000
     0.00000000
     0.00000000
     0.00000000
     0.00000000
     0.00000000
     0.00000000
     0.00000000
     0.00000000
     0.00000000
     0.00000000
     0.00000000
     0.00000000
     0.00000000
     0.00000000
     0.00000000
     0.00000000
     0.00000000
     0.00000000
     0.00000000
     0.00000000
     0.00000000
     0.00000000
     0.00000000
     0.00000000
     0.00000000
     0.00000000
     0.00000000
     0.00000000
     0.00000000
     0.00000000
     0.00000000
     0.00000000
     0.00000000
     0.00000000
     0.00000000
     0.00000000
     0.00000000
     0.00000000
     0.00000000
     0.00000000
     0.00000000
     0.00000000
     0.00000000
     0.00000000
     0.00000000
     0.00000000
     0.00000000
     0.00000000
     0.00000000
     0.00000000
     0.00000000
     0.00000000
     0.00000000
     0.00000000
     0.00000000
     0.00000000
     0.00000000
     0.00000000
     0.00000000
     0.00000000
     0.00000000
     0.00000000
     0.00000000
     0.00000000
     0.00000000
     0.00000000
     0.00000000
     0.00000000
     0.00000000
     0.00000000
     0.00000000
     0.00000000
     0.00000000
     0.00000000
     0.00000000
     0.00000000
     0.00000000
     0.00000000
     0.00000000
     0.00000000
     0.00000000
     0.00000000
     0.00000000
     0.00000000
     0.00000000
     0.00000000
     0.00000000
     0.00000000
     0.00000000
     0.00000000
     0.00000000
     0.00000000
     0.00000000
     0.00000000
     0.00000000
     0.00000000
     0.00000000
     0.00000000
     0.00000000
     0.00000000
     0.00000000
     0.00000000
     0.00000000
     0.00000000
     0.00000000
     0.00000000
     0.00000000
     0.00000000
     0.00000000
     0.00000000
     0.00000000
     0.00000000
     0.00000000
     0.00000000
     0.00000000
     0.00000000
     0.00000000
     0.00000000
     0.00000000
     0.00000000
     0.00000000
     0.00000000
     0.00000000
     0.00000000
     0.00000000
     0.00000000
     0.00000000
     0.00000000
     0.00000000
     0.00000000
     0.00000000
     0.00000000
     0.00000000
     0.00000000
     0.00000000
     0.00000000
     0.00000000
     0.00000000
     0.00000000
     0.00000000
     0.00000000
     0.00000000
     0.00000000
     0.00000000
     0.00000000
     0.00000000
     0.00000000
     0.00000000
     0.00000000
     0.00000000
     0.00000000
     0.00000000
     0.00000000
     0.00000000
     0.00000000
     0.00000000
     0.00000000
     0.00000000
     0.00000000
     0.00000000
     0.00000000
     0.00000000
     0.00000000
     0.00000000
     0.00000000
     0.00000000
     0.00000000
     0.00000000
     0.00000000
     0.00000000
     0.00000000
     0.00000000
     0.00000000
     0.00000000
     0.00000000
     0.00000000
     0.00000000
     0.00000000
     0.00000000
     0.00000000
     0.00000000
     0.00000000
     0.00000000
     0.00000000
     0.00000000
     0.00000000
     0.00000000
     0.00000000
     0.00000000
     0.00000000
     0.00000000
     0.00000000
     0.00000000
     0.00000000
     0.00000000
     0.00000000
     0.00000000
     0.00000000
     0.00000000
     0.00000000
     0.00000000
     0.00000000
     0.00000000
     0.00000000
     0.00000000
     0.00000000
     0.00000000
     0.00000000
     0.00000000
     0.00000000
     0.00000000
     0.00000000
     0.00000000
     0.00000000
     0.00000000
     0.00000000
     0.00000000
     0.00000000
     0.00000000
     0.00000000
     0.00000000
     0.00000000
     0.00000000
     0.00000000
     0.00000000
     0.00000000
     0.00000000
     0.00000000
     0.00000000
     0.00000000
     0.00000000
     0.00000000
     0.00000000
     0.00000000
     0.00000000
     0.00000000
     0.00000000
     0.00000000
     0.00000000
     0.00000000
     0.00000000
     0.00000000
     0.00000000
     0.00000000
     0.00000000
     0.00000000
     0.00000000
     0.00000000
     0.00000000
     0.00000000
     0.00000000
     0.00000000
     0.00000000
     0.00000000
     0.00000000
     0.00000000
     0.00000000
     0.00000000
     0.00000000
     0.00000000
     0.00000000
     0.00000000
     0.00000000
     0.00000000
     0.00000000
     0.00000000
     0.00000000
     0.00000000
     0.00000000
     0.00000000
     0.00000000
     0.00000000
     0.00000000
     0.00000000
     0.00000000
     0.00000000
     0.00000000
     0.00000000
     0.00000000
     0.00000000
     0.00000000
     0.00000000
     0.00000000
     0.00000000
     0.00000000
     0.00000000
     0.00000000
     0.00000000
     0.00000000
     0.00000000
     0.00000000
     0.00000000
     0.00000000
     0.00000000
     0.00000000
     0.00000000
     0.00000000
     0.00000000
     0.00000000
     0.00000000
     0.00000000
     0.00000000
     0.00000000
     0.00000000
     0.00000000
     0.00000000
     0.00000000
     0.00000000
     0.00000000
     0.00000000
     0.00000000
     0.00000000
     0.00000000
     0.00000000
     0.00000000
     0.00000000
     0.00000000
     0.00000000
     0.00000000
     0.00000000
     0.00000000
     0.00000000
     0.00000000
     0.00000000
     0.00000000
     0.00000000
     0.00000000
     0.00000000
     0.00000000
     0.00000000
     0.00000000
     0.00000000
     0.00000000
     0.00000000
     0.00000000
     0.00000000
     0.00000000
     0.00000000
     0.00000000
     0.00000000
     0.00000000
     0.00000000
     0.00000000
     0.00000000
     0.00000000
     0.00000000
     0.00000000
     0.00000000
     0.00000000
     0.00000000
     0.00000000
     0.00000000
     0.00000000
     0.00000000
     0.00000000
     0.00000000
     0.00000000
     0.00000000
     0.00000000
     0.00000000
     0.00000000
     0.00000000
     0.00000000
     0.00000000
     0.00000000
     0.00000000
     0.00000000
     0.00000000
     0.00000000
     0.00000000
     0.00000000
     0.00000000
     0.00000000
     0.00000000
     0.00000000
     0.00000000
     0.00000000
     0.00000000
     0.00000000
     0.00000000
     0.00000000
     0.00000000
     0.00000000
     0.00000000
     0.00000000
     0.00000000
     0.00000000
     0.00000000
     0.00000000
     0.00000000
     0.00000000
     0.00000000
     0.00000000
     0.00000000
     0.00000000
     0.00000000
     0.00000000
     0.00000000
     0.00000000
     0.00000000
     0.00000000
     0.00000000
     0.00000000
     0.00000000
     0.00000000
     0.00000000
     0.00000000
     0.00000000
     0.00000000
     0.00000000
     0.00000000
     0.00000000
     0.00000000
     0.00000000
     0.00000000
     0.00000000
     0.00000000
     0.00000000
     0.00000000
     0.00000000
     0.00000000
     0.00000000
     0.00000000
     0.00000000
     0.00000000
     0.00000000
     0.00000000
     0.00000000
     0.00000000
     0.00000000
     0.00000000
     0.00000000
     0.00000000
     0.00000000
     0.00000000
     0.00000000
     0.00000000
     0.00000000
     0.00000000
     0.00000000
     0.00000000
     0.00000000
     0.00000000
     0.00000000
     0.00000000
     0.00000000
     0.00000000
     0.00000000
     0.00000000
     0.00000000
     0.00000000
     0.00000000
     0.00000000
     0.00000000
     0.00000000
     0.00000000
     0.00000000
     0.00000000
     0.00000000
     0.00000000
     0.00000000
     0.00000000
     0.00000000
     0.00000000
     0.00000000
     0.00000000
     0.00000000
     0.00000000
     0.00000000
     0.00000000
     0.00000000
     0.00000000
     0.00000000
     0.00000000
     0.00000000
     0.00000000
     0.00000000
     0.00000000
     0.00000000
     0.00000000
     0.00000000
     0.00000000
     0.00000000
     0.00000000
     0.00000000
     0.00000000
     0.00000000
     0.00000000
     0.00000000
     0.00000000
     0.00000000
     0.00000000
     0.00000000
     0.00000000
     0.00000000
     0.00000000
     0.00000000
     0.00000000
     0.00000000
     0.00000000
     0.00000000
     0.00000000
     0.00000000
     0.00000000
     0.00000000
     0.00000000
     0.00000000
     0.00000000
     0.00000000
     0.00000000
     0.00000000
     0.00000000
     0.00000000
     0.00000000
     0.00000000
     0.00000000
     0.00000000
     0.00000000
     0.00000000
     0.00000000
     0.00000000
     0.00000000
     0.00000000
     0.00000000
     0.00000000
     0.00000000
     0.00000000
     0.00000000
     0.00000000
     0.00000000
     0.00000000
     0.00000000
     0.00000000
     0.00000000
     0.00000000
     0.00000000
     0.00000000
     0.00000000
     0.00000000
     0.00000000
     0.00000000
     0.00000000
     0.00000000
     0.00000000
     0.00000000
     0.00000000
     0.00000000
     0.00000000
     0.00000000
     0.00000000
     0.00000000
     0.00000000
     0.00000000
     0.00000000
     0.00000000
     0.00000000
     0.00000000
     0.00000000
     0.00000000
     0.00000000
     0.00000000
     0.00000000
     0.00000000
     0.00000000
     0.00000000
     0.00000000
     0.00000000
     0.00000000
     0.00000000
     0.00000000
     0.00000000
     0.00000000
     0.00000000
     0.00000000
     0.00000000
     0.00000000
     0.00000000
     0.00000000
     0.00000000
     0.00000000
     0.00000000
     0.00000000
     0.00000000
     0.00000000
     0.00000000
     0.00000000
     0.00000000
     0.00000000
     0.00000000
     0.00000000
     0.00000000
     0.00000000
     0.00000000
     0.00000000
     0.00000000
     0.00000000
     0.00000000
     0.00000000
     0.00000000
     0.00000000
     0.00000000
     0.00000000
     0.00000000
     0.00000000
     0.00000000
     0.00000000
     0.00000000
     0.00000000
     0.00000000
     0.00000000
     0.00000000
     0.00000000
     0.00000000
     0.00000000
     0.00000000
     0.00000000
     0.00000000
     0.00000000
     0.00000000
     0.00000000
     0.00000000
     0.00000000
     0.00000000
     0.00000000
     0.00000000
     0.00000000
     0.00000000
     0.00000000
     0.00000000
     0.00000000
     0.00000000
     0.00000000
     0.00000000
     0.00000000
     0.00000000
     0.00000000
     0.00000000
     0.00000000
     0.00000000
     0.00000000
     0.00000000
     0.00000000
     0.00000000
     0.00000000
     0.00000000
     0.00000000
     0.00000000
     0.00000000
     0.00000000
     0.00000000
     0.00000000
     0.00000000
     0.00000000
     0.00000000
     0.00000000
     0.00000000
     0.00000000
     0.00000000
     0.00000000
     0.00000000
     0.00000000
     0.00000000
     0.00000000
     0.00000000
     0.00000000
     0.00000000
     0.00000000
     0.00000000
     0.00000000
     0.00000000
     0.00000000
     0.00000000
     0.00000000
     0.00000000
     0.00000000
     0.00000000
     0.00000000
     0.00000000
     0.00000000
     0.00000000
     0.00000000
     0.00000000
     0.00000000
     0.00000000
     0.00000000
     0.00000000
     0.00000000
     0.00000000
     0.00000000
     0.00000000
     0.00000000
     0.00000000
     0.00000000
     0.00000000
     0.00000000
     0.00000000
     0.00000000
     0.00000000
     0.00000000
     0.00000000
     0.00000000
     0.00000000
     0.00000000
     0.00000000
     0.00000000
     0.00000000
     0.00000000
     0.00000000
     0.00000000
     0.00000000
     0.00000000
     0.00000000
     0.00000000
     0.00000000
     0.00000000
     0.00000000
     0.00000000
     0.00000000
     0.00000000
     0.00000000
     0.00000000
     0.00000000
     0.00000000
     0.00000000
     0.00000000
     0.00000000
     0.00000000
     0.00000000
     0.00000000
     0.00000000
     0.00000000
     0.00000000
     0.00000000
     0.00000000
     0.00000000
     0.00000000
     0.00000000
     0.00000000
     0.00000000
     0.00000000
     0.00000000
     0.00000000
     0.00000000
     0.00000000
     0.00000000
     0.00000000
     0.00000000
     0.00000000
     0.00000000
     0.00000000
     0.00000000
     0.00000000
     0.00000000
     0.00000000
     0.00000000
     0.00000000
     0.00000000
     0.00000000
     0.00000000
     0.00000000
     0.00000000
     0.00000000
     0.00000000
     0.00000000
     0.00000000
     0.00000000
     0.00000000
     0.00000000
     0.00000000
     0.00000000
     0.00000000
     0.00000000
     0.00000000
     0.00000000
     0.00000000
     0.00000000
     0.00000000
     0.00000000
     0.00000000
     0.00000000
     0.00000000
     0.00000000
     0.00000000
     0.00000000
     0.00000000
     0.00000000
     0.00000000
     0.00000000
     0.00000000
     0.00000000
     0.00000000
     0.00000000
     0.00000000
     0.00000000
     0.00000000
     0.00000000
     0.00000000
     0.00000000
     0.00000000
     0.00000000
     0.00000000
     0.00000000
     0.00000000
     0.00000000
     0.00000000
     0.00000000
     0.00000000
     0.00000000
     0.00000000
     0.00000000
     0.00000000
     0.00000000
     0.00000000
     0.00000000
     0.00000000
     0.00000000
     0.00000000
     0.00000000
     0.00000000
     0.00000000
     0.00000000
     0.00000000
     0.00000000
     0.00000000
     0.00000000
     0.00000000
     0.00000000
     0.00000000
     0.00000000
     0.00000000
     0.00000000
     0.00000000
     0.00000000
     0.00000000
     0.00000000
     0.00000000
     0.00000000
     0.00000000
     0.00000000
     0.00000000
     0.00000000
     0.00000000
     0.00000000
     0.00000000
     0.00000000
     0.00000000
     0.00000000
     0.00000000
     0.00000000
     0.00000000
     0.00000000
     0.00000000
     0.00000000
     0.00000000
     0.00000000
     0.00000000
     0.00000000
     0.00000000
     0.00000000
     0.00000000
     0.00000000
     0.00000000
     0.00000000
     0.00000000
     0.00000000
     0.00000000
     0.00000000
     0.00000000
     0.00000000
     0.00000000
     0.00000000
     0.00000000
     0.00000000
     0.00000000
     0.00000000
     0.00000000
     0.00000000
     0.00000000
     0.00000000
     0.00000000
     0.00000000
     0.00000000
     0.00000000
     0.00000000
     0.00000000
     0.00000000
     0.00000000
     0.00000000
     0.00000000
     0.00000000
     0.00000000
     0.00000000
     0.00000000
     0.00000000
     0.00000000
     0.00000000
     0.00000000
     0.00000000
     0.00000000
     0.00000000
     0.00000000
     0.00000000
     0.00000000
     0.00000000
     0.00000000
     0.00000000
     0.00000000
     0.00000000
     0.00000000
     0.00000000
     0.00000000
     0.00000000
     0.00000000
     0.00000000
     0.00000000
     0.00000000
     0.00000000
     0.00000000
     0.00000000
     0.00000000
     0.00000000
     0.00000000
     0.00000000
     0.00000000
     0.00000000
     0.00000000
     0.00000000
     0.00000000
     0.00000000
     0.00000000
     0.00000000
     0.00000000
     0.00000000
     0.00000000
     0.00000000
     0.00000000
     0.00000000
     0.00000000
     0.00000000
     0.00000000
     0.00000000
     0.00000000
     0.00000000
     0.00000000
     0.00000000
     0.00000000
     0.00000000
     0.00000000
     0.00000000
     0.00000000
     0.00000000
     0.00000000
     0.00000000
     0.00000000
     0.00000000
     0.00000000
     0.00000000
     0.00000000
     0.00000000
     0.00000000
     0.00000000
     0.00000000
     0.00000000
     0.00000000
     0.00000000
     0.00000000
     0.00000000
     0.00000000
     0.00000000
     0.00000000
     0.00000000
     0.00000000
     0.00000000
     0.00000000
     0.00000000
     0.00000000
     0.00000000
     0.00000000
     0.00000000
     0.00000000
     0.00000000
     0.00000000
     0.00000000
     0.00000000
     0.00000000
     0.00000000
     0.00000000
     0.00000000
     0.00000000
     0.00000000
     0.00000000
     0.00000000
     0.00000000
     0.00000000
     0.00000000
     0.00000000
     0.00000000
     0.00000000
     0.00000000
     0.00000000
     0.00000000
     0.00000000
     0.00000000
     0.00000000
     0.00000000
     0.00000000
     0.00000000
     0.00000000
     0.00000000
     0.00000000
     0.00000000
     0.00000000
     0.00000000
     0.00000000
     0.00000000
     0.00000000
     0.00000000
     0.00000000
     0.00000000
     0.00000000
     0.00000000
     0.00000000
     0.00000000
     0.00000000
     0.00000000
     0.00000000
     0.00000000
     0.00000000
     0.00000000
     0.00000000
     0.00000000
     0.00000000
     0.00000000
     0.00000000
     0.00000000
     0.00000000
     0.00000000
     0.00000000
     0.00000000
     0.00000000
     0.00000000
     0.00000000
     0.00000000
     0.00000000
     0.00000000
     0.00000000
     0.00000000
     0.00000000
     0.00000000
     0.00000000
     0.00000000
     0.00000000
     0.00000000
     0.00000000
     0.00000000
     0.00000000
     0.00000000
     0.00000000
     0.00000000
     0.00000000
     0.00000000
     0.00000000
     0.00000000
     0.00000000
     0.00000000
     0.00000000
     0.00000000
     0.00000000
     0.00000000
     0.00000000
     0.00000000
     0.00000000
     0.00000000
     0.00000000
     0.00000000
     0.00000000
     0.00000000
     0.00000000
     0.00000000
     0.00000000
     0.00000000
     0.00000000
     0.00000000
     0.00000000
     0.00000000
     0.00000000
     0.00000000
     0.00000000
     0.00000000
     0.00000000
     0.00000000
     0.00000000
     0.00000000
     0.00000000
     0.00000000
     0.00000000
     0.00000000
     0.00000000
     0.00000000
     0.00000000
     0.00000000
     0.00000000
     0.00000000
     0.00000000
     0.00000000
     0.00000000
     0.00000000
     0.00000000
     0.00000000
     0.00000000
     0.00000000
     0.00000000
     0.00000000
     0.00000000
     0.00000000
     0.00000000
     0.00000000
     0.00000000
     0.00000000
     0.00000000
     0.00000000
     0.00000000
     0.00000000
     0.00000000
     0.00000000
     0.00000000
     0.00000000
     0.00000000
     0.00000000
     0.00000000
     0.00000000
     0.00000000
     0.00000000
     0.00000000
     0.00000000
     0.00000000
     0.00000000
     0.00000000
     0.00000000
     0.00000000
     0.00000000
     0.00000000
     0.00000000
     0.00000000
     0.00000000
     0.00000000
     0.00000000
     0.00000000
     0.00000000
     0.00000000
     0.00000000
     0.00000000
     0.00000000
     0.00000000
     0.00000000
     0.00000000
     0.00000000
     0.00000000
     0.00000000
     0.00000000
     0.00000000
     0.00000000
     0.00000000
     0.00000000
     0.00000000
     0.00000000
     0.00000000
     0.00000000
     0.00000000
     0.00000000
     0.00000000
     0.00000000
     0.00000000
     0.00000000
     0.00000000
     0.00000000
     0.00000000
     0.00000000
     0.00000000
     0.00000000
     0.00000000
     0.00000000
     0.00000000
     0.00000000
     0.00000000
     0.00000000
     0.00000000
     0.00000000
     0.00000000
     0.00000000
     0.00000000
     0.00000000
     0.00000000
     0.00000000
     0.00000000
     0.00000000
     0.00000000
     0.00000000
     0.00000000
     0.00000000
     0.00000000
     0.00000000
     0.00000000
     0.00000000
     0.00000000
     0.00000000
     0.00000000
     0.00000000
     0.00000000
     0.00000000
     0.00000000
     0.00000000
     0.00000000
     0.00000000
     0.00000000
     0.00000000
     0.00000000
     0.00000000
     0.00000000
     0.00000000
     0.00000000
     0.00000000
     0.00000000
     0.00000000
     0.00000000
     0.00000000
     0.00000000
     0.00000000
     0.00000000
     0.00000000
     0.00000000
     0.00000000
     0.00000000
     0.00000000
     0.00000000
     0.00000000
     0.00000000
     0.00000000
     0.00000000
     0.00000000
     0.00000000
     0.00000000
     0.00000000
     0.00000000
     0.00000000
     0.00000000
     0.00000000
     0.00000000
     0.00000000
     0.00000000
     0.00000000
     0.00000000
     0.00000000
     0.00000000
     0.00000000
     0.00000000
     0.00000000
     0.00000000
     0.00000000
     0.00000000
     0.00000000
     0.00000000
     0.00000000
     0.00000000
     0.00000000
     0.00000000
     0.00000000
     0.00000000
     0.00000000
     0.00000000
     0.00000000
     0.00000000
     0.00000000
     0.00000000
     0.00000000
     0.00000000
     0.00000000
     0.00000000
     0.00000000
     0.00000000
     0.00000000
     0.00000000
     0.00000000
     0.00000000
     0.00000000
     0.00000000
     0.00000000
     0.00000000
     0.00000000
     0.00000000
     0.00000000
     0.00000000
     0.00000000
     0.00000000
     0.00000000
     0.00000000
     0.00000000
     0.00000000
     0.00000000
     0.00000000
     0.00000000
     0.00000000
     0.00000000
     0.00000000
     0.00000000
     0.00000000
     0.00000000
     0.00000000
     0.00000000
     0.00000000
     0.00000000
     0.00000000
     0.00000000
     0.00000000
     0.00000000
     0.00000000
     0.00000000
     0.00000000
     0.00000000
     0.00000000
     0.00000000
     0.00000000
     0.00000000
     0.00000000
     0.00000000
     0.00000000
     0.00000000
     0.00000000
     0.00000000
     0.00000000
     0.00000000
     0.00000000
     0.00000000
     0.00000000
     0.00000000
     0.00000000
     0.00000000
     0.00000000
     0.00000000
     0.00000000
     0.00000000
     0.00000000
     0.00000000
     0.00000000
     0.00000000
     0.00000000
     0.00000000
     0.00000000
     0.00000000
     0.00000000
     0.00000000
     0.00000000
     0.00000000
     0.00000000
     0.00000000
     0.00000000
     0.00000000
     0.00000000
     0.00000000
     0.00000000
     0.00000000
     0.00000000
     0.00000000
     0.00000000
     0.00000000
     0.00000000
     0.00000000
     0.00000000
     0.00000000
     0.00000000
     0.00000000
     0.00000000
     0.00000000
     0.00000000
     0.00000000
     0.00000000
     0.00000000
     0.00000000
     0.00000000
     0.00000000
     0.00000000
     0.00000000
     0.00000000
     0.00000000
     0.00000000
     0.00000000
     0.00000000
     0.00000000
     0.00000000
     0.00000000
     0.00000000
     0.00000000
     0.00000000
     0.00000000
     0.00000000
     0.00000000
     0.00000000
     0.00000000
     0.00000000
     0.00000000
     0.00000000
     0.00000000
     0.00000000
     0.00000000
     0.00000000
     0.00000000
     0.00000000
     0.00000000
     0.00000000
     0.00000000
     0.00000000
     0.00000000
     0.00000000
     0.00000000
     0.00000000
     0.00000000
     0.00000000
     0.00000000
     0.00000000
     0.00000000
     0.00000000
     0.00000000
     0.00000000
     0.00000000
     0.00000000
     0.00000000
     0.00000000
     0.00000000
     0.00000000
     0.00000000
     0.00000000
     0.00000000
     0.00000000
     0.00000000
     0.00000000
     0.00000000
     0.00000000
     0.00000000
     0.00000000
     0.00000000
     0.00000000
     0.00000000
     0.00000000
     0.00000000
     0.00000000
     0.00000000
     0.00000000
     0.00000000
     0.00000000
     0.00000000
     0.00000000
     0.00000000
     0.00000000
     0.00000000
     0.00000000
     0.00000000
     0.00000000
     0.00000000
     0.00000000
     0.00000000
     0.00000000
     0.00000000
     0.00000000
     0.00000000
     0.00000000
     0.00000000
     0.00000000
     0.00000000
     0.00000000
     0.00000000
     0.00000000
     0.00000000
     0.00000000
     0.00000000
     0.00000000
     0.00000000
     0.00000000
     0.00000000
     0.00000000
     0.00000000
     0.00000000
     0.00000000
     0.00000000
     0.00000000
     0.00000000
     0.00000000
     0.00000000
     0.00000000
     0.00000000
     0.00000000
     0.00000000
     0.00000000
     0.00000000
     0.00000000
     0.00000000
     0.00000000
     0.00000000
     0.00000000
     0.00000000
     0.00000000
     0.00000000
     0.00000000
     0.00000000
     0.00000000
     0.00000000
     0.00000000
     0.00000000
     0.00000000
     0.00000000
     0.00000000
     0.00000000
     0.00000000
     0.00000000
     0.00000000
     0.00000000
     0.00000000
     0.00000000
     0.00000000
     0.00000000
     0.00000000
     0.00000000
     0.00000000
     0.00000000
     0.00000000
     0.00000000
     0.00000000
     0.00000000
     0.00000000
     0.00000000
     0.00000000
     0.00000000
     0.00000000
     0.00000000
     0.00000000
     0.00000000
     0.00000000
     0.00000000
     0.00000000
     0.00000000
     0.00000000
     0.00000000
     0.00000000
     0.00000000
     0.00000000
     0.00000000
     0.00000000
     0.00000000
     0.00000000
     0.00000000
     0.00000000
     0.00000000
     0.00000000
     0.00000000
     0.00000000
     0.00000000
     0.00000000
     0.00000000
     0.00000000
     0.00000000
     0.00000000
     0.00000000
     0.00000000
     0.00000000
     0.00000000
     0.00000000
     0.00000000
     0.00000000
     0.00000000
     0.00000000
     0.00000000
     0.00000000
     0.00000000
     0.00000000
     0.00000000
     0.00000000
     0.00000000
     0.00000000
     0.00000000
     0.00000000
     0.00000000
     0.00000000
     0.00000000
     0.00000000
     0.00000000
     0.00000000
     0.00000000
     0.00000000
     0.00000000
     0.00000000
     0.00000000
     0.00000000
     0.00000000
     0.00000000
     0.00000000
     0.00000000
     0.00000000
     0.00000000
     0.00000000
     0.00000000
     0.00000000
     0.00000000
     0.00000000
     0.00000000
     0.00000000
     0.00000000
     0.00000000
     0.00000000
     0.00000000
     0.00000000
     0.00000000
     0.00000000
     0.00000000
     0.00000000
     0.00000000
     0.00000000
     0.00000000
     0.00000000
     0.00000000
     0.00000000
     0.00000000
     0.00000000
     0.00000000
     0.00000000
     0.00000000
     0.00000000
     0.00000000
     0.00000000
     0.00000000
     0.00000000
     0.00000000
     0.00000000
     0.00000000
     0.00000000
     0.00000000
     0.00000000
     0.00000000
     0.00000000
     0.00000000
     0.00000000
     0.00000000
     0.00000000
     0.00000000
     0.00000000
     0.00000000
     0.00000000
     0.00000000
     0.00000000
     0.00000000
     0.00000000
     0.00000000
     0.00000000
     0.00000000
     0.00000000
     0.00000000
     0.00000000
     0.00000000
     0.00000000
     0.00000000
     0.00000000
     0.00000000
     0.00000000
     0.00000000
     0.00000000
     0.00000000
     0.00000000
     0.00000000
     0.00000000
     0.00000000
     0.00000000
     0.00000000
     0.00000000
     0.00000000
     0.00000000
     0.00000000
     0.00000000
     0.00000000
     0.00000000
     0.00000000
     0.00000000
     0.00000000
     0.00000000
     0.00000000
     0.00000000
     0.00000000
     0.00000000
     0.00000000
     0.00000000
     0.00000000
     0.00000000
     0.00000000
     0.00000000
     0.00000000
     0.00000000
     0.00000000
     0.00000000
     0.00000000
     0.00000000
     0.00000000
     0.00000000
     0.00000000
     0.00000000
     0.00000000
     0.00000000
     0.00000000
     0.00000000
     0.00000000
     0.00000000
     0.00000000
     0.00000000
     0.00000000
     0.00000000
     0.00000000
     0.00000000
     0.00000000
     0.00000000
     0.00000000
     0.00000000
     0.00000000
     0.00000000
     0.00000000
     0.00000000
     0.00000000
     0.00000000
     0.00000000
     0.00000000
     0.00000000
     0.00000000
     0.00000000
     0.00000000
     0.00000000
     0.00000000
     0.00000000
     0.00000000
     0.00000000
     0.00000000
     0.00000000
     0.00000000
     0.00000000
     0.00000000
     0.00000000
     0.00000000
     0.00000000
     0.00000000
     0.00000000
     0.00000000
     0.00000000
     0.00000000
     0.00000000
     0.00000000
     0.00000000
     0.00000000
     0.00000000
     0.00000000
     0.00000000
     0.00000000
     0.00000000
     0.00000000
     0.00000000
     0.00000000
     0.00000000
     0.00000000
     0.00000000
     0.00000000
     0.00000000
     0.00000000
     0.00000000
     0.00000000
     0.00000000
     0.00000000
     0.00000000
     0.00000000
     0.00000000
     0.00000000
     0.00000000
     0.00000000
     0.00000000
     0.00000000
     0.00000000
     0.00000000
     0.00000000
     0.00000000
     0.00000000
     0.00000000
     0.00000000
     0.00000000
     0.00000000
     0.00000000
     0.00000000
     0.00000000
     0.00000000
     0.00000000
     0.00000000
     0.00000000
     0.00000000
     0.00000000
     0.00000000
     0.00000000
     0.00000000
     0.00000000
     0.00000000
     0.00000000
     0.00000000
     0.00000000
     0.00000000
     0.00000000
     0.00000000
     0.00000000
     0.00000000
     0.00000000
     0.00000000
     0.00000000
     0.00000000
     0.00000000
     0.00000000
     0.00000000
     0.00000000
     0.00000000
     0.00000000
     0.00000000
     0.00000000
     0.00000000
     0.00000000
     0.00000000
     0.00000000
     0.00000000
     0.00000000
     0.00000000
     0.00000000
     0.00000000
     0.00000000
     0.00000000
     0.00000000
     0.00000000
     0.00000000
     0.00000000
     0.00000000
     0.00000000
     0.00000000
     0.00000000
     0.00000000
     0.00000000
     0.00000000
     0.00000000
     0.00000000
     0.00000000
     0.00000000
     0.00000000
     0.00000000
     0.00000000
     0.00000000
     0.00000000
     0.00000000
     0.00000000
     0.00000000
     0.00000000
     0.00000000
     0.00000000
     0.00000000
     0.00000000
     0.00000000
     0.00000000
     0.00000000
     0.00000000
     0.00000000
     0.00000000
     0.00000000
     0.00000000
     0.00000000
     0.00000000
     0.00000000
     0.00000000
     0.00000000
     0.00000000
     0.00000000
     0.00000000
     0.00000000
     0.00000000
     0.00000000
     0.00000000
     0.00000000
     0.00000000
     0.00000000
     0.00000000
     0.00000000
     0.00000000
     0.00000000
     0.00000000
     0.00000000
     0.00000000
     0.00000000
     0.00000000
     0.00000000
     0.00000000
     0.00000000
     0.00000000
     0.00000000
     0.00000000
     0.00000000
     0.00000000
     0.00000000
     0.00000000
     0.00000000
     0.00000000
     0.00000000
     0.00000000
     0.00000000
     0.00000000
     0.00000000
     0.00000000
     0.00000000
     0.00000000
     0.00000000
     0.00000000
     0.00000000
     0.00000000
     0.00000000
     0.00000000
     0.00000000
     0.00000000
     0.00000000
     0.00000000
     0.00000000
     0.00000000
     0.00000000
     0.00000000
     0.00000000
     0.00000000
     0.00000000
     0.00000000
     0.00000000
     0.00000000
     0.00000000
     0.00000000
     0.00000000
     0.00000000
     0.00000000
     0.00000000
     0.00000000
     0.00000000
     0.00000000
     0.00000000
     0.00000000
     0.00000000
     0.00000000
     0.00000000
     0.00000000
     0.00000000
     0.00000000
     0.00000000
     0.00000000
     0.00000000
     0.00000000
     0.00000000
     0.00000000
     0.00000000
     0.00000000
     0.00000000
     0.00000000
     0.00000000
     0.00000000
     0.00000000
     0.00000000
     0.00000000
     0.00000000
     0.00000000
     0.00000000
     0.00000000
     0.00000000
     0.00000000
     0.00000000
     0.00000000
     0.00000000
     0.00000000
     0.00000000
     0.00000000
     0.00000000
     0.00000000
     0.00000000
     0.00000000
     0.00000000
     0.00000000
     0.00000000
     0.00000000
     0.00000000
     0.00000000
     0.00000000
     0.00000000
     0.00000000
     0.00000000
     0.00000000
     0.00000000
     0.00000000
     0.00000000
     0.00000000
     0.00000000
     0.00000000
     0.00000000
     0.00000000
     0.00000000
     0.00000000
     0.00000000
     0.00000000
     0.00000000
     0.00000000
     0.00000000
     0.00000000
     0.00000000
     0.00000000
     0.00000000
     0.00000000
     0.00000000
     0.00000000
     0.00000000
     0.00000000
     0.00000000
     0.00000000
     0.00000000
     0.00000000
     0.00000000
     0.00000000
     0.00000000
     0.00000000
     0.00000000
     0.00000000
     0.00000000
     0.00000000
     0.00000000
     0.00000000
     0.00000000
     0.00000000
     0.00000000
     0.00000000
     0.00000000
     0.00000000
     0.00000000
     0.00000000
     0.00000000
     0.00000000
     0.00000000
     0.00000000
     0.00000000
     0.00000000
     0.00000000
     0.00000000
     0.00000000
     0.00000000
     0.00000000
     0.00000000
     0.00000000
     0.00000000
     0.00000000
     0.00000000
     0.00000000
     0.00000000
     0.00000000
     0.00000000
     0.00000000
     0.00000000
     0.00000000
     0.00000000
     0.00000000
     0.00000000
     0.00000000
     0.00000000
     0.00000000
     0.00000000
     0.00000000
     0.00000000
     0.00000000
     0.00000000
     0.00000000
     0.00000000
     0.00000000
     0.00000000
     0.00000000
     0.00000000
     0.00000000
     0.00000000
     0.00000000
     0.00000000
     0.00000000
     0.00000000
     0.00000000
     0.00000000
     0.00000000
     0.00000000
     0.00000000
     0.00000000
     0.00000000
     0.00000000
     0.00000000
     0.00000000
     0.00000000
     0.00000000
     0.00000000
     0.00000000
     0.00000000
     0.00000000
     0.00000000
     0.00000000
     0.00000000
     0.00000000
     0.00000000
     0.00000000
     0.00000000
     0.00000000
     0.00000000
     0.00000000
     0.00000000
     0.00000000
     0.00000000
     0.00000000
     0.00000000
     0.00000000
     0.00000000
     0.00000000
     0.00000000
     0.00000000
     0.00000000
     0.00000000
     0.00000000
     0.00000000
     0.00000000
     0.00000000
     0.00000000
     0.00000000
     0.00000000
     0.00000000
     0.00000000
     0.00000000
     0.00000000
     0.00000000
     0.00000000
     0.00000000
     0.00000000
     0.00000000
     0.00000000
     0.00000000
     0.00000000
     0.00000000
     0.00000000
     0.00000000
     0.00000000
     0.00000000
     0.00000000
     0.00000000
     0.00000000
     0.00000000
     0.00000000
     0.00000000
     0.00000000
     0.00000000
     0.00000000
     0.00000000
     0.00000000
     0.00000000
     0.00000000
     0.00000000
     0.00000000
     0.00000000
     0.00000000
     0.00000000
     0.00000000
     0.00000000
     0.00000000
     0.00000000
     0.00000000
     0.00000000
     0.00000000
     0.00000000
     0.00000000
     0.00000000
     0.00000000
     0.00000000
     0.00000000
     0.00000000
     0.00000000
     0.00000000
     0.00000000
     0.00000000
     0.00000000
     0.00000000
     0.00000000
     0.00000000
     0.00000000
     0.00000000
     0.00000000
     0.00000000
     0.00000000
     0.00000000
     0.00000000
     0.00000000
     0.00000000
     0.00000000
     0.00000000
     0.00000000
     0.00000000
     0.00000000
     0.00000000
     0.00000000
     0.00000000
     0.00000000
     0.00000000
     0.00000000
     0.00000000
     0.00000000
     0.00000000
     0.00000000
     0.00000000
     0.00000000
     0.00000000
     0.00000000
     0.00000000
     0.00000000
     0.00000000
     0.00000000
     0.00000000
     0.00000000
     0.00000000
     0.00000000
     0.00000000
     0.00000000
     0.00000000
     0.00000000
     0.00000000
     0.00000000
     0.00000000
     0.00000000
     0.00000000
     0.00000000
     0.00000000
     0.00000000
     0.00000000
     0.00000000
     0.00000000
     0.00000000
     0.00000000
     0.00000000
     0.00000000
     0.00000000
     0.00000000
     0.00000000
     0.00000000
     0.00000000
     0.00000000
     0.00000000
     0.00000000
     0.00000000
     0.00000000
     0.00000000
     0.00000000
     0.00000000
     0.00000000
     0.00000000
     0.00000000
     0.00000000
     0.00000000
     0.00000000
     0.00000000
     0.00000000
     0.00000000
     0.00000000
     0.00000000
     0.00000000
     0.00000000
     0.00000000
     0.00000000
     0.00000000
     0.00000000
     0.00000000
     0.00000000
     0.00000000
     0.00000000
     0.00000000
     0.00000000
     0.00000000
     0.00000000
     0.00000000
     0.00000000
     0.00000000
     0.00000000
     0.00000000
     0.00000000
     0.00000000
     0.00000000
     0.00000000
     0.00000000
     0.00000000
     0.00000000
     0.00000000
     0.00000000
     0.00000000
     0.00000000
     0.00000000
     0.00000000
     0.00000000
     0.00000000
     0.00000000
     0.00000000
     0.00000000
     0.00000000
     0.00000000
     0.00000000
     0.00000000
     0.00000000
     0.00000000
     0.00000000
     0.00000000
     0.00000000
     0.00000000
     0.00000000
     0.00000000
     0.00000000
     0.00000000
     0.00000000
     0.00000000
     0.00000000
     0.00000000
     0.00000000
     0.00000000
     0.00000000
     0.00000000
     0.00000000
     0.00000000
     0.00000000
     0.00000000
     0.00000000
     0.00000000
     0.00000000
     0.00000000
     0.00000000
     0.00000000
     0.00000000
     0.00000000
     0.00000000
     0.00000000
     0.00000000
     0.00000000
     0.00000000
     0.00000000
     0.00000000
     0.00000000
     0.00000000
     0.00000000
     0.00000000
     0.00000000
     0.00000000
     0.00000000
     0.00000000
     0.00000000
     0.00000000
     0.00000000
     0.00000000
     0.00000000
     0.00000000
     0.00000000
     0.00000000
     0.00000000
     0.00000000
     0.00000000
     0.00000000
     0.00000000
     0.00000000
     0.00000000
     0.00000000
     0.00000000
     0.00000000
     0.00000000
     0.00000000
     0.00000000
     0.00000000
     0.00000000
     0.00000000
     0.00000000
     0.00000000
     0.00000000
     0.00000000
     0.00000000
     0.00000000
     0.00000000
     0.00000000
     0.00000000
     0.00000000
     0.00000000
     0.00000000
     0.00000000
     0.00000000
     0.00000000
     0.00000000
     0.00000000
     0.00000000
     0.00000000
     0.00000000
     0.00000000
     0.00000000
     0.00000000
     0.00000000
     0.00000000
     0.00000000
     0.00000000
     0.00000000
     0.00000000
     0.00000000
     0.00000000
     0.00000000
     0.00000000
     0.00000000
     0.00000000
     0.00000000
     0.00000000
     0.00000000
     0.00000000
     0.00000000
     0.00000000
     0.00000000
     0.00000000
     0.00000000
     0.00000000
     0.00000000
     0.00000000
     0.00000000
     0.00000000
     0.00000000
     0.00000000
     0.00000000
     0.00000000
     0.00000000
     0.00000000
     0.00000000
     0.00000000
     0.00000000
     0.00000000
     0.00000000
     0.00000000
     0.00000000
     0.00000000
     0.00000000
     0.00000000
     0.00000000
     0.00000000
     0.00000000
     0.00000000
     0.00000000
     0.00000000
     0.00000000
     0.00000000
     0.00000000
     0.00000000
     0.00000000
     0.00000000
     0.00000000
     0.00000000
     0.00000000
     0.00000000
     0.00000000
     0.00000000
     0.00000000
     0.00000000
     0.00000000
     0.00000000
     0.00000000
     0.00000000
     0.00000000
     0.00000000
     0.00000000
     0.00000000
     0.00000000
     0.00000000
     0.00000000
     0.00000000
     0.00000000
     0.00000000
     0.00000000
     0.00000000
     0.00000000
     0.00000000
     0.00000000
     0.00000000
     0.00000000
     0.00000000
     0.00000000
     0.00000000
     0.00000000
     0.00000000
     0.00000000
     0.00000000
     0.00000000
     0.00000000
     0.00000000
     0.00000000
     0.00000000
     0.00000000
     0.00000000
     0.00000000
     0.00000000
     0.00000000
     0.00000000
     0.00000000
     0.00000000
     0.00000000
     0.00000000
     0.00000000
     0.00000000
     0.00000000
     0.00000000
     0.00000000
     0.00000000
     0.00000000
     0.00000000
     0.00000000
     0.00000000
     0.00000000
     0.00000000
     0.00000000
     0.00000000
     0.00000000
     0.00000000
     0.00000000
     0.00000000
     0.00000000
     0.00000000
     0.00000000
     0.00000000
     0.00000000
     0.00000000
     0.00000000
     0.00000000
     0.00000000
     0.00000000
     0.00000000
     0.00000000
     0.00000000
     0.00000000
     0.00000000
     0.00000000
     0.00000000
     0.00000000
     0.00000000
     0.00000000
     0.00000000
     0.00000000
     0.00000000
     0.00000000
     0.00000000
     0.00000000
     0.00000000
     0.00000000
     0.00000000
     0.00000000
     0.00000000
     0.00000000
     0.00000000
     0.00000000
     0.00000000
     0.00000000
     0.00000000
     0.00000000
     0.00000000
     0.00000000
     0.00000000
     0.00000000
     0.00000000
     0.00000000
     0.00000000
     0.00000000
     0.00000000
     0.00000000
     0.00000000
     0.00000000
     0.00000000
     0.00000000
     0.00000000
     0.00000000
     0.00000000
     0.00000000
     0.00000000
     0.00000000
     0.00000000
     0.00000000
     0.00000000
     0.00000000
     0.00000000
     0.00000000
     0.00000000
     0.00000000
     0.00000000
     0.00000000
     0.00000000
     0.00000000
     0.00000000
     0.00000000
     0.00000000
     0.00000000
     0.00000000
     0.00000000
     0.00000000
     0.00000000
     0.00000000
     0.00000000
     0.00000000
     0.00000000
     0.00000000
     0.00000000
     0.00000000
     0.00000000
     0.00000000
     0.00000000
     0.00000000
     0.00000000
     0.00000000
     0.00000000
     0.00000000
     0.00000000
     0.00000000
     0.00000000
     0.00000000
     0.00000000
     0.00000000
     0.00000000
     0.00000000
     0.00000000
     0.00000000
     0.00000000
     0.00000000
     0.00000000
     0.00000000
     0.00000000
     0.00000000
     0.00000000
     0.00000000
     0.00000000
     0.00000000
     0.00000000
     0.00000000
     0.00000000
     0.00000000
     0.00000000
     0.00000000
     0.00000000
     0.00000000
     0.00000000
     0.00000000
     0.00000000
     0.00000000
     0.00000000
     0.00000000
     0.00000000
     0.00000000
     0.00000000
     0.00000000
     0.00000000
     0.00000000
     0.00000000
     0.00000000
     0.00000000
     0.00000000
     0.00000000
     0.00000000
     0.00000000
     0.00000000
     0.00000000
     0.00000000
     0.00000000
     0.00000000
     0.00000000
     0.00000000
     0.00000000
     0.00000000
     0.00000000
     0.00000000
     0.00000000
     0.00000000
     0.00000000
     0.00000000
     0.00000000
     0.00000000
     0.00000000
     0.00000000
     0.00000000
     0.00000000
     0.00000000
     0.00000000
     0.00000000
     0.00000000
     0.00000000
     0.00000000
     0.00000000
     0.00000000
     0.00000000
     0.00000000
     0.00000000
     0.00000000
     0.00000000
     0.00000000
     0.00000000
     0.00000000
     0.00000000
     0.00000000
     0.00000000
     0.00000000
     0.00000000
     0.00000000
     0.00000000
     0.00000000
     0.00000000
     0.00000000
     0.00000000
     0.00000000
     0.00000000
     0.00000000
     0.00000000
     0.00000000
     0.00000000
     0.00000000
     0.00000000
     0.00000000
     0.00000000
     0.00000000
     0.00000000
     0.00000000
     0.00000000
     0.00000000
     0.00000000
     0.00000000
     0.00000000
     0.00000000
     0.00000000
     0.00000000
     0.00000000
     0.00000000
     0.00000000
     0.00000000
     0.00000000
     0.00000000
     0.00000000
     0.00000000
     0.00000000
     0.00000000
     0.00000000
     0.00000000
     0.00000000
     0.00000000
     0.00000000
     0.00000000
     0.00000000
     0.00000000
     0.00000000
     0.00000000
     0.00000000
     0.00000000
     0.00000000
     0.00000000
     0.00000000
     0.00000000
     0.00000000
     0.00000000
     0.00000000
     0.00000000
     0.00000000
     0.00000000
     0.00000000
     0.00000000
     0.00000000
     0.00000000
     0.00000000
     0.00000000
     0.00000000
     0.00000000
     0.00000000
     0.00000000
     0.00000000
     0.00000000
     0.00000000
     0.00000000
     0.00000000
     0.00000000
     0.00000000
     0.00000000
     0.00000000
     0.00000000
     0.00000000
     0.00000000
     0.00000000
     0.00000000
     0.00000000
     0.00000000
     0.00000000
     0.00000000
     0.00000000
     0.00000000
     0.00000000
     0.00000000
     0.00000000
     0.00000000
     0.00000000
     0.00000000
     0.00000000
     0.00000000
     0.00000000
     0.00000000
     0.00000000
     0.00000000
     0.00000000
     0.00000000
     0.00000000
     0.00000000
     0.00000000
     0.00000000
     0.00000000
     0.00000000
     0.00000000
     0.00000000
     0.00000000
     0.00000000
     0.00000000
     0.00000000
     0.00000000
     0.00000000
     0.00000000
     0.00000000
     0.00000000
     0.00000000
     0.00000000
     0.00000000
     0.00000000
     0.00000000
     0.00000000
     0.00000000
     0.00000000
     0.00000000
     0.00000000
     0.00000000
     0.00000000
     0.00000000
     0.00000000
     0.00000000
     0.00000000
     0.00000000
     0.00000000
     0.00000000
     0.00000000
     0.00000000
     0.00000000
     0.00000000
     0.00000000
     0.00000000
     0.00000000
     0.00000000
     0.00000000
     0.00000000
     0.00000000
     0.00000000
     0.00000000
     0.00000000
     0.00000000
     0.00000000
     0.00000000
     0.00000000
     0.00000000
     0.00000000
     0.00000000
     0.00000000
     0.00000000
     0.00000000
     0.00000000
     0.00000000
     0.00000000
     0.00000000
     0.00000000
     0.00000000
     0.00000000
     0.00000000
     0.00000000
     0.00000000
     0.00000000
     0.00000000
     0.00000000
     0.00000000
     0.00000000
     0.00000000
     0.00000000
     0.00000000
     0.00000000
     0.00000000
     0.00000000
     0.00000000
     0.00000000
     0.00000000
     0.00000000
     0.00000000
     0.00000000
     0.00000000
     0.00000000
     0.00000000
     0.00000000
     0.00000000
     0.00000000
     0.00000000
     0.00000000
     0.00000000
     0.00000000
     0.00000000
     0.00000000
     0.00000000
     0.00000000
     0.00000000
     0.00000000
     0.00000000
     0.00000000
     0.00000000
     0.00000000
     0.00000000
     0.00000000
     0.00000000
     0.00000000
     0.00000000
     0.00000000
     0.00000000
     0.00000000
     0.00000000
     0.00000000
     0.00000000
     0.00000000
     0.00000000
     0.00000000
     0.00000000
     0.00000000
     0.00000000
     0.00000000
     0.00000000
     0.00000000
     0.00000000
     0.00000000
     0.00000000
     0.00000000
     0.00000000
     0.00000000
     0.00000000
     0.00000000
     0.00000000
     0.00000000
     0.00000000
     0.00000000
     0.00000000
     0.00000000
     0.00000000
     0.00000000
     0.00000000
     0.00000000
     0.00000000
     0.00000000
     0.00000000
     0.00000000
     0.00000000
     0.00000000
     0.00000000
     0.00000000
     0.00000000
     0.00000000
     0.00000000
     0.00000000
     0.00000000
     0.00000000
     0.00000000
     0.00000000
     0.00000000
     0.00000000
     0.00000000
     0.00000000
     0.00000000
     0.00000000
     0.00000000
     0.00000000
     0.00000000
     0.00000000
     0.00000000
     0.00000000
     0.00000000
     0.00000000
     0.00000000
     0.00000000
     0.00000000
     0.00000000
     0.00000000
     0.00000000
     0.00000000
     0.00000000
     0.00000000
     0.00000000
     0.00000000
     0.00000000
     0.00000000
     0.00000000
     0.00000000
     0.00000000
     0.00000000
     0.00000000
     0.00000000
     0.00000000
     0.00000000
     0.00000000
     0.00000000
     0.00000000
     0.00000000
     0.00000000
     0.00000000
     0.00000000
     0.00000000
     0.00000000
     0.00000000
     0.00000000
     0.00000000
     0.00000000
     0.00000000
     0.00000000
     0.00000000
     0.00000000
     0.00000000
     0.00000000
     0.00000000
     0.00000000
     0.00000000
     0.00000000
     0.00000000
     0.00000000
     0.00000000
     0.00000000
     0.00000000
     0.00000000
     0.00000000
     0.00000000
     0.00000000
     0.00000000
     0.00000000
     0.00000000
     0.00000000
     0.00000000
     0.00000000
     0.00000000
     0.00000000
     0.00000000
     0.00000000
     0.00000000
     0.00000000
     0.00000000
     0.00000000
     0.00000000
     0.00000000
     0.00000000
     0.00000000
     0.00000000
     0.00000000
     0.00000000
     0.00000000
     0.00000000
     0.00000000
     0.00000000
     0.00000000
     0.00000000
     0.00000000
     0.00000000
     0.00000000
     0.00000000
     0.00000000
     0.00000000
     0.00000000
     0.00000000
     0.00000000
     0.00000000
     0.00000000
     0.00000000
     0.00000000
     0.00000000
     0.00000000
     0.00000000
     0.00000000
     0.00000000
     0.00000000
     0.00000000
     0.00000000
     0.00000000
     0.00000000
     0.00000000
     0.00000000
     0.00000000
     0.00000000
     0.00000000
     0.00000000
     0.00000000
     0.00000000
     0.00000000
     0.00000000
     0.00000000
     0.00000000
     0.00000000
     0.00000000
     0.00000000
     0.00000000
     0.00000000
     0.00000000
     0.00000000
     0.00000000
     0.00000000
     0.00000000
     0.00000000
     0.00000000
     0.00000000
     0.00000000
     0.00000000
     0.00000000
     0.00000000
     0.00000000
     0.00000000
     0.00000000
     0.00000000
     0.00000000
     0.00000000
     0.00000000
     0.00000000
     0.00000000
     0.00000000
     0.00000000
     0.00000000
     0.00000000
     0.00000000
     0.00000000
     0.00000000
     0.00000000
     0.00000000
     0.00000000
     0.00000000
     0.00000000
     0.00000000
     0.00000000
     0.00000000
     0.00000000
     0.00000000
     0.00000000
     0.00000000
     0.00000000
     0.00000000
     0.00000000
     0.00000000
     0.00000000
     0.00000000
     0.00000000
     0.00000000
     0.00000000
     0.00000000
     0.00000000
     0.00000000
     0.00000000
     0.00000000
     0.00000000
     0.00000000
     0.00000000
     0.00000000
     0.00000000
     0.00000000
     0.00000000
     0.00000000
     0.00000000
     0.00000000
     0.00000000
     0.00000000
     0.00000000
     0.00000000
     0.00000000
     0.00000000
     0.00000000
     0.00000000
     0.00000000
     0.00000000
     0.00000000
     0.00000000
     0.00000000
     0.00000000
     0.00000000
     0.00000000
     0.00000000
     0.00000000
     0.00000000
     0.00000000
     0.00000000
     0.00000000
     0.00000000
     0.00000000
     0.00000000
     0.00000000
     0.00000000
     0.00000000
     0.00000000
     0.00000000
     0.00000000
     0.00000000
     0.00000000
     0.00000000
     0.00000000
     0.00000000
     0.00000000
     0.00000000
     0.00000000
     0.00000000
     0.00000000
     0.00000000
     0.00000000
     0.00000000
     0.00000000
     0.00000000
     0.00000000
     0.00000000
     0.00000000
     0.00000000
     0.00000000
     0.00000000
     0.00000000
     0.00000000
     0.00000000
     0.00000000
     0.00000000
     0.00000000
     0.00000000
     0.00000000
     0.00000000
     0.00000000
     0.00000000
     0.00000000
     0.00000000
     0.00000000
     0.00000000
     0.00000000
     0.00000000
     0.00000000
     0.00000000
     0.00000000
     0.00000000
     0.00000000
     0.00000000
     0.00000000
     0.00000000
     0.00000000
     0.00000000
     0.00000000
     0.00000000
     0.00000000
     0.00000000
     0.00000000
     0.00000000
     0.00000000
     0.00000000
     0.00000000
     0.00000000
     0.00000000
     0.00000000
     0.00000000
     0.00000000
     0.00000000
     0.00000000
     0.00000000
     0.00000000
     0.00000000
     0.00000000
     0.00000000
     0.00000000
     0.00000000
     0.00000000
     0.00000000
     0.00000000
     0.00000000
     0.00000000
     0.00000000
     0.00000000
     0.00000000
     0.00000000
     0.00000000
     0.00000000
     0.00000000
     0.00000000
     0.00000000
     0.00000000
     0.00000000
     0.00000000
     0.00000000
     0.00000000
     0.00000000
     0.00000000
     0.00000000
     0.00000000
     0.00000000
     0.00000000
     0.00000000
     0.00000000
     0.00000000
     0.00000000
     0.00000000
     0.00000000
     0.00000000
     0.00000000
     0.00000000
     0.00000000
     0.00000000
     0.00000000
     0.00000000
     0.00000000
     0.00000000
     0.00000000
     0.00000000
     0.00000000
     0.00000000
     0.00000000
     0.00000000
     0.00000000
     0.00000000
     0.00000000
     0.00000000
     0.00000000
     0.00000000
     0.00000000
     0.00000000
     0.00000000
     0.00000000
     0.00000000
     0.00000000
     0.00000000
     0.00000000
     0.00000000
     0.00000000
     0.00000000
     0.00000000
     0.00000000
     0.00000000
     0.00000000
     0.00000000
     0.00000000
     0.00000000
     0.00000000
     0.00000000
     0.00000000
     0.00000000
     0.00000000
     0.00000000
     0.00000000
     0.00000000
     0.00000000
     0.00000000
     0.00000000
     0.00000000
     0.00000000
     0.00000000
     0.00000000
     0.00000000
     0.00000000
     0.00000000
     0.00000000
     0.00000000
     0.00000000
     0.00000000
     0.00000000
     0.00000000
     0.00000000
     0.00000000
     0.00000000
     0.00000000
     0.00000000
     0.00000000
     0.00000000
     0.00000000
     0.00000000
     0.00000000
     0.00000000
     0.00000000
     0.00000000
     0.00000000
     0.00000000
     0.00000000
     0.00000000
     0.00000000
     0.00000000
     0.00000000
     0.00000000
     0.00000000
     0.00000000
     0.00000000
     0.00000000
     0.00000000
     0.00000000
     0.00000000
     0.00000000
     0.00000000
     0.00000000
     0.00000000
     0.00000000
     0.00000000
     0.00000000
     0.00000000
     0.00000000
     0.00000000
     0.00000000
     0.00000000
     0.00000000
     0.00000000
     0.00000000
     0.00000000
     0.00000000
     0.00000000
     0.00000000
     0.00000000
     0.00000000
     0.00000000
     0.00000000
     0.00000000
     0.00000000
     0.00000000
     0.00000000
     0.00000000
     0.00000000
     0.00000000
     0.00000000
     0.00000000
     0.00000000
     0.00000000
     0.00000000
     0.00000000
     0.00000000
     0.00000000
     0.00000000
     0.00000000
     0.00000000
     0.00000000
     0.00000000
     0.00000000
     0.00000000
     0.00000000
     0.00000000
     0.00000000
     0.00000000
     0.00000000
     0.00000000
     0.00000000
     0.00000000
     0.00000000
     0.00000000
     0.00000000
     0.00000000
     0.00000000
     0.00000000
     0.00000000
     0.00000000
     0.00000000
     0.00000000
     0.00000000
     0.00000000
     0.00000000
     0.00000000
     0.00000000
     0.00000000
     0.00000000
     0.00000000
     0.00000000
     0.00000000
     0.00000000
     0.00000000
     0.00000000
     0.00000000
     0.00000000
     0.00000000
     0.00000000
     0.00000000
     0.00000000
     0.00000000
     0.00000000
     0.00000000
     0.00000000
     0.00000000
     0.00000000
     0.00000000
     0.00000000
     0.00000000
     0.00000000
     0.00000000
     0.00000000
     0.00000000
     0.00000000
     0.00000000
     0.00000000
     0.00000000
     0.00000000
     0.00000000
     0.00000000
     0.00000000
     0.00000000
     0.00000000
     0.00000000
     0.00000000
     0.00000000
     0.00000000
     0.00000000
     0.00000000
     0.00000000
     0.00000000
     0.00000000
     0.00000000
     0.00000000
     0.00000000
     0.00000000
     0.00000000
     0.00000000
     0.00000000
     0.00000000
     0.00000000
     0.00000000
     0.00000000
     0.00000000
     0.00000000
     0.00000000
     0.00000000
     0.00000000
     0.00000000
     0.00000000
     0.00000000
     0.00000000
     0.00000000
     0.00000000
     0.00000000
     0.00000000
     0.00000000
     0.00000000
     0.00000000
     0.00000000
     0.00000000
     0.00000000
     0.00000000
     0.00000000
     0.00000000
     0.00000000
     0.00000000
     0.00000000
     0.00000000
     0.00000000
     0.00000000
     0.00000000
     0.00000000
     0.00000000
     0.00000000
     0.00000000
     0.00000000
     0.00000000
     0.00000000
     0.00000000
     0.00000000
     0.00000000
     0.00000000
     0.00000000
     0.00000000
     0.00000000
     0.00000000
     0.00000000
     0.00000000
     0.00000000
     0.00000000
     0.00000000
     0.00000000
     0.00000000
     0.00000000
     0.00000000
     0.00000000
     0.00000000
     0.00000000
     0.00000000
     0.00000000
     0.00000000
     0.00000000
     0.00000000
     0.00000000
     0.00000000
     0.00000000
     0.00000000
     0.00000000
     0.00000000
     0.00000000
     0.00000000
     0.00000000
     0.00000000
     0.00000000
     0.00000000
     0.00000000
     0.00000000
     0.00000000
     0.00000000
     0.00000000
     0.00000000
     0.00000000
     0.00000000
     0.00000000
     0.00000000
     0.00000000
     0.00000000
     0.00000000
     0.00000000
     0.00000000
     0.00000000
     0.00000000
     0.00000000
     0.00000000
     0.00000000
     0.00000000
     0.00000000
     0.00000000
     0.00000000
     0.00000000
     0.00000000
     0.00000000
     0.00000000
     0.00000000
     0.00000000
     0.00000000
     0.00000000
     0.00000000
     0.00000000
     0.00000000
     0.00000000
     0.00000000
     0.00000000
     0.00000000
     0.00000000
     0.00000000
     0.00000000
     0.00000000
     0.00000000
     0.00000000
     0.00000000
     0.00000000
     0.00000000
     0.00000000
     0.00000000
     0.00000000
     0.00000000
     0.00000000
     0.00000000
     0.00000000
     0.00000000
     0.00000000
     0.00000000
     0.00000000
     0.00000000
     0.00000000
     0.00000000
     0.00000000
     0.00000000
     0.00000000
     0.00000000
     0.00000000
     0.00000000
     0.00000000
     0.00000000
     0.00000000
     0.00000000
     0.00000000
     0.00000000
     0.00000000
     0.00000000
     0.00000000
     0.00000000
     0.00000000
     0.00000000
     0.00000000
     0.00000000
     0.00000000
     0.00000000
     0.00000000
     0.00000000
     0.00000000
     0.00000000
     0.00000000
     0.00000000
     0.00000000
     0.00000000
     0.00000000
     0.00000000
     0.00000000
     0.00000000
     0.00000000
     0.00000000
     0.00000000
     0.00000000
     0.00000000
     0.00000000
     0.00000000
     0.00000000
     0.00000000
     0.00000000
     0.00000000
     0.00000000
     0.00000000
     0.00000000
     0.00000000
     0.00000000
     0.00000000
     0.00000000
     0.00000000
     0.00000000
     0.00000000
     0.00000000
     0.00000000
     0.00000000
     0.00000000
     0.00000000
     0.00000000
     0.00000000
     0.00000000
     0.00000000
     0.00000000
     0.00000000
     0.00000000
     0.00000000
     0.00000000
     0.00000000
     0.00000000
     0.00000000
     0.00000000
     0.00000000
     0.00000000
     0.00000000
     0.00000000
     0.00000000
     0.00000000
     0.00000000
     0.00000000
     0.00000000
     0.00000000
     0.00000000
     0.00000000
     0.00000000
     0.00000000
     0.00000000
     0.00000000
     0.00000000
     0.00000000
     0.00000000
     0.00000000
     0.00000000
     0.00000000
     0.00000000
     0.00000000
     0.00000000
     0.00000000
     0.00000000
     0.00000000
     0.00000000
     0.00000000
     0.00000000
     0.00000000
     0.00000000
     0.00000000
     0.00000000
     0.00000000
     0.00000000
     0.00000000
     0.00000000
     0.00000000
     0.00000000
     0.00000000
     0.00000000
     0.00000000
     0.00000000
     0.00000000
     0.00000000
     0.00000000
     0.00000000
     0.00000000
     0.00000000
     0.00000000
     0.00000000
     0.00000000
     0.00000000
     0.00000000
     0.00000000
     0.00000000
     0.00000000
     0.00000000
     0.00000000
     0.00000000
     0.00000000
     0.00000000
     0.00000000
     0.00000000
     0.00000000
     0.00000000
     0.00000000
     0.00000000
     0.00000000
     0.00000000
     0.00000000
     0.00000000
     0.00000000
     0.00000000
     0.00000000
     0.00000000
     0.00000000
     0.00000000
     0.00000000
     0.00000000
     0.00000000
     0.00000000
     0.00000000
     0.00000000
     0.00000000
     0.00000000
     0.00000000
     0.00000000
     0.00000000
     0.00000000
     0.00000000
     0.00000000
     0.00000000
     0.00000000
     0.00000000
     0.00000000
     0.00000000
     0.00000000
     0.00000000
     0.00000000
     0.00000000
     0.00000000
     0.00000000
     0.00000000
     0.00000000
     0.00000000
     0.00000000
     0.00000000
     0.00000000
     0.00000000
     0.00000000
     0.00000000
     0.00000000
     0.00000000
     0.00000000
     0.00000000
     0.00000000
     0.00000000
     0.00000000
     0.00000000
     0.00000000
     0.00000000
     0.00000000
     0.00000000
     0.00000000
     0.00000000
     0.00000000
     0.00000000
     0.00000000
     0.00000000
     0.00000000
     0.00000000
     0.00000000
     0.00000000
     0.00000000
     0.00000000
     0.00000000
     0.00000000
     0.00000000
     0.00000000
     0.00000000
     0.00000000
     0.00000000
     0.00000000
     0.00000000
     0.00000000
     0.00000000
     0.00000000
     0.00000000
     0.00000000
     0.00000000
     0.00000000
     0.00000000
     0.00000000
     0.00000000
     0.00000000
     0.00000000
     0.00000000
     0.00000000
     0.00000000
     0.00000000
     0.00000000
     0.00000000
     0.00000000
     0.00000000
     0.00000000
     0.00000000
     0.00000000
     0.00000000
     0.00000000
     0.00000000
     0.00000000
     0.00000000
     0.00000000
     0.00000000
     0.00000000
     0.00000000
     0.00000000
     0.00000000
     0.00000000
     0.00000000
     0.00000000
     0.00000000
     0.00000000
     0.00000000
     0.00000000
     0.00000000
     0.00000000
     0.00000000
     0.00000000
     0.00000000
     0.00000000
     0.00000000
     0.00000000
     0.00000000
     0.00000000
     0.00000000
     0.00000000
     0.00000000
     0.00000000
     0.00000000
     0.00000000
     0.00000000
     0.00000000
     0.00000000
     0.00000000
     0.00000000
     0.00000000
     0.00000000
     0.00000000
     0.00000000
     0.00000000
     0.00000000
     0.00000000
     0.00000000
     0.00000000
     0.00000000
     0.00000000
     0.00000000
     0.00000000
     0.00000000
     0.00000000
     0.00000000
     0.00000000
     0.00000000
     0.00000000
     0.00000000
     0.00000000
     0.00000000
     0.00000000
     0.00000000
     0.00000000
     0.00000000
     0.00000000
     0.00000000
     0.00000000
     0.00000000
     0.00000000
     0.00000000
     0.00000000
     0.00000000
     0.00000000
     0.00000000
     0.00000000
     0.00000000
     0.00000000
     0.00000000
     0.00000000
     0.00000000
     0.00000000
     0.00000000
     0.00000000
     0.00000000
     0.00000000
     0.00000000
     0.00000000
     0.00000000
VECTORS ShearStress float 
     0.00000000     0.00000000     0.00000000
     0.00000000     0.00000000     0.00000000
     0.00000000     0.00000000     0.00000000
     0.00000000     0.00000000     0.00000000
     0.00000000     0.00000000     0.00000000
     0.00000000     0.00000000     0.00000000
     0.00000000     0.00000000     0.00000000
     0.00000000     0.00000000     0.00000000
     0.00000000     0.00000000     0.00000000
     0.00000000     0.00000000     0.00000000
     0.00000000     0.00000000     0.00000000
     0.00000000     0.00000000     0.00000000
     0.00000000     0.00000000     0.00000000
     0.00000000     0.00000000     0.00000000
     0.00000000     0.00000000     0.00000000
     0.00000000     0.00000000     0.00000000
     0.00000000     0.00000000     0.00000000
     0.00000000     0.00000000     0.00000000
     0.00000000     0.00000000     0.00000000
     0.00000000     0.00000000     0.00000000
     0.00000000     0.00000000     0.00000000
     0.00000000     0.00000000     0.00000000
     0.00000000     0.00000000     0.00000000
     0.00000000     0.00000000     0.00000000
     0.00000000     0.00000000     0.00000000
     0.00000000     0.00000000     0.00000000
     0.00000000     0.00000000     0.00000000
     0.00000000     0.00000000     0.00000000
     0.00000000     0.00000000     0.00000000
     0.00000000     0.00000000     0.00000000
     0.00000000     0.00000000     0.00000000
     0.00000000     0.00000000     0.00000000
     0.00000000     0.00000000     0.00000000
     0.00000000     0.00000000     0.00000000
     0.00000000     0.00000000     0.00000000
     0.00000000     0.00000000     0.00000000
     0.00000000     0.00000000     0.00000000
     0.00000000     0.00000000     0.00000000
     0.00000000     0.00000000     0.00000000
     0.00000000     0.00000000     0.00000000
     0.00000000     0.00000000     0.00000000
     0.00000000     0.00000000     0.00000000
     0.00000000     0.00000000     0.00000000
     0.00000000     0.00000000     0.00000000
     0.00000000     0.00000000     0.00000000
     0.00000000     0.00000000     0.00000000
     0.00000000     0.00000000     0.00000000
     0.00000000     0.00000000     0.00000000
     0.00000000     0.00000000     0.00000000
     0.00000000     0.00000000     0.00000000
     0.00000000     0.00000000     0.00000000
     0.00000000     0.00000000     0.00000000
     0.00000000     0.00000000     0.00000000
     0.00000000     0.00000000     0.00000000
     0.00000000     0.00000000     0.00000000
     0.00000000     0.00000000     0.00000000
     0.00000000     0.00000000     0.00000000
     0.00000000     0.00000000     0.00000000
     0.00000000     0.00000000     0.00000000
     0.00000000     0.00000000     0.00000000
     0.00000000     0.00000000     0.00000000
     0.00000000     0.00000000     0.00000000
     0.00000000     0.00000000     0.00000000
     0.00000000     0.00000000     0.00000000
     0.00000000     0.00000000     0.00000000
     0.00000000     0.00000000     0.00000000
     0.00000000     0.00000000     0.00000000
     0.00000000     0.00000000     0.00000000
     0.00000000     0.00000000     0.00000000
     0.00000000     0.00000000     0.00000000
     0.00000000     0.00000000     0.00000000
     0.00000000     0.00000000     0.00000000
     0.00000000     0.00000000     0.00000000
     0.00000000     0.00000000     0.00000000
     0.00000000     0.00000000     0.00000000
     0.00000000     0.00000000     0.00000000
     0.00000000     0.00000000     0.00000000
     0.00000000     0.00000000     0.00000000
     0.00000000     0.00000000     0.00000000
     0.00000000     0.00000000     0.00000000
     0.00000000     0.00000000     0.00000000
     0.00000000     0.00000000     0.00000000
     0.00000000     0.00000000     0.00000000
     0.00000000     0.00000000     0.00000000
     0.00000000     0.00000000     0.00000000
     0.00000000     0.00000000     0.00000000
     0.00000000     0.00000000     0.00000000
     0.00000000     0.00000000     0.00000000
     0.00000000     0.00000000     0.00000000
     0.00000000     0.00000000     0.00000000
     0.00000000     0.00000000     0.00000000
     0.00000000     0.00000000     0.00000000
     0.00000000     0.00000000     0.00000000
     0.00000000     0.00000000     0.00000000
     0.00000000     0.00000000     0.00000000
     0.00000000     0.00000000     0.00000000
     0.00000000     0.00000000     0.00000000
     0.00000000     0.00000000     0.00000000
     0.00000000     0.00000000     0.00000000
     0.00000000     0.00000000     0.00000000
     0.00000000     0.00000000     0.00000000
     0.00000000     0.00000000     0.00000000
     0.00000000     0.00000000     0.00000000
     0.00000000     0.00000000     0.00000000
     0.00000000     0.00000000     0.00000000
     0.00000000     0.00000000     0.00000000
     0.00000000     0.00000000     0.00000000
     0.00000000     0.00000000     0.00000000
     0.00000000     0.00000000     0.00000000
     0.00000000     0.00000000     0.00000000
     0.00000000     0.00000000     0.00000000
     0.00000000     0.00000000     0.00000000
     0.00000000     0.00000000     0.00000000
     0.00000000     0.00000000     0.00000000
     0.00000000     0.00000000     0.00000000
     0.00000000     0.00000000     0.00000000
     0.00000000     0.00000000     0.00000000
     0.00000000     0.00000000     0.00000000
     0.00000000     0.00000000     0.00000000
     0.00000000     0.00000000     0.00000000
     0.00000000     0.00000000     0.00000000
     0.00000000     0.00000000     0.00000000
     0.00000000     0.00000000     0.00000000
     0.00000000     0.00000000     0.00000000
     0.00000000     0.00000000     0.00000000
     0.00000000     0.00000000     0.00000000
     0.00000000     0.00000000     0.00000000
     0.00000000     0.00000000     0.00000000
     0.00000000     0.00000000     0.00000000
     0.00000000     0.00000000     0.00000000
     0.00000000     0.00000000     0.00000000
     0.00000000     0.00000000     0.00000000
     0.00000000     0.00000000     0.00000000
     0.00000000     0.00000000     0.00000000
     0.00000000     0.00000000     0.00000000
     0.00000000     0.00000000     0.00000000
     0.00000000     0.00000000     0.00000000
     0.00000000     0.00000000     0.00000000
     0.00000000     0.00000000     0.00000000
     0.00000000     0.00000000     0.00000000
     0.00000000     0.00000000     0.00000000
     0.00000000     0.00000000     0.00000000
     0.00000000     0.00000000     0.00000000
     0.00000000     0.00000000     0.00000000
     0.00000000     0.00000000     0.00000000
     0.00000000     0.00000000     0.00000000
     0.00000000     0.00000000     0.00000000
     0.00000000     0.00000000     0.00000000
     0.00000000     0.00000000     0.00000000
     0.00000000     0.00000000     0.00000000
     0.00000000     0.00000000     0.00000000
     0.00000000     0.00000000     0.00000000
     0.00000000     0.00000000     0.00000000
     0.00000000     0.00000000     0.00000000
     0.00000000     0.00000000     0.00000000
     0.00000000     0.00000000     0.00000000
     0.00000000     0.00000000     0.00000000
     0.00000000     0.00000000     0.00000000
     0.00000000     0.00000000     0.00000000
     0.00000000     0.00000000     0.00000000
     0.00000000     0.00000000     0.00000000
     0.00000000     0.00000000     0.00000000
     0.00000000     0.00000000     0.00000000
     0.00000000     0.00000000     0.00000000
     0.00000000     0.00000000     0.00000000
     0.00000000     0.00000000     0.00000000
     0.00000000     0.00000000     0.00000000
     0.00000000     0.00000000     0.00000000
     0.00000000     0.00000000     0.00000000
     0.00000000     0.00000000     0.00000000
     0.00000000     0.00000000     0.00000000
     0.00000000     0.00000000     0.00000000
     0.00000000     0.00000000     0.00000000
     0.00000000     0.00000000     0.00000000
     0.00000000     0.00000000     0.00000000
     0.00000000     0.00000000     0.00000000
     0.00000000     0.00000000     0.00000000
     0.00000000     0.00000000     0.00000000
     0.00000000     0.00000000     0.00000000
     0.00000000     0.00000000     0.00000000
     0.00000000     0.00000000     0.00000000
     0.00000000     0.00000000     0.00000000
     0.00000000     0.00000000     0.00000000
     0.00000000     0.00000000     0.00000000
     0.00000000     0.00000000     0.00000000
     0.00000000     0.00000000     0.00000000
     0.00000000     0.00000000     0.00000000
     0.00000000     0.00000000     0.00000000
     0.00000000     0.00000000     0.00000000
     0.00000000     0.00000000     0.00000000
     0.00000000     0.00000000     0.00000000
     0.00000000     0.00000000     0.00000000
     0.00000000     0.00000000     0.00000000
     0.00000000     0.00000000     0.00000000
     0.00000000     0.00000000     0.00000000
     0.00000000     0.00000000     0.00000000
     0.00000000     0.00000000     0.00000000
     0.00000000     0.00000000     0.00000000
     0.00000000     0.00000000     0.00000000
     0.00000000     0.00000000     0.00000000
     0.00000000     0.00000000     0.00000000
     0.00000000     0.00000000     0.00000000
     0.00000000     0.00000000     0.00000000
     0.00000000     0.00000000     0.00000000
     0.00000000     0.00000000     0.00000000
     0.00000000     0.00000000     0.00000000
     0.00000000     0.00000000     0.00000000
     0.00000000     0.00000000     0.00000000
     0.00000000     0.00000000     0.00000000
     0.00000000     0.00000000     0.00000000
     0.00000000     0.00000000     0.00000000
     0.00000000     0.00000000     0.00000000
     0.00000000     0.00000000     0.00000000
     0.00000000     0.00000000     0.00000000
     0.00000000     0.00000000     0.00000000
     0.00000000     0.00000000     0.00000000
     0.00000000     0.00000000     0.00000000
     0.00000000     0.00000000     0.00000000
     0.00000000     0.00000000     0.00000000
     0.00000000     0.00000000     0.00000000
     0.00000000     0.00000000     0.00000000
     0.00000000     0.00000000     0.00000000
     0.00000000     0.00000000     0.00000000
     0.00000000     0.00000000     0.00000000
     0.00000000     0.00000000     0.00000000
     0.00000000     0.00000000     0.00000000
     0.00000000     0.00000000     0.00000000
     0.00000000     0.00000000     0.00000000
     0.00000000     0.00000000     0.00000000
     0.00000000     0.00000000     0.00000000
     0.00000000     0.00000000     0.00000000
     0.00000000     0.00000000     0.00000000
     0.00000000     0.00000000     0.00000000
     0.00000000     0.00000000     0.00000000
     0.00000000     0.00000000     0.00000000
     0.00000000     0.00000000     0.00000000
     0.00000000     0.00000000     0.00000000
     0.00000000     0.00000000     0.00000000
     0.00000000     0.00000000     0.00000000
     0.00000000     0.00000000     0.00000000
     0.00000000     0.00000000     0.00000000
     0.00000000     0.00000000     0.00000000
     0.00000000     0.00000000     0.00000000
     0.00000000     0.00000000     0.00000000
     0.00000000     0.00000000     0.00000000
     0.00000000     0.00000000     0.00000000
     0.00000000     0.00000000     0.00000000
     0.00000000     0.00000000     0.00000000
     0.00000000     0.00000000     0.00000000
     0.00000000     0.00000000     0.00000000
     0.00000000     0.00000000     0.00000000
     0.00000000     0.00000000     0.00000000
     0.00000000     0.00000000     0.00000000
     0.00000000     0.00000000     0.00000000
     0.00000000     0.00000000     0.00000000
     0.00000000     0.00000000     0.00000000
     0.00000000     0.00000000     0.00000000
     0.00000000     0.00000000     0.00000000
     0.00000000     0.00000000     0.00000000
     0.00000000     0.00000000     0.00000000
     0.00000000     0.00000000     0.00000000
     0.00000000     0.00000000     0.00000000
     0.00000000     0.00000000     0.00000000
     0.00000000     0.00000000     0.00000000
     0.00000000     0.00000000     0.00000000
     0.00000000     0.00000000     0.00000000
     0.00000000     0.00000000     0.00000000
     0.00000000     0.00000000     0.00000000
     0.00000000     0.00000000     0.00000000
     0.00000000     0.00000000     0.00000000
     0.00000000     0.00000000     0.00000000
     0.00000000     0.00000000     0.00000000
     0.00000000     0.00000000     0.00000000
     0.00000000     0.00000000     0.00000000
     0.00000000     0.00000000     0.00000000
     0.00000000     0.00000000     0.00000000
     0.00000000     0.00000000     0.00000000
     0.00000000     0.00000000     0.00000000
     0.00000000     0.00000000     0.00000000
     0.00000000     0.00000000     0.00000000
     0.00000000     0.00000000     0.00000000
     0.00000000     0.00000000     0.00000000
     0.00000000     0.00000000     0.00000000
     0.00000000     0.00000000     0.00000000
     0.00000000     0.00000000     0.00000000
     0.00000000     0.00000000     0.00000000
     0.00000000     0.00000000     0.00000000
     0.00000000     0.00000000     0.00000000
     0.00000000     0.00000000     0.00000000
     0.00000000     0.00000000     0.00000000
     0.00000000     0.00000000     0.00000000
     0.00000000     0.00000000     0.00000000
     0.00000000     0.00000000     0.00000000
     0.00000000     0.00000000     0.00000000
     0.00000000     0.00000000     0.00000000
     0.00000000     0.00000000     0.00000000
     0.00000000     0.00000000     0.00000000
     0.00000000     0.00000000     0.00000000
     0.00000000     0.00000000     0.00000000
     0.00000000     0.00000000     0.00000000
     0.00000000     0.00000000     0.00000000
     0.00000000     0.00000000     0.00000000
     0.00000000     0.00000000     0.00000000
     0.00000000     0.00000000     0.00000000
     0.00000000     0.00000000     0.00000000
     0.00000000     0.00000000     0.00000000
     0.00000000     0.00000000     0.00000000
     0.00000000     0.00000000     0.00000000
     0.00000000     0.00000000     0.00000000
     0.00000000     0.00000000     0.00000000
     0.00000000     0.00000000     0.00000000
     0.00000000     0.00000000     0.00000000
     0.00000000     0.00000000     0.00000000
     0.00000000     0.00000000     0.00000000
     0.00000000     0.00000000     0.00000000
     0.00000000     0.00000000     0.00000000
     0.00000000     0.00000000     0.00000000
     0.00000000     0.00000000     0.00000000
     0.00000000     0.00000000     0.00000000
     0.00000000     0.00000000     0.00000000
     0.00000000     0.00000000     0.00000000
     0.00000000     0.00000000     0.00000000
     0.00000000     0.00000000     0.00000000
     0.00000000     0.00000000     0.00000000
     0.00000000     0.00000000     0.00000000
     0.00000000     0.00000000     0.00000000
     0.00000000     0.00000000     0.00000000
     0.00000000     0.00000000     0.00000000
     0.00000000     0.00000000     0.00000000
     0.00000000     0.00000000     0.00000000
     0.00000000     0.00000000     0.00000000
     0.00000000     0.00000000     0.00000000
     0.00000000     0.00000000     0.00000000
     0.00000000     0.00000000     0.00000000
     0.00000000     0.00000000     0.00000000
     0.00000000     0.00000000     0.00000000
     0.00000000     0.00000000     0.00000000
     0.00000000     0.00000000     0.00000000
     0.00000000     0.00000000     0.00000000
     0.00000000     0.00000000     0.00000000
     0.00000000     0.00000000     0.00000000
     0.00000000     0.00000000     0.00000000
     0.00000000     0.00000000     0.00000000
     0.00000000     0.00000000     0.00000000
     0.00000000     0.00000000     0.00000000
     0.00000000     0.00000000     0.00000000
     0.00000000     0.00000000     0.00000000
     0.00000000     0.00000000     0.00000000
     0.00000000     0.00000000     0.00000000
     0.00000000     0.00000000     0.00000000
     0.00000000     0.00000000     0.00000000
     0.00000000     0.00000000     0.00000000
     0.00000000     0.00000000     0.00000000
     0.00000000     0.00000000     0.00000000
     0.00000000     0.00000000     0.00000000
     0.00000000     0.00000000     0.00000000
     0.00000000     0.00000000     0.00000000
     0.00000000     0.00000000     0.00000000
     0.00000000     0.00000000     0.00000000
     0.00000000     0.00000000     0.00000000
     0.00000000     0.00000000     0.00000000
     0.00000000     0.00000000     0.00000000
     0.00000000     0.00000000     0.00000000
     0.00000000     0.00000000     0.00000000
     0.00000000     0.00000000     0.00000000
     0.00000000     0.00000000     0.00000000
     0.00000000     0.00000000     0.00000000
     0.00000000     0.00000000     0.00000000
     0.00000000     0.00000000     0.00000000
     0.00000000     0.00000000     0.00000000
     0.00000000     0.00000000     0.00000000
     0.00000000     0.00000000     0.00000000
     0.00000000     0.00000000     0.00000000
     0.00000000     0.00000000     0.00000000
     0.00000000     0.00000000     0.00000000
     0.00000000     0.00000000     0.00000000
     0.00000000     0.00000000     0.00000000
     0.00000000     0.00000000     0.00000000
     0.00000000     0.00000000     0.00000000
     0.00000000     0.00000000     0.00000000
     0.00000000     0.00000000     0.00000000
     0.00000000     0.00000000     0.00000000
     0.00000000     0.00000000     0.00000000
     0.00000000     0.00000000     0.00000000
     0.00000000     0.00000000     0.00000000
     0.00000000     0.00000000     0.00000000
     0.00000000     0.00000000     0.00000000
     0.00000000     0.00000000     0.00000000
     0.00000000     0.00000000     0.00000000
     0.00000000     0.00000000     0.00000000
     0.00000000     0.00000000     0.00000000
     0.00000000     0.00000000     0.00000000
     0.00000000     0.00000000     0.00000000
     0.00000000     0.00000000     0.00000000
     0.00000000     0.00000000     0.00000000
     0.00000000     0.00000000     0.00000000
     0.00000000     0.00000000     0.00000000
     0.00000000     0.00000000     0.00000000
     0.00000000     0.00000000     0.00000000
     0.00000000     0.00000000     0.00000000
     0.00000000     0.00000000     0.00000000
     0.00000000     0.00000000     0.00000000
     0.00000000     0.00000000     0.00000000
     0.00000000     0.00000000     0.00000000
     0.00000000     0.00000000     0.00000000
     0.00000000     0.00000000     0.00000000
     0.00000000     0.00000000     0.00000000
     0.00000000     0.00000000     0.00000000
     0.00000000     0.00000000     0.00000000
     0.00000000     0.00000000     0.00000000
     0.00000000     0.00000000     0.00000000
     0.00000000     0.00000000     0.00000000
     0.00000000     0.00000000     0.00000000
     0.00000000     0.00000000     0.00000000
     0.00000000     0.00000000     0.00000000
     0.00000000     0.00000000     0.00000000
     0.00000000     0.00000000     0.00000000
     0.00000000     0.00000000     0.00000000
     0.00000000     0.00000000     0.00000000
     0.00000000     0.00000000     0.00000000
     0.00000000     0.00000000     0.00000000
     0.00000000     0.00000000     0.00000000
     0.00000000     0.00000000     0.00000000
     0.00000000     0.00000000     0.00000000
     0.00000000     0.00000000     0.00000000
     0.00000000     0.00000000     0.00000000
     0.00000000     0.00000000     0.00000000
     0.00000000     0.00000000     0.00000000
     0.00000000     0.00000000     0.00000000
     0.00000000     0.00000000     0.00000000
     0.00000000     0.00000000     0.00000000
     0.00000000     0.00000000     0.00000000
     0.00000000     0.00000000     0.00000000
     0.00000000     0.00000000     0.00000000
     0.00000000     0.00000000     0.00000000
     0.00000000     0.00000000     0.00000000
     0.00000000     0.00000000     0.00000000
     0.00000000     0.00000000     0.00000000
     0.00000000     0.00000000     0.00000000
     0.00000000     0.00000000     0.00000000
     0.00000000     0.00000000     0.00000000
     0.00000000     0.00000000     0.00000000
     0.00000000     0.00000000     0.00000000
     0.00000000     0.00000000     0.00000000
     0.00000000     0.00000000     0.00000000
     0.00000000     0.00000000     0.00000000
     0.00000000     0.00000000     0.00000000
     0.00000000     0.00000000     0.00000000
     0.00000000     0.00000000     0.00000000
     0.00000000     0.00000000     0.00000000
     0.00000000     0.00000000     0.00000000
     0.00000000     0.00000000     0.00000000
     0.00000000     0.00000000     0.00000000
     0.00000000     0.00000000     0.00000000
     0.00000000     0.00000000     0.00000000
     0.00000000     0.00000000     0.00000000
     0.00000000     0.00000000     0.00000000
     0.00000000     0.00000000     0.00000000
     0.00000000     0.00000000     0.00000000
     0.00000000     0.00000000     0.00000000
     0.00000000     0.00000000     0.00000000
     0.00000000     0.00000000     0.00000000
     0.00000000     0.00000000     0.00000000
     0.00000000     0.00000000     0.00000000
     0.00000000     0.00000000     0.00000000
     0.00000000     0.00000000     0.00000000
     0.00000000     0.00000000     0.00000000
     0.00000000     0.00000000     0.00000000
     0.00000000     0.00000000     0.00000000
     0.00000000     0.00000000     0.00000000
     0.00000000     0.00000000     0.00000000
     0.00000000     0.00000000     0.00000000
     0.00000000     0.00000000     0.00000000
     0.00000000     0.00000000     0.00000000
     0.00000000     0.00000000     0.00000000
     0.00000000     0.00000000     0.00000000
     0.00000000     0.00000000     0.00000000
     0.00000000     0.00000000     0.00000000
     0.00000000     0.00000000     0.00000000
     0.00000000     0.00000000     0.00000000
     0.00000000     0.00000000     0.00000000
     0.00000000     0.00000000     0.00000000
     0.00000000     0.00000000     0.00000000
     0.00000000     0.00000000     0.00000000
     0.00000000     0.00000000     0.00000000
     0.00000000     0.00000000     0.00000000
     0.00000000     0.00000000     0.00000000
     0.00000000     0.00000000     0.00000000
     0.00000000     0.00000000     0.00000000
     0.00000000     0.00000000     0.00000000
     0.00000000     0.00000000     0.00000000
     0.00000000     0.00000000     0.00000000
     0.00000000     0.00000000     0.00000000
     0.00000000     0.00000000     0.00000000
     0.00000000     0.00000000     0.00000000
     0.00000000     0.00000000     0.00000000
     0.00000000     0.00000000     0.00000000
     0.00000000     0.00000000     0.00000000
     0.00000000     0.00000000     0.00000000
     0.00000000     0.00000000     0.00000000
     0.00000000     0.00000000     0.00000000
     0.00000000     0.00000000     0.00000000
     0.00000000     0.00000000     0.00000000
     0.00000000     0.00000000     0.00000000
     0.00000000     0.00000000     0.00000000
     0.00000000     0.00000000     0.00000000
     0.00000000     0.00000000     0.00000000
     0.00000000     0.00000000     0.00000000
     0.00000000     0.00000000     0.00000000
     0.00000000     0.00000000     0.00000000
     0.00000000     0.00000000     0.00000000
     0.00000000     0.00000000     0.00000000
     0.00000000     0.00000000     0.00000000
     0.00000000     0.00000000     0.00000000
     0.00000000     0.00000000     0.00000000
     0.00000000     0.00000000     0.00000000
     0.00000000     0.00000000     0.00000000
     0.00000000     0.00000000     0.00000000
     0.00000000     0.00000000     0.00000000
     0.00000000     0.00000000     0.00000000
     0.00000000     0.00000000     0.00000000
     0.00000000     0.00000000     0.00000000
     0.00000000     0.00000000     0.00000000
     0.00000000     0.00000000     0.00000000
     0.00000000     0.00000000     0.00000000
     0.00000000     0.00000000     0.00000000
     0.00000000     0.00000000     0.00000000
     0.00000000     0.00000000     0.00000000
     0.00000000     0.00000000     0.00000000
     0.00000000     0.00000000     0.00000000
     0.00000000     0.00000000     0.00000000
     0.00000000     0.00000000     0.00000000
     0.00000000     0.00000000     0.00000000
     0.00000000     0.00000000     0.00000000
     0.00000000     0.00000000     0.00000000
     0.00000000     0.00000000     0.00000000
     0.00000000     0.00000000     0.00000000
     0.00000000     0.00000000     0.00000000
     0.00000000     0.00000000     0.00000000
     0.00000000     0.00000000     0.00000000
     0.00000000     0.00000000     0.00000000
     0.00000000     0.00000000     0.00000000
     0.00000000     0.00000000     0.00000000
     0.00000000     0.00000000     0.00000000
     0.00000000     0.00000000     0.00000000
     0.00000000     0.00000000     0.00000000
     0.00000000     0.00000000     0.00000000
     0.00000000     0.00000000     0.00000000
     0.00000000     0.00000000     0.00000000
     0.00000000     0.00000000     0.00000000
     0.00000000     0.00000000     0.00000000
     0.00000000     0.00000000     0.00000000
     0.00000000     0.00000000     0.00000000
     0.00000000     0.00000000     0.00000000
     0.00000000     0.00000000     0.00000000
     0.00000000     0.00000000     0.00000000
     0.00000000     0.00000000     0.00000000
     0.00000000     0.00000000     0.00000000
     0.00000000     0.00000000     0.00000000
     0.00000000     0.00000000     0.00000000
     0.00000000     0.00000000     0.00000000
     0.00000000     0.00000000     0.00000000
     0.00000000     0.00000000     0.00000000
     0.00000000     0.00000000     0.00000000
     0.00000000     0.00000000     0.00000000
     0.00000000     0.00000000     0.00000000
     0.00000000     0.00000000     0.00000000
     0.00000000     0.00000000     0.00000000
     0.00000000     0.00000000     0.00000000
     0.00000000     0.00000000     0.00000000
     0.00000000     0.00000000     0.00000000
     0.00000000     0.00000000     0.00000000
     0.00000000     0.00000000     0.00000000
     0.00000000     0.00000000     0.00000000
     0.00000000     0.00000000     0.00000000
     0.00000000     0.00000000     0.00000000
     0.00000000     0.00000000     0.00000000
     0.00000000     0.00000000     0.00000000
     0.00000000     0.00000000     0.00000000
     0.00000000     0.00000000     0.00000000
     0.00000000     0.00000000     0.00000000
     0.00000000     0.00000000     0.00000000
     0.00000000     0.00000000     0.00000000
     0.00000000     0.00000000     0.00000000
     0.00000000     0.00000000     0.00000000
     0.00000000     0.00000000     0.00000000
     0.00000000     0.00000000     0.00000000
     0.00000000     0.00000000     0.00000000
     0.00000000     0.00000000     0.00000000
     0.00000000     0.00000000     0.00000000
     0.00000000     0.00000000     0.00000000
     0.00000000     0.00000000     0.00000000
     0.00000000     0.00000000     0.00000000
     0.00000000     0.00000000     0.00000000
     0.00000000     0.00000000     0.00000000
     0.00000000     0.00000000     0.00000000
     0.00000000     0.00000000     0.00000000
     0.00000000     0.00000000     0.00000000
     0.00000000     0.00000000     0.00000000
     0.00000000     0.00000000     0.00000000
     0.00000000     0.00000000     0.00000000
     0.00000000     0.00000000     0.00000000
     0.00000000     0.00000000     0.00000000
     0.00000000     0.00000000     0.00000000
     0.00000000     0.00000000     0.00000000
     0.00000000     0.00000000     0.00000000
     0.00000000     0.00000000     0.00000000
     0.00000000     0.00000000     0.00000000
     0.00000000     0.00000000     0.00000000
     0.00000000     0.00000000     0.00000000
     0.00000000     0.00000000     0.00000000
     0.00000000     0.00000000     0.00000000
     0.00000000     0.00000000     0.00000000
     0.00000000     0.00000000     0.00000000
     0.00000000     0.00000000     0.00000000
     0.00000000     0.00000000     0.00000000
     0.00000000     0.00000000     0.00000000
     0.00000000     0.00000000     0.00000000
     0.00000000     0.00000000     0.00000000
     0.00000000     0.00000000     0.00000000
     0.00000000     0.00000000     0.00000000
     0.00000000     0.00000000     0.00000000
     0.00000000     0.00000000     0.00000000
     0.00000000     0.00000000     0.00000000
     0.00000000     0.00000000     0.00000000
     0.00000000     0.00000000     0.00000000
     0.00000000     0.00000000     0.00000000
     0.00000000     0.00000000     0.00000000
     0.00000000     0.00000000     0.00000000
     0.00000000     0.00000000     0.00000000
     0.00000000     0.00000000     0.00000000
     0.00000000     0.00000000     0.00000000
     0.00000000     0.00000000     0.00000000
     0.00000000     0.00000000     0.00000000
     0.00000000     0.00000000     0.00000000
     0.00000000     0.00000000     0.00000000
     0.00000000     0.00000000     0.00000000
     0.00000000     0.00000000     0.00000000
     0.00000000     0.00000000     0.00000000
     0.00000000     0.00000000     0.00000000
     0.00000000     0.00000000     0.00000000
     0.00000000     0.00000000     0.00000000
     0.00000000     0.00000000     0.00000000
     0.00000000     0.00000000     0.00000000
     0.00000000     0.00000000     0.00000000
     0.00000000     0.00000000     0.00000000
     0.00000000     0.00000000     0.00000000
     0.00000000     0.00000000     0.00000000
     0.00000000     0.00000000     0.00000000
     0.00000000     0.00000000     0.00000000
     0.00000000     0.00000000     0.00000000
     0.00000000     0.00000000     0.00000000
     0.00000000     0.00000000     0.00000000
     0.00000000     0.00000000     0.00000000
     0.00000000     0.00000000     0.00000000
     0.00000000     0.00000000     0.00000000
     0.00000000     0.00000000     0.00000000
     0.00000000     0.00000000     0.00000000
     0.00000000     0.00000000     0.00000000
     0.00000000     0.00000000     0.00000000
     0.00000000     0.00000000     0.00000000
     0.00000000     0.00000000     0.00000000
     0.00000000     0.00000000     0.00000000
     0.00000000     0.00000000     0.00000000
     0.00000000     0.00000000     0.00000000
     0.00000000     0.00000000     0.00000000
     0.00000000     0.00000000     0.00000000
     0.00000000     0.00000000     0.00000000
     0.00000000     0.00000000     0.00000000
     0.00000000     0.00000000     0.00000000
     0.00000000     0.00000000     0.00000000
     0.00000000     0.00000000     0.00000000
     0.00000000     0.00000000     0.00000000
     0.00000000     0.00000000     0.00000000
     0.00000000     0.00000000     0.00000000
     0.00000000     0.00000000     0.00000000
     0.00000000     0.00000000     0.00000000
     0.00000000     0.00000000     0.00000000
     0.00000000     0.00000000     0.00000000
     0.00000000     0.00000000     0.00000000
     0.00000000     0.00000000     0.00000000
     0.00000000     0.00000000     0.00000000
     0.00000000     0.00000000     0.00000000
     0.00000000     0.00000000     0.00000000
     0.00000000     0.00000000     0.00000000
     0.00000000     0.00000000     0.00000000
     0.00000000     0.00000000     0.00000000
     0.00000000     0.00000000     0.00000000
     0.00000000     0.00000000     0.00000000
     0.00000000     0.00000000     0.00000000
     0.00000000     0.00000000     0.00000000
     0.00000000     0.00000000     0.00000000
     0.00000000     0.00000000     0.00000000
     0.00000000     0.00000000     0.00000000
     0.00000000     0.00000000     0.00000000
     0.00000000     0.00000000     0.00000000
     0.00000000     0.00000000     0.00000000
     0.00000000     0.00000000     0.00000000
     0.00000000     0.00000000     0.00000000
     0.00000000     0.00000000     0.00000000
     0.00000000     0.00000000     0.00000000
     0.00000000     0.00000000     0.00000000
     0.00000000     0.00000000     0.00000000
     0.00000000     0.00000000     0.00000000
     0.00000000     0.00000000     0.00000000
     0.00000000     0.00000000     0.00000000
     0.00000000     0.00000000     0.00000000
     0.00000000     0.00000000     0.00000000
     0.00000000     0.00000000     0.00000000
     0.00000000     0.00000000     0.00000000
     0.00000000     0.00000000     0.00000000
     0.00000000     0.00000000     0.00000000
     0.00000000     0.00000000     0.00000000
     0.00000000     0.00000000     0.00000000
     0.00000000     0.00000000     0.00000000
     0.00000000     0.00000000     0.00000000
     0.00000000     0.00000000     0.00000000
     0.00000000     0.00000000     0.00000000
     0.00000000     0.00000000     0.00000000
     0.00000000     0.00000000     0.00000000
     0.00000000     0.00000000     0.00000000
     0.00000000     0.00000000     0.00000000
     0.00000000     0.00000000     0.00000000
     0.00000000     0.00000000     0.00000000
     0.00000000     0.00000000     0.00000000
     0.00000000     0.00000000     0.00000000
     0.00000000     0.00000000     0.00000000
     0.00000000     0.00000000     0.00000000
     0.00000000     0.00000000     0.00000000
     0.00000000     0.00000000     0.00000000
     0.00000000     0.00000000     0.00000000
     0.00000000     0.00000000     0.00000000
     0.00000000     0.00000000     0.00000000
     0.00000000     0.00000000     0.00000000
     0.00000000     0.00000000     0.00000000
     0.00000000     0.00000000     0.00000000
     0.00000000     0.00000000     0.00000000
     0.00000000     0.00000000     0.00000000
     0.00000000     0.00000000     0.00000000
     0.00000000     0.00000000     0.00000000
     0.00000000     0.00000000     0.00000000
     0.00000000     0.00000000     0.00000000
     0.00000000     0.00000000     0.00000000
     0.00000000     0.00000000     0.00000000
     0.00000000     0.00000000     0.00000000
     0.00000000     0.00000000     0.00000000
     0.00000000     0.00000000     0.00000000
     0.00000000     0.00000000     0.00000000
     0.00000000     0.00000000     0.00000000
     0.00000000     0.00000000     0.00000000
     0.00000000     0.00000000     0.00000000
     0.00000000     0.00000000     0.00000000
     0.00000000     0.00000000     0.00000000
     0.00000000     0.00000000     0.00000000
     0.00000000     0.00000000     0.00000000
     0.00000000     0.00000000     0.00000000
     0.00000000     0.00000000     0.00000000
     0.00000000     0.00000000     0.00000000
     0.00000000     0.00000000     0.00000000
     0.00000000     0.00000000     0.00000000
     0.00000000     0.00000000     0.00000000
     0.00000000     0.00000000     0.00000000
     0.00000000     0.00000000     0.00000000
     0.00000000     0.00000000     0.00000000
     0.00000000     0.00000000     0.00000000
     0.00000000     0.00000000     0.00000000
     0.00000000     0.00000000     0.00000000
     0.00000000     0.00000000     0.00000000
     0.00000000     0.00000000     0.00000000
     0.00000000     0.00000000     0.00000000
     0.00000000     0.00000000     0.00000000
     0.00000000     0.00000000     0.00000000
     0.00000000     0.00000000     0.00000000
     0.00000000     0.00000000     0.00000000
     0.00000000     0.00000000     0.00000000
     0.00000000     0.00000000     0.00000000
     0.00000000     0.00000000     0.00000000
     0.00000000     0.00000000     0.00000000
     0.00000000     0.00000000     0.00000000
     0.00000000     0.00000000     0.00000000
     0.00000000     0.00000000     0.00000000
     0.00000000     0.00000000     0.00000000
     0.00000000     0.00000000     0.00000000
     0.00000000     0.00000000     0.00000000
     0.00000000     0.00000000     0.00000000
     0.00000000     0.00000000     0.00000000
     0.00000000     0.00000000     0.00000000
     0.00000000     0.00000000     0.00000000
     0.00000000     0.00000000     0.00000000
     0.00000000     0.00000000     0.00000000
     0.00000000     0.00000000     0.00000000
     0.00000000     0.00000000     0.00000000
     0.00000000     0.00000000     0.00000000
     0.00000000     0.00000000     0.00000000
     0.00000000     0.00000000     0.00000000
     0.00000000     0.00000000     0.00000000
     0.00000000     0.00000000     0.00000000
     0.00000000     0.00000000     0.00000000
     0.00000000     0.00000000     0.00000000
     0.00000000     0.00000000     0.00000000
     0.00000000     0.00000000     0.00000000
     0.00000000     0.00000000     0.00000000
     0.00000000     0.00000000     0.00000000
     0.00000000     0.00000000     0.00000000
     0.00000000     0.00000000     0.00000000
     0.00000000     0.00000000     0.00000000
     0.00000000     0.00000000     0.00000000
     0.00000000     0.00000000     0.00000000
     0.00000000     0.00000000     0.00000000
     0.00000000     0.00000000     0.00000000
     0.00000000     0.00000000     0.00000000
     0.00000000     0.00000000     0.00000000
     0.00000000     0.00000000     0.00000000
     0.00000000     0.00000000     0.00000000
     0.00000000     0.00000000     0.00000000
     0.00000000     0.00000000     0.00000000
     0.00000000     0.00000000     0.00000000
     0.00000000     0.00000000     0.00000000
     0.00000000     0.00000000     0.00000000
     0.00000000     0.00000000     0.00000000
     0.00000000     0.00000000     0.00000000
     0.00000000     0.00000000     0.00000000
     0.00000000     0.00000000     0.00000000
     0.00000000     0.00000000     0.00000000
     0.00000000     0.00000000     0.00000000
     0.00000000     0.00000000     0.00000000
     0.00000000     0.00000000     0.00000000
     0.00000000     0.00000000     0.00000000
     0.00000000     0.00000000     0.00000000
     0.00000000     0.00000000     0.00000000
     0.00000000     0.00000000     0.00000000
     0.00000000     0.00000000     0.00000000
     0.00000000     0.00000000     0.00000000
     0.00000000     0.00000000     0.00000000
     0.00000000     0.00000000     0.00000000
     0.00000000     0.00000000     0.00000000
     0.00000000     0.00000000     0.00000000
     0.00000000     0.00000000     0.00000000
     0.00000000     0.00000000     0.00000000
     0.00000000     0.00000000     0.00000000
     0.00000000     0.00000000     0.00000000
     0.00000000     0.00000000     0.00000000
     0.00000000     0.00000000     0.00000000
     0.00000000     0.00000000     0.00000000
     0.00000000     0.00000000     0.00000000
     0.00000000     0.00000000     0.00000000
     0.00000000     0.00000000     0.00000000
     0.00000000     0.00000000     0.00000000
     0.00000000     0.00000000     0.00000000
     0.00000000     0.00000000     0.00000000
     0.00000000     0.00000000     0.00000000
     0.00000000     0.00000000     0.00000000
     0.00000000     0.00000000     0.00000000
     0.00000000     0.00000000     0.00000000
     0.00000000     0.00000000     0.00000000
     0.00000000     0.00000000     0.00000000
     0.00000000     0.00000000     0.00000000
     0.00000000     0.00000000     0.00000000
     0.00000000     0.00000000     0.00000000
     0.00000000     0.00000000     0.00000000
     0.00000000     0.00000000     0.00000000
     0.00000000     0.00000000     0.00000000
     0.00000000     0.00000000     0.00000000
     0.00000000     0.00000000     0.00000000
     0.00000000     0.00000000     0.00000000
     0.00000000     0.00000000     0.00000000
     0.00000000     0.00000000     0.00000000
     0.00000000     0.00000000     0.00000000
     0.00000000     0.00000000     0.00000000
     0.00000000     0.00000000     0.00000000
     0.00000000     0.00000000     0.00000000
     0.00000000     0.00000000     0.00000000
     0.00000000     0.00000000     0.00000000
     0.00000000     0.00000000     0.00000000
     0.00000000     0.00000000     0.00000000
     0.00000000     0.00000000     0.00000000
     0.00000000     0.00000000     0.00000000
     0.00000000     0.00000000     0.00000000
     0.00000000     0.00000000     0.00000000
     0.00000000     0.00000000     0.00000000
     0.00000000     0.00000000     0.00000000
     0.00000000     0.00000000     0.00000000
     0.00000000     0.00000000     0.00000000
     0.00000000     0.00000000     0.00000000
     0.00000000     0.00000000     0.00000000
     0.00000000     0.00000000     0.00000000
     0.00000000     0.00000000     0.00000000
     0.00000000     0.00000000     0.00000000
     0.00000000     0.00000000     0.00000000
     0.00000000     0.00000000     0.00000000
     0.00000000     0.00000000     0.00000000
     0.00000000     0.00000000     0.00000000
     0.00000000     0.00000000     0.00000000
     0.00000000     0.00000000     0.00000000
     0.00000000     0.00000000     0.00000000
     0.00000000     0.00000000     0.00000000
     0.00000000     0.00000000     0.00000000
     0.00000000     0.00000000     0.00000000
     0.00000000     0.00000000     0.00000000
     0.00000000     0.00000000     0.00000000
     0.00000000     0.00000000     0.00000000
     0.00000000     0.00000000     0.00000000
     0.00000000     0.00000000     0.00000000
     0.00000000     0.00000000     0.00000000
     0.00000000     0.00000000     0.00000000
     0.00000000     0.00000000     0.00000000
     0.00000000     0.00000000     0.00000000
     0.00000000     0.00000000     0.00000000
     0.00000000     0.00000000     0.00000000
     0.00000000     0.00000000     0.00000000
     0.00000000     0.00000000     0.00000000
     0.00000000     0.00000000     0.00000000
     0.00000000     0.00000000     0.00000000
     0.00000000     0.00000000     0.00000000
     0.00000000     0.00000000     0.00000000
     0.00000000     0.00000000     0.00000000
     0.00000000     0.00000000     0.00000000
     0.00000000     0.00000000     0.00000000
     0.00000000     0.00000000     0.00000000
     0.00000000     0.00000000     0.00000000
     0.00000000     0.00000000     0.00000000
     0.00000000     0.00000000     0.00000000
     0.00000000     0.00000000     0.00000000
     0.00000000     0.00000000     0.00000000
     0.00000000     0.00000000     0.00000000
     0.00000000     0.00000000     0.00000000
     0.00000000     0.00000000     0.00000000
     0.00000000     0.00000000     0.00000000
     0.00000000     0.00000000     0.00000000
     0.00000000     0.00000000     0.00000000
     0.00000000     0.00000000     0.00000000
     0.00000000     0.00000000     0.00000000
     0.00000000     0.00000000     0.00000000
     0.00000000     0.00000000     0.00000000
     0.00000000     0.00000000     0.00000000
     0.00000000     0.00000000     0.00000000
     0.00000000     0.00000000     0.00000000
     0.00000000     0.00000000     0.00000000
     0.00000000     0.00000000     0.00000000
     0.00000000     0.00000000     0.00000000
     0.00000000     0.00000000     0.00000000
     0.00000000     0.00000000     0.00000000
     0.00000000     0.00000000     0.00000000
     0.00000000     0.00000000     0.00000000
     0.00000000     0.00000000     0.00000000
     0.00000000     0.00000000     0.00000000
     0.00000000     0.00000000     0.00000000
     0.00000000     0.00000000     0.00000000
     0.00000000     0.00000000     0.00000000
     0.00000000     0.00000000     0.00000000
     0.00000000     0.00000000     0.00000000
     0.00000000     0.00000000     0.00000000
     0.00000000     0.00000000     0.00000000
     0.00000000     0.00000000     0.00000000
     0.00000000     0.00000000     0.00000000
     0.00000000     0.00000000     0.00000000
     0.00000000     0.00000000     0.00000000
     0.00000000     0.00000000     0.00000000
     0.00000000     0.00000000     0.00000000
     0.00000000     0.00000000     0.00000000
     0.00000000     0.00000000     0.00000000
     0.00000000     0.00000000     0.00000000
     0.00000000     0.00000000     0.00000000
     0.00000000     0.00000000     0.00000000
     0.00000000     0.00000000     0.00000000
     0.00000000     0.00000000     0.00000000
     0.00000000     0.00000000     0.00000000
     0.00000000     0.00000000     0.00000000
     0.00000000     0.00000000     0.00000000
     0.00000000     0.00000000     0.00000000
     0.00000000     0.00000000     0.00000000
     0.00000000     0.00000000     0.00000000
     0.00000000     0.00000000     0.00000000
     0.00000000     0.00000000     0.00000000
     0.00000000     0.00000000     0.00000000
     0.00000000     0.00000000     0.00000000
     0.00000000     0.00000000     0.00000000
     0.00000000     0.00000000     0.00000000
     0.00000000     0.00000000     0.00000000
     0.00000000     0.00000000     0.00000000
     0.00000000     0.00000000     0.00000000
     0.00000000     0.00000000     0.00000000
     0.00000000     0.00000000     0.00000000
     0.00000000     0.00000000     0.00000000
     0.00000000     0.00000000     0.00000000
     0.00000000     0.00000000     0.00000000
     0.00000000     0.00000000     0.00000000
     0.00000000     0.00000000     0.00000000
     0.00000000     0.00000000     0.00000000
     0.00000000     0.00000000     0.00000000
     0.00000000     0.00000000     0.00000000
     0.00000000     0.00000000     0.00000000
     0.00000000     0.00000000     0.00000000
     0.00000000     0.00000000     0.00000000
     0.00000000     0.00000000     0.00000000
     0.00000000     0.00000000     0.00000000
     0.00000000     0.00000000     0.00000000
     0.00000000     0.00000000     0.00000000
     0.00000000     0.00000000     0.00000000
     0.00000000     0.00000000     0.00000000
     0.00000000     0.00000000     0.00000000
     0.00000000     0.00000000     0.00000000
     0.00000000     0.00000000     0.00000000
     0.00000000     0.00000000     0.00000000
     0.00000000     0.00000000     0.00000000
     0.00000000     0.00000000     0.00000000
     0.00000000     0.00000000     0.00000000
     0.00000000     0.00000000     0.00000000
     0.00000000     0.00000000     0.00000000
     0.00000000     0.00000000     0.00000000
     0.00000000     0.00000000     0.00000000
     0.00000000     0.00000000     0.00000000
     0.00000000     0.00000000     0.00000000
     0.00000000     0.00000000     0.00000000
     0.00000000     0.00000000     0.00000000
     0.00000000     0.00000000     0.00000000
     0.00000000     0.00000000     0.00000000
     0.00000000     0.00000000     0.00000000
     0.00000000     0.00000000     0.00000000
     0.00000000     0.00000000     0.00000000
     0.00000000     0.00000000     0.00000000
     0.00000000     0.00000000     0.00000000
     0.00000000     0.00000000     0.00000000
     0.00000000     0.00000000     0.00000000
     0.00000000     0.00000000     0.00000000
     0.00000000     0.00000000     0.00000000
     0.00000000     0.00000000     0.00000000
     0.00000000     0.00000000     0.00000000
     0.00000000     0.00000000     0.00000000
     0.00000000     0.00000000     0.00000000
     0.00000000     0.00000000     0.00000000
     0.00000000     0.00000000     0.00000000
     0.00000000     0.00000000     0.00000000
     0.00000000     0.00000000     0.00000000
     0.00000000     0.00000000     0.00000000
     0.00000000     0.00000000     0.00000000
     0.00000000     0.00000000     0.00000000
     0.00000000     0.00000000     0.00000000
     0.00000000     0.00000000     0.00000000
     0.00000000     0.00000000     0.00000000
     0.00000000     0.00000000     0.00000000
     0.00000000     0.00000000     0.00000000
     0.00000000     0.00000000     0.00000000
     0.00000000     0.00000000     0.00000000
     0.00000000     0.00000000     0.00000000
     0.00000000     0.00000000     0.00000000
     0.00000000     0.00000000     0.00000000
     0.00000000     0.00000000     0.00000000
     0.00000000     0.00000000     0.00000000
     0.00000000     0.00000000     0.00000000
     0.00000000     0.00000000     0.00000000
     0.00000000     0.00000000     0.00000000
     0.00000000     0.00000000     0.00000000
     0.00000000     0.00000000     0.00000000
     0.00000000     0.00000000     0.00000000
     0.00000000     0.00000000     0.00000000
     0.00000000     0.00000000     0.00000000
     0.00000000     0.00000000     0.00000000
     0.00000000     0.00000000     0.00000000
     0.00000000     0.00000000     0.00000000
     0.00000000     0.00000000     0.00000000
     0.00000000     0.00000000     0.00000000
     0.00000000     0.00000000     0.00000000
     0.00000000     0.00000000     0.00000000
     0.00000000     0.00000000     0.00000000
     0.00000000     0.00000000     0.00000000
     0.00000000     0.00000000     0.00000000
     0.00000000     0.00000000     0.00000000
     0.00000000     0.00000000     0.00000000
     0.00000000     0.00000000     0.00000000
     0.00000000     0.00000000     0.00000000
     0.00000000     0.00000000     0.00000000
     0.00000000     0.00000000     0.00000000
     0.00000000     0.00000000     0.00000000
     0.00000000     0.00000000     0.00000000
     0.00000000     0.00000000     0.00000000
     0.00000000     0.00000000     0.00000000
     0.00000000     0.00000000     0.00000000
     0.00000000     0.00000000     0.00000000
     0.00000000     0.00000000     0.00000000
     0.00000000     0.00000000     0.00000000
     0.00000000     0.00000000     0.00000000
     0.00000000     0.00000000     0.00000000
     0.00000000     0.00000000     0.00000000
     0.00000000     0.00000000     0.00000000
     0.00000000     0.00000000     0.00000000
     0.00000000     0.00000000     0.00000000
     0.00000000     0.00000000     0.00000000
     0.00000000     0.00000000     0.00000000
     0.00000000     0.00000000     0.00000000
     0.00000000     0.00000000     0.00000000
     0.00000000     0.00000000     0.00000000
     0.00000000     0.00000000     0.00000000
     0.00000000     0.00000000     0.00000000
     0.00000000     0.00000000     0.00000000
     0.00000000     0.00000000     0.00000000
     0.00000000     0.00000000     0.00000000
     0.00000000     0.00000000     0.00000000
     0.00000000     0.00000000     0.00000000
     0.00000000     0.00000000     0.00000000
     0.00000000     0.00000000     0.00000000
     0.00000000     0.00000000     0.00000000
     0.00000000     0.00000000     0.00000000
     0.00000000     0.00000000     0.00000000
     0.00000000     0.00000000     0.00000000
     0.00000000     0.00000000     0.00000000
     0.00000000     0.00000000     0.00000000
     0.00000000     0.00000000     0.00000000
     0.00000000     0.00000000     0.00000000
     0.00000000     0.00000000     0.00000000
     0.00000000     0.00000000     0.00000000
     0.00000000     0.00000000     0.00000000
     0.00000000     0.00000000     0.00000000
     0.00000000     0.00000000     0.00000000
     0.00000000     0.00000000     0.00000000
     0.00000000     0.00000000     0.00000000
     0.00000000     0.00000000     0.00000000
     0.00000000     0.00000000     0.00000000
     0.00000000     0.00000000     0.00000000
     0.00000000     0.00000000     0.00000000
     0.00000000     0.00000000     0.00000000
     0.00000000     0.00000000     0.00000000
     0.00000000     0.00000000     0.00000000
     0.00000000     0.00000000     0.00000000
     0.00000000     0.00000000     0.00000000
     0.00000000     0.00000000     0.00000000
     0.00000000     0.00000000     0.00000000
     0.00000000     0.00000000     0.00000000
     0.00000000     0.00000000     0.00000000
     0.00000000     0.00000000     0.00000000
     0.00000000     0.00000000     0.00000000
     0.00000000     0.00000000     0.00000000
     0.00000000     0.00000000     0.00000000
     0.00000000     0.00000000     0.00000000
     0.00000000     0.00000000     0.00000000
     0.00000000     0.00000000     0.00000000
     0.00000000     0.00000000     0.00000000
     0.00000000     0.00000000     0.00000000
     0.00000000     0.00000000     0.00000000
     0.00000000     0.00000000     0.00000000
     0.00000000     0.00000000     0.00000000
     0.00000000     0.00000000     0.00000000
     0.00000000     0.00000000     0.00000000
     0.00000000     0.00000000     0.00000000
     0.00000000     0.00000000     0.00000000
     0.00000000     0.00000000     0.00000000
     0.00000000     0.00000000     0.00000000
     0.00000000     0.00000000     0.00000000
     0.00000000     0.00000000     0.00000000
     0.00000000     0.00000000     0.00000000
     0.00000000     0.00000000     0.00000000
     0.00000000     0.00000000     0.00000000
     0.00000000     0.00000000     0.00000000
     0.00000000     0.00000000     0.00000000
     0.00000000     0.00000000     0.00000000
     0.00000000     0.00000000     0.00000000
     0.00000000     0.00000000     0.00000000
     0.00000000     0.00000000     0.00000000
     0.00000000     0.00000000     0.00000000
     0.00000000     0.00000000     0.00000000
     0.00000000     0.00000000     0.00000000
     0.00000000     0.00000000     0.00000000
     0.00000000     0.00000000     0.00000000
     0.00000000     0.00000000     0.00000000
     0.00000000     0.00000000     0.00000000
     0.00000000     0.00000000     0.00000000
     0.00000000     0.00000000     0.00000000
     0.00000000     0.00000000     0.00000000
     0.00000000     0.00000000     0.00000000
     0.00000000     0.00000000     0.00000000
     0.00000000     0.00000000     0.00000000
     0.00000000     0.00000000     0.00000000
     0.00000000     0.00000000     0.00000000
     0.00000000     0.00000000     0.00000000
     0.00000000     0.00000000     0.00000000
     0.00000000     0.00000000     0.00000000
     0.00000000     0.00000000     0.00000000
     0.00000000     0.00000000     0.00000000
     0.00000000     0.00000000     0.00000000
     0.00000000     0.00000000     0.00000000
     0.00000000     0.00000000     0.00000000
     0.00000000     0.00000000     0.00000000
     0.00000000     0.00000000     0.00000000
     0.00000000     0.00000000     0.00000000
     0.00000000     0.00000000     0.00000000
     0.00000000     0.00000000     0.00000000
     0.00000000     0.00000000     0.00000000
     0.00000000     0.00000000     0.00000000
     0.00000000     0.00000000     0.00000000
     0.00000000     0.00000000     0.00000000
     0.00000000     0.00000000     0.00000000
     0.00000000     0.00000000     0.00000000
     0.00000000     0.00000000     0.00000000
     0.00000000     0.00000000     0.00000000
     0.00000000     0.00000000     0.00000000
     0.00000000     0.00000000     0.00000000
     0.00000000     0.00000000     0.00000000
     0.00000000     0.00000000     0.00000000
     0.00000000     0.00000000     0.00000000
     0.00000000     0.00000000     0.00000000
     0.00000000     0.00000000     0.00000000
     0.00000000     0.00000000     0.00000000
     0.00000000     0.00000000     0.00000000
     0.00000000     0.00000000     0.00000000
     0.00000000     0.00000000     0.00000000
     0.00000000     0.00000000     0.00000000
     0.00000000     0.00000000     0.00000000
     0.00000000     0.00000000     0.00000000
     0.00000000     0.00000000     0.00000000
     0.00000000     0.00000000     0.00000000
     0.00000000     0.00000000     0.00000000
     0.00000000     0.00000000     0.00000000
     0.00000000     0.00000000     0.00000000
     0.00000000     0.00000000     0.00000000
     0.00000000     0.00000000     0.00000000
     0.00000000     0.00000000     0.00000000
     0.00000000     0.00000000     0.00000000
     0.00000000     0.00000000     0.00000000
     0.00000000     0.00000000     0.00000000
     0.00000000     0.00000000     0.00000000
     0.00000000     0.00000000     0.00000000
     0.00000000     0.00000000     0.00000000
     0.00000000     0.00000000     0.00000000
     0.00000000     0.00000000     0.00000000
     0.00000000     0.00000000     0.00000000
     0.00000000     0.00000000     0.00000000
     0.00000000     0.00000000     0.00000000
     0.00000000     0.00000000     0.00000000
     0.00000000     0.00000000     0.00000000
     0.00000000     0.00000000     0.00000000
     0.00000000     0.00000000     0.00000000
     0.00000000     0.00000000     0.00000000
     0.00000000     0.00000000     0.00000000
     0.00000000     0.00000000     0.00000000
     0.00000000     0.00000000     0.00000000
     0.00000000     0.00000000     0.00000000
     0.00000000     0.00000000     0.00000000
     0.00000000     0.00000000     0.00000000
     0.00000000     0.00000000     0.00000000
     0.00000000     0.00000000     0.00000000
     0.00000000     0.00000000     0.00000000
     0.00000000     0.00000000     0.00000000
     0.00000000     0.00000000     0.00000000
     0.00000000     0.00000000     0.00000000
     0.00000000     0.00000000     0.00000000
     0.00000000     0.00000000     0.00000000
     0.00000000     0.00000000     0.00000000
     0.00000000     0.00000000     0.00000000
     0.00000000     0.00000000     0.00000000
     0.00000000     0.00000000     0.00000000
     0.00000000     0.00000000     0.00000000
     0.00000000     0.00000000     0.00000000
     0.00000000     0.00000000     0.00000000
     0.00000000     0.00000000     0.00000000
     0.00000000     0.00000000     0.00000000
     0.00000000     0.00000000     0.00000000
     0.00000000     0.00000000     0.00000000
     0.00000000     0.00000000     0.00000000
     0.00000000     0.00000000     0.00000000
     0.00000000     0.00000000     0.00000000
     0.00000000     0.00000000     0.00000000
     0.00000000     0.00000000     0.00000000
     0.00000000     0.00000000     0.00000000
     0.00000000     0.00000000     0.00000000
     0.00000000     0.00000000     0.00000000
     0.00000000     0.00000000     0.00000000
     0.00000000     0.00000000     0.00000000
     0.00000000     0.00000000     0.00000000
     0.00000000     0.00000000     0.00000000
     0.00000000     0.00000000     0.00000000
     0.00000000     0.00000000     0.00000000
     0.00000000     0.00000000     0.00000000
     0.00000000     0.00000000     0.00000000
     0.00000000     0.00000000     0.00000000
     0.00000000     0.00000000     0.00000000
     0.00000000     0.00000000     0.00000000
     0.00000000     0.00000000     0.00000000
     0.00000000     0.00000000     0.00000000
     0.00000000     0.00000000     0.00000000
     0.00000000     0.00000000     0.00000000
     0.00000000     0.00000000     0.00000000
     0.00000000     0.00000000     0.00000000
     0.00000000     0.00000000     0.00000000
     0.00000000     0.00000000     0.00000000
     0.00000000     0.00000000     0.00000000
     0.00000000     0.00000000     0.00000000
     0.00000000     0.00000000     0.00000000
     0.00000000     0.00000000     0.00000000
     0.00000000     0.00000000     0.00000000
     0.00000000     0.00000000     0.00000000
     0.00000000     0.00000000     0.00000000
     0.00000000     0.00000000     0.00000000
     0.00000000     0.00000000     0.00000000
     0.00000000     0.00000000     0.00000000
     0.00000000     0.00000000     0.00000000
     0.00000000     0.00000000     0.00000000
     0.00000000     0.00000000     0.00000000
     0.00000000     0.00000000     0.00000000
     0.00000000     0.00000000     0.00000000
     0.00000000     0.00000000     0.00000000
     0.00000000     0.00000000     0.00000000
     0.00000000     0.00000000     0.00000000
     0.00000000     0.00000000     0.00000000
     0.00000000     0.00000000     0.00000000
     0.00000000     0.00000000     0.00000000
     0.00000000     0.00000000     0.00000000
     0.00000000     0.00000000     0.00000000
     0.00000000     0.00000000     0.00000000
     0.00000000     0.00000000     0.00000000
     0.00000000     0.00000000     0.00000000
     0.00000000     0.00000000     0.00000000
     0.00000000     0.00000000     0.00000000
     0.00000000     0.00000000     0.00000000
     0.00000000     0.00000000     0.00000000
     0.00000000     0.00000000     0.00000000
     0.00000000     0.00000000     0.00000000
     0.00000000     0.00000000     0.00000000
     0.00000000     0.00000000     0.00000000
     0.00000000     0.00000000     0.00000000
     0.00000000     0.00000000     0.00000000
     0.00000000     0.00000000     0.00000000
     0.00000000     0.00000000     0.00000000
     0.00000000     0.00000000     0.00000000
     0.00000000     0.00000000     0.00000000
     0.00000000     0.00000000     0.00000000
     0.00000000     0.00000000     0.00000000
     0.00000000     0.00000000     0.00000000
     0.00000000     0.00000000     0.00000000
     0.00000000     0.00000000     0.00000000
     0.00000000     0.00000000     0.00000000
     0.00000000     0.00000000     0.00000000
     0.00000000     0.00000000     0.00000000
     0.00000000     0.00000000     0.00000000
     0.00000000     0.00000000     0.00000000
     0.00000000     0.00000000     0.00000000
     0.00000000     0.00000000     0.00000000
     0.00000000     0.00000000     0.00000000
     0.00000000     0.00000000     0.00000000
     0.00000000     0.00000000     0.00000000
     0.00000000     0.00000000     0.00000000
     0.00000000     0.00000000     0.00000000
     0.00000000     0.00000000     0.00000000
     0.00000000     0.00000000     0.00000000
     0.00000000     0.00000000     0.00000000
     0.00000000     0.00000000     0.00000000
     0.00000000     0.00000000     0.00000000
     0.00000000     0.00000000     0.00000000
     0.00000000     0.00000000     0.00000000
     0.00000000     0.00000000     0.00000000
     0.00000000     0.00000000     0.00000000
     0.00000000     0.00000000     0.00000000
     0.00000000     0.00000000     0.00000000
     0.00000000     0.00000000     0.00000000
     0.00000000     0.00000000     0.00000000
     0.00000000     0.00000000     0.00000000
     0.00000000     0.00000000     0.00000000
     0.00000000     0.00000000     0.00000000
     0.00000000     0.00000000     0.00000000
     0.00000000     0.00000000     0.00000000
     0.00000000     0.00000000     0.00000000
     0.00000000     0.00000000     0.00000000
     0.00000000     0.00000000     0.00000000
     0.00000000     0.00000000     0.00000000
     0.00000000     0.00000000     0.00000000
     0.00000000     0.00000000     0.00000000
     0.00000000     0.00000000     0.00000000
     0.00000000     0.00000000     0.00000000
     0.00000000     0.00000000     0.00000000
     0.00000000     0.00000000     0.00000000
     0.00000000     0.00000000     0.00000000
     0.00000000     0.00000000     0.00000000
     0.00000000     0.00000000     0.00000000
     0.00000000     0.00000000     0.00000000
     0.00000000     0.00000000     0.00000000
     0.00000000     0.00000000     0.00000000
     0.00000000     0.00000000     0.00000000
     0.00000000     0.00000000     0.00000000
     0.00000000     0.00000000     0.00000000
     0.00000000     0.00000000     0.00000000
     0.00000000     0.00000000     0.00000000
     0.00000000     0.00000000     0.00000000
     0.00000000     0.00000000     0.00000000
     0.00000000     0.00000000     0.00000000
     0.00000000     0.00000000     0.00000000
     0.00000000     0.00000000     0.00000000
     0.00000000     0.00000000     0.00000000
     0.00000000     0.00000000     0.00000000
     0.00000000     0.00000000     0.00000000
     0.00000000     0.00000000     0.00000000
     0.00000000     0.00000000     0.00000000
     0.00000000     0.00000000     0.00000000
     0.00000000     0.00000000     0.00000000
     0.00000000     0.00000000     0.00000000
     0.00000000     0.00000000     0.00000000
     0.00000000     0.00000000     0.00000000
     0.00000000     0.00000000     0.00000000
     0.00000000     0.00000000     0.00000000
     0.00000000     0.00000000     0.00000000
     0.00000000     0.00000000     0.00000000
     0.00000000     0.00000000     0.00000000
     0.00000000     0.00000000     0.00000000
     0.00000000     0.00000000     0.00000000
     0.00000000     0.00000000     0.00000000
     0.00000000     0.00000000     0.00000000
     0.00000000     0.00000000     0.00000000
     0.00000000     0.00000000     0.00000000
     0.00000000     0.00000000     0.00000000
     0.00000000     0.00000000     0.00000000
     0.00000000     0.00000000     0.00000000
     0.00000000     0.00000000     0.00000000
     0.00000000     0.00000000     0.00000000
     0.00000000     0.00000000     0.00000000
     0.00000000     0.00000000     0.00000000
     0.00000000     0.00000000     0.00000000
     0.00000000     0.00000000     0.00000000
     0.00000000     0.00000000     0.00000000
     0.00000000     0.00000000     0.00000000
     0.00000000     0.00000000     0.00000000
     0.00000000     0.00000000     0.00000000
     0.00000000     0.00000000     0.00000000
     0.00000000     0.00000000     0.00000000
     0.00000000     0.00000000     0.00000000
     0.00000000     0.00000000     0.00000000
     0.00000000     0.00000000     0.00000000
     0.00000000     0.00000000     0.00000000
     0.00000000     0.00000000     0.00000000
     0.00000000     0.00000000     0.00000000
     0.00000000     0.00000000     0.00000000
     0.00000000     0.00000000     0.00000000
     0.00000000     0.00000000     0.00000000
     0.00000000     0.00000000     0.00000000
     0.00000000     0.00000000     0.00000000
     0.00000000     0.00000000     0.00000000
     0.00000000     0.00000000     0.00000000
     0.00000000     0.00000000     0.00000000
     0.00000000     0.00000000     0.00000000
     0.00000000     0.00000000     0.00000000
     0.00000000     0.00000000     0.00000000
     0.00000000     0.00000000     0.00000000
     0.00000000     0.00000000     0.00000000
     0.00000000     0.00000000     0.00000000
     0.00000000     0.00000000     0.00000000
     0.00000000     0.00000000     0.00000000
     0.00000000     0.00000000     0.00000000
     0.00000000     0.00000000     0.00000000
     0.00000000     0.00000000     0.00000000
     0.00000000     0.00000000     0.00000000
     0.00000000     0.00000000     0.00000000
     0.00000000     0.00000000     0.00000000
     0.00000000     0.00000000     0.00000000
     0.00000000     0.00000000     0.00000000
     0.00000000     0.00000000     0.00000000
     0.00000000     0.00000000     0.00000000
     0.00000000     0.00000000     0.00000000
     0.00000000     0.00000000     0.00000000
     0.00000000     0.00000000     0.00000000
     0.00000000     0.00000000     0.00000000
     0.00000000     0.00000000     0.00000000
     0.00000000     0.00000000     0.00000000
     0.00000000     0.00000000     0.00000000
     0.00000000     0.00000000     0.00000000
     0.00000000     0.00000000     0.00000000
     0.00000000     0.00000000     0.00000000
     0.00000000     0.00000000     0.00000000
     0.00000000     0.00000000     0.00000000
     0.00000000     0.00000000     0.00000000
     0.00000000     0.00000000     0.00000000
     0.00000000     0.00000000     0.00000000
     0.00000000     0.00000000     0.00000000
     0.00000000     0.00000000     0.00000000
     0.00000000     0.00000000     0.00000000
     0.00000000     0.00000000     0.00000000
     0.00000000     0.00000000     0.00000000
     0.00000000     0.00000000     0.00000000
     0.00000000     0.00000000     0.00000000
     0.00000000     0.00000000     0.00000000
     0.00000000     0.00000000     0.00000000
     0.00000000     0.00000000     0.00000000
     0.00000000     0.00000000     0.00000000
     0.00000000     0.00000000     0.00000000
     0.00000000     0.00000000     0.00000000
     0.00000000     0.00000000     0.00000000
     0.00000000     0.00000000     0.00000000
     0.00000000     0.00000000     0.00000000
     0.00000000     0.00000000     0.00000000
     0.00000000     0.00000000     0.00000000
     0.00000000     0.00000000     0.00000000
     0.00000000     0.00000000     0.00000000
     0.00000000     0.00000000     0.00000000
     0.00000000     0.00000000     0.00000000
     0.00000000     0.00000000     0.00000000
     0.00000000     0.00000000     0.00000000
     0.00000000     0.00000000     0.00000000
     0.00000000     0.00000000     0.00000000
     0.00000000     0.00000000     0.00000000
     0.00000000     0.00000000     0.00000000
     0.00000000     0.00000000     0.00000000
     0.00000000     0.00000000     0.00000000
     0.00000000     0.00000000     0.00000000
     0.00000000     0.00000000     0.00000000
     0.00000000     0.00000000     0.00000000
     0.00000000     0.00000000     0.00000000
     0.00000000     0.00000000     0.00000000
     0.00000000     0.00000000     0.00000000
     0.00000000     0.00000000     0.00000000
     0.00000000     0.00000000     0.00000000
     0.00000000     0.00000000     0.00000000
     0.00000000     0.00000000     0.00000000
     0.00000000     0.00000000     0.00000000
     0.00000000     0.00000000     0.00000000
     0.00000000     0.00000000     0.00000000
     0.00000000     0.00000000     0.00000000
     0.00000000     0.00000000     0.00000000
     0.00000000     0.00000000     0.00000000
     0.00000000     0.00000000     0.00000000
     0.00000000     0.00000000     0.00000000
     0.00000000     0.00000000     0.00000000
     0.00000000     0.00000000     0.00000000
     0.00000000     0.00000000     0.00000000
     0.00000000     0.00000000     0.00000000
     0.00000000     0.00000000     0.00000000
     0.00000000     0.00000000     0.00000000
     0.00000000     0.00000000     0.00000000
     0.00000000     0.00000000     0.00000000
     0.00000000     0.00000000     0.00000000
     0.00000000     0.00000000     0.00000000
     0.00000000     0.00000000     0.00000000
     0.00000000     0.00000000     0.00000000
     0.00000000     0.00000000     0.00000000
     0.00000000     0.00000000     0.00000000
     0.00000000     0.00000000     0.00000000
     0.00000000     0.00000000     0.00000000
     0.00000000     0.00000000     0.00000000
     0.00000000     0.00000000     0.00000000
     0.00000000     0.00000000     0.00000000
     0.00000000     0.00000000     0.00000000
     0.00000000     0.00000000     0.00000000
     0.00000000     0.00000000     0.00000000
     0.00000000     0.00000000     0.00000000
     0.00000000     0.00000000     0.00000000
     0.00000000     0.00000000     0.00000000
     0.00000000     0.00000000     0.00000000
     0.00000000     0.00000000     0.00000000
     0.00000000     0.00000000     0.00000000
     0.00000000     0.00000000     0.00000000
     0.00000000     0.00000000     0.00000000
     0.00000000     0.00000000     0.00000000
     0.00000000     0.00000000     0.00000000
     0.00000000     0.00000000     0.00000000
     0.00000000     0.00000000     0.00000000
     0.00000000     0.00000000     0.00000000
     0.00000000     0.00000000     0.00000000
     0.00000000     0.00000000     0.00000000
     0.00000000     0.00000000     0.00000000
     0.00000000     0.00000000     0.00000000
     0.00000000     0.00000000     0.00000000
     0.00000000     0.00000000     0.00000000
     0.00000000     0.00000000     0.00000000
     0.00000000     0.00000000     0.00000000
     0.00000000     0.00000000     0.00000000
     0.00000000     0.00000000     0.00000000
     0.00000000     0.00000000     0.00000000
     0.00000000     0.00000000     0.00000000
     0.00000000     0.00000000     0.00000000
     0.00000000     0.00000000     0.00000000
     0.00000000     0.00000000     0.00000000
     0.00000000     0.00000000     0.00000000
     0.00000000     0.00000000     0.00000000
     0.00000000     0.00000000     0.00000000
     0.00000000     0.00000000     0.00000000
     0.00000000     0.00000000     0.00000000
     0.00000000     0.00000000     0.00000000
     0.00000000     0.00000000     0.00000000
     0.00000000     0.00000000     0.00000000
     0.00000000     0.00000000     0.00000000
     0.00000000     0.00000000     0.00000000
     0.00000000     0.00000000     0.00000000
     0.00000000     0.00000000     0.00000000
     0.00000000     0.00000000     0.00000000
     0.00000000     0.00000000     0.00000000
     0.00000000     0.00000000     0.00000000
     0.00000000     0.00000000     0.00000000
     0.00000000     0.00000000     0.00000000
     0.00000000     0.00000000     0.00000000
     0.00000000     0.00000000     0.00000000
     0.00000000     0.00000000     0.00000000
     0.00000000     0.00000000     0.00000000
     0.00000000     0.00000000     0.00000000
     0.00000000     0.00000000     0.00000000
     0.00000000     0.00000000     0.00000000
     0.00000000     0.00000000     0.00000000
     0.00000000     0.00000000     0.00000000
     0.00000000     0.00000000     0.00000000
     0.00000000     0.00000000     0.00000000
     0.00000000     0.00000000     0.00000000
     0.00000000     0.00000000     0.00000000
     0.00000000     0.00000000     0.00000000
     0.00000000     0.00000000     0.00000000
     0.00000000     0.00000000     0.00000000
     0.00000000     0.00000000     0.00000000
     0.00000000     0.00000000     0.00000000
     0.00000000     0.00000000     0.00000000
     0.00000000     0.00000000     0.00000000
     0.00000000     0.00000000     0.00000000
     0.00000000     0.00000000     0.00000000
     0.00000000     0.00000000     0.00000000
     0.00000000     0.00000000     0.00000000
     0.00000000     0.00000000     0.00000000
     0.00000000     0.00000000     0.00000000
     0.00000000     0.00000000     0.00000000
     0.00000000     0.00000000     0.00000000
     0.00000000     0.00000000     0.00000000
     0.00000000     0.00000000     0.00000000
     0.00000000     0.00000000     0.00000000
     0.00000000     0.00000000     0.00000000
     0.00000000     0.00000000     0.00000000
     0.00000000     0.00000000     0.00000000
     0.00000000     0.00000000     0.00000000
     0.00000000     0.00000000     0.00000000
     0.00000000     0.00000000     0.00000000
     0.00000000     0.00000000     0.00000000
     0.00000000     0.00000000     0.00000000
     0.00000000     0.00000000     0.00000000
     0.00000000     0.00000000     0.00000000
     0.00000000     0.00000000     0.00000000
     0.00000000     0.00000000     0.00000000
     0.00000000     0.00000000     0.00000000
     0.00000000     0.00000000     0.00000000
     0.00000000     0.00000000     0.00000000
     0.00000000     0.00000000     0.00000000
     0.00000000     0.00000000     0.00000000
     0.00000000     0.00000000     0.00000000
     0.00000000     0.00000000     0.00000000
     0.00000000     0.00000000     0.00000000
     0.00000000     0.00000000     0.00000000
     0.00000000     0.00000000     0.00000000
     0.00000000     0.00000000     0.00000000
     0.00000000     0.00000000     0.00000000
     0.00000000     0.00000000     0.00000000
     0.00000000     0.00000000     0.00000000
     0.00000000     0.00000000     0.00000000
     0.00000000     0.00000000     0.00000000
     0.00000000     0.00000000     0.00000000
     0.00000000     0.00000000     0.00000000
     0.00000000     0.00000000     0.00000000
     0.00000000     0.00000000     0.00000000
     0.00000000     0.00000000     0.00000000
     0.00000000     0.00000000     0.00000000
     0.00000000     0.00000000     0.00000000
     0.00000000     0.00000000     0.00000000
     0.00000000     0.00000000     0.00000000
     0.00000000     0.00000000     0.00000000
     0.00000000     0.00000000     0.00000000
     0.00000000     0.00000000     0.00000000
     0.00000000     0.00000000     0.00000000
     0.00000000     0.00000000     0.00000000
     0.00000000     0.00000000     0.00000000
     0.00000000     0.00000000     0.00000000
     0.00000000     0.00000000     0.00000000
     0.00000000     0.00000000     0.00000000
     0.00000000     0.00000000     0.00000000
     0.00000000     0.00000000     0.00000000
     0.00000000     0.00000000     0.00000000
     0.00000000     0.00000000     0.00000000
     0.00000000     0.00000000     0.00000000
     0.00000000     0.00000000     0.00000000
     0.00000000     0.00000000     0.00000000
     0.00000000     0.00000000     0.00000000
     0.00000000     0.00000000     0.00000000
     0.00000000     0.00000000     0.00000000
     0.00000000     0.00000000     0.00000000
     0.00000000     0.00000000     0.00000000
     0.00000000     0.00000000     0.00000000
     0.00000000     0.00000000     0.00000000
     0.00000000     0.00000000     0.00000000
     0.00000000     0.00000000     0.00000000
     0.00000000     0.00000000     0.00000000
     0.00000000     0.00000000     0.00000000
     0.00000000     0.00000000     0.00000000
     0.00000000     0.00000000     0.00000000
     0.00000000     0.00000000     0.00000000
     0.00000000     0.00000000     0.00000000
     0.00000000     0.00000000     0.00000000
     0.00000000     0.00000000     0.00000000
     0.00000000     0.00000000     0.00000000
     0.00000000     0.00000000     0.00000000
     0.00000000     0.00000000     0.00000000
     0.00000000     0.00000000     0.00000000
     0.00000000     0.00000000     0.00000000
     0.00000000     0.00000000     0.00000000
     0.00000000     0.00000000     0.00000000
     0.00000000     0.00000000     0.00000000
     0.00000000     0.00000000     0.00000000
     0.00000000     0.00000000     0.00000000
     0.00000000     0.00000000     0.00000000
     0.00000000     0.00000000     0.00000000
     0.00000000     0.00000000     0.00000000
     0.00000000     0.00000000     0.00000000
     0.00000000     0.00000000     0.00000000
     0.00000000     0.00000000     0.00000000
     0.00000000     0.00000000     0.00000000
     0.00000000     0.00000000     0.00000000
     0.00000000     0.00000000     0.00000000
     0.00000000     0.00000000     0.00000000
     0.00000000     0.00000000     0.00000000
     0.00000000     0.00000000     0.00000000
     0.00000000     0.00000000     0.00000000
     0.00000000     0.00000000     0.00000000
     0.00000000     0.00000000     0.00000000
     0.00000000     0.00000000     0.00000000
     0.00000000     0.00000000     0.00000000
     0.00000000     0.00000000     0.00000000
     0.00000000     0.00000000     0.00000000
     0.00000000     0.00000000     0.00000000
     0.00000000     0.00000000     0.00000000
     0.00000000     0.00000000     0.00000000
     0.00000000     0.00000000     0.00000000
     0.00000000     0.00000000     0.00000000
     0.00000000     0.00000000     0.00000000
     0.00000000     0.00000000     0.00000000
     0.00000000     0.00000000     0.00000000
     0.00000000     0.00000000     0.00000000
     0.00000000     0.00000000     0.00000000
     0.00000000     0.00000000     0.00000000
     0.00000000     0.00000000     0.00000000
     0.00000000     0.00000000     0.00000000
     0.00000000     0.00000000     0.00000000
     0.00000000     0.00000000     0.00000000
     0.00000000     0.00000000     0.00000000
     0.00000000     0.00000000     0.00000000
     0.00000000     0.00000000     0.00000000
     0.00000000     0.00000000     0.00000000
     0.00000000     0.00000000     0.00000000
     0.00000000     0.00000000     0.00000000
     0.00000000     0.00000000     0.00000000
     0.00000000     0.00000000     0.00000000
     0.00000000     0.00000000     0.00000000
     0.00000000     0.00000000     0.00000000
     0.00000000     0.00000000     0.00000000
     0.00000000     0.00000000     0.00000000
     0.00000000     0.00000000     0.00000000
     0.00000000     0.00000000     0.00000000
     0.00000000     0.00000000     0.00000000
     0.00000000     0.00000000     0.00000000
     0.00000000     0.00000000     0.00000000
     0.00000000     0.00000000     0.00000000
     0.00000000     0.00000000     0.00000000
     0.00000000     0.00000000     0.00000000
     0.00000000     0.00000000     0.00000000
     0.00000000     0.00000000     0.00000000
     0.00000000     0.00000000     0.00000000
     0.00000000     0.00000000     0.00000000
     0.00000000     0.00000000     0.00000000
     0.00000000     0.00000000     0.00000000
     0.00000000     0.00000000     0.00000000
     0.00000000     0.00000000     0.00000000
     0.00000000     0.00000000     0.00000000
     0.00000000     0.00000000     0.00000000
     0.00000000     0.00000000     0.00000000
     0.00000000     0.00000000     0.00000000
     0.00000000     0.00000000     0.00000000
     0.00000000     0.00000000     0.00000000
     0.00000000     0.00000000     0.00000000
     0.00000000     0.00000000     0.00000000
     0.00000000     0.00000000     0.00000000
     0.00000000     0.00000000     0.00000000
     0.00000000     0.00000000     0.00000000
     0.00000000     0.00000000     0.00000000
     0.00000000     0.00000000     0.00000000
     0.00000000     0.00000000     0.00000000
     0.00000000     0.00000000     0.00000000
     0.00000000     0.00000000     0.00000000
     0.00000000     0.00000000     0.00000000
     0.00000000     0.00000000     0.00000000
     0.00000000     0.00000000     0.00000000
     0.00000000     0.00000000     0.00000000
     0.00000000     0.00000000     0.00000000
     0.00000000     0.00000000     0.00000000
     0.00000000     0.00000000     0.00000000
     0.00000000     0.00000000     0.00000000
     0.00000000     0.00000000     0.00000000
     0.00000000     0.00000000     0.00000000
     0.00000000     0.00000000     0.00000000
     0.00000000     0.00000000     0.00000000
     0.00000000     0.00000000     0.00000000
     0.00000000     0.00000000     0.00000000
     0.00000000     0.00000000     0.00000000
     0.00000000     0.00000000     0.00000000
     0.00000000     0.00000000     0.00000000
     0.00000000     0.00000000     0.00000000
     0.00000000     0.00000000     0.00000000
     0.00000000     0.00000000     0.00000000
     0.00000000     0.00000000     0.00000000
     0.00000000     0.00000000     0.00000000
     0.00000000     0.00000000     0.00000000
     0.00000000     0.00000000     0.00000000
     0.00000000     0.00000000     0.00000000
     0.00000000     0.00000000     0.00000000
     0.00000000     0.00000000     0.00000000
     0.00000000     0.00000000     0.00000000
     0.00000000     0.00000000     0.00000000
     0.00000000     0.00000000     0.00000000
     0.00000000     0.00000000     0.00000000
     0.00000000     0.00000000     0.00000000
     0.00000000     0.00000000     0.00000000
     0.00000000     0.00000000     0.00000000
     0.00000000     0.00000000     0.00000000
     0.00000000     0.00000000     0.00000000
     0.00000000     0.00000000     0.00000000
     0.00000000     0.00000000     0.00000000
     0.00000000     0.00000000     0.00000000
     0.00000000     0.00000000     0.00000000
     0.00000000     0.00000000     0.00000000
     0.00000000     0.00000000     0.00000000
     0.00000000     0.00000000     0.00000000
     0.00000000     0.00000000     0.00000000
     0.00000000     0.00000000     0.00000000
     0.00000000     0.00000000     0.00000000
     0.00000000     0.00000000     0.00000000
     0.00000000     0.00000000     0.00000000
     0.00000000     0.00000000     0.00000000
     0.00000000     0.00000000     0.00000000
     0.00000000     0.00000000     0.00000000
     0.00000000     0.00000000     0.00000000
     0.00000000     0.00000000     0.00000000
     0.00000000     0.00000000     0.00000000
     0.00000000     0.00000000     0.00000000
     0.00000000     0.00000000     0.00000000
     0.00000000     0.00000000     0.00000000
     0.00000000     0.00000000     0.00000000
     0.00000000     0.00000000     0.00000000
     0.00000000     0.00000000     0.00000000
     0.00000000     0.00000000     0.00000000
     0.00000000     0.00000000     0.00000000
     0.00000000     0.00000000     0.00000000
     0.00000000     0.00000000     0.00000000
     0.00000000     0.00000000     0.00000000
     0.00000000     0.00000000     0.00000000
     0.00000000     0.00000000     0.00000000
     0.00000000     0.00000000     0.00000000
     0.00000000     0.00000000     0.00000000
     0.00000000     0.00000000     0.00000000
     0.00000000     0.00000000     0.00000000
     0.00000000     0.00000000     0.00000000
     0.00000000     0.00000000     0.00000000
     0.00000000     0.00000000     0.00000000
     0.00000000     0.00000000     0.00000000
     0.00000000     0.00000000     0.00000000
     0.00000000     0.00000000     0.00000000
     0.00000000     0.00000000     0.00000000
     0.00000000     0.00000000     0.00000000
     0.00000000     0.00000000     0.00000000
     0.00000000     0.00000000     0.00000000
     0.00000000     0.00000000     0.00000000
     0.00000000     0.00000000     0.00000000
     0.00000000     0.00000000     0.00000000
     0.00000000     0.00000000     0.00000000
     0.00000000     0.00000000     0.00000000
     0.00000000     0.00000000     0.00000000
     0.00000000     0.00000000     0.00000000
     0.00000000     0.00000000     0.00000000
     0.00000000     0.00000000     0.00000000
     0.00000000     0.00000000     0.00000000
     0.00000000     0.00000000     0.00000000
     0.00000000     0.00000000     0.00000000
     0.00000000     0.00000000     0.00000000
     0.00000000     0.00000000     0.00000000
     0.00000000     0.00000000     0.00000000
     0.00000000     0.00000000     0.00000000
     0.00000000     0.00000000     0.00000000
     0.00000000     0.00000000     0.00000000
     0.00000000     0.00000000     0.00000000
     0.00000000     0.00000000     0.00000000
     0.00000000     0.00000000     0.00000000
     0.00000000     0.00000000     0.00000000
     0.00000000     0.00000000     0.00000000
     0.00000000     0.00000000     0.00000000
     0.00000000     0.00000000     0.00000000
     0.00000000     0.00000000     0.00000000
     0.00000000     0.00000000     0.00000000
     0.00000000     0.00000000     0.00000000
     0.00000000     0.00000000     0.00000000
     0.00000000     0.00000000     0.00000000
     0.00000000     0.00000000     0.00000000
     0.00000000     0.00000000     0.00000000
     0.00000000     0.00000000     0.00000000
     0.00000000     0.00000000     0.00000000
     0.00000000     0.00000000     0.00000000
     0.00000000     0.00000000     0.00000000
     0.00000000     0.00000000     0.00000000
     0.00000000     0.00000000     0.00000000
     0.00000000     0.00000000     0.00000000
     0.00000000     0.00000000     0.00000000
     0.00000000     0.00000000     0.00000000
     0.00000000     0.00000000     0.00000000
     0.00000000     0.00000000     0.00000000
     0.00000000     0.00000000     0.00000000
     0.00000000     0.00000000     0.00000000
     0.00000000     0.00000000     0.00000000
     0.00000000     0.00000000     0.00000000
     0.00000000     0.00000000     0.00000000
     0.00000000     0.00000000     0.00000000
     0.00000000     0.00000000     0.00000000
     0.00000000     0.00000000     0.00000000
     0.00000000     0.00000000     0.00000000
     0.00000000     0.00000000     0.00000000
     0.00000000     0.00000000     0.00000000
     0.00000000     0.00000000     0.00000000
     0.00000000     0.00000000     0.00000000
     0.00000000     0.00000000     0.00000000
     0.00000000     0.00000000     0.00000000
     0.00000000     0.00000000     0.00000000
     0.00000000     0.00000000     0.00000000
     0.00000000     0.00000000     0.00000000
     0.00000000     0.00000000     0.00000000
     0.00000000     0.00000000     0.00000000
     0.00000000     0.00000000     0.00000000
     0.00000000     0.00000000     0.00000000
     0.00000000     0.00000000     0.00000000
     0.00000000     0.00000000     0.00000000
     0.00000000     0.00000000     0.00000000
     0.00000000     0.00000000     0.00000000
     0.00000000     0.00000000     0.00000000
     0.00000000     0.00000000     0.00000000
     0.00000000     0.00000000     0.00000000
     0.00000000     0.00000000     0.00000000
     0.00000000     0.00000000     0.00000000
     0.00000000     0.00000000     0.00000000
     0.00000000     0.00000000     0.00000000
     0.00000000     0.00000000     0.00000000
     0.00000000     0.00000000     0.00000000
     0.00000000     0.00000000     0.00000000
     0.00000000     0.00000000     0.00000000
     0.00000000     0.00000000     0.00000000
     0.00000000     0.00000000     0.00000000
     0.00000000     0.00000000     0.00000000
     0.00000000     0.00000000     0.00000000
     0.00000000     0.00000000     0.00000000
     0.00000000     0.00000000     0.00000000
     0.00000000     0.00000000     0.00000000
     0.00000000     0.00000000     0.00000000
     0.00000000     0.00000000     0.00000000
     0.00000000     0.00000000     0.00000000
     0.00000000     0.00000000     0.00000000
     0.00000000     0.00000000     0.00000000
     0.00000000     0.00000000     0.00000000
     0.00000000     0.00000000     0.00000000
     0.00000000     0.00000000     0.00000000
     0.00000000     0.00000000     0.00000000
     0.00000000     0.00000000     0.00000000
     0.00000000     0.00000000     0.00000000
     0.00000000     0.00000000     0.00000000
     0.00000000     0.00000000     0.00000000
     0.00000000     0.00000000     0.00000000
     0.00000000     0.00000000     0.00000000
     0.00000000     0.00000000     0.00000000
     0.00000000     0.00000000     0.00000000
     0.00000000     0.00000000     0.00000000
     0.00000000     0.00000000     0.00000000
     0.00000000     0.00000000     0.00000000
     0.00000000     0.00000000     0.00000000
     0.00000000     0.00000000     0.00000000
     0.00000000     0.00000000     0.00000000
     0.00000000     0.00000000     0.00000000
     0.00000000     0.00000000     0.00000000
     0.00000000     0.00000000     0.00000000
     0.00000000     0.00000000     0.00000000
     0.00000000     0.00000000     0.00000000
     0.00000000     0.00000000     0.00000000
     0.00000000     0.00000000     0.00000000
     0.00000000     0.00000000     0.00000000
     0.00000000     0.00000000     0.00000000
     0.00000000     0.00000000     0.00000000
     0.00000000     0.00000000     0.00000000
     0.00000000     0.00000000     0.00000000
     0.00000000     0.00000000     0.00000000
     0.00000000     0.00000000     0.00000000
     0.00000000     0.00000000     0.00000000
     0.00000000     0.00000000     0.00000000
     0.00000000     0.00000000     0.00000000
     0.00000000     0.00000000     0.00000000
     0.00000000     0.00000000     0.00000000
     0.00000000     0.00000000     0.00000000
     0.00000000     0.00000000     0.00000000
     0.00000000     0.00000000     0.00000000
     0.00000000     0.00000000     0.00000000
     0.00000000     0.00000000     0.00000000
     0.00000000     0.00000000     0.00000000
     0.00000000     0.00000000     0.00000000
     0.00000000     0.00000000     0.00000000
     0.00000000     0.00000000     0.00000000
     0.00000000     0.00000000     0.00000000
     0.00000000     0.00000000     0.00000000
     0.00000000     0.00000000     0.00000000
     0.00000000     0.00000000     0.00000000
     0.00000000     0.00000000     0.00000000
     0.00000000     0.00000000     0.00000000
     0.00000000     0.00000000     0.00000000
     0.00000000     0.00000000     0.00000000
     0.00000000     0.00000000     0.00000000
     0.00000000     0.00000000     0.00000000
     0.00000000     0.00000000     0.00000000
     0.00000000     0.00000000     0.00000000
     0.00000000     0.00000000     0.00000000
     0.00000000     0.00000000     0.00000000
     0.00000000     0.00000000     0.00000000
     0.00000000     0.00000000     0.00000000
     0.00000000     0.00000000     0.00000000
     0.00000000     0.00000000     0.00000000
     0.00000000     0.00000000     0.00000000
     0.00000000     0.00000000     0.00000000
     0.00000000     0.00000000     0.00000000
     0.00000000     0.00000000     0.00000000
     0.00000000     0.00000000     0.00000000
     0.00000000     0.00000000     0.00000000
     0.00000000     0.00000000     0.00000000
     0.00000000     0.00000000     0.00000000
     0.00000000     0.00000000     0.00000000
     0.00000000     0.00000000     0.00000000
     0.00000000     0.00000000     0.00000000
     0.00000000     0.00000000     0.00000000
     0.00000000     0.00000000     0.00000000
     0.00000000     0.00000000     0.00000000
     0.00000000     0.00000000     0.00000000
     0.00000000     0.00000000     0.00000000
     0.00000000     0.00000000     0.00000000
     0.00000000     0.00000000     0.00000000
     0.00000000     0.00000000     0.00000000
     0.00000000     0.00000000     0.00000000
     0.00000000     0.00000000     0.00000000
     0.00000000     0.00000000     0.00000000
     0.00000000     0.00000000     0.00000000
     0.00000000     0.00000000     0.00000000
     0.00000000     0.00000000     0.00000000
     0.00000000     0.00000000     0.00000000
     0.00000000     0.00000000     0.00000000
     0.00000000     0.00000000     0.00000000
     0.00000000     0.00000000     0.00000000
     0.00000000     0.00000000     0.00000000
     0.00000000     0.00000000     0.00000000
     0.00000000     0.00000000     0.00000000
     0.00000000     0.00000000     0.00000000
     0.00000000     0.00000000     0.00000000
     0.00000000     0.00000000     0.00000000
     0.00000000     0.00000000     0.00000000
     0.00000000     0.00000000     0.00000000
     0.00000000     0.00000000     0.00000000
     0.00000000     0.00000000     0.00000000
     0.00000000     0.00000000     0.00000000
     0.00000000     0.00000000     0.00000000
     0.00000000     0.00000000     0.00000000
     0.00000000     0.00000000     0.00000000
     0.00000000     0.00000000     0.00000000
     0.00000000     0.00000000     0.00000000
     0.00000000     0.00000000     0.00000000
     0.00000000     0.00000000     0.00000000
     0.00000000     0.00000000     0.00000000
     0.00000000     0.00000000     0.00000000
     0.00000000     0.00000000     0.00000000
     0.00000000     0.00000000     0.00000000
     0.00000000     0.00000000     0.00000000
     0.00000000     0.00000000     0.00000000
     0.00000000     0.00000000     0.00000000
     0.00000000     0.00000000     0.00000000
     0.00000000     0.00000000     0.00000000
     0.00000000     0.00000000     0.00000000
     0.00000000     0.00000000     0.00000000
     0.00000000     0.00000000     0.00000000
     0.00000000     0.00000000     0.00000000
     0.00000000     0.00000000     0.00000000
     0.00000000     0.00000000     0.00000000
     0.00000000     0.00000000     0.00000000
     0.00000000     0.00000000     0.00000000
     0.00000000     0.00000000     0.00000000
     0.00000000     0.00000000     0.00000000
     0.00000000     0.00000000     0.00000000
     0.00000000     0.00000000     0.00000000
     0.00000000     0.00000000     0.00000000
     0.00000000     0.00000000     0.00000000
     0.00000000     0.00000000     0.00000000
     0.00000000     0.00000000     0.00000000
     0.00000000     0.00000000     0.00000000
     0.00000000     0.00000000     0.00000000
     0.00000000     0.00000000     0.00000000
     0.00000000     0.00000000     0.00000000
     0.00000000     0.00000000     0.00000000
     0.00000000     0.00000000     0.00000000
     0.00000000     0.00000000     0.00000000
     0.00000000     0.00000000     0.00000000
     0.00000000     0.00000000     0.00000000
     0.00000000     0.00000000     0.00000000
     0.00000000     0.00000000     0.00000000
     0.00000000     0.00000000     0.00000000
     0.00000000     0.00000000     0.00000000
     0.00000000     0.00000000     0.00000000
     0.00000000     0.00000000     0.00000000
     0.00000000     0.00000000     0.00000000
     0.00000000     0.00000000     0.00000000
     0.00000000     0.00000000     0.00000000
     0.00000000     0.00000000     0.00000000
     0.00000000     0.00000000     0.00000000
     0.00000000     0.00000000     0.00000000
     0.00000000     0.00000000     0.00000000
     0.00000000     0.00000000     0.00000000
     0.00000000     0.00000000     0.00000000
     0.00000000     0.00000000     0.00000000
     0.00000000     0.00000000     0.00000000
     0.00000000     0.00000000     0.00000000
     0.00000000     0.00000000     0.00000000
     0.00000000     0.00000000     0.00000000
     0.00000000     0.00000000     0.00000000
     0.00000000     0.00000000     0.00000000
     0.00000000     0.00000000     0.00000000
     0.00000000     0.00000000     0.00000000
     0.00000000     0.00000000     0.00000000
     0.00000000     0.00000000     0.00000000
     0.00000000     0.00000000     0.00000000
     0.00000000     0.00000000     0.00000000
     0.00000000     0.00000000     0.00000000
     0.00000000     0.00000000     0.00000000
     0.00000000     0.00000000     0.00000000
     0.00000000     0.00000000     0.00000000
     0.00000000     0.00000000     0.00000000
     0.00000000     0.00000000     0.00000000
     0.00000000     0.00000000     0.00000000
     0.00000000     0.00000000     0.00000000
     0.00000000     0.00000000     0.00000000
     0.00000000     0.00000000     0.00000000
     0.00000000     0.00000000     0.00000000
     0.00000000     0.00000000     0.00000000
     0.00000000     0.00000000     0.00000000
     0.00000000     0.00000000     0.00000000
     0.00000000     0.00000000     0.00000000
     0.00000000     0.00000000     0.00000000
     0.00000000     0.00000000     0.00000000
     0.00000000     0.00000000     0.00000000
     0.00000000     0.00000000     0.00000000
     0.00000000     0.00000000     0.00000000
     0.00000000     0.00000000     0.00000000
     0.00000000     0.00000000     0.00000000
     0.00000000     0.00000000     0.00000000
     0.00000000     0.00000000     0.00000000
     0.00000000     0.00000000     0.00000000
     0.00000000     0.00000000     0.00000000
     0.00000000     0.00000000     0.00000000
     0.00000000     0.00000000     0.00000000
     0.00000000     0.00000000     0.00000000
     0.00000000     0.00000000     0.00000000
     0.00000000     0.00000000     0.00000000
     0.00000000     0.00000000     0.00000000
     0.00000000     0.00000000     0.00000000
     0.00000000     0.00000000     0.00000000
     0.00000000     0.00000000     0.00000000
     0.00000000     0.00000000     0.00000000
     0.00000000     0.00000000     0.00000000
     0.00000000     0.00000000     0.00000000
     0.00000000     0.00000000     0.00000000
     0.00000000     0.00000000     0.00000000
     0.00000000     0.00000000     0.00000000
     0.00000000     0.00000000     0.00000000
     0.00000000     0.00000000     0.00000000
     0.00000000     0.00000000     0.00000000
     0.00000000     0.00000000     0.00000000
     0.00000000     0.00000000     0.00000000
     0.00000000     0.00000000     0.00000000
     0.00000000     0.00000000     0.00000000
     0.00000000     0.00000000     0.00000000
     0.00000000     0.00000000     0.00000000
     0.00000000     0.00000000     0.00000000
     0.00000000     0.00000000     0.00000000
     0.00000000     0.00000000     0.00000000
     0.00000000     0.00000000     0.00000000
     0.00000000     0.00000000     0.00000000
     0.00000000     0.00000000     0.00000000
     0.00000000     0.00000000     0.00000000
     0.00000000     0.00000000     0.00000000
     0.00000000     0.00000000     0.00000000
     0.00000000     0.00000000     0.00000000
     0.00000000     0.00000000     0.00000000
     0.00000000     0.00000000     0.00000000
     0.00000000     0.00000000     0.00000000
     0.00000000     0.00000000     0.00000000
     0.00000000     0.00000000     0.00000000
     0.00000000     0.00000000     0.00000000
     0.00000000     0.00000000     0.00000000
     0.00000000     0.00000000     0.00000000
     0.00000000     0.00000000     0.00000000
     0.00000000     0.00000000     0.00000000
     0.00000000     0.00000000     0.00000000
     0.00000000     0.00000000     0.00000000
     0.00000000     0.00000000     0.00000000
     0.00000000     0.00000000     0.00000000
     0.00000000     0.00000000     0.00000000
     0.00000000     0.00000000     0.00000000
     0.00000000     0.00000000     0.00000000
     0.00000000     0.00000000     0.00000000
     0.00000000     0.00000000     0.00000000
     0.00000000     0.00000000     0.00000000
     0.00000000     0.00000000     0.00000000
     0.00000000     0.00000000     0.00000000
     0.00000000     0.00000000     0.00000000
     0.00000000     0.00000000     0.00000000
     0.00000000     0.00000000     0.00000000
     0.00000000     0.00000000     0.00000000
     0.00000000     0.00000000     0.00000000
     0.00000000     0.00000000     0.00000000
     0.00000000     0.00000000     0.00000000
     0.00000000     0.00000000     0.00000000
     0.00000000     0.00000000     0.00000000
     0.00000000     0.00000000     0.00000000
     0.00000000     0.00000000     0.00000000
     0.00000000     0.00000000     0.00000000
     0.00000000     0.00000000     0.00000000
     0.00000000     0.00000000     0.00000000
     0.00000000     0.00000000     0.00000000
     0.00000000     0.00000000     0.00000000
     0.00000000     0.00000000     0.00000000
     0.00000000     0.00000000     0.00000000
     0.00000000     0.00000000     0.00000000
     0.00000000     0.00000000     0.00000000
     0.00000000     0.00000000     0.00000000
     0.00000000     0.00000000     0.00000000
     0.00000000     0.00000000     0.00000000
     0.00000000     0.00000000     0.00000000
     0.00000000     0.00000000     0.00000000
     0.00000000     0.00000000     0.00000000
     0.00000000     0.00000000     0.00000000
     0.00000000     0.00000000     0.00000000
     0.00000000     0.00000000     0.00000000
     0.00000000     0.00000000     0.00000000
     0.00000000     0.00000000     0.00000000
     0.00000000     0.00000000     0.00000000
     0.00000000     0.00000000     0.00000000
     0.00000000     0.00000000     0.00000000
     0.00000000     0.00000000     0.00000000
     0.00000000     0.00000000     0.00000000
     0.00000000     0.00000000     0.00000000
     0.00000000     0.00000000     0.00000000
     0.00000000     0.00000000     0.00000000
     0.00000000     0.00000000     0.00000000
     0.00000000     0.00000000     0.00000000
     0.00000000     0.00000000     0.00000000
     0.00000000     0.00000000     0.00000000
     0.00000000     0.00000000     0.00000000
     0.00000000     0.00000000     0.00000000
     0.00000000     0.00000000     0.00000000
     0.00000000     0.00000000     0.00000000
     0.00000000     0.00000000     0.00000000
     0.00000000     0.00000000     0.00000000
     0.00000000     0.00000000     0.00000000
     0.00000000     0.00000000     0.00000000
     0.00000000     0.00000000     0.00000000
     0.00000000     0.00000000     0.00000000
     0.00000000     0.00000000     0.00000000
     0.00000000     0.00000000     0.00000000
     0.00000000     0.00000000     0.00000000
     0.00000000     0.00000000     0.00000000
     0.00000000     0.00000000     0.00000000
     0.00000000     0.00000000     0.00000000
     0.00000000     0.00000000     0.00000000
     0.00000000     0.00000000     0.00000000
     0.00000000     0.00000000     0.00000000
     0.00000000     0.00000000     0.00000000
     0.00000000     0.00000000     0.00000000
     0.00000000     0.00000000     0.00000000
     0.00000000     0.00000000     0.00000000
     0.00000000     0.00000000     0.00000000
     0.00000000     0.00000000     0.00000000
     0.00000000     0.00000000     0.00000000
     0.00000000     0.00000000     0.00000000
     0.00000000     0.00000000     0.00000000
     0.00000000     0.00000000     0.00000000
     0.00000000     0.00000000     0.00000000
     0.00000000     0.00000000     0.00000000
     0.00000000     0.00000000     0.00000000
     0.00000000     0.00000000     0.00000000
     0.00000000     0.00000000     0.00000000
     0.00000000     0.00000000     0.00000000
     0.00000000     0.00000000     0.00000000
     0.00000000     0.00000000     0.00000000
     0.00000000     0.00000000     0.00000000
     0.00000000     0.00000000     0.00000000
     0.00000000     0.00000000     0.00000000
     0.00000000     0.00000000     0.00000000
     0.00000000     0.00000000     0.00000000
     0.00000000     0.00000000     0.00000000
     0.00000000     0.00000000     0.00000000
     0.00000000     0.00000000     0.00000000
     0.00000000     0.00000000     0.00000000
     0.00000000     0.00000000     0.00000000
     0.00000000     0.00000000     0.00000000
     0.00000000     0.00000000     0.00000000
     0.00000000     0.00000000     0.00000000
     0.00000000     0.00000000     0.00000000
     0.00000000     0.00000000     0.00000000
     0.00000000     0.00000000     0.00000000
     0.00000000     0.00000000     0.00000000
     0.00000000     0.00000000     0.00000000
     0.00000000     0.00000000     0.00000000
     0.00000000     0.00000000     0.00000000
     0.00000000     0.00000000     0.00000000
     0.00000000     0.00000000     0.00000000
     0.00000000     0.00000000     0.00000000
     0.00000000     0.00000000     0.00000000
     0.00000000     0.00000000     0.00000000
     0.00000000     0.00000000     0.00000000
     0.00000000     0.00000000     0.00000000
     0.00000000     0.00000000     0.00000000
     0.00000000     0.00000000     0.00000000
     0.00000000     0.00000000     0.00000000
     0.00000000     0.00000000     0.00000000
     0.00000000     0.00000000     0.00000000
     0.00000000     0.00000000     0.00000000
     0.00000000     0.00000000     0.00000000
     0.00000000     0.00000000     0.00000000
     0.00000000     0.00000000     0.00000000
     0.00000000     0.00000000     0.00000000
     0.00000000     0.00000000     0.00000000
     0.00000000     0.00000000     0.00000000
     0.00000000     0.00000000     0.00000000
     0.00000000     0.00000000     0.00000000
     0.00000000     0.00000000     0.00000000
     0.00000000     0.00000000     0.00000000
     0.00000000     0.00000000     0.00000000
     0.00000000     0.00000000     0.00000000
     0.00000000     0.00000000     0.00000000
     0.00000000     0.00000000     0.00000000
     0.00000000     0.00000000     0.00000000
     0.00000000     0.00000000     0.00000000
     0.00000000     0.00000000     0.00000000
     0.00000000     0.00000000     0.00000000
     0.00000000     0.00000000     0.00000000
     0.00000000     0.00000000     0.00000000
     0.00000000     0.00000000     0.00000000
     0.00000000     0.00000000     0.00000000
     0.00000000     0.00000000     0.00000000
     0.00000000     0.00000000     0.00000000
     0.00000000     0.00000000     0.00000000
     0.00000000     0.00000000     0.00000000
     0.00000000     0.00000000     0.00000000
     0.00000000     0.00000000     0.00000000
     0.00000000     0.00000000     0.00000000
     0.00000000     0.00000000     0.00000000
     0.00000000     0.00000000     0.00000000
     0.00000000     0.00000000     0.00000000
     0.00000000     0.00000000     0.00000000
     0.00000000     0.00000000     0.00000000
     0.00000000     0.00000000     0.00000000
     0.00000000     0.00000000     0.00000000
     0.00000000     0.00000000     0.00000000
     0.00000000     0.00000000     0.00000000
     0.00000000     0.00000000     0.00000000
     0.00000000     0.00000000     0.00000000
     0.00000000     0.00000000     0.00000000
     0.00000000     0.00000000     0.00000000
     0.00000000     0.00000000     0.00000000
     0.00000000     0.00000000     0.00000000
     0.00000000     0.00000000     0.00000000
     0.00000000     0.00000000     0.00000000
     0.00000000     0.00000000     0.00000000
     0.00000000     0.00000000     0.00000000
     0.00000000     0.00000000     0.00000000
     0.00000000     0.00000000     0.00000000
     0.00000000     0.00000000     0.00000000
     0.00000000     0.00000000     0.00000000
     0.00000000     0.00000000     0.00000000
     0.00000000     0.00000000     0.00000000
     0.00000000     0.00000000     0.00000000
     0.00000000     0.00000000     0.00000000
     0.00000000     0.00000000     0.00000000
     0.00000000     0.00000000     0.00000000
     0.00000000     0.00000000     0.00000000
     0.00000000     0.00000000     0.00000000
     0.00000000     0.00000000     0.00000000
     0.00000000     0.00000000     0.00000000
     0.00000000     0.00000000     0.00000000
     0.00000000     0.00000000     0.00000000
     0.00000000     0.00000000     0.00000000
     0.00000000     0.00000000     0.00000000
     0.00000000     0.00000000     0.00000000
     0.00000000     0.00000000     0.00000000
     0.00000000     0.00000000     0.00000000
     0.00000000     0.00000000     0.00000000
     0.00000000     0.00000000     0.00000000
     0.00000000     0.00000000     0.00000000
     0.00000000     0.00000000     0.00000000
     0.00000000     0.00000000     0.00000000
     0.00000000     0.00000000     0.00000000
     0.00000000     0.00000000     0.00000000
     0.00000000     0.00000000     0.00000000
     0.00000000     0.00000000     0.00000000
     0.00000000     0.00000000     0.00000000
     0.00000000     0.00000000     0.00000000
     0.00000000     0.00000000     0.00000000
     0.00000000     0.00000000     0.00000000
     0.00000000     0.00000000     0.00000000
     0.00000000     0.00000000     0.00000000
     0.00000000     0.00000000     0.00000000
     0.00000000     0.00000000     0.00000000
     0.00000000     0.00000000     0.00000000
     0.00000000     0.00000000     0.00000000
     0.00000000     0.00000000     0.00000000
     0.00000000     0.00000000     0.00000000
     0.00000000     0.00000000     0.00000000
     0.00000000     0.00000000     0.00000000
     0.00000000     0.00000000     0.00000000
     0.00000000     0.00000000     0.00000000
     0.00000000     0.00000000     0.00000000
     0.00000000     0.00000000     0.00000000
     0.00000000     0.00000000     0.00000000
     0.00000000     0.00000000     0.00000000
     0.00000000     0.00000000     0.00000000
     0.00000000     0.00000000     0.00000000
     0.00000000     0.00000000     0.00000000
     0.00000000     0.00000000     0.00000000
     0.00000000     0.00000000     0.00000000
     0.00000000     0.00000000     0.00000000
     0.00000000     0.00000000     0.00000000
     0.00000000     0.00000000     0.00000000
     0.00000000     0.00000000     0.00000000
     0.00000000     0.00000000     0.00000000
     0.00000000     0.00000000     0.00000000
     0.00000000     0.00000000     0.00000000
     0.00000000     0.00000000     0.00000000
     0.00000000     0.00000000     0.00000000
     0.00000000     0.00000000     0.00000000
     0.00000000     0.00000000     0.00000000
     0.00000000     0.00000000     0.00000000
     0.00000000     0.00000000     0.00000000
     0.00000000     0.00000000     0.00000000
     0.00000000     0.00000000     0.00000000
     0.00000000     0.00000000     0.00000000
     0.00000000     0.00000000     0.00000000
     0.00000000     0.00000000     0.00000000
     0.00000000     0.00000000     0.00000000
     0.00000000     0.00000000     0.00000000
     0.00000000     0.00000000     0.00000000
     0.00000000     0.00000000     0.00000000
     0.00000000     0.00000000     0.00000000
     0.00000000     0.00000000     0.00000000
     0.00000000     0.00000000     0.00000000
     0.00000000     0.00000000     0.00000000
     0.00000000     0.00000000     0.00000000
     0.00000000     0.00000000     0.00000000
     0.00000000     0.00000000     0.00000000
     0.00000000     0.00000000     0.00000000
     0.00000000     0.00000000     0.00000000
     0.00000000     0.00000000     0.00000000
     0.00000000     0.00000000     0.00000000
     0.00000000     0.00000000     0.00000000
     0.00000000     0.00000000     0.00000000
     0.00000000     0.00000000     0.00000000
     0.00000000     0.00000000     0.00000000
     0.00000000     0.00000000     0.00000000
     0.00000000     0.00000000     0.00000000
     0.00000000     0.00000000     0.00000000
     0.00000000     0.00000000     0.00000000
     0.00000000     0.00000000     0.00000000
     0.00000000     0.00000000     0.00000000
     0.00000000     0.00000000     0.00000000
     0.00000000     0.00000000     0.00000000
     0.00000000     0.00000000     0.00000000
     0.00000000     0.00000000     0.00000000
     0.00000000     0.00000000     0.00000000
     0.00000000     0.00000000     0.00000000
     0.00000000     0.00000000     0.00000000
     0.00000000     0.00000000     0.00000000
     0.00000000     0.00000000     0.00000000
     0.00000000     0.00000000     0.00000000
     0.00000000     0.00000000     0.00000000
     0.00000000     0.00000000     0.00000000
     0.00000000     0.00000000     0.00000000
     0.00000000     0.00000000     0.00000000
     0.00000000     0.00000000     0.00000000
     0.00000000     0.00000000     0.00000000
     0.00000000     0.00000000     0.00000000
     0.00000000     0.00000000     0.00000000
     0.00000000     0.00000000     0.00000000
     0.00000000     0.00000000     0.00000000
     0.00000000     0.00000000     0.00000000
     0.00000000     0.00000000     0.00000000
     0.00000000     0.00000000     0.00000000
     0.00000000     0.00000000     0.00000000
     0.00000000     0.00000000     0.00000000
     0.00000000     0.00000000     0.00000000
     0.00000000     0.00000000     0.00000000
     0.00000000     0.00000000     0.00000000
     0.00000000     0.00000000     0.00000000
     0.00000000     0.00000000     0.00000000
     0.00000000     0.00000000     0.00000000
     0.00000000     0.00000000     0.00000000
     0.00000000     0.00000000     0.00000000
     0.00000000     0.00000000     0.00000000
     0.00000000     0.00000000     0.00000000
     0.00000000     0.00000000     0.00000000
     0.00000000     0.00000000     0.00000000
     0.00000000     0.00000000     0.00000000
     0.00000000     0.00000000     0.00000000
     0.00000000     0.00000000     0.00000000
     0.00000000     0.00000000     0.00000000
     0.00000000     0.00000000     0.00000000
     0.00000000     0.00000000     0.00000000
     0.00000000     0.00000000     0.00000000
     0.00000000     0.00000000     0.00000000
     0.00000000     0.00000000     0.00000000
     0.00000000     0.00000000     0.00000000
     0.00000000     0.00000000     0.00000000
     0.00000000     0.00000000     0.00000000
     0.00000000     0.00000000     0.00000000
     0.00000000     0.00000000     0.00000000
     0.00000000     0.00000000     0.00000000
     0.00000000     0.00000000     0.00000000
     0.00000000     0.00000000     0.00000000
     0.00000000     0.00000000     0.00000000
     0.00000000     0.00000000     0.00000000
     0.00000000     0.00000000     0.00000000
     0.00000000     0.00000000     0.00000000
     0.00000000     0.00000000     0.00000000
     0.00000000     0.00000000     0.00000000
     0.00000000     0.00000000     0.00000000
     0.00000000     0.00000000     0.00000000
     0.00000000     0.00000000     0.00000000
     0.00000000     0.00000000     0.00000000
     0.00000000     0.00000000     0.00000000
     0.00000000     0.00000000     0.00000000
     0.00000000     0.00000000     0.00000000
     0.00000000     0.00000000     0.00000000
     0.00000000     0.00000000     0.00000000
     0.00000000     0.00000000     0.00000000
     0.00000000     0.00000000     0.00000000
     0.00000000     0.00000000     0.00000000
     0.00000000     0.00000000     0.00000000
     0.00000000     0.00000000     0.00000000
     0.00000000     0.00000000     0.00000000
     0.00000000     0.00000000     0.00000000
     0.00000000     0.00000000     0.00000000
     0.00000000     0.00000000     0.00000000
     0.00000000     0.00000000     0.00000000
     0.00000000     0.00000000     0.00000000
     0.00000000     0.00000000     0.00000000
     0.00000000     0.00000000     0.00000000
     0.00000000     0.00000000     0.00000000
     0.00000000     0.00000000     0.00000000
     0.00000000     0.00000000     0.00000000
     0.00000000     0.00000000     0.00000000
     0.00000000     0.00000000     0.00000000
     0.00000000     0.00000000     0.00000000
     0.00000000     0.00000000     0.00000000
     0.00000000     0.00000000     0.00000000
     0.00000000     0.00000000     0.00000000
     0.00000000     0.00000000     0.00000000
     0.00000000     0.00000000     0.00000000
     0.00000000     0.00000000     0.00000000
     0.00000000     0.00000000     0.00000000
     0.00000000     0.00000000     0.00000000
     0.00000000     0.00000000     0.00000000
     0.00000000     0.00000000     0.00000000
     0.00000000     0.00000000     0.00000000
     0.00000000     0.00000000     0.00000000
     0.00000000     0.00000000     0.00000000
     0.00000000     0.00000000     0.00000000
     0.00000000     0.00000000     0.00000000
     0.00000000     0.00000000     0.00000000
     0.00000000     0.00000000     0.00000000
     0.00000000     0.00000000     0.00000000
     0.00000000     0.00000000     0.00000000
     0.00000000     0.00000000     0.00000000
     0.00000000     0.00000000     0.00000000
     0.00000000     0.00000000     0.00000000
     0.00000000     0.00000000     0.00000000
     0.00000000     0.00000000     0.00000000
     0.00000000     0.00000000     0.00000000
     0.00000000     0.00000000     0.00000000
     0.00000000     0.00000000     0.00000000
     0.00000000     0.00000000     0.00000000
     0.00000000     0.00000000     0.00000000
     0.00000000     0.00000000     0.00000000
     0.00000000     0.00000000     0.00000000
     0.00000000     0.00000000     0.00000000
     0.00000000     0.00000000     0.00000000
     0.00000000     0.00000000     0.00000000
     0.00000000     0.00000000     0.00000000
     0.00000000     0.00000000     0.00000000
     0.00000000     0.00000000     0.00000000
     0.00000000     0.00000000     0.00000000
     0.00000000     0.00000000     0.00000000
     0.00000000     0.00000000     0.00000000
     0.00000000     0.00000000     0.00000000
     0.00000000     0.00000000     0.00000000
     0.00000000     0.00000000     0.00000000
     0.00000000     0.00000000     0.00000000
     0.00000000     0.00000000     0.00000000
     0.00000000     0.00000000     0.00000000
     0.00000000     0.00000000     0.00000000
     0.00000000     0.00000000     0.00000000
     0.00000000     0.00000000     0.00000000
     0.00000000     0.00000000     0.00000000
     0.00000000     0.00000000     0.00000000
     0.00000000     0.00000000     0.00000000
     0.00000000     0.00000000     0.00000000
     0.00000000     0.00000000     0.00000000
     0.00000000     0.00000000     0.00000000
     0.00000000     0.00000000     0.00000000
     0.00000000     0.00000000     0.00000000
     0.00000000     0.00000000     0.00000000
     0.00000000     0.00000000     0.00000000
     0.00000000     0.00000000     0.00000000
     0.00000000     0.00000000     0.00000000
     0.00000000     0.00000000     0.00000000
     0.00000000     0.00000000     0.00000000
     0.00000000     0.00000000     0.00000000
     0.00000000     0.00000000     0.00000000
     0.00000000     0.00000000     0.00000000
     0.00000000     0.00000000     0.00000000
     0.00000000     0.00000000     0.00000000
     0.00000000     0.00000000     0.00000000
     0.00000000     0.00000000     0.00000000
     0.00000000     0.00000000     0.00000000
     0.00000000     0.00000000     0.00000000
     0.00000000     0.00000000     0.00000000
     0.00000000     0.00000000     0.00000000
     0.00000000     0.00000000     0.00000000
     0.00000000     0.00000000     0.00000000
     0.00000000     0.00000000     0.00000000
     0.00000000     0.00000000     0.00000000
     0.00000000     0.00000000     0.00000000
     0.00000000     0.00000000     0.00000000
     0.00000000     0.00000000     0.00000000
     0.00000000     0.00000000     0.00000000
     0.00000000     0.00000000     0.00000000
     0.00000000     0.00000000     0.00000000
     0.00000000     0.00000000     0.00000000
     0.00000000     0.00000000     0.00000000
     0.00000000     0.00000000     0.00000000
     0.00000000     0.00000000     0.00000000
     0.00000000     0.00000000     0.00000000
     0.00000000     0.00000000     0.00000000
     0.00000000     0.00000000     0.00000000
     0.00000000     0.00000000     0.00000000
     0.00000000     0.00000000     0.00000000
     0.00000000     0.00000000     0.00000000
     0.00000000     0.00000000     0.00000000
     0.00000000     0.00000000     0.00000000
     0.00000000     0.00000000     0.00000000
     0.00000000     0.00000000     0.00000000
     0.00000000     0.00000000     0.00000000
     0.00000000     0.00000000     0.00000000
     0.00000000     0.00000000     0.00000000
     0.00000000     0.00000000     0.00000000
     0.00000000     0.00000000     0.00000000
     0.00000000     0.00000000     0.00000000
     0.00000000     0.00000000     0.00000000
     0.00000000     0.00000000     0.00000000
     0.00000000     0.00000000     0.00000000
     0.00000000     0.00000000     0.00000000
     0.00000000     0.00000000     0.00000000
     0.00000000     0.00000000     0.00000000
     0.00000000     0.00000000     0.00000000
     0.00000000     0.00000000     0.00000000
     0.00000000     0.00000000     0.00000000
     0.00000000     0.00000000     0.00000000
     0.00000000     0.00000000     0.00000000
     0.00000000     0.00000000     0.00000000
     0.00000000     0.00000000     0.00000000
     0.00000000     0.00000000     0.00000000
     0.00000000     0.00000000     0.00000000
     0.00000000     0.00000000     0.00000000
     0.00000000     0.00000000     0.00000000
     0.00000000     0.00000000     0.00000000
     0.00000000     0.00000000     0.00000000
     0.00000000     0.00000000     0.00000000
     0.00000000     0.00000000     0.00000000
     0.00000000     0.00000000     0.00000000
     0.00000000     0.00000000     0.00000000
     0.00000000     0.00000000     0.00000000
     0.00000000     0.00000000     0.00000000
     0.00000000     0.00000000     0.00000000
     0.00000000     0.00000000     0.00000000
     0.00000000     0.00000000     0.00000000
     0.00000000     0.00000000     0.00000000
     0.00000000     0.00000000     0.00000000
     0.00000000     0.00000000     0.00000000
     0.00000000     0.00000000     0.00000000
     0.00000000     0.00000000     0.00000000
     0.00000000     0.00000000     0.00000000
     0.00000000     0.00000000     0.00000000
     0.00000000     0.00000000     0.00000000
     0.00000000     0.00000000     0.00000000
     0.00000000     0.00000000     0.00000000
     0.00000000     0.00000000     0.00000000
     0.00000000     0.00000000     0.00000000
     0.00000000     0.00000000     0.00000000
     0.00000000     0.00000000     0.00000000
     0.00000000     0.00000000     0.00000000
     0.00000000     0.00000000     0.00000000
     0.00000000     0.00000000     0.00000000
     0.00000000     0.00000000     0.00000000
     0.00000000     0.00000000     0.00000000
     0.00000000     0.00000000     0.00000000
     0.00000000     0.00000000     0.00000000
     0.00000000     0.00000000     0.00000000
     0.00000000     0.00000000     0.00000000
     0.00000000     0.00000000     0.00000000
     0.00000000     0.00000000     0.00000000
     0.00000000     0.00000000     0.00000000
     0.00000000     0.00000000     0.00000000
     0.00000000     0.00000000     0.00000000
     0.00000000     0.00000000     0.00000000
     0.00000000     0.00000000     0.00000000
     0.00000000     0.00000000     0.00000000
     0.00000000     0.00000000     0.00000000
     0.00000000     0.00000000     0.00000000
     0.00000000     0.00000000     0.00000000
     0.00000000     0.00000000     0.00000000
     0.00000000     0.00000000     0.00000000
     0.00000000     0.00000000     0.00000000
     0.00000000     0.00000000     0.00000000
     0.00000000     0.00000000     0.00000000
     0.00000000     0.00000000     0.00000000
     0.00000000     0.00000000     0.00000000
     0.00000000     0.00000000     0.00000000
     0.00000000     0.00000000     0.00000000
     0.00000000     0.00000000     0.00000000
     0.00000000     0.00000000     0.00000000
     0.00000000     0.00000000     0.00000000
     0.00000000     0.00000000     0.00000000
     0.00000000     0.00000000     0.00000000
     0.00000000     0.00000000     0.00000000
     0.00000000     0.00000000     0.00000000
     0.00000000     0.00000000     0.00000000
     0.00000000     0.00000000     0.00000000
     0.00000000     0.00000000     0.00000000
     0.00000000     0.00000000     0.00000000
     0.00000000     0.00000000     0.00000000
     0.00000000     0.00000000     0.00000000
     0.00000000     0.00000000     0.00000000
     0.00000000     0.00000000     0.00000000
     0.00000000     0.00000000     0.00000000
     0.00000000     0.00000000     0.00000000
     0.00000000     0.00000000     0.00000000
     0.00000000     0.00000000     0.00000000
     0.00000000     0.00000000     0.00000000
     0.00000000     0.00000000     0.00000000
     0.00000000     0.00000000     0.00000000
     0.00000000     0.00000000     0.00000000
     0.00000000     0.00000000     0.00000000
     0.00000000     0.00000000     0.00000000
     0.00000000     0.00000000     0.00000000
     0.00000000     0.00000000     0.00000000
     0.00000000     0.00000000     0.00000000
     0.00000000     0.00000000     0.00000000
     0.00000000     0.00000000     0.00000000
     0.00000000     0.00000000     0.00000000
     0.00000000     0.00000000     0.00000000
     0.00000000     0.00000000     0.00000000
     0.00000000     0.00000000     0.00000000
     0.00000000     0.00000000     0.00000000
     0.00000000     0.00000000     0.00000000
     0.00000000     0.00000000     0.00000000
     0.00000000     0.00000000     0.00000000
     0.00000000     0.00000000     0.00000000
     0.00000000     0.00000000     0.00000000
     0.00000000     0.00000000     0.00000000
     0.00000000     0.00000000     0.00000000
     0.00000000     0.00000000     0.00000000
     0.00000000     0.00000000     0.00000000
     0.00000000     0.00000000     0.00000000
     0.00000000     0.00000000     0.00000000
     0.00000000     0.00000000     0.00000000
     0.00000000     0.00000000     0.00000000
     0.00000000     0.00000000     0.00000000
     0.00000000     0.00000000     0.00000000
     0.00000000     0.00000000     0.00000000
     0.00000000     0.00000000     0.00000000
     0.00000000     0.00000000     0.00000000
     0.00000000     0.00000000     0.00000000
     0.00000000     0.00000000     0.00000000
     0.00000000     0.00000000     0.00000000
     0.00000000     0.00000000     0.00000000
     0.00000000     0.00000000     0.00000000
     0.00000000     0.00000000     0.00000000
     0.00000000     0.00000000     0.00000000
     0.00000000     0.00000000     0.00000000
     0.00000000     0.00000000     0.00000000
     0.00000000     0.00000000     0.00000000
     0.00000000     0.00000000     0.00000000
     0.00000000     0.00000000     0.00000000
     0.00000000     0.00000000     0.00000000
     0.00000000     0.00000000     0.00000000
     0.00000000     0.00000000     0.00000000
     0.00000000     0.00000000     0.00000000
     0.00000000     0.00000000     0.00000000
     0.00000000     0.00000000     0.00000000
     0.00000000     0.00000000     0.00000000
     0.00000000     0.00000000     0.00000000
     0.00000000     0.00000000     0.00000000
     0.00000000     0.00000000     0.00000000
     0.00000000     0.00000000     0.00000000
     0.00000000     0.00000000     0.00000000
     0.00000000     0.00000000     0.00000000
     0.00000000     0.00000000     0.00000000
     0.00000000     0.00000000     0.00000000
     0.00000000     0.00000000     0.00000000
     0.00000000     0.00000000     0.00000000
     0.00000000     0.00000000     0.00000000
     0.00000000     0.00000000     0.00000000
     0.00000000     0.00000000     0.00000000
     0.00000000     0.00000000     0.00000000
     0.00000000     0.00000000     0.00000000
     0.00000000     0.00000000     0.00000000
     0.00000000     0.00000000     0.00000000
     0.00000000     0.00000000     0.00000000
     0.00000000     0.00000000     0.00000000
     0.00000000     0.00000000     0.00000000
     0.00000000     0.00000000     0.00000000
     0.00000000     0.00000000     0.00000000
     0.00000000     0.00000000     0.00000000
     0.00000000     0.00000000     0.00000000
     0.00000000     0.00000000     0.00000000
     0.00000000     0.00000000     0.00000000
     0.00000000     0.00000000     0.00000000
     0.00000000     0.00000000     0.00000000
     0.00000000     0.00000000     0.00000000
     0.00000000     0.00000000     0.00000000
     0.00000000     0.00000000     0.00000000
     0.00000000     0.00000000     0.00000000
     0.00000000     0.00000000     0.00000000
     0.00000000     0.00000000     0.00000000
     0.00000000     0.00000000     0.00000000
     0.00000000     0.00000000     0.00000000
     0.00000000     0.00000000     0.00000000
     0.00000000     0.00000000     0.00000000
     0.00000000     0.00000000     0.00000000
     0.00000000     0.00000000     0.00000000
     0.00000000     0.00000000     0.00000000
     0.00000000     0.00000000     0.00000000
     0.00000000     0.00000000     0.00000000
     0.00000000     0.00000000     0.00000000
     0.00000000     0.00000000     0.00000000
     0.00000000     0.00000000     0.00000000
     0.00000000     0.00000000     0.00000000
     0.00000000     0.00000000     0.00000000
     0.00000000     0.00000000     0.00000000
     0.00000000     0.00000000     0.00000000
     0.00000000     0.00000000     0.00000000
     0.00000000     0.00000000     0.00000000
     0.00000000     0.00000000     0.00000000
     0.00000000     0.00000000     0.00000000
     0.00000000     0.00000000     0.00000000
     0.00000000     0.00000000     0.00000000
     0.00000000     0.00000000     0.00000000
     0.00000000     0.00000000     0.00000000
     0.00000000     0.00000000     0.00000000
     0.00000000     0.00000000     0.00000000
     0.00000000     0.00000000     0.00000000
     0.00000000     0.00000000     0.00000000
     0.00000000     0.00000000     0.00000000
     0.00000000     0.00000000     0.00000000
     0.00000000     0.00000000     0.00000000
     0.00000000     0.00000000     0.00000000
     0.00000000     0.00000000     0.00000000
     0.00000000     0.00000000     0.00000000
     0.00000000     0.00000000     0.00000000
     0.00000000     0.00000000     0.00000000
     0.00000000     0.00000000     0.00000000
     0.00000000     0.00000000     0.00000000
     0.00000000     0.00000000     0.00000000
     0.00000000     0.00000000     0.00000000
     0.00000000     0.00000000     0.00000000
     0.00000000     0.00000000     0.00000000
     0.00000000     0.00000000     0.00000000
     0.00000000     0.00000000     0.00000000
     0.00000000     0.00000000     0.00000000
     0.00000000     0.00000000     0.00000000
     0.00000000     0.00000000     0.00000000
     0.00000000     0.00000000     0.00000000
     0.00000000     0.00000000     0.00000000
     0.00000000     0.00000000     0.00000000
     0.00000000     0.00000000     0.00000000
     0.00000000     0.00000000     0.00000000
     0.00000000     0.00000000     0.00000000
     0.00000000     0.00000000     0.00000000
     0.00000000     0.00000000     0.00000000
     0.00000000     0.00000000     0.00000000
     0.00000000     0.00000000     0.00000000
     0.00000000     0.00000000     0.00000000
     0.00000000     0.00000000     0.00000000
     0.00000000     0.00000000     0.00000000
     0.00000000     0.00000000     0.00000000
     0.00000000     0.00000000     0.00000000
     0.00000000     0.00000000     0.00000000
     0.00000000     0.00000000     0.00000000
     0.00000000     0.00000000     0.00000000
     0.00000000     0.00000000     0.00000000
     0.00000000     0.00000000     0.00000000
     0.00000000     0.00000000     0.00000000
     0.00000000     0.00000000     0.00000000
     0.00000000     0.00000000     0.00000000
     0.00000000     0.00000000     0.00000000
     0.00000000     0.00000000     0.00000000
     0.00000000     0.00000000     0.00000000
     0.00000000     0.00000000     0.00000000
     0.00000000     0.00000000     0.00000000
     0.00000000     0.00000000     0.00000000
     0.00000000     0.00000000     0.00000000
     0.00000000     0.00000000     0.00000000
     0.00000000     0.00000000     0.00000000
     0.00000000     0.00000000     0.00000000
     0.00000000     0.00000000     0.00000000
     0.00000000     0.00000000     0.00000000
     0.00000000     0.00000000     0.00000000
     0.00000000     0.00000000     0.00000000
     0.00000000     0.00000000     0.00000000
     0.00000000     0.00000000     0.00000000
     0.00000000     0.00000000     0.00000000
     0.00000000     0.00000000     0.00000000
     0.00000000     0.00000000     0.00000000
     0.00000000     0.00000000     0.00000000
     0.00000000     0.00000000     0.00000000
     0.00000000     0.00000000     0.00000000
     0.00000000     0.00000000     0.00000000
     0.00000000     0.00000000     0.00000000
     0.00000000     0.00000000     0.00000000
     0.00000000     0.00000000     0.00000000
     0.00000000     0.00000000     0.00000000
     0.00000000     0.00000000     0.00000000
     0.00000000     0.00000000     0.00000000
     0.00000000     0.00000000     0.00000000
     0.00000000     0.00000000     0.00000000
     0.00000000     0.00000000     0.00000000
     0.00000000     0.00000000     0.00000000
     0.00000000     0.00000000     0.00000000
     0.00000000     0.00000000     0.00000000
     0.00000000     0.00000000     0.00000000
     0.00000000     0.00000000     0.00000000
     0.00000000     0.00000000     0.00000000
     0.00000000     0.00000000     0.00000000
     0.00000000     0.00000000     0.00000000
     0.00000000     0.00000000     0.00000000
     0.00000000     0.00000000     0.00000000
     0.00000000     0.00000000     0.00000000
     0.00000000     0.00000000     0.00000000
     0.00000000     0.00000000     0.00000000
     0.00000000     0.00000000     0.00000000
     0.00000000     0.00000000     0.00000000
     0.00000000     0.00000000     0.00000000
     0.00000000     0.00000000     0.00000000
     0.00000000     0.00000000     0.00000000
     0.00000000     0.00000000     0.00000000
     0.00000000     0.00000000     0.00000000
     0.00000000     0.00000000     0.00000000
     0.00000000     0.00000000     0.00000000
     0.00000000     0.00000000     0.00000000
     0.00000000     0.00000000     0.00000000
     0.00000000     0.00000000     0.00000000
     0.00000000     0.00000000     0.00000000
     0.00000000     0.00000000     0.00000000
     0.00000000     0.00000000     0.00000000
     0.00000000     0.00000000     0.00000000
     0.00000000     0.00000000     0.00000000
     0.00000000     0.00000000     0.00000000
     0.00000000     0.00000000     0.00000000
     0.00000000     0.00000000     0.00000000
     0.00000000     0.00000000     0.00000000
     0.00000000     0.00000000     0.00000000
     0.00000000     0.00000000     0.00000000
     0.00000000     0.00000000     0.00000000
     0.00000000     0.00000000     0.00000000
     0.00000000     0.00000000     0.00000000
     0.00000000     0.00000000     0.00000000
     0.00000000     0.00000000     0.00000000
     0.00000000     0.00000000     0.00000000
     0.00000000     0.00000000     0.00000000
     0.00000000     0.00000000     0.00000000
     0.00000000     0.00000000     0.00000000
     0.00000000     0.00000000     0.00000000
     0.00000000     0.00000000     0.00000000
     0.00000000     0.00000000     0.00000000
     0.00000000     0.00000000     0.00000000
     0.00000000     0.00000000     0.00000000
     0.00000000     0.00000000     0.00000000
     0.00000000     0.00000000     0.00000000
     0.00000000     0.00000000     0.00000000
     0.00000000     0.00000000     0.00000000
     0.00000000     0.00000000     0.00000000
     0.00000000     0.00000000     0.00000000
     0.00000000     0.00000000     0.00000000
     0.00000000     0.00000000     0.00000000
     0.00000000     0.00000000     0.00000000
     0.00000000     0.00000000     0.00000000
     0.00000000     0.00000000     0.00000000
     0.00000000     0.00000000     0.00000000
     0.00000000     0.00000000     0.00000000
     0.00000000     0.00000000     0.00000000
     0.00000000     0.00000000     0.00000000
     0.00000000     0.00000000     0.00000000
     0.00000000     0.00000000     0.00000000
     0.00000000     0.00000000     0.00000000
     0.00000000     0.00000000     0.00000000
     0.00000000     0.00000000     0.00000000
     0.00000000     0.00000000     0.00000000
     0.00000000     0.00000000     0.00000000
     0.00000000     0.00000000     0.00000000
     0.00000000     0.00000000     0.00000000
     0.00000000     0.00000000     0.00000000
     0.00000000     0.00000000     0.00000000
     0.00000000     0.00000000     0.00000000
     0.00000000     0.00000000     0.00000000
     0.00000000     0.00000000     0.00000000
     0.00000000     0.00000000     0.00000000
     0.00000000     0.00000000     0.00000000
     0.00000000     0.00000000     0.00000000
     0.00000000     0.00000000     0.00000000
     0.00000000     0.00000000     0.00000000
     0.00000000     0.00000000     0.00000000
     0.00000000     0.00000000     0.00000000
     0.00000000     0.00000000     0.00000000
     0.00000000     0.00000000     0.00000000
     0.00000000     0.00000000     0.00000000
     0.00000000     0.00000000     0.00000000
     0.00000000     0.00000000     0.00000000
     0.00000000     0.00000000     0.00000000
     0.00000000     0.00000000     0.00000000
     0.00000000     0.00000000     0.00000000
     0.00000000     0.00000000     0.00000000
     0.00000000     0.00000000     0.00000000
     0.00000000     0.00000000     0.00000000
     0.00000000     0.00000000     0.00000000
     0.00000000     0.00000000     0.00000000
     0.00000000     0.00000000     0.00000000
     0.00000000     0.00000000     0.00000000
     0.00000000     0.00000000     0.00000000
     0.00000000     0.00000000     0.00000000
     0.00000000     0.00000000     0.00000000
     0.00000000     0.00000000     0.00000000
     0.00000000     0.00000000     0.00000000
     0.00000000     0.00000000     0.00000000
     0.00000000     0.00000000     0.00000000
     0.00000000     0.00000000     0.00000000
     0.00000000     0.00000000     0.00000000
     0.00000000     0.00000000     0.00000000
     0.00000000     0.00000000     0.00000000
     0.00000000     0.00000000     0.00000000
     0.00000000     0.00000000     0.00000000
     0.00000000     0.00000000     0.00000000
     0.00000000     0.00000000     0.00000000
     0.00000000     0.00000000     0.00000000
     0.00000000     0.00000000     0.00000000
     0.00000000     0.00000000     0.00000000
     0.00000000     0.00000000     0.00000000
     0.00000000     0.00000000     0.00000000
     0.00000000     0.00000000     0.00000000
     0.00000000     0.00000000     0.00000000
     0.00000000     0.00000000     0.00000000
     0.00000000     0.00000000     0.00000000
     0.00000000     0.00000000     0.00000000
     0.00000000     0.00000000     0.00000000
     0.00000000     0.00000000     0.00000000
     0.00000000     0.00000000     0.00000000
     0.00000000     0.00000000     0.00000000
     0.00000000     0.00000000     0.00000000
     0.00000000     0.00000000     0.00000000
     0.00000000     0.00000000     0.00000000
     0.00000000     0.00000000     0.00000000
     0.00000000     0.00000000     0.00000000
     0.00000000     0.00000000     0.00000000
     0.00000000     0.00000000     0.00000000
     0.00000000     0.00000000     0.00000000
     0.00000000     0.00000000     0.00000000
     0.00000000     0.00000000     0.00000000
     0.00000000     0.00000000     0.00000000
     0.00000000     0.00000000     0.00000000
     0.00000000     0.00000000     0.00000000
     0.00000000     0.00000000     0.00000000
     0.00000000     0.00000000     0.00000000
     0.00000000     0.00000000     0.00000000
     0.00000000     0.00000000     0.00000000
     0.00000000     0.00000000     0.00000000
     0.00000000     0.00000000     0.00000000
     0.00000000     0.00000000     0.00000000
     0.00000000     0.00000000     0.00000000
     0.00000000     0.00000000     0.00000000
     0.00000000     0.00000000     0.00000000
     0.00000000     0.00000000     0.00000000
     0.00000000     0.00000000     0.00000000
     0.00000000     0.00000000     0.00000000
     0.00000000     0.00000000     0.00000000
     0.00000000     0.00000000     0.00000000
     0.00000000     0.00000000     0.00000000
     0.00000000     0.00000000     0.00000000
     0.00000000     0.00000000     0.00000000
     0.00000000     0.00000000     0.00000000
     0.00000000     0.00000000     0.00000000
     0.00000000     0.00000000     0.00000000
     0.00000000     0.00000000     0.00000000
     0.00000000     0.00000000     0.00000000
     0.00000000     0.00000000     0.00000000
     0.00000000     0.00000000     0.00000000
     0.00000000     0.00000000     0.00000000
     0.00000000     0.00000000     0.00000000
     0.00000000     0.00000000     0.00000000
     0.00000000     0.00000000     0.00000000
     0.00000000     0.00000000     0.00000000
     0.00000000     0.00000000     0.00000000
     0.00000000     0.00000000     0.00000000
     0.00000000     0.00000000     0.00000000
     0.00000000     0.00000000     0.00000000
     0.00000000     0.00000000     0.00000000
     0.00000000     0.00000000     0.00000000
     0.00000000     0.00000000     0.00000000
     0.00000000     0.00000000     0.00000000
     0.00000000     0.00000000     0.00000000
     0.00000000     0.00000000     0.00000000
     0.00000000     0.00000000     0.00000000
     0.00000000     0.00000000     0.00000000
     0.00000000     0.00000000     0.00000000
     0.00000000     0.00000000     0.00000000
     0.00000000     0.00000000     0.00000000
     0.00000000     0.00000000     0.00000000
     0.00000000     0.00000000     0.00000000
     0.00000000     0.00000000     0.00000000
     0.00000000     0.00000000     0.00000000
     0.00000000     0.00000000     0.00000000
     0.00000000     0.00000000     0.00000000
     0.00000000     0.00000000     0.00000000
     0.00000000     0.00000000     0.00000000
     0.00000000     0.00000000     0.00000000
     0.00000000     0.00000000     0.00000000
     0.00000000     0.00000000     0.00000000
     0.00000000     0.00000000     0.00000000
     0.00000000     0.00000000     0.00000000
     0.00000000     0.00000000     0.00000000
     0.00000000     0.00000000     0.00000000
     0.00000000     0.00000000     0.00000000
     0.00000000     0.00000000     0.00000000
     0.00000000     0.00000000     0.00000000
     0.00000000     0.00000000     0.00000000
     0.00000000     0.00000000     0.00000000
     0.00000000     0.00000000     0.00000000
     0.00000000     0.00000000     0.00000000
     0.00000000     0.00000000     0.00000000
     0.00000000     0.00000000     0.00000000
     0.00000000     0.00000000     0.00000000
     0.00000000     0.00000000     0.00000000
     0.00000000     0.00000000     0.00000000
     0.00000000     0.00000000     0.00000000
     0.00000000     0.00000000     0.00000000
     0.00000000     0.00000000     0.00000000
     0.00000000     0.00000000     0.00000000
     0.00000000     0.00000000     0.00000000
     0.00000000     0.00000000     0.00000000
     0.00000000     0.00000000     0.00000000
     0.00000000     0.00000000     0.00000000
     0.00000000     0.00000000     0.00000000
     0.00000000     0.00000000     0.00000000
     0.00000000     0.00000000     0.00000000
     0.00000000     0.00000000     0.00000000
     0.00000000     0.00000000     0.00000000
     0.00000000     0.00000000     0.00000000
     0.00000000     0.00000000     0.00000000
     0.00000000     0.00000000     0.00000000
     0.00000000     0.00000000     0.00000000
     0.00000000     0.00000000     0.00000000
     0.00000000     0.00000000     0.00000000
     0.00000000     0.00000000     0.00000000
     0.00000000     0.00000000     0.00000000
     0.00000000     0.00000000     0.00000000
     0.00000000     0.00000000     0.00000000
     0.00000000     0.00000000     0.00000000
     0.00000000     0.00000000     0.00000000
     0.00000000     0.00000000     0.00000000
     0.00000000     0.00000000     0.00000000
     0.00000000     0.00000000     0.00000000
     0.00000000     0.00000000     0.00000000
     0.00000000     0.00000000     0.00000000
     0.00000000     0.00000000     0.00000000
     0.00000000     0.00000000     0.00000000
     0.00000000     0.00000000     0.00000000
     0.00000000     0.00000000     0.00000000
     0.00000000     0.00000000     0.00000000
     0.00000000     0.00000000     0.00000000
     0.00000000     0.00000000     0.00000000
     0.00000000     0.00000000     0.00000000
     0.00000000     0.00000000     0.00000000
     0.00000000     0.00000000     0.00000000
     0.00000000     0.00000000     0.00000000
     0.00000000     0.00000000     0.00000000
     0.00000000     0.00000000     0.00000000
     0.00000000     0.00000000     0.00000000
     0.00000000     0.00000000     0.00000000
     0.00000000     0.00000000     0.00000000
     0.00000000     0.00000000     0.00000000
     0.00000000     0.00000000     0.00000000
     0.00000000     0.00000000     0.00000000
     0.00000000     0.00000000     0.00000000
     0.00000000     0.00000000     0.00000000
     0.00000000     0.00000000     0.00000000
     0.00000000     0.00000000     0.00000000
     0.00000000     0.00000000     0.00000000
     0.00000000     0.00000000     0.00000000
     0.00000000     0.00000000     0.00000000
     0.00000000     0.00000000     0.00000000
     0.00000000     0.00000000     0.00000000
     0.00000000     0.00000000     0.00000000
     0.00000000     0.00000000     0.00000000
     0.00000000     0.00000000     0.00000000
     0.00000000     0.00000000     0.00000000
     0.00000000     0.00000000     0.00000000
     0.00000000     0.00000000     0.00000000
     0.00000000     0.00000000     0.00000000
     0.00000000     0.00000000     0.00000000
     0.00000000     0.00000000     0.00000000
     0.00000000     0.00000000     0.00000000
     0.00000000     0.00000000     0.00000000
     0.00000000     0.00000000     0.00000000
     0.00000000     0.00000000     0.00000000
     0.00000000     0.00000000     0.00000000
     0.00000000     0.00000000     0.00000000
     0.00000000     0.00000000     0.00000000
     0.00000000     0.00000000     0.00000000
     0.00000000     0.00000000     0.00000000
     0.00000000     0.00000000     0.00000000
     0.00000000     0.00000000     0.00000000
     0.00000000     0.00000000     0.00000000
     0.00000000     0.00000000     0.00000000
     0.00000000     0.00000000     0.00000000
     0.00000000     0.00000000     0.00000000
     0.00000000     0.00000000     0.00000000
     0.00000000     0.00000000     0.00000000
     0.00000000     0.00000000     0.00000000
     0.00000000     0.00000000     0.00000000
     0.00000000     0.00000000     0.00000000
     0.00000000     0.00000000     0.00000000
     0.00000000     0.00000000     0.00000000
     0.00000000     0.00000000     0.00000000
     0.00000000     0.00000000     0.00000000
     0.00000000     0.00000000     0.00000000
     0.00000000     0.00000000     0.00000000
     0.00000000     0.00000000     0.00000000
     0.00000000     0.00000000     0.00000000
     0.00000000     0.00000000     0.00000000
     0.00000000     0.00000000     0.00000000
     0.00000000     0.00000000     0.00000000
     0.00000000     0.00000000     0.00000000
     0.00000000     0.00000000     0.00000000
     0.00000000     0.00000000     0.00000000
     0.00000000     0.00000000     0.00000000
     0.00000000     0.00000000     0.00000000
     0.00000000     0.00000000     0.00000000
     0.00000000     0.00000000     0.00000000
     0.00000000     0.00000000     0.00000000
     0.00000000     0.00000000     0.00000000
     0.00000000     0.00000000     0.00000000
     0.00000000     0.00000000     0.00000000
     0.00000000     0.00000000     0.00000000
     0.00000000     0.00000000     0.00000000
     0.00000000     0.00000000     0.00000000
     0.00000000     0.00000000     0.00000000
     0.00000000     0.00000000     0.00000000
     0.00000000     0.00000000     0.00000000
     0.00000000     0.00000000     0.00000000
     0.00000000     0.00000000     0.00000000
     0.00000000     0.00000000     0.00000000
     0.00000000     0.00000000     0.00000000
     0.00000000     0.00000000     0.00000000
     0.00000000     0.00000000     0.00000000
     0.00000000     0.00000000     0.00000000
     0.00000000     0.00000000     0.00000000
     0.00000000     0.00000000     0.00000000
     0.00000000     0.00000000     0.00000000
     0.00000000     0.00000000     0.00000000
     0.00000000     0.00000000     0.00000000
     0.00000000     0.00000000     0.00000000
     0.00000000     0.00000000     0.00000000
     0.00000000     0.00000000     0.00000000
     0.00000000     0.00000000     0.00000000
     0.00000000     0.00000000     0.00000000
     0.00000000     0.00000000     0.00000000
     0.00000000     0.00000000     0.00000000
     0.00000000     0.00000000     0.00000000
     0.00000000     0.00000000     0.00000000
     0.00000000     0.00000000     0.00000000
     0.00000000     0.00000000     0.00000000
     0.00000000     0.00000000     0.00000000
     0.00000000     0.00000000     0.00000000
     0.00000000     0.00000000     0.00000000
     0.00000000     0.00000000     0.00000000
     0.00000000     0.00000000     0.00000000
     0.00000000     0.00000000     0.00000000
     0.00000000     0.00000000     0.00000000
     0.00000000     0.00000000     0.00000000
     0.00000000     0.00000000     0.00000000
     0.00000000     0.00000000     0.00000000
     0.00000000     0.00000000     0.00000000
     0.00000000     0.00000000     0.00000000
     0.00000000     0.00000000     0.00000000
     0.00000000     0.00000000     0.00000000
     0.00000000     0.00000000     0.00000000
     0.00000000     0.00000000     0.00000000
     0.00000000     0.00000000     0.00000000
     0.00000000     0.00000000     0.00000000
     0.00000000     0.00000000     0.00000000
     0.00000000     0.00000000     0.00000000
     0.00000000     0.00000000     0.00000000
     0.00000000     0.00000000     0.00000000
     0.00000000     0.00000000     0.00000000
     0.00000000     0.00000000     0.00000000
     0.00000000     0.00000000     0.00000000
     0.00000000     0.00000000     0.00000000
     0.00000000     0.00000000     0.00000000
     0.00000000     0.00000000     0.00000000
     0.00000000     0.00000000     0.00000000
     0.00000000     0.00000000     0.00000000
     0.00000000     0.00000000     0.00000000
     0.00000000     0.00000000     0.00000000
     0.00000000     0.00000000     0.00000000
     0.00000000     0.00000000     0.00000000
     0.00000000     0.00000000     0.00000000
     0.00000000     0.00000000     0.00000000
     0.00000000     0.00000000     0.00000000
     0.00000000     0.00000000     0.00000000
     0.00000000     0.00000000     0.00000000
     0.00000000     0.00000000     0.00000000
     0.00000000     0.00000000     0.00000000
     0.00000000     0.00000000     0.00000000
     0.00000000     0.00000000     0.00000000
     0.00000000     0.00000000     0.00000000
     0.00000000     0.00000000     0.00000000
     0.00000000     0.00000000     0.00000000
     0.00000000     0.00000000     0.00000000
     0.00000000     0.00000000     0.00000000
     0.00000000     0.00000000     0.00000000
     0.00000000     0.00000000     0.00000000
     0.00000000     0.00000000     0.00000000
     0.00000000     0.00000000     0.00000000
     0.00000000     0.00000000     0.00000000
     0.00000000     0.00000000     0.00000000
     0.00000000     0.00000000     0.00000000
     0.00000000     0.00000000     0.00000000
     0.00000000     0.00000000     0.00000000
     0.00000000     0.00000000     0.00000000
     0.00000000     0.00000000     0.00000000
     0.00000000     0.00000000     0.00000000
     0.00000000     0.00000000     0.00000000
     0.00000000     0.00000000     0.00000000
     0.00000000     0.00000000     0.00000000
     0.00000000     0.00000000     0.00000000
     0.00000000     0.00000000     0.00000000
     0.00000000     0.00000000     0.00000000
     0.00000000     0.00000000     0.00000000
     0.00000000     0.00000000     0.00000000
     0.00000000     0.00000000     0.00000000
     0.00000000     0.00000000     0.00000000
     0.00000000     0.00000000     0.00000000
     0.00000000     0.00000000     0.00000000
     0.00000000     0.00000000     0.00000000
     0.00000000     0.00000000     0.00000000
     0.00000000     0.00000000     0.00000000
     0.00000000     0.00000000     0.00000000
     0.00000000     0.00000000     0.00000000
     0.00000000     0.00000000     0.00000000
     0.00000000     0.00000000     0.00000000
     0.00000000     0.00000000     0.00000000
     0.00000000     0.00000000     0.00000000
     0.00000000     0.00000000     0.00000000
     0.00000000     0.00000000     0.00000000
     0.00000000     0.00000000     0.00000000
     0.00000000     0.00000000     0.00000000
     0.00000000     0.00000000     0.00000000
     0.00000000     0.00000000     0.00000000
     0.00000000     0.00000000     0.00000000
     0.00000000     0.00000000     0.00000000
     0.00000000     0.00000000     0.00000000
     0.00000000     0.00000000     0.00000000
     0.00000000     0.00000000     0.00000000
     0.00000000     0.00000000     0.00000000
     0.00000000     0.00000000     0.00000000
     0.00000000     0.00000000     0.00000000
     0.00000000     0.00000000     0.00000000
     0.00000000     0.00000000     0.00000000
     0.00000000     0.00000000     0.00000000
     0.00000000     0.00000000     0.00000000
     0.00000000     0.00000000     0.00000000
     0.00000000     0.00000000     0.00000000
     0.00000000     0.00000000     0.00000000
     0.00000000     0.00000000     0.00000000
     0.00000000     0.00000000     0.00000000
     0.00000000     0.00000000     0.00000000
     0.00000000     0.00000000     0.00000000
     0.00000000     0.00000000     0.00000000
     0.00000000     0.00000000     0.00000000
     0.00000000     0.00000000     0.00000000
     0.00000000     0.00000000     0.00000000
     0.00000000     0.00000000     0.00000000
     0.00000000     0.00000000     0.00000000
     0.00000000     0.00000000     0.00000000
     0.00000000     0.00000000     0.00000000
     0.00000000     0.00000000     0.00000000
     0.00000000     0.00000000     0.00000000
     0.00000000     0.00000000     0.00000000
     0.00000000     0.00000000     0.00000000
     0.00000000     0.00000000     0.00000000
     0.00000000     0.00000000     0.00000000
     0.00000000     0.00000000     0.00000000
     0.00000000     0.00000000     0.00000000
     0.00000000     0.00000000     0.00000000
     0.00000000     0.00000000     0.00000000
     0.00000000     0.00000000     0.00000000
     0.00000000     0.00000000     0.00000000
     0.00000000     0.00000000     0.00000000
     0.00000000     0.00000000     0.00000000
     0.00000000     0.00000000     0.00000000
     0.00000000     0.00000000     0.00000000
     0.00000000     0.00000000     0.00000000
     0.00000000     0.00000000     0.00000000
     0.00000000     0.00000000     0.00000000
     0.00000000     0.00000000     0.00000000
     0.00000000     0.00000000     0.00000000
     0.00000000     0.00000000     0.00000000
     0.00000000     0.00000000     0.00000000
     0.00000000     0.00000000     0.00000000
     0.00000000     0.00000000     0.00000000
     0.00000000     0.00000000     0.00000000
     0.00000000     0.00000000     0.00000000
     0.00000000     0.00000000     0.00000000
     0.00000000     0.00000000     0.00000000
     0.00000000     0.00000000     0.00000000
     0.00000000     0.00000000     0.00000000
     0.00000000     0.00000000     0.00000000
     0.00000000     0.00000000     0.00000000
     0.00000000     0.00000000     0.00000000
     0.00000000     0.00000000     0.00000000
     0.00000000     0.00000000     0.00000000
     0.00000000     0.00000000     0.00000000
     0.00000000     0.00000000     0.00000000
     0.00000000     0.00000000     0.00000000
     0.00000000     0.00000000     0.00000000
     0.00000000     0.00000000     0.00000000
     0.00000000     0.00000000     0.00000000
     0.00000000     0.00000000     0.00000000
     0.00000000     0.00000000     0.00000000
     0.00000000     0.00000000     0.00000000
     0.00000000     0.00000000     0.00000000
     0.00000000     0.00000000     0.00000000
     0.00000000     0.00000000     0.00000000
     0.00000000     0.00000000     0.00000000
     0.00000000     0.00000000     0.00000000
     0.00000000     0.00000000     0.00000000
     0.00000000     0.00000000     0.00000000
     0.00000000     0.00000000     0.00000000
     0.00000000     0.00000000     0.00000000
     0.00000000     0.00000000     0.00000000
     0.00000000     0.00000000     0.00000000
     0.00000000     0.00000000     0.00000000
     0.00000000     0.00000000     0.00000000
     0.00000000     0.00000000     0.00000000
     0.00000000     0.00000000     0.00000000
     0.00000000     0.00000000     0.00000000
     0.00000000     0.00000000     0.00000000
     0.00000000     0.00000000     0.00000000
     0.00000000     0.00000000     0.00000000
     0.00000000     0.00000000     0.00000000
     0.00000000     0.00000000     0.00000000
     0.00000000     0.00000000     0.00000000
     0.00000000     0.00000000     0.00000000
     0.00000000     0.00000000     0.00000000
     0.00000000     0.00000000     0.00000000
     0.00000000     0.00000000     0.00000000
     0.00000000     0.00000000     0.00000000
     0.00000000     0.00000000     0.00000000
     0.00000000     0.00000000     0.00000000
     0.00000000     0.00000000     0.00000000
     0.00000000     0.00000000     0.00000000
     0.00000000     0.00000000     0.00000000
     0.00000000     0.00000000     0.00000000
     0.00000000     0.00000000     0.00000000
     0.00000000     0.00000000     0.00000000
     0.00000000     0.00000000     0.00000000
     0.00000000     0.00000000     0.00000000
     0.00000000     0.00000000     0.00000000
     0.00000000     0.00000000     0.00000000
     0.00000000     0.00000000     0.00000000
     0.00000000     0.00000000     0.00000000
     0.00000000     0.00000000     0.00000000
     0.00000000     0.00000000     0.00000000
     0.00000000     0.00000000     0.00000000
     0.00000000     0.00000000     0.00000000
     0.00000000     0.00000000     0.00000000
     0.00000000     0.00000000     0.00000000
     0.00000000     0.00000000     0.00000000
     0.00000000     0.00000000     0.00000000
     0.00000000     0.00000000     0.00000000
     0.00000000     0.00000000     0.00000000
     0.00000000     0.00000000     0.00000000
     0.00000000     0.00000000     0.00000000
     0.00000000     0.00000000     0.00000000
     0.00000000     0.00000000     0.00000000
     0.00000000     0.00000000     0.00000000
     0.00000000     0.00000000     0.00000000
     0.00000000     0.00000000     0.00000000
     0.00000000     0.00000000     0.00000000
     0.00000000     0.00000000     0.00000000
     0.00000000     0.00000000     0.00000000
     0.00000000     0.00000000     0.00000000
     0.00000000     0.00000000     0.00000000
     0.00000000     0.00000000     0.00000000
     0.00000000     0.00000000     0.00000000
     0.00000000     0.00000000     0.00000000
     0.00000000     0.00000000     0.00000000
     0.00000000     0.00000000     0.00000000
     0.00000000     0.00000000     0.00000000
     0.00000000     0.00000000     0.00000000
     0.00000000     0.00000000     0.00000000
     0.00000000     0.00000000     0.00000000
     0.00000000     0.00000000     0.00000000
     0.00000000     0.00000000     0.00000000
     0.00000000     0.00000000     0.00000000
     0.00000000     0.00000000     0.00000000
     0.00000000     0.00000000     0.00000000
     0.00000000     0.00000000     0.00000000
     0.00000000     0.00000000     0.00000000
     0.00000000     0.00000000     0.00000000
     0.00000000     0.00000000     0.00000000
     0.00000000     0.00000000     0.00000000
     0.00000000     0.00000000     0.00000000
     0.00000000     0.00000000     0.00000000
     0.00000000     0.00000000     0.00000000
     0.00000000     0.00000000     0.00000000
     0.00000000     0.00000000     0.00000000
     0.00000000     0.00000000     0.00000000
     0.00000000     0.00000000     0.00000000
     0.00000000     0.00000000     0.00000000
     0.00000000     0.00000000     0.00000000
     0.00000000     0.00000000     0.00000000
     0.00000000     0.00000000     0.00000000
     0.00000000     0.00000000     0.00000000
     0.00000000     0.00000000     0.00000000
     0.00000000     0.00000000     0.00000000
     0.00000000     0.00000000     0.00000000
     0.00000000     0.00000000     0.00000000
     0.00000000     0.00000000     0.00000000
     0.00000000     0.00000000     0.00000000
     0.00000000     0.00000000     0.00000000
     0.00000000     0.00000000     0.00000000
     0.00000000     0.00000000     0.00000000
     0.00000000     0.00000000     0.00000000
     0.00000000     0.00000000     0.00000000
     0.00000000     0.00000000     0.00000000
     0.00000000     0.00000000     0.00000000
     0.00000000     0.00000000     0.00000000
     0.00000000     0.00000000     0.00000000
     0.00000000     0.00000000     0.00000000
     0.00000000     0.00000000     0.00000000
     0.00000000     0.00000000     0.00000000
     0.00000000     0.00000000     0.00000000
     0.00000000     0.00000000     0.00000000
     0.00000000     0.00000000     0.00000000
     0.00000000     0.00000000     0.00000000
     0.00000000     0.00000000     0.00000000
     0.00000000     0.00000000     0.00000000
     0.00000000     0.00000000     0.00000000
     0.00000000     0.00000000     0.00000000
     0.00000000     0.00000000     0.00000000
     0.00000000     0.00000000     0.00000000
     0.00000000     0.00000000     0.00000000
     0.00000000     0.00000000     0.00000000
     0.00000000     0.00000000     0.00000000
     0.00000000     0.00000000     0.00000000
     0.00000000     0.00000000     0.00000000
     0.00000000     0.00000000     0.00000000
     0.00000000     0.00000000     0.00000000
     0.00000000     0.00000000     0.00000000
     0.00000000     0.00000000     0.00000000
     0.00000000     0.00000000     0.00000000
     0.00000000     0.00000000     0.00000000
     0.00000000     0.00000000     0.00000000
     0.00000000     0.00000000     0.00000000
     0.00000000     0.00000000     0.00000000
     0.00000000     0.00000000     0.00000000
     0.00000000     0.00000000     0.00000000
     0.00000000     0.00000000     0.00000000
     0.00000000     0.00000000     0.00000000
     0.00000000     0.00000000     0.00000000
     0.00000000     0.00000000     0.00000000
     0.00000000     0.00000000     0.00000000
     0.00000000     0.00000000     0.00000000
     0.00000000     0.00000000     0.00000000
     0.00000000     0.00000000     0.00000000
     0.00000000     0.00000000     0.00000000
     0.00000000     0.00000000     0.00000000
     0.00000000     0.00000000     0.00000000
     0.00000000     0.00000000     0.00000000
     0.00000000     0.00000000     0.00000000
     0.00000000     0.00000000     0.00000000
     0.00000000     0.00000000     0.00000000
     0.00000000     0.00000000     0.00000000
     0.00000000     0.00000000     0.00000000
     0.00000000     0.00000000     0.00000000
     0.00000000     0.00000000     0.00000000
     0.00000000     0.00000000     0.00000000
     0.00000000     0.00000000     0.00000000
     0.00000000     0.00000000     0.00000000
     0.00000000     0.00000000     0.00000000
     0.00000000     0.00000000     0.00000000
     0.00000000     0.00000000     0.00000000
     0.00000000     0.00000000     0.00000000
     0.00000000     0.00000000     0.00000000
     0.00000000     0.00000000     0.00000000
     0.00000000     0.00000000     0.00000000
     0.00000000     0.00000000     0.00000000
     0.00000000     0.00000000     0.00000000
     0.00000000     0.00000000     0.00000000
     0.00000000     0.00000000     0.00000000
     0.00000000     0.00000000     0.00000000
     0.00000000     0.00000000     0.00000000
     0.00000000     0.00000000     0.00000000
     0.00000000     0.00000000     0.00000000
     0.00000000     0.00000000     0.00000000
     0.00000000     0.00000000     0.00000000
     0.00000000     0.00000000     0.00000000
     0.00000000     0.00000000     0.00000000
     0.00000000     0.00000000     0.00000000
     0.00000000     0.00000000     0.00000000
     0.00000000     0.00000000     0.00000000
     0.00000000     0.00000000     0.00000000
     0.00000000     0.00000000     0.00000000
     0.00000000     0.00000000     0.00000000
     0.00000000     0.00000000     0.00000000
     0.00000000     0.00000000     0.00000000
     0.00000000     0.00000000     0.00000000
     0.00000000     0.00000000     0.00000000
     0.00000000     0.00000000     0.00000000
     0.00000000     0.00000000     0.00000000
     0.00000000     0.00000000     0.00000000
     0.00000000     0.00000000     0.00000000
     0.00000000     0.00000000     0.00000000
     0.00000000     0.00000000     0.00000000
     0.00000000     0.00000000     0.00000000
     0.00000000     0.00000000     0.00000000
     0.00000000     0.00000000     0.00000000
     0.00000000     0.00000000     0.00000000
     0.00000000     0.00000000     0.00000000
     0.00000000     0.00000000     0.00000000
     0.00000000     0.00000000     0.00000000
     0.00000000     0.00000000     0.00000000
     0.00000000     0.00000000     0.00000000
     0.00000000     0.00000000     0.00000000
     0.00000000     0.00000000     0.00000000
     0.00000000     0.00000000     0.00000000
     0.00000000     0.00000000     0.00000000
     0.00000000     0.00000000     0.00000000
     0.00000000     0.00000000     0.00000000
     0.00000000     0.00000000     0.00000000
     0.00000000     0.00000000     0.00000000
     0.00000000     0.00000000     0.00000000
     0.00000000     0.00000000     0.00000000
     0.00000000     0.00000000     0.00000000
     0.00000000     0.00000000     0.00000000
     0.00000000     0.00000000     0.00000000
     0.00000000     0.00000000     0.00000000
     0.00000000     0.00000000     0.00000000
     0.00000000     0.00000000     0.00000000
     0.00000000     0.00000000     0.00000000
     0.00000000     0.00000000     0.00000000
     0.00000000     0.00000000     0.00000000
     0.00000000     0.00000000     0.00000000
     0.00000000     0.00000000     0.00000000
     0.00000000     0.00000000     0.00000000
     0.00000000     0.00000000     0.00000000
     0.00000000     0.00000000     0.00000000
     0.00000000     0.00000000     0.00000000
     0.00000000     0.00000000     0.00000000
     0.00000000     0.00000000     0.00000000
     0.00000000     0.00000000     0.00000000
     0.00000000     0.00000000     0.00000000
     0.00000000     0.00000000     0.00000000
     0.00000000     0.00000000     0.00000000
     0.00000000     0.00000000     0.00000000
     0.00000000     0.00000000     0.00000000
     0.00000000     0.00000000     0.00000000
     0.00000000     0.00000000     0.00000000
     0.00000000     0.00000000     0.00000000
     0.00000000     0.00000000     0.00000000
     0.00000000     0.00000000     0.00000000
     0.00000000     0.00000000     0.00000000
     0.00000000     0.00000000     0.00000000
     0.00000000     0.00000000     0.00000000
     0.00000000     0.00000000     0.00000000
     0.00000000     0.00000000     0.00000000
     0.00000000     0.00000000     0.00000000
     0.00000000     0.00000000     0.00000000
     0.00000000     0.00000000     0.00000000
     0.00000000     0.00000000     0.00000000
     0.00000000     0.00000000     0.00000000
     0.00000000     0.00000000     0.00000000
     0.00000000     0.00000000     0.00000000
     0.00000000     0.00000000     0.00000000
     0.00000000     0.00000000     0.00000000
     0.00000000     0.00000000     0.00000000
     0.00000000     0.00000000     0.00000000
     0.00000000     0.00000000     0.00000000
     0.00000000     0.00000000     0.00000000
     0.00000000     0.00000000     0.00000000
     0.00000000     0.00000000     0.00000000
     0.00000000     0.00000000     0.00000000
     0.00000000     0.00000000     0.00000000
     0.00000000     0.00000000     0.00000000
     0.00000000     0.00000000     0.00000000
     0.00000000     0.00000000     0.00000000
     0.00000000     0.00000000     0.00000000
     0.00000000     0.00000000     0.00000000
     0.00000000     0.00000000     0.00000000
     0.00000000     0.00000000     0.00000000
     0.00000000     0.00000000     0.00000000
     0.00000000     0.00000000     0.00000000
     0.00000000     0.00000000     0.00000000
     0.00000000     0.00000000     0.00000000
     0.00000000     0.00000000     0.00000000
     0.00000000     0.00000000     0.00000000
     0.00000000     0.00000000     0.00000000
     0.00000000     0.00000000     0.00000000
     0.00000000     0.00000000     0.00000000
     0.00000000     0.00000000     0.00000000
     0.00000000     0.00000000     0.00000000
     0.00000000     0.00000000     0.00000000
     0.00000000     0.00000000     0.00000000
     0.00000000     0.00000000     0.00000000
     0.00000000     0.00000000     0.00000000
     0.00000000     0.00000000     0.00000000
     0.00000000     0.00000000     0.00000000
     0.00000000     0.00000000     0.00000000
     0.00000000     0.00000000     0.00000000
     0.00000000     0.00000000     0.00000000
     0.00000000     0.00000000     0.00000000
     0.00000000     0.00000000     0.00000000
     0.00000000     0.00000000     0.00000000
     0.00000000     0.00000000     0.00000000
     0.00000000     0.00000000     0.00000000
     0.00000000     0.00000000     0.00000000
     0.00000000     0.00000000     0.00000000
     0.00000000     0.00000000     0.00000000
     0.00000000     0.00000000     0.00000000
     0.00000000     0.00000000     0.00000000
     0.00000000     0.00000000     0.00000000
     0.00000000     0.00000000     0.00000000
     0.00000000     0.00000000     0.00000000
     0.00000000     0.00000000     0.00000000
     0.00000000     0.00000000     0.00000000
     0.00000000     0.00000000     0.00000000
     0.00000000     0.00000000     0.00000000
     0.00000000     0.00000000     0.00000000
     0.00000000     0.00000000     0.00000000
     0.00000000     0.00000000     0.00000000
     0.00000000     0.00000000     0.00000000
     0.00000000     0.00000000     0.00000000
     0.00000000     0.00000000     0.00000000
     0.00000000     0.00000000     0.00000000
     0.00000000     0.00000000     0.00000000
     0.00000000     0.00000000     0.00000000
     0.00000000     0.00000000     0.00000000
     0.00000000     0.00000000     0.00000000
     0.00000000     0.00000000     0.00000000
     0.00000000     0.00000000     0.00000000
     0.00000000     0.00000000     0.00000000
     0.00000000     0.00000000     0.00000000
     0.00000000     0.00000000     0.00000000
     0.00000000     0.00000000     0.00000000
     0.00000000     0.00000000     0.00000000
     0.00000000     0.00000000     0.00000000
     0.00000000     0.00000000     0.00000000
     0.00000000     0.00000000     0.00000000
     0.00000000     0.00000000     0.00000000
     0.00000000     0.00000000     0.00000000
     0.00000000     0.00000000     0.00000000
     0.00000000     0.00000000     0.00000000
     0.00000000     0.00000000     0.00000000
     0.00000000     0.00000000     0.00000000
     0.00000000     0.00000000     0.00000000
     0.00000000     0.00000000     0.00000000
     0.00000000     0.00000000     0.00000000
     0.00000000     0.00000000     0.00000000
     0.00000000     0.00000000     0.00000000
     0.00000000     0.00000000     0.00000000
     0.00000000     0.00000000     0.00000000
     0.00000000     0.00000000     0.00000000
     0.00000000     0.00000000     0.00000000
     0.00000000     0.00000000     0.00000000
     0.00000000     0.00000000     0.00000000
     0.00000000     0.00000000     0.00000000
     0.00000000     0.00000000     0.00000000
     0.00000000     0.00000000     0.00000000
     0.00000000     0.00000000     0.00000000
     0.00000000     0.00000000     0.00000000
     0.00000000     0.00000000     0.00000000
     0.00000000     0.00000000     0.00000000
     0.00000000     0.00000000     0.00000000
     0.00000000     0.00000000     0.00000000
     0.00000000     0.00000000     0.00000000
     0.00000000     0.00000000     0.00000000
     0.00000000     0.00000000     0.00000000
     0.00000000     0.00000000     0.00000000
     0.00000000     0.00000000     0.00000000
     0.00000000     0.00000000     0.00000000
     0.00000000     0.00000000     0.00000000
     0.00000000     0.00000000     0.00000000
     0.00000000     0.00000000     0.00000000
     0.00000000     0.00000000     0.00000000
     0.00000000     0.00000000     0.00000000
     0.00000000     0.00000000     0.00000000
     0.00000000     0.00000000     0.00000000
     0.00000000     0.00000000     0.00000000
     0.00000000     0.00000000     0.00000000
     0.00000000     0.00000000     0.00000000
     0.00000000     0.00000000     0.00000000
     0.00000000     0.00000000     0.00000000
     0.00000000     0.00000000     0.00000000
     0.00000000     0.00000000     0.00000000
     0.00000000     0.00000000     0.00000000
     0.00000000     0.00000000     0.00000000
     0.00000000     0.00000000     0.00000000
     0.00000000     0.00000000     0.00000000
     0.00000000     0.00000000     0.00000000
     0.00000000     0.00000000     0.00000000
     0.00000000     0.00000000     0.00000000
     0.00000000     0.00000000     0.00000000
     0.00000000     0.00000000     0.00000000
     0.00000000     0.00000000     0.00000000
     0.00000000     0.00000000     0.00000000
     0.00000000     0.00000000     0.00000000
     0.00000000     0.00000000     0.00000000
     0.00000000     0.00000000     0.00000000
     0.00000000     0.00000000     0.00000000
     0.00000000     0.00000000     0.00000000
     0.00000000     0.00000000     0.00000000
     0.00000000     0.00000000     0.00000000
     0.00000000     0.00000000     0.00000000
     0.00000000     0.00000000     0.00000000
     0.00000000     0.00000000     0.00000000
     0.00000000     0.00000000     0.00000000
     0.00000000     0.00000000     0.00000000
     0.00000000     0.00000000     0.00000000
     0.00000000     0.00000000     0.00000000
     0.00000000     0.00000000     0.00000000
     0.00000000     0.00000000     0.00000000
     0.00000000     0.00000000     0.00000000
     0.00000000     0.00000000     0.00000000
     0.00000000     0.00000000     0.00000000
     0.00000000     0.00000000     0.00000000
     0.00000000     0.00000000     0.00000000
     0.00000000     0.00000000     0.00000000
     0.00000000     0.00000000     0.00000000
     0.00000000     0.00000000     0.00000000
     0.00000000     0.00000000     0.00000000
     0.00000000     0.00000000     0.00000000
     0.00000000     0.00000000     0.00000000
     0.00000000     0.00000000     0.00000000
     0.00000000     0.00000000     0.00000000
     0.00000000     0.00000000     0.00000000
     0.00000000     0.00000000     0.00000000
     0.00000000     0.00000000     0.00000000
     0.00000000     0.00000000     0.00000000
     0.00000000     0.00000000     0.00000000
     0.00000000     0.00000000     0.00000000
     0.00000000     0.00000000     0.00000000
     0.00000000     0.00000000     0.00000000
     0.00000000     0.00000000     0.00000000
     0.00000000     0.00000000     0.00000000
     0.00000000     0.00000000     0.00000000
     0.00000000     0.00000000     0.00000000
     0.00000000     0.00000000     0.00000000
     0.00000000     0.00000000     0.00000000
     0.00000000     0.00000000     0.00000000
     0.00000000     0.00000000     0.00000000
     0.00000000     0.00000000     0.00000000
     0.00000000     0.00000000     0.00000000
     0.00000000     0.00000000     0.00000000
     0.00000000     0.00000000     0.00000000
     0.00000000     0.00000000     0.00000000
     0.00000000     0.00000000     0.00000000
     0.00000000     0.00000000     0.00000000
     0.00000000     0.00000000     0.00000000
     0.00000000     0.00000000     0.00000000
     0.00000000     0.00000000     0.00000000
     0.00000000     0.00000000     0.00000000
     0.00000000     0.00000000     0.00000000
     0.00000000     0.00000000     0.00000000
     0.00000000     0.00000000     0.00000000
     0.00000000     0.00000000     0.00000000
     0.00000000     0.00000000     0.00000000
     0.00000000     0.00000000     0.00000000
     0.00000000     0.00000000     0.00000000
     0.00000000     0.00000000     0.00000000
     0.00000000     0.00000000     0.00000000
     0.00000000     0.00000000     0.00000000
     0.00000000     0.00000000     0.00000000
     0.00000000     0.00000000     0.00000000
     0.00000000     0.00000000     0.00000000
     0.00000000     0.00000000     0.00000000
     0.00000000     0.00000000     0.00000000
     0.00000000     0.00000000     0.00000000
     0.00000000     0.00000000     0.00000000
     0.00000000     0.00000000     0.00000000
     0.00000000     0.00000000     0.00000000
     0.00000000     0.00000000     0.00000000
     0.00000000     0.00000000     0.00000000
     0.00000000     0.00000000     0.00000000
     0.00000000     0.00000000     0.00000000
     0.00000000     0.00000000     0.00000000
     0.00000000     0.00000000     0.00000000
     0.00000000     0.00000000     0.00000000
     0.00000000     0.00000000     0.00000000
     0.00000000     0.00000000     0.00000000
     0.00000000     0.00000000     0.00000000
     0.00000000     0.00000000     0.00000000
     0.00000000     0.00000000     0.00000000
     0.00000000     0.00000000     0.00000000
     0.00000000     0.00000000     0.00000000
     0.00000000     0.00000000     0.00000000
     0.00000000     0.00000000     0.00000000
     0.00000000     0.00000000     0.00000000
     0.00000000     0.00000000     0.00000000
     0.00000000     0.00000000     0.00000000
     0.00000000     0.00000000     0.00000000
     0.00000000     0.00000000     0.00000000
     0.00000000     0.00000000     0.00000000
     0.00000000     0.00000000     0.00000000
     0.00000000     0.00000000     0.00000000
     0.00000000     0.00000000     0.00000000
     0.00000000     0.00000000     0.00000000
     0.00000000     0.00000000     0.00000000
     0.00000000     0.00000000     0.00000000
     0.00000000     0.00000000     0.00000000
     0.00000000     0.00000000     0.00000000
     0.00000000     0.00000000     0.00000000
     0.00000000     0.00000000     0.00000000
     0.00000000     0.00000000     0.00000000
     0.00000000     0.00000000     0.00000000
     0.00000000     0.00000000     0.00000000
     0.00000000     0.00000000     0.00000000
     0.00000000     0.00000000     0.00000000
     0.00000000     0.00000000     0.00000000
     0.00000000     0.00000000     0.00000000
     0.00000000     0.00000000     0.00000000
     0.00000000     0.00000000     0.00000000
     0.00000000     0.00000000     0.00000000
     0.00000000     0.00000000     0.00000000
     0.00000000     0.00000000     0.00000000
     0.00000000     0.00000000     0.00000000
     0.00000000     0.00000000     0.00000000
     0.00000000     0.00000000     0.00000000
     0.00000000     0.00000000     0.00000000
     0.00000000     0.00000000     0.00000000
     0.00000000     0.00000000     0.00000000
     0.00000000     0.00000000     0.00000000
     0.00000000     0.00000000     0.00000000
     0.00000000     0.00000000     0.00000000
     0.00000000     0.00000000     0.00000000
     0.00000000     0.00000000     0.00000000
     0.00000000     0.00000000     0.00000000
     0.00000000     0.00000000     0.00000000
     0.00000000     0.00000000     0.00000000
     0.00000000     0.00000000     0.00000000
     0.00000000     0.00000000     0.00000000
     0.00000000     0.00000000     0.00000000
     0.00000000     0.00000000     0.00000000
     0.00000000     0.00000000     0.00000000
     0.00000000     0.00000000     0.00000000
     0.00000000     0.00000000     0.00000000
     0.00000000     0.00000000     0.00000000
     0.00000000     0.00000000     0.00000000
     0.00000000     0.00000000     0.00000000
     0.00000000     0.00000000     0.00000000
     0.00000000     0.00000000     0.00000000
     0.00000000     0.00000000     0.00000000
     0.00000000     0.00000000     0.00000000
     0.00000000     0.00000000     0.00000000
     0.00000000     0.00000000     0.00000000
     0.00000000     0.00000000     0.00000000
     0.00000000     0.00000000     0.00000000
     0.00000000     0.00000000     0.00000000
     0.00000000     0.00000000     0.00000000
     0.00000000     0.00000000     0.00000000
     0.00000000     0.00000000     0.00000000
     0.00000000     0.00000000     0.00000000
     0.00000000     0.00000000     0.00000000
     0.00000000     0.00000000     0.00000000
     0.00000000     0.00000000     0.00000000
     0.00000000     0.00000000     0.00000000
     0.00000000     0.00000000     0.00000000
     0.00000000     0.00000000     0.00000000
     0.00000000     0.00000000     0.00000000
     0.00000000     0.00000000     0.00000000
     0.00000000     0.00000000     0.00000000
     0.00000000     0.00000000     0.00000000
     0.00000000     0.00000000     0.00000000
     0.00000000     0.00000000     0.00000000
     0.00000000     0.00000000     0.00000000
     0.00000000     0.00000000     0.00000000
     0.00000000     0.00000000     0.00000000
     0.00000000     0.00000000     0.00000000
     0.00000000     0.00000000     0.00000000
     0.00000000     0.00000000     0.00000000
     0.00000000     0.00000000     0.00000000
     0.00000000     0.00000000     0.00000000
     0.00000000     0.00000000     0.00000000
     0.00000000     0.00000000     0.00000000
     0.00000000     0.00000000     0.00000000
     0.00000000     0.00000000     0.00000000
     0.00000000     0.00000000     0.00000000
     0.00000000     0.00000000     0.00000000
     0.00000000     0.00000000     0.00000000
     0.00000000     0.00000000     0.00000000
     0.00000000     0.00000000     0.00000000
     0.00000000     0.00000000     0.00000000
     0.00000000     0.00000000     0.00000000
     0.00000000     0.00000000     0.00000000
     0.00000000     0.00000000     0.00000000
     0.00000000     0.00000000     0.00000000
     0.00000000     0.00000000     0.00000000
     0.00000000     0.00000000     0.00000000
     0.00000000     0.00000000     0.00000000
     0.00000000     0.00000000     0.00000000
     0.00000000     0.00000000     0.00000000
     0.00000000     0.00000000     0.00000000
     0.00000000     0.00000000     0.00000000
     0.00000000     0.00000000     0.00000000
     0.00000000     0.00000000     0.00000000
     0.00000000     0.00000000     0.00000000
     0.00000000     0.00000000     0.00000000
     0.00000000     0.00000000     0.00000000
     0.00000000     0.00000000     0.00000000
     0.00000000     0.00000000     0.00000000
     0.00000000     0.00000000     0.00000000
     0.00000000     0.00000000     0.00000000
     0.00000000     0.00000000     0.00000000
     0.00000000     0.00000000     0.00000000
     0.00000000     0.00000000     0.00000000
     0.00000000     0.00000000     0.00000000
     0.00000000     0.00000000     0.00000000
     0.00000000     0.00000000     0.00000000
     0.00000000     0.00000000     0.00000000
     0.00000000     0.00000000     0.00000000
     0.00000000     0.00000000     0.00000000
     0.00000000     0.00000000     0.00000000
     0.00000000     0.00000000     0.00000000
     0.00000000     0.00000000     0.00000000
     0.00000000     0.00000000     0.00000000
     0.00000000     0.00000000     0.00000000
     0.00000000     0.00000000     0.00000000
     0.00000000     0.00000000     0.00000000
     0.00000000     0.00000000     0.00000000
     0.00000000     0.00000000     0.00000000
     0.00000000     0.00000000     0.00000000
     0.00000000     0.00000000     0.00000000
     0.00000000     0.00000000     0.00000000
     0.00000000     0.00000000     0.00000000
     0.00000000     0.00000000     0.00000000
     0.00000000     0.00000000     0.00000000
     0.00000000     0.00000000     0.00000000
     0.00000000     0.00000000     0.00000000
     0.00000000     0.00000000     0.00000000
     0.00000000     0.00000000     0.00000000
     0.00000000     0.00000000     0.00000000
     0.00000000     0.00000000     0.00000000
     0.00000000     0.00000000     0.00000000
     0.00000000     0.00000000     0.00000000
     0.00000000     0.00000000     0.00000000
     0.00000000     0.00000000     0.00000000
     0.00000000     0.00000000     0.00000000
     0.00000000     0.00000000     0.00000000
     0.00000000     0.00000000     0.00000000
     0.00000000     0.00000000     0.00000000
     0.00000000     0.00000000     0.00000000
     0.00000000     0.00000000     0.00000000
     0.00000000     0.00000000     0.00000000
     0.00000000     0.00000000     0.00000000
     0.00000000     0.00000000     0.00000000
     0.00000000     0.00000000     0.00000000
     0.00000000     0.00000000     0.00000000
     0.00000000     0.00000000     0.00000000
     0.00000000     0.00000000     0.00000000
     0.00000000     0.00000000     0.00000000
     0.00000000     0.00000000     0.00000000
     0.00000000     0.00000000     0.00000000
     0.00000000     0.00000000     0.00000000
     0.00000000     0.00000000     0.00000000
     0.00000000     0.00000000     0.00000000
     0.00000000     0.00000000     0.00000000
     0.00000000     0.00000000     0.00000000
     0.00000000     0.00000000     0.00000000
     0.00000000     0.00000000     0.00000000
     0.00000000     0.00000000     0.00000000
     0.00000000     0.00000000     0.00000000
     0.00000000     0.00000000     0.00000000
     0.00000000     0.00000000     0.00000000
     0.00000000     0.00000000     0.00000000
     0.00000000     0.00000000     0.00000000
     0.00000000     0.00000000     0.00000000
     0.00000000     0.00000000     0.00000000
     0.00000000     0.00000000     0.00000000
     0.00000000     0.00000000     0.00000000
     0.00000000     0.00000000     0.00000000
     0.00000000     0.00000000     0.00000000
     0.00000000     0.00000000     0.00000000
     0.00000000     0.00000000     0.00000000
     0.00000000     0.00000000     0.00000000
     0.00000000     0.00000000     0.00000000
     0.00000000     0.00000000     0.00000000
     0.00000000     0.00000000     0.00000000
     0.00000000     0.00000000     0.00000000
     0.00000000     0.00000000     0.00000000
     0.00000000     0.00000000     0.00000000
     0.00000000     0.00000000     0.00000000
     0.00000000     0.00000000     0.00000000
     0.00000000     0.00000000     0.00000000
     0.00000000     0.00000000     0.00000000
     0.00000000     0.00000000     0.00000000
     0.00000000     0.00000000     0.00000000
     0.00000000     0.00000000     0.00000000
     0.00000000     0.00000000     0.00000000
     0.00000000     0.00000000     0.00000000
     0.00000000     0.00000000     0.00000000
     0.00000000     0.00000000     0.00000000
     0.00000000     0.00000000     0.00000000
     0.00000000     0.00000000     0.00000000
     0.00000000     0.00000000     0.00000000
     0.00000000     0.00000000     0.00000000
     0.00000000     0.00000000     0.00000000
     0.00000000     0.00000000     0.00000000
     0.00000000     0.00000000     0.00000000
     0.00000000     0.00000000     0.00000000
     0.00000000     0.00000000     0.00000000
     0.00000000     0.00000000     0.00000000
     0.00000000     0.00000000     0.00000000
     0.00000000     0.00000000     0.00000000
     0.00000000     0.00000000     0.00000000
     0.00000000     0.00000000     0.00000000
     0.00000000     0.00000000     0.00000000
     0.00000000     0.00000000     0.00000000
     0.00000000     0.00000000     0.00000000
     0.00000000     0.00000000     0.00000000
     0.00000000     0.00000000     0.00000000
     0.00000000     0.00000000     0.00000000
     0.00000000     0.00000000     0.00000000
     0.00000000     0.00000000     0.00000000
     0.00000000     0.00000000     0.00000000
     0.00000000     0.00000000     0.00000000
     0.00000000     0.00000000     0.00000000
     0.00000000     0.00000000     0.00000000
     0.00000000     0.00000000     0.00000000
     0.00000000     0.00000000     0.00000000
     0.00000000     0.00000000     0.00000000
     0.00000000     0.00000000     0.00000000
     0.00000000     0.00000000     0.00000000
     0.00000000     0.00000000     0.00000000
     0.00000000     0.00000000     0.00000000
     0.00000000     0.00000000     0.00000000
     0.00000000     0.00000000     0.00000000
     0.00000000     0.00000000     0.00000000
     0.00000000     0.00000000     0.00000000
     0.00000000     0.00000000     0.00000000
     0.00000000     0.00000000     0.00000000
     0.00000000     0.00000000     0.00000000
     0.00000000     0.00000000     0.00000000
     0.00000000     0.00000000     0.00000000
     0.00000000     0.00000000     0.00000000
     0.00000000     0.00000000     0.00000000
     0.00000000     0.00000000     0.00000000
     0.00000000     0.00000000     0.00000000
     0.00000000     0.00000000     0.00000000
     0.00000000     0.00000000     0.00000000
     0.00000000     0.00000000     0.00000000
     0.00000000     0.00000000     0.00000000
     0.00000000     0.00000000     0.00000000
     0.00000000     0.00000000     0.00000000
     0.00000000     0.00000000     0.00000000
     0.00000000     0.00000000     0.00000000
     0.00000000     0.00000000     0.00000000
     0.00000000     0.00000000     0.00000000
     0.00000000     0.00000000     0.00000000
     0.00000000     0.00000000     0.00000000
     0.00000000     0.00000000     0.00000000
     0.00000000     0.00000000     0.00000000
     0.00000000     0.00000000     0.00000000
     0.00000000     0.00000000     0.00000000
     0.00000000     0.00000000     0.00000000
     0.00000000     0.00000000     0.00000000
     0.00000000     0.00000000     0.00000000
     0.00000000     0.00000000     0.00000000
     0.00000000     0.00000000     0.00000000
     0.00000000     0.00000000     0.00000000
     0.00000000     0.00000000     0.00000000
     0.00000000     0.00000000     0.00000000
     0.00000000     0.00000000     0.00000000
     0.00000000     0.00000000     0.00000000
     0.00000000     0.00000000     0.00000000
     0.00000000     0.00000000     0.00000000
     0.00000000     0.00000000     0.00000000
     0.00000000     0.00000000     0.00000000
     0.00000000     0.00000000     0.00000000
     0.00000000     0.00000000     0.00000000
     0.00000000     0.00000000     0.00000000
     0.00000000     0.00000000     0.00000000
     0.00000000     0.00000000     0.00000000
     0.00000000     0.00000000     0.00000000
     0.00000000     0.00000000     0.00000000
     0.00000000     0.00000000     0.00000000
     0.00000000     0.00000000     0.00000000
     0.00000000     0.00000000     0.00000000
     0.00000000     0.00000000     0.00000000
     0.00000000     0.00000000     0.00000000
     0.00000000     0.00000000     0.00000000
     0.00000000     0.00000000     0.00000000
     0.00000000     0.00000000     0.00000000
     0.00000000     0.00000000     0.00000000
     0.00000000     0.00000000     0.00000000
     0.00000000     0.00000000     0.00000000
     0.00000000     0.00000000     0.00000000
     0.00000000     0.00000000     0.00000000
     0.00000000     0.00000000     0.00000000
     0.00000000     0.00000000     0.00000000
     0.00000000     0.00000000     0.00000000
     0.00000000     0.00000000     0.00000000
     0.00000000     0.00000000     0.00000000
     0.00000000     0.00000000     0.00000000
     0.00000000     0.00000000     0.00000000
     0.00000000     0.00000000     0.00000000
     0.00000000     0.00000000     0.00000000
     0.00000000     0.00000000     0.00000000
     0.00000000     0.00000000     0.00000000
     0.00000000     0.00000000     0.00000000
     0.00000000     0.00000000     0.00000000
     0.00000000     0.00000000     0.00000000
     0.00000000     0.00000000     0.00000000
     0.00000000     0.00000000     0.00000000
     0.00000000     0.00000000     0.00000000
     0.00000000     0.00000000     0.00000000
     0.00000000     0.00000000     0.00000000
     0.00000000     0.00000000     0.00000000
     0.00000000     0.00000000     0.00000000
     0.00000000     0.00000000     0.00000000
     0.00000000     0.00000000     0.00000000
     0.00000000     0.00000000     0.00000000
     0.00000000     0.00000000     0.00000000
     0.00000000     0.00000000     0.00000000
     0.00000000     0.00000000     0.00000000
     0.00000000     0.00000000     0.00000000
     0.00000000     0.00000000     0.00000000
     0.00000000     0.00000000     0.00000000
     0.00000000     0.00000000     0.00000000
     0.00000000     0.00000000     0.00000000
     0.00000000     0.00000000     0.00000000
     0.00000000     0.00000000     0.00000000
     0.00000000     0.00000000     0.00000000
     0.00000000     0.00000000     0.00000000
     0.00000000     0.00000000     0.00000000
     0.00000000     0.00000000     0.00000000
     0.00000000     0.00000000     0.00000000
     0.00000000     0.00000000     0.00000000
     0.00000000     0.00000000     0.00000000
     0.00000000     0.00000000     0.00000000
     0.00000000     0.00000000     0.00000000
     0.00000000     0.00000000     0.00000000
     0.00000000     0.00000000     0.00000000
     0.00000000     0.00000000     0.00000000
     0.00000000     0.00000000     0.00000000
     0.00000000     0.00000000     0.00000000
     0.00000000     0.00000000     0.00000000
     0.00000000     0.00000000     0.00000000
     0.00000000     0.00000000     0.00000000
     0.00000000     0.00000000     0.00000000
     0.00000000     0.00000000     0.00000000
     0.00000000     0.00000000     0.00000000
     0.00000000     0.00000000     0.00000000
     0.00000000     0.00000000     0.00000000
     0.00000000     0.00000000     0.00000000
     0.00000000     0.00000000     0.00000000
     0.00000000     0.00000000     0.00000000
     0.00000000     0.00000000     0.00000000
     0.00000000     0.00000000     0.00000000
     0.00000000     0.00000000     0.00000000
     0.00000000     0.00000000     0.00000000
     0.00000000     0.00000000     0.00000000
     0.00000000     0.00000000     0.00000000
     0.00000000     0.00000000     0.00000000
     0.00000000     0.00000000     0.00000000
     0.00000000     0.00000000     0.00000000
     0.00000000     0.00000000     0.00000000
     0.00000000     0.00000000     0.00000000
     0.00000000     0.00000000     0.00000000
     0.00000000     0.00000000     0.00000000
     0.00000000     0.00000000     0.00000000
     0.00000000     0.00000000     0.00000000
     0.00000000     0.00000000     0.00000000
     0.00000000     0.00000000     0.00000000
     0.00000000     0.00000000     0.00000000
     0.00000000     0.00000000     0.00000000
     0.00000000     0.00000000     0.00000000
     0.00000000     0.00000000     0.00000000
     0.00000000     0.00000000     0.00000000
     0.00000000     0.00000000     0.00000000
     0.00000000     0.00000000     0.00000000
     0.00000000     0.00000000     0.00000000
     0.00000000     0.00000000     0.00000000
     0.00000000     0.00000000     0.00000000
     0.00000000     0.00000000     0.00000000
     0.00000000     0.00000000     0.00000000
     0.00000000     0.00000000     0.00000000
     0.00000000     0.00000000     0.00000000
     0.00000000     0.00000000     0.00000000
     0.00000000     0.00000000     0.00000000
     0.00000000     0.00000000     0.00000000
     0.00000000     0.00000000     0.00000000
     0.00000000     0.00000000     0.00000000
     0.00000000     0.00000000     0.00000000
     0.00000000     0.00000000     0.00000000
     0.00000000     0.00000000     0.00000000
     0.00000000     0.00000000     0.00000000
     0.00000000     0.00000000     0.00000000
     0.00000000     0.00000000     0.00000000
     0.00000000     0.00000000     0.00000000
     0.00000000     0.00000000     0.00000000
     0.00000000     0.00000000     0.00000000
     0.00000000     0.00000000     0.00000000
     0.00000000     0.00000000     0.00000000
     0.00000000     0.00000000     0.00000000
     0.00000000     0.00000000     0.00000000
     0.00000000     0.00000000     0.00000000
     0.00000000     0.00000000     0.00000000
     0.00000000     0.00000000     0.00000000
     0.00000000     0.00000000     0.00000000
     0.00000000     0.00000000     0.00000000
     0.00000000     0.00000000     0.00000000
     0.00000000     0.00000000     0.00000000
     0.00000000     0.00000000     0.00000000
     0.00000000     0.00000000     0.00000000
     0.00000000     0.00000000     0.00000000
     0.00000000     0.00000000     0.00000000
     0.00000000     0.00000000     0.00000000
     0.00000000     0.00000000     0.00000000
     0.00000000     0.00000000     0.00000000
     0.00000000     0.00000000     0.00000000
     0.00000000     0.00000000     0.00000000
     0.00000000     0.00000000     0.00000000
     0.00000000     0.00000000     0.00000000
     0.00000000     0.00000000     0.00000000
     0.00000000     0.00000000     0.00000000
     0.00000000     0.00000000     0.00000000
     0.00000000     0.00000000     0.00000000
     0.00000000     0.00000000     0.00000000
     0.00000000     0.00000000     0.00000000
     0.00000000     0.00000000     0.00000000
     0.00000000     0.00000000     0.00000000
     0.00000000     0.00000000     0.00000000
     0.00000000     0.00000000     0.00000000
     0.00000000     0.00000000     0.00000000
     0.00000000     0.00000000     0.00000000
     0.00000000     0.00000000     0.00000000
     0.00000000     0.00000000     0.00000000
     0.00000000     0.00000000     0.00000000
     0.00000000     0.00000000     0.00000000
     0.00000000     0.00000000     0.00000000
     0.00000000     0.00000000     0.00000000
     0.00000000     0.00000000     0.00000000
     0.00000000     0.00000000     0.00000000
     0.00000000     0.00000000     0.00000000
     0.00000000     0.00000000     0.00000000
     0.00000000     0.00000000     0.00000000
     0.00000000     0.00000000     0.00000000
     0.00000000     0.00000000     0.00000000
     0.00000000     0.00000000     0.00000000
     0.00000000     0.00000000     0.00000000
     0.00000000     0.00000000     0.00000000
     0.00000000     0.00000000     0.00000000
     0.00000000     0.00000000     0.00000000
     0.00000000     0.00000000     0.00000000
     0.00000000     0.00000000     0.00000000
     0.00000000     0.00000000     0.00000000
     0.00000000     0.00000000     0.00000000
     0.00000000     0.00000000     0.00000000
     0.00000000     0.00000000     0.00000000
     0.00000000     0.00000000     0.00000000
     0.00000000     0.00000000     0.00000000
     0.00000000     0.00000000     0.00000000
     0.00000000     0.00000000     0.00000000
     0.00000000     0.00000000     0.00000000
     0.00000000     0.00000000     0.00000000
     0.00000000     0.00000000     0.00000000
     0.00000000     0.00000000     0.00000000
     0.00000000     0.00000000     0.00000000
     0.00000000     0.00000000     0.00000000
     0.00000000     0.00000000     0.00000000
     0.00000000     0.00000000     0.00000000
     0.00000000     0.00000000     0.00000000
     0.00000000     0.00000000     0.00000000
     0.00000000     0.00000000     0.00000000
     0.00000000     0.00000000     0.00000000
     0.00000000     0.00000000     0.00000000
     0.00000000     0.00000000     0.00000000
     0.00000000     0.00000000     0.00000000
     0.00000000     0.00000000     0.00000000
     0.00000000     0.00000000     0.00000000
     0.00000000     0.00000000     0.00000000
     0.00000000     0.00000000     0.00000000
     0.00000000     0.00000000     0.00000000
     0.00000000     0.00000000     0.00000000
     0.00000000     0.00000000     0.00000000
     0.00000000     0.00000000     0.00000000
     0.00000000     0.00000000     0.00000000
     0.00000000     0.00000000     0.00000000
     0.00000000     0.00000000     0.00000000
     0.00000000     0.00000000     0.00000000
     0.00000000     0.00000000     0.00000000
     0.00000000     0.00000000     0.00000000
     0.00000000     0.00000000     0.00000000
     0.00000000     0.00000000     0.00000000
     0.00000000     0.00000000     0.00000000
     0.00000000     0.00000000     0.00000000
     0.00000000     0.00000000     0.00000000
     0.00000000     0.00000000     0.00000000
     0.00000000     0.00000000     0.00000000
     0.00000000     0.00000000     0.00000000
     0.00000000     0.00000000     0.00000000
     0.00000000     0.00000000     0.00000000
     0.00000000     0.00000000     0.00000000
     0.00000000     0.00000000     0.00000000
     0.00000000     0.00000000     0.00000000
     0.00000000     0.00000000     0.00000000
     0.00000000     0.00000000     0.00000000
     0.00000000     0.00000000     0.00000000
     0.00000000     0.00000000     0.00000000
     0.00000000     0.00000000     0.00000000
     0.00000000     0.00000000     0.00000000
     0.00000000     0.00000000     0.00000000
     0.00000000     0.00000000     0.00000000
     0.00000000     0.00000000     0.00000000
     0.00000000     0.00000000     0.00000000
     0.00000000     0.00000000     0.00000000
     0.00000000     0.00000000     0.00000000
     0.00000000     0.00000000     0.00000000
     0.00000000     0.00000000     0.00000000
     0.00000000     0.00000000     0.00000000
     0.00000000     0.00000000     0.00000000
     0.00000000     0.00000000     0.00000000
     0.00000000     0.00000000     0.00000000
     0.00000000     0.00000000     0.00000000
     0.00000000     0.00000000     0.00000000
     0.00000000     0.00000000     0.00000000
     0.00000000     0.00000000     0.00000000
     0.00000000     0.00000000     0.00000000
     0.00000000     0.00000000     0.00000000
     0.00000000     0.00000000     0.00000000
     0.00000000     0.00000000     0.00000000
     0.00000000     0.00000000     0.00000000
     0.00000000     0.00000000     0.00000000
     0.00000000     0.00000000     0.00000000
     0.00000000     0.00000000     0.00000000
     0.00000000     0.00000000     0.00000000
     0.00000000     0.00000000     0.00000000
     0.00000000     0.00000000     0.00000000
     0.00000000     0.00000000     0.00000000
     0.00000000     0.00000000     0.00000000
     0.00000000     0.00000000     0.00000000
     0.00000000     0.00000000     0.00000000
     0.00000000     0.00000000     0.00000000
     0.00000000     0.00000000     0.00000000
     0.00000000     0.00000000     0.00000000
     0.00000000     0.00000000     0.00000000
     0.00000000     0.00000000     0.00000000
     0.00000000     0.00000000     0.00000000
     0.00000000     0.00000000     0.00000000
     0.00000000     0.00000000     0.00000000
     0.00000000     0.00000000     0.00000000
     0.00000000     0.00000000     0.00000000
     0.00000000     0.00000000     0.00000000
     0.00000000     0.00000000     0.00000000
     0.00000000     0.00000000     0.00000000
     0.00000000     0.00000000     0.00000000
     0.00000000     0.00000000     0.00000000
     0.00000000     0.00000000     0.00000000
     0.00000000     0.00000000     0.00000000
     0.00000000     0.00000000     0.00000000
     0.00000000     0.00000000     0.00000000
     0.00000000     0.00000000     0.00000000
     0.00000000     0.00000000     0.00000000
     0.00000000     0.00000000     0.00000000
     0.00000000     0.00000000     0.00000000
     0.00000000     0.00000000     0.00000000
     0.00000000     0.00000000     0.00000000
     0.00000000     0.00000000     0.00000000
     0.00000000     0.00000000     0.00000000
     0.00000000     0.00000000     0.00000000
     0.00000000     0.00000000     0.00000000
     0.00000000     0.00000000     0.00000000
     0.00000000     0.00000000     0.00000000
     0.00000000     0.00000000     0.00000000
     0.00000000     0.00000000     0.00000000
     0.00000000     0.00000000     0.00000000
     0.00000000     0.00000000     0.00000000
     0.00000000     0.00000000     0.00000000
     0.00000000     0.00000000     0.00000000
     0.00000000     0.00000000     0.00000000
     0.00000000     0.00000000     0.00000000
     0.00000000     0.00000000     0.00000000
     0.00000000     0.00000000     0.00000000
     0.00000000     0.00000000     0.00000000
     0.00000000     0.00000000     0.00000000
     0.00000000     0.00000000     0.00000000
     0.00000000     0.00000000     0.00000000
     0.00000000     0.00000000     0.00000000
     0.00000000     0.00000000     0.00000000
     0.00000000     0.00000000     0.00000000
     0.00000000     0.00000000     0.00000000
     0.00000000     0.00000000     0.00000000
     0.00000000     0.00000000     0.00000000
     0.00000000     0.00000000     0.00000000
     0.00000000     0.00000000     0.00000000
     0.00000000     0.00000000     0.00000000
     0.00000000     0.00000000     0.00000000
     0.00000000     0.00000000     0.00000000
     0.00000000     0.00000000     0.00000000
     0.00000000     0.00000000     0.00000000
     0.00000000     0.00000000     0.00000000
     0.00000000     0.00000000     0.00000000
     0.00000000     0.00000000     0.00000000
     0.00000000     0.00000000     0.00000000
     0.00000000     0.00000000     0.00000000
     0.00000000     0.00000000     0.00000000
     0.00000000     0.00000000     0.00000000
     0.00000000     0.00000000     0.00000000
     0.00000000     0.00000000     0.00000000
     0.00000000     0.00000000     0.00000000
     0.00000000     0.00000000     0.00000000
     0.00000000     0.00000000     0.00000000
     0.00000000     0.00000000     0.00000000
     0.00000000     0.00000000     0.00000000
     0.00000000     0.00000000     0.00000000
     0.00000000     0.00000000     0.00000000
     0.00000000     0.00000000     0.00000000
     0.00000000     0.00000000     0.00000000
     0.00000000     0.00000000     0.00000000
     0.00000000     0.00000000     0.00000000
     0.00000000     0.00000000     0.00000000
     0.00000000     0.00000000     0.00000000
     0.00000000     0.00000000     0.00000000
     0.00000000     0.00000000     0.00000000
     0.00000000     0.00000000     0.00000000
     0.00000000     0.00000000     0.00000000
     0.00000000     0.00000000     0.00000000
     0.00000000     0.00000000     0.00000000
     0.00000000     0.00000000     0.00000000
     0.00000000     0.00000000     0.00000000
     0.00000000     0.00000000     0.00000000
     0.00000000     0.00000000     0.00000000
     0.00000000     0.00000000     0.00000000
     0.00000000     0.00000000     0.00000000
     0.00000000     0.00000000     0.00000000
     0.00000000     0.00000000     0.00000000
     0.00000000     0.00000000     0.00000000
     0.00000000     0.00000000     0.00000000
     0.00000000     0.00000000     0.00000000
     0.00000000     0.00000000     0.00000000
     0.00000000     0.00000000     0.00000000
     0.00000000     0.00000000     0.00000000
     0.00000000     0.00000000     0.00000000
     0.00000000     0.00000000     0.00000000
     0.00000000     0.00000000     0.00000000
     0.00000000     0.00000000     0.00000000
     0.00000000     0.00000000     0.00000000
     0.00000000     0.00000000     0.00000000
     0.00000000     0.00000000     0.00000000
     0.00000000     0.00000000     0.00000000
     0.00000000     0.00000000     0.00000000
     0.00000000     0.00000000     0.00000000
     0.00000000     0.00000000     0.00000000
     0.00000000     0.00000000     0.00000000
     0.00000000     0.00000000     0.00000000
     0.00000000     0.00000000     0.00000000
     0.00000000     0.00000000     0.00000000
     0.00000000     0.00000000     0.00000000
     0.00000000     0.00000000     0.00000000
     0.00000000     0.00000000     0.00000000
     0.00000000     0.00000000     0.00000000
     0.00000000     0.00000000     0.00000000
     0.00000000     0.00000000     0.00000000
     0.00000000     0.00000000     0.00000000
     0.00000000     0.00000000     0.00000000
     0.00000000     0.00000000     0.00000000
     0.00000000     0.00000000     0.00000000
     0.00000000     0.00000000     0.00000000
     0.00000000     0.00000000     0.00000000
     0.00000000     0.00000000     0.00000000
     0.00000000     0.00000000     0.00000000
     0.00000000     0.00000000     0.00000000
     0.00000000     0.00000000     0.00000000
     0.00000000     0.00000000     0.00000000
     0.00000000     0.00000000     0.00000000
     0.00000000     0.00000000     0.00000000
     0.00000000     0.00000000     0.00000000
     0.00000000     0.00000000     0.00000000
     0.00000000     0.00000000     0.00000000
     0.00000000     0.00000000     0.00000000
     0.00000000     0.00000000     0.00000000
     0.00000000     0.00000000     0.00000000
     0.00000000     0.00000000     0.00000000
     0.00000000     0.00000000     0.00000000
     0.00000000     0.00000000     0.00000000
     0.00000000     0.00000000     0.00000000
     0.00000000     0.00000000     0.00000000
     0.00000000     0.00000000     0.00000000
     0.00000000     0.00000000     0.00000000
     0.00000000     0.00000000     0.00000000
     0.00000000     0.00000000     0.00000000
     0.00000000     0.00000000     0.00000000
     0.00000000     0.00000000     0.00000000
     0.00000000     0.00000000     0.00000000
     0.00000000     0.00000000     0.00000000
     0.00000000     0.00000000     0.00000000
     0.00000000     0.00000000     0.00000000
     0.00000000     0.00000000     0.00000000
     0.00000000     0.00000000     0.00000000
     0.00000000     0.00000000     0.00000000
     0.00000000     0.00000000     0.00000000
     0.00000000     0.00000000     0.00000000
     0.00000000     0.00000000     0.00000000
     0.00000000     0.00000000     0.00000000
     0.00000000     0.00000000     0.00000000
     0.00000000     0.00000000     0.00000000
     0.00000000     0.00000000     0.00000000
     0.00000000     0.00000000     0.00000000
     0.00000000     0.00000000     0.00000000
     0.00000000     0.00000000     0.00000000
     0.00000000     0.00000000     0.00000000
     0.00000000     0.00000000     0.00000000
     0.00000000     0.00000000     0.00000000
     0.00000000     0.00000000     0.00000000
     0.00000000     0.00000000     0.00000000
     0.00000000     0.00000000     0.00000000
     0.00000000     0.00000000     0.00000000
     0.00000000     0.00000000     0.00000000
     0.00000000     0.00000000     0.00000000
     0.00000000     0.00000000     0.00000000
     0.00000000     0.00000000     0.00000000
     0.00000000     0.00000000     0.00000000
     0.00000000     0.00000000     0.00000000
     0.00000000     0.00000000     0.00000000
     0.00000000     0.00000000     0.00000000
     0.00000000     0.00000000     0.00000000
     0.00000000     0.00000000     0.00000000
     0.00000000     0.00000000     0.00000000
     0.00000000     0.00000000     0.00000000
     0.00000000     0.00000000     0.00000000
     0.00000000     0.00000000     0.00000000
     0.00000000     0.00000000     0.00000000
     0.00000000     0.00000000     0.00000000
     0.00000000     0.00000000     0.00000000
     0.00000000     0.00000000     0.00000000
     0.00000000     0.00000000     0.00000000
     0.00000000     0.00000000     0.00000000
     0.00000000     0.00000000     0.00000000
     0.00000000     0.00000000     0.00000000
     0.00000000     0.00000000     0.00000000
     0.00000000     0.00000000     0.00000000
     0.00000000     0.00000000     0.00000000
     0.00000000     0.00000000     0.00000000
     0.00000000     0.00000000     0.00000000
     0.00000000     0.00000000     0.00000000
     0.00000000     0.00000000     0.00000000
     0.00000000     0.00000000     0.00000000
     0.00000000     0.00000000     0.00000000
     0.00000000     0.00000000     0.00000000
     0.00000000     0.00000000     0.00000000
     0.00000000     0.00000000     0.00000000
     0.00000000     0.00000000     0.00000000
     0.00000000     0.00000000     0.00000000
     0.00000000     0.00000000     0.00000000
     0.00000000     0.00000000     0.00000000
     0.00000000     0.00000000     0.00000000
     0.00000000     0.00000000     0.00000000
     0.00000000     0.00000000     0.00000000
     0.00000000     0.00000000     0.00000000
     0.00000000     0.00000000     0.00000000
     0.00000000     0.00000000     0.00000000
     0.00000000     0.00000000     0.00000000
     0.00000000     0.00000000     0.00000000
     0.00000000     0.00000000     0.00000000
     0.00000000     0.00000000     0.00000000
     0.00000000     0.00000000     0.00000000
     0.00000000     0.00000000     0.00000000
     0.00000000     0.00000000     0.00000000
     0.00000000     0.00000000     0.00000000
     0.00000000     0.00000000     0.00000000
     0.00000000     0.00000000     0.00000000
     0.00000000     0.00000000     0.00000000
     0.00000000     0.00000000     0.00000000
     0.00000000     0.00000000     0.00000000
     0.00000000     0.00000000     0.00000000
     0.00000000     0.00000000     0.00000000
     0.00000000     0.00000000     0.00000000
     0.00000000     0.00000000     0.00000000
     0.00000000     0.00000000     0.00000000
     0.00000000     0.00000000     0.00000000
     0.00000000     0.00000000     0.00000000
     0.00000000     0.00000000     0.00000000
     0.00000000     0.00000000     0.00000000
     0.00000000     0.00000000     0.00000000
     0.00000000     0.00000000     0.00000000
     0.00000000     0.00000000     0.00000000
     0.00000000     0.00000000     0.00000000
     0.00000000     0.00000000     0.00000000
     0.00000000     0.00000000     0.00000000
     0.00000000     0.00000000     0.00000000
     0.00000000     0.00000000     0.00000000
     0.00000000     0.00000000     0.00000000
     0.00000000     0.00000000     0.00000000
     0.00000000     0.00000000     0.00000000
     0.00000000     0.00000000     0.00000000
     0.00000000     0.00000000     0.00000000
     0.00000000     0.00000000     0.00000000
     0.00000000     0.00000000     0.00000000
     0.00000000     0.00000000     0.00000000
     0.00000000     0.00000000     0.00000000
     0.00000000     0.00000000     0.00000000
     0.00000000     0.00000000     0.00000000
     0.00000000     0.00000000     0.00000000
     0.00000000     0.00000000     0.00000000
     0.00000000     0.00000000     0.00000000
     0.00000000     0.00000000     0.00000000
     0.00000000     0.00000000     0.00000000
     0.00000000     0.00000000     0.00000000
     0.00000000     0.00000000     0.00000000
     0.00000000     0.00000000     0.00000000
     0.00000000     0.00000000     0.00000000
     0.00000000     0.00000000     0.00000000
     0.00000000     0.00000000     0.00000000
     0.00000000     0.00000000     0.00000000
     0.00000000     0.00000000     0.00000000
     0.00000000     0.00000000     0.00000000
     0.00000000     0.00000000     0.00000000
     0.00000000     0.00000000     0.00000000
     0.00000000     0.00000000     0.00000000
     0.00000000     0.00000000     0.00000000
     0.00000000     0.00000000     0.00000000
     0.00000000     0.00000000     0.00000000
     0.00000000     0.00000000     0.00000000
     0.00000000     0.00000000     0.00000000
     0.00000000     0.00000000     0.00000000
     0.00000000     0.00000000     0.00000000
     0.00000000     0.00000000     0.00000000
     0.00000000     0.00000000     0.00000000
     0.00000000     0.00000000     0.00000000
     0.00000000     0.00000000     0.00000000
     0.00000000     0.00000000     0.00000000
     0.00000000     0.00000000     0.00000000
     0.00000000     0.00000000     0.00000000
     0.00000000     0.00000000     0.00000000
     0.00000000     0.00000000     0.00000000
     0.00000000     0.00000000     0.00000000
     0.00000000     0.00000000     0.00000000
     0.00000000     0.00000000     0.00000000
     0.00000000     0.00000000     0.00000000
     0.00000000     0.00000000     0.00000000
     0.00000000     0.00000000     0.00000000
     0.00000000     0.00000000     0.00000000
     0.00000000     0.00000000     0.00000000
     0.00000000     0.00000000     0.00000000
     0.00000000     0.00000000     0.00000000
     0.00000000     0.00000000     0.00000000
     0.00000000     0.00000000     0.00000000
     0.00000000     0.00000000     0.00000000
     0.00000000     0.00000000     0.00000000
     0.00000000     0.00000000     0.00000000
     0.00000000     0.00000000     0.00000000
     0.00000000     0.00000000     0.00000000
     0.00000000     0.00000000     0.00000000
     0.00000000     0.00000000     0.00000000
     0.00000000     0.00000000     0.00000000
     0.00000000     0.00000000     0.00000000
     0.00000000     0.00000000     0.00000000
     0.00000000     0.00000000     0.00000000
     0.00000000     0.00000000     0.00000000
     0.00000000     0.00000000     0.00000000
     0.00000000     0.00000000     0.00000000
     0.00000000     0.00000000     0.00000000
     0.00000000     0.00000000     0.00000000
     0.00000000     0.00000000     0.00000000
     0.00000000     0.00000000     0.00000000
     0.00000000     0.00000000     0.00000000
     0.00000000     0.00000000     0.00000000
     0.00000000     0.00000000     0.00000000
     0.00000000     0.00000000     0.00000000
     0.00000000     0.00000000     0.00000000
     0.00000000     0.00000000     0.00000000
     0.00000000     0.00000000     0.00000000
     0.00000000     0.00000000     0.00000000
     0.00000000     0.00000000     0.00000000
     0.00000000     0.00000000     0.00000000
     0.00000000     0.00000000     0.00000000
     0.00000000     0.00000000     0.00000000
     0.00000000     0.00000000     0.00000000
     0.00000000     0.00000000     0.00000000
     0.00000000     0.00000000     0.00000000
     0.00000000     0.00000000     0.00000000
     0.00000000     0.00000000     0.00000000
     0.00000000     0.00000000     0.00000000
     0.00000000     0.00000000     0.00000000
     0.00000000     0.00000000     0.00000000
     0.00000000     0.00000000     0.00000000
     0.00000000     0.00000000     0.00000000
     0.00000000     0.00000000     0.00000000
     0.00000000     0.00000000     0.00000000
     0.00000000     0.00000000     0.00000000
     0.00000000     0.00000000     0.00000000
     0.00000000     0.00000000     0.00000000
     0.00000000     0.00000000     0.00000000
     0.00000000     0.00000000     0.00000000
     0.00000000     0.00000000     0.00000000
     0.00000000     0.00000000     0.00000000
     0.00000000     0.00000000     0.00000000
     0.00000000     0.00000000     0.00000000
     0.00000000     0.00000000     0.00000000
     0.00000000     0.00000000     0.00000000
     0.00000000     0.00000000     0.00000000
     0.00000000     0.00000000     0.00000000
     0.00000000     0.00000000     0.00000000
     0.00000000     0.00000000     0.00000000
     0.00000000     0.00000000     0.00000000
     0.00000000     0.00000000     0.00000000
     0.00000000     0.00000000     0.00000000
     0.00000000     0.00000000     0.00000000
     0.00000000     0.00000000     0.00000000
     0.00000000     0.00000000     0.00000000
     0.00000000     0.00000000     0.00000000
     0.00000000     0.00000000     0.00000000
     0.00000000     0.00000000     0.00000000
     0.00000000     0.00000000     0.00000000
     0.00000000     0.00000000     0.00000000
     0.00000000     0.00000000     0.00000000
     0.00000000     0.00000000     0.00000000
     0.00000000     0.00000000     0.00000000
     0.00000000     0.00000000     0.00000000
     0.00000000     0.00000000     0.00000000
     0.00000000     0.00000000     0.00000000
     0.00000000     0.00000000     0.00000000
     0.00000000     0.00000000     0.00000000
     0.00000000     0.00000000     0.00000000
     0.00000000     0.00000000     0.00000000
     0.00000000     0.00000000     0.00000000
     0.00000000     0.00000000     0.00000000
     0.00000000     0.00000000     0.00000000
     0.00000000     0.00000000     0.00000000
     0.00000000     0.00000000     0.00000000
     0.00000000     0.00000000     0.00000000
     0.00000000     0.00000000     0.00000000
     0.00000000     0.00000000     0.00000000
     0.00000000     0.00000000     0.00000000
     0.00000000     0.00000000     0.00000000
     0.00000000     0.00000000     0.00000000
     0.00000000     0.00000000     0.00000000
     0.00000000     0.00000000     0.00000000
     0.00000000     0.00000000     0.00000000
     0.00000000     0.00000000     0.00000000
     0.00000000     0.00000000     0.00000000
     0.00000000     0.00000000     0.00000000
     0.00000000     0.00000000     0.00000000
     0.00000000     0.00000000     0.00000000
     0.00000000     0.00000000     0.00000000
     0.00000000     0.00000000     0.00000000
     0.00000000     0.00000000     0.00000000
     0.00000000     0.00000000     0.00000000
     0.00000000     0.00000000     0.00000000
     0.00000000     0.00000000     0.00000000
     0.00000000     0.00000000     0.00000000
     0.00000000     0.00000000     0.00000000
     0.00000000     0.00000000     0.00000000
     0.00000000     0.00000000     0.00000000
     0.00000000     0.00000000     0.00000000
     0.00000000     0.00000000     0.00000000
     0.00000000     0.00000000     0.00000000
     0.00000000     0.00000000     0.00000000
     0.00000000     0.00000000     0.00000000
     0.00000000     0.00000000     0.00000000
     0.00000000     0.00000000     0.00000000
     0.00000000     0.00000000     0.00000000
     0.00000000     0.00000000     0.00000000
     0.00000000     0.00000000     0.00000000
     0.00000000     0.00000000     0.00000000
     0.00000000     0.00000000     0.00000000
     0.00000000     0.00000000     0.00000000
     0.00000000     0.00000000     0.00000000
     0.00000000     0.00000000     0.00000000
     0.00000000     0.00000000     0.00000000
     0.00000000     0.00000000     0.00000000
     0.00000000     0.00000000     0.00000000
     0.00000000     0.00000000     0.00000000
     0.00000000     0.00000000     0.00000000
     0.00000000     0.00000000     0.00000000
     0.00000000     0.00000000     0.00000000
     0.00000000     0.00000000     0.00000000
     0.00000000     0.00000000     0.00000000
     0.00000000     0.00000000     0.00000000
     0.00000000     0.00000000     0.00000000
     0.00000000     0.00000000     0.00000000
     0.00000000     0.00000000     0.00000000
     0.00000000     0.00000000     0.00000000
     0.00000000     0.00000000     0.00000000
     0.00000000     0.00000000     0.00000000
     0.00000000     0.00000000     0.00000000
     0.00000000     0.00000000     0.00000000
     0.00000000     0.00000000     0.00000000
     0.00000000     0.00000000     0.00000000
     0.00000000     0.00000000     0.00000000
     0.00000000     0.00000000     0.00000000
     0.00000000     0.00000000     0.00000000
     0.00000000     0.00000000     0.00000000
     0.00000000     0.00000000     0.00000000
     0.00000000     0.00000000     0.00000000
     0.00000000     0.00000000     0.00000000
     0.00000000     0.00000000     0.00000000
     0.00000000     0.00000000     0.00000000
     0.00000000     0.00000000     0.00000000
     0.00000000     0.00000000     0.00000000
     0.00000000     0.00000000     0.00000000
     0.00000000     0.00000000     0.00000000
     0.00000000     0.00000000     0.00000000
     0.00000000     0.00000000     0.00000000
     0.00000000     0.00000000     0.00000000
     0.00000000     0.00000000     0.00000000
     0.00000000     0.00000000     0.00000000
     0.00000000     0.00000000     0.00000000
     0.00000000     0.00000000     0.00000000
     0.00000000     0.00000000     0.00000000
     0.00000000     0.00000000     0.00000000
     0.00000000     0.00000000     0.00000000
     0.00000000     0.00000000     0.00000000
     0.00000000     0.00000000     0.00000000
     0.00000000     0.00000000     0.00000000
     0.00000000     0.00000000     0.00000000
     0.00000000     0.00000000     0.00000000
     0.00000000     0.00000000     0.00000000
     0.00000000     0.00000000     0.00000000
     0.00000000     0.00000000     0.00000000
     0.00000000     0.00000000     0.00000000
     0.00000000     0.00000000     0.00000000
     0.00000000     0.00000000     0.00000000
     0.00000000     0.00000000     0.00000000
     0.00000000     0.00000000     0.00000000
     0.00000000     0.00000000     0.00000000
     0.00000000     0.00000000     0.00000000
     0.00000000     0.00000000     0.00000000
     0.00000000     0.00000000     0.00000000
     0.00000000     0.00000000     0.00000000
     0.00000000     0.00000000     0.00000000
     0.00000000     0.00000000     0.00000000
     0.00000000     0.00000000     0.00000000
     0.00000000     0.00000000     0.00000000
     0.00000000     0.00000000     0.00000000
     0.00000000     0.00000000     0.00000000
     0.00000000     0.00000000     0.00000000
     0.00000000     0.00000000     0.00000000
     0.00000000     0.00000000     0.00000000
     0.00000000     0.00000000     0.00000000
     0.00000000     0.00000000     0.00000000
     0.00000000     0.00000000     0.00000000
     0.00000000     0.00000000     0.00000000
     0.00000000     0.00000000     0.00000000
     0.00000000     0.00000000     0.00000000
     0.00000000     0.00000000     0.00000000
     0.00000000     0.00000000     0.00000000
     0.00000000     0.00000000     0.00000000
     0.00000000     0.00000000     0.00000000
     0.00000000     0.00000000     0.00000000
     0.00000000     0.00000000     0.00000000
     0.00000000     0.00000000     0.00000000
     0.00000000     0.00000000     0.00000000
     0.00000000     0.00000000     0.00000000
     0.00000000     0.00000000     0.00000000
     0.00000000     0.00000000     0.00000000
     0.00000000     0.00000000     0.00000000
     0.00000000     0.00000000     0.00000000
     0.00000000     0.00000000     0.00000000
     0.00000000     0.00000000     0.00000000
     0.00000000     0.00000000     0.00000000
     0.00000000     0.00000000     0.00000000
     0.00000000     0.00000000     0.00000000
     0.00000000     0.00000000     0.00000000
     0.00000000     0.00000000     0.00000000
     0.00000000     0.00000000     0.00000000
     0.00000000     0.00000000     0.00000000
     0.00000000     0.00000000     0.00000000
     0.00000000     0.00000000     0.00000000
     0.00000000     0.00000000     0.00000000
     0.00000000     0.00000000     0.00000000
     0.00000000     0.00000000     0.00000000
     0.00000000     0.00000000     0.00000000
     0.00000000     0.00000000     0.00000000
     0.00000000     0.00000000     0.00000000
     0.00000000     0.00000000     0.00000000
     0.00000000     0.00000000     0.00000000
     0.00000000     0.00000000     0.00000000
     0.00000000     0.00000000     0.00000000
     0.00000000     0.00000000     0.00000000
     0.00000000     0.00000000     0.00000000
     0.00000000     0.00000000     0.00000000
     0.00000000     0.00000000     0.00000000
     0.00000000     0.00000000     0.00000000
     0.00000000     0.00000000     0.00000000
     0.00000000     0.00000000     0.00000000
     0.00000000     0.00000000     0.00000000
     0.00000000     0.00000000     0.00000000
     0.00000000     0.00000000     0.00000000
     0.00000000     0.00000000     0.00000000
     0.00000000     0.00000000     0.00000000
     0.00000000     0.00000000     0.00000000
     0.00000000     0.00000000     0.00000000
     0.00000000     0.00000000     0.00000000
     0.00000000     0.00000000     0.00000000
     0.00000000     0.00000000     0.00000000
     0.00000000     0.00000000     0.00000000
     0.00000000     0.00000000     0.00000000
     0.00000000     0.00000000     0.00000000
     0.00000000     0.00000000     0.00000000
     0.00000000     0.00000000     0.00000000
     0.00000000     0.00000000     0.00000000
     0.00000000     0.00000000     0.00000000
     0.00000000     0.00000000     0.00000000
     0.00000000     0.00000000     0.00000000
     0.00000000     0.00000000     0.00000000
     0.00000000     0.00000000     0.00000000
     0.00000000     0.00000000     0.00000000
     0.00000000     0.00000000     0.00000000
     0.00000000     0.00000000     0.00000000
     0.00000000     0.00000000     0.00000000
     0.00000000     0.00000000     0.00000000
     0.00000000     0.00000000     0.00000000
     0.00000000     0.00000000     0.00000000
     0.00000000     0.00000000     0.00000000
     0.00000000     0.00000000     0.00000000
     0.00000000     0.00000000     0.00000000
     0.00000000     0.00000000     0.00000000
     0.00000000     0.00000000     0.00000000
     0.00000000     0.00000000     0.00000000
     0.00000000     0.00000000     0.00000000
     0.00000000     0.00000000     0.00000000
     0.00000000     0.00000000     0.00000000
     0.00000000     0.00000000     0.00000000
     0.00000000     0.00000000     0.00000000
     0.00000000     0.00000000     0.00000000
     0.00000000     0.00000000     0.00000000
     0.00000000     0.00000000     0.00000000
     0.00000000     0.00000000     0.00000000
     0.00000000     0.00000000     0.00000000
     0.00000000     0.00000000     0.00000000
     0.00000000     0.00000000     0.00000000
     0.00000000     0.00000000     0.00000000
     0.00000000     0.00000000     0.00000000
     0.00000000     0.00000000     0.00000000
     0.00000000     0.00000000     0.00000000
     0.00000000     0.00000000     0.00000000
     0.00000000     0.00000000     0.00000000
     0.00000000     0.00000000     0.00000000
     0.00000000     0.00000000     0.00000000
     0.00000000     0.00000000     0.00000000
     0.00000000     0.00000000     0.00000000
     0.00000000     0.00000000     0.00000000
     0.00000000     0.00000000     0.00000000
     0.00000000     0.00000000     0.00000000
     0.00000000     0.00000000     0.00000000
     0.00000000     0.00000000     0.00000000
     0.00000000     0.00000000     0.00000000
     0.00000000     0.00000000     0.00000000
     0.00000000     0.00000000     0.00000000
     0.00000000     0.00000000     0.00000000
     0.00000000     0.00000000     0.00000000
     0.00000000     0.00000000     0.00000000
     0.00000000     0.00000000     0.00000000
     0.00000000     0.00000000     0.00000000
     0.00000000     0.00000000     0.00000000
     0.00000000     0.00000000     0.00000000
     0.00000000     0.00000000     0.00000000
     0.00000000     0.00000000     0.00000000
     0.00000000     0.00000000     0.00000000
     0.00000000     0.00000000     0.00000000
     0.00000000     0.00000000     0.00000000
     0.00000000     0.00000000     0.00000000
     0.00000000     0.00000000     0.00000000
     0.00000000     0.00000000     0.00000000
     0.00000000     0.00000000     0.00000000
     0.00000000     0.00000000     0.00000000
     0.00000000     0.00000000     0.00000000
     0.00000000     0.00000000     0.00000000
     0.00000000     0.00000000     0.00000000
     0.00000000     0.00000000     0.00000000
     0.00000000     0.00000000     0.00000000
     0.00000000     0.00000000     0.00000000
     0.00000000     0.00000000     0.00000000
     0.00000000     0.00000000     0.00000000
     0.00000000     0.00000000     0.00000000
     0.00000000     0.00000000     0.00000000
     0.00000000     0.00000000     0.00000000
     0.00000000     0.00000000     0.00000000
     0.00000000     0.00000000     0.00000000
     0.00000000     0.00000000     0.00000000
     0.00000000     0.00000000     0.00000000
     0.00000000     0.00000000     0.00000000
     0.00000000     0.00000000     0.00000000
     0.00000000     0.00000000     0.00000000
     0.00000000     0.00000000     0.00000000
     0.00000000     0.00000000     0.00000000
     0.00000000     0.00000000     0.00000000
     0.00000000     0.00000000     0.00000000
     0.00000000     0.00000000     0.00000000
     0.00000000     0.00000000     0.00000000
     0.00000000     0.00000000     0.00000000
     0.00000000     0.00000000     0.00000000
     0.00000000     0.00000000     0.00000000
     0.00000000     0.00000000     0.00000000
     0.00000000     0.00000000     0.00000000
     0.00000000     0.00000000     0.00000000
     0.00000000     0.00000000     0.00000000
     0.00000000     0.00000000     0.00000000
     0.00000000     0.00000000     0.00000000
     0.00000000     0.00000000     0.00000000
     0.00000000     0.00000000     0.00000000
     0.00000000     0.00000000     0.00000000
     0.00000000     0.00000000     0.00000000
     0.00000000     0.00000000     0.00000000
     0.00000000     0.00000000     0.00000000
     0.00000000     0.00000000     0.00000000
     0.00000000     0.00000000     0.00000000
     0.00000000     0.00000000     0.00000000
     0.00000000     0.00000000     0.00000000
     0.00000000     0.00000000     0.00000000
     0.00000000     0.00000000     0.00000000
     0.00000000     0.00000000     0.00000000
     0.00000000     0.00000000     0.00000000
     0.00000000     0.00000000     0.00000000
     0.00000000     0.00000000     0.00000000
     0.00000000     0.00000000     0.00000000
     0.00000000     0.00000000     0.00000000
     0.00000000     0.00000000     0.00000000
     0.00000000     0.00000000     0.00000000
     0.00000000     0.00000000     0.00000000
     0.00000000     0.00000000     0.00000000
     0.00000000     0.00000000     0.00000000
     0.00000000     0.00000000     0.00000000
     0.00000000     0.00000000     0.00000000
     0.00000000     0.00000000     0.00000000
     0.00000000     0.00000000     0.00000000
     0.00000000     0.00000000     0.00000000
     0.00000000     0.00000000     0.00000000
     0.00000000     0.00000000     0.00000000
     0.00000000     0.00000000     0.00000000
     0.00000000     0.00000000     0.00000000
     0.00000000     0.00000000     0.00000000
     0.00000000     0.00000000     0.00000000
     0.00000000     0.00000000     0.00000000
     0.00000000     0.00000000     0.00000000
     0.00000000     0.00000000     0.00000000
     0.00000000     0.00000000     0.00000000
     0.00000000     0.00000000     0.00000000
     0.00000000     0.00000000     0.00000000
     0.00000000     0.00000000     0.00000000
     0.00000000     0.00000000     0.00000000
     0.00000000     0.00000000     0.00000000
     0.00000000     0.00000000     0.00000000
     0.00000000     0.00000000     0.00000000
     0.00000000     0.00000000     0.00000000
     0.00000000     0.00000000     0.00000000
     0.00000000     0.00000000     0.00000000
     0.00000000     0.00000000     0.00000000
     0.00000000     0.00000000     0.00000000
     0.00000000     0.00000000     0.00000000
     0.00000000     0.00000000     0.00000000
     0.00000000     0.00000000     0.00000000
     0.00000000     0.00000000     0.00000000
     0.00000000     0.00000000     0.00000000
     0.00000000     0.00000000     0.00000000
     0.00000000     0.00000000     0.00000000
     0.00000000     0.00000000     0.00000000
     0.00000000     0.00000000     0.00000000
     0.00000000     0.00000000     0.00000000
     0.00000000     0.00000000     0.00000000
     0.00000000     0.00000000     0.00000000
     0.00000000     0.00000000     0.00000000
     0.00000000     0.00000000     0.00000000
     0.00000000     0.00000000     0.00000000
     0.00000000     0.00000000     0.00000000
     0.00000000     0.00000000     0.00000000
     0.00000000     0.00000000     0.00000000
     0.00000000     0.00000000     0.00000000
     0.00000000     0.00000000     0.00000000
     0.00000000     0.00000000     0.00000000
     0.00000000     0.00000000     0.00000000
     0.00000000     0.00000000     0.00000000
     0.00000000     0.00000000     0.00000000
     0.00000000     0.00000000     0.00000000
     0.00000000     0.00000000     0.00000000
     0.00000000     0.00000000     0.00000000
     0.00000000     0.00000000     0.00000000
     0.00000000     0.00000000     0.00000000
     0.00000000     0.00000000     0.00000000
     0.00000000     0.00000000     0.00000000
     0.00000000     0.00000000     0.00000000
     0.00000000     0.00000000     0.00000000
     0.00000000     0.00000000     0.00000000
     0.00000000     0.00000000     0.00000000
     0.00000000     0.00000000     0.00000000
     0.00000000     0.00000000     0.00000000
     0.00000000     0.00000000     0.00000000
     0.00000000     0.00000000     0.00000000
     0.00000000     0.00000000     0.00000000
     0.00000000     0.00000000     0.00000000
     0.00000000     0.00000000     0.00000000
     0.00000000     0.00000000     0.00000000
     0.00000000     0.00000000     0.00000000
     0.00000000     0.00000000     0.00000000
     0.00000000     0.00000000     0.00000000
     0.00000000     0.00000000     0.00000000
     0.00000000     0.00000000     0.00000000
     0.00000000     0.00000000     0.00000000
     0.00000000     0.00000000     0.00000000
     0.00000000     0.00000000     0.00000000
     0.00000000     0.00000000     0.00000000
     0.00000000     0.00000000     0.00000000
     0.00000000     0.00000000     0.00000000
     0.00000000     0.00000000     0.00000000
     0.00000000     0.00000000     0.00000000
     0.00000000     0.00000000     0.00000000
     0.00000000     0.00000000     0.00000000
     0.00000000     0.00000000     0.00000000
     0.00000000     0.00000000     0.00000000
     0.00000000     0.00000000     0.00000000
     0.00000000     0.00000000     0.00000000
     0.00000000     0.00000000     0.00000000
     0.00000000     0.00000000     0.00000000
     0.00000000     0.00000000     0.00000000
     0.00000000     0.00000000     0.00000000
     0.00000000     0.00000000     0.00000000
     0.00000000     0.00000000     0.00000000
     0.00000000     0.00000000     0.00000000
     0.00000000     0.00000000     0.00000000
     0.00000000     0.00000000     0.00000000
     0.00000000     0.00000000     0.00000000
     0.00000000     0.00000000     0.00000000
     0.00000000     0.00000000     0.00000000
     0.00000000     0.00000000     0.00000000
     0.00000000     0.00000000     0.00000000
     0.00000000     0.00000000     0.00000000
     0.00000000     0.00000000     0.00000000
     0.00000000     0.00000000     0.00000000
     0.00000000     0.00000000     0.00000000
     0.00000000     0.00000000     0.00000000
     0.00000000     0.00000000     0.00000000
     0.00000000     0.00000000     0.00000000
     0.00000000     0.00000000     0.00000000
     0.00000000     0.00000000     0.00000000
     0.00000000     0.00000000     0.00000000
     0.00000000     0.00000000     0.00000000
     0.00000000     0.00000000     0.00000000
     0.00000000     0.00000000     0.00000000
     0.00000000     0.00000000     0.00000000
     0.00000000     0.00000000     0.00000000
     0.00000000     0.00000000     0.00000000
     0.00000000     0.00000000     0.00000000
     0.00000000     0.00000000     0.00000000
     0.00000000     0.00000000     0.00000000
     0.00000000     0.00000000     0.00000000
     0.00000000     0.00000000     0.00000000
     0.00000000     0.00000000     0.00000000
     0.00000000     0.00000000     0.00000000
     0.00000000     0.00000000     0.00000000
     0.00000000     0.00000000     0.00000000
     0.00000000     0.00000000     0.00000000
     0.00000000     0.00000000     0.00000000
     0.00000000     0.00000000     0.00000000
     0.00000000     0.00000000     0.00000000
     0.00000000     0.00000000     0.00000000
     0.00000000     0.00000000     0.00000000
     0.00000000     0.00000000     0.00000000
     0.00000000     0.00000000     0.00000000
     0.00000000     0.00000000     0.00000000
     0.00000000     0.00000000     0.00000000
     0.00000000     0.00000000     0.00000000
     0.00000000     0.00000000     0.00000000
     0.00000000     0.00000000     0.00000000
     0.00000000     0.00000000     0.00000000
     0.00000000     0.00000000     0.00000000
     0.00000000     0.00000000     0.00000000
     0.00000000     0.00000000     0.00000000
     0.00000000     0.00000000     0.00000000
     0.00000000     0.00000000     0.00000000
     0.00000000     0.00000000     0.00000000
     0.00000000     0.00000000     0.00000000
     0.00000000     0.00000000     0.00000000
     0.00000000     0.00000000     0.00000000
     0.00000000     0.00000000     0.00000000
     0.00000000     0.00000000     0.00000000
     0.00000000     0.00000000     0.00000000
     0.00000000     0.00000000     0.00000000
     0.00000000     0.00000000     0.00000000
     0.00000000     0.00000000     0.00000000
     0.00000000     0.00000000     0.00000000
     0.00000000     0.00000000     0.00000000
     0.00000000     0.00000000     0.00000000
     0.00000000     0.00000000     0.00000000
     0.00000000     0.00000000     0.00000000
     0.00000000     0.00000000     0.00000000
     0.00000000     0.00000000     0.00000000
     0.00000000     0.00000000     0.00000000
     0.00000000     0.00000000     0.00000000
     0.00000000     0.00000000     0.00000000
     0.00000000     0.00000000     0.00000000
     0.00000000     0.00000000     0.00000000
     0.00000000     0.00000000     0.00000000
     0.00000000     0.00000000     0.00000000
     0.00000000     0.00000000     0.00000000
     0.00000000     0.00000000     0.00000000
     0.00000000     0.00000000     0.00000000
     0.00000000     0.00000000     0.00000000
     0.00000000     0.00000000     0.00000000
     0.00000000     0.00000000     0.00000000
     0.00000000     0.00000000     0.00000000
     0.00000000     0.00000000     0.00000000
     0.00000000     0.00000000     0.00000000
     0.00000000     0.00000000     0.00000000
     0.00000000     0.00000000     0.00000000
     0.00000000     0.00000000     0.00000000
     0.00000000     0.00000000     0.00000000
     0.00000000     0.00000000     0.00000000
     0.00000000     0.00000000     0.00000000
     0.00000000     0.00000000     0.00000000
     0.00000000     0.00000000     0.00000000
     0.00000000     0.00000000     0.00000000
     0.00000000     0.00000000     0.00000000
     0.00000000     0.00000000     0.00000000
     0.00000000     0.00000000     0.00000000
     0.00000000     0.00000000     0.00000000
     0.00000000     0.00000000     0.00000000
     0.00000000     0.00000000     0.00000000
     0.00000000     0.00000000     0.00000000
     0.00000000     0.00000000     0.00000000
     0.00000000     0.00000000     0.00000000
     0.00000000     0.00000000     0.00000000
     0.00000000     0.00000000     0.00000000
     0.00000000     0.00000000     0.00000000
     0.00000000     0.00000000     0.00000000
     0.00000000     0.00000000     0.00000000
     0.00000000     0.00000000     0.00000000
     0.00000000     0.00000000     0.00000000
     0.00000000     0.00000000     0.00000000
     0.00000000     0.00000000     0.00000000
     0.00000000     0.00000000     0.00000000
     0.00000000     0.00000000     0.00000000
     0.00000000     0.00000000     0.00000000
     0.00000000     0.00000000     0.00000000
     0.00000000     0.00000000     0.00000000
     0.00000000     0.00000000     0.00000000
     0.00000000     0.00000000     0.00000000
     0.00000000     0.00000000     0.00000000
     0.00000000     0.00000000     0.00000000
     0.00000000     0.00000000     0.00000000
     0.00000000     0.00000000     0.00000000
     0.00000000     0.00000000     0.00000000
     0.00000000     0.00000000     0.00000000
     0.00000000     0.00000000     0.00000000
     0.00000000     0.00000000     0.00000000
     0.00000000     0.00000000     0.00000000
     0.00000000     0.00000000     0.00000000
     0.00000000     0.00000000     0.00000000
     0.00000000     0.00000000     0.00000000
     0.00000000     0.00000000     0.00000000
     0.00000000     0.00000000     0.00000000
     0.00000000     0.00000000     0.00000000
     0.00000000     0.00000000     0.00000000
     0.00000000     0.00000000     0.00000000
     0.00000000     0.00000000     0.00000000
     0.00000000     0.00000000     0.00000000
     0.00000000     0.00000000     0.00000000
     0.00000000     0.00000000     0.00000000
     0.00000000     0.00000000     0.00000000
     0.00000000     0.00000000     0.00000000
     0.00000000     0.00000000     0.00000000
     0.00000000     0.00000000     0.00000000
     0.00000000     0.00000000     0.00000000
     0.00000000     0.00000000     0.00000000
     0.00000000     0.00000000     0.00000000
     0.00000000     0.00000000     0.00000000
     0.00000000     0.00000000     0.00000000
     0.00000000     0.00000000     0.00000000
     0.00000000     0.00000000     0.00000000
     0.00000000     0.00000000     0.00000000
     0.00000000     0.00000000     0.00000000
     0.00000000     0.00000000     0.00000000
     0.00000000     0.00000000     0.00000000
     0.00000000     0.00000000     0.00000000
     0.00000000     0.00000000     0.00000000
     0.00000000     0.00000000     0.00000000
     0.00000000     0.00000000     0.00000000
     0.00000000     0.00000000     0.00000000
     0.00000000     0.00000000     0.00000000
     0.00000000     0.00000000     0.00000000
     0.00000000     0.00000000     0.00000000
     0.00000000     0.00000000     0.00000000
     0.00000000     0.00000000     0.00000000
     0.00000000     0.00000000     0.00000000
     0.00000000     0.00000000     0.00000000
     0.00000000     0.00000000     0.00000000
     0.00000000     0.00000000     0.00000000
     0.00000000     0.00000000     0.00000000
     0.00000000     0.00000000     0.00000000
     0.00000000     0.00000000     0.00000000
     0.00000000     0.00000000     0.00000000
     0.00000000     0.00000000     0.00000000
     0.00000000     0.00000000     0.00000000
     0.00000000     0.00000000     0.00000000
     0.00000000     0.00000000     0.00000000
     0.00000000     0.00000000     0.00000000
     0.00000000     0.00000000     0.00000000
     0.00000000     0.00000000     0.00000000
     0.00000000     0.00000000     0.00000000
     0.00000000     0.00000000     0.00000000
     0.00000000     0.00000000     0.00000000
     0.00000000     0.00000000     0.00000000
     0.00000000     0.00000000     0.00000000
     0.00000000     0.00000000     0.00000000
     0.00000000     0.00000000     0.00000000
     0.00000000     0.00000000     0.00000000
     0.00000000     0.00000000     0.00000000
     0.00000000     0.00000000     0.00000000
     0.00000000     0.00000000     0.00000000
     0.00000000     0.00000000     0.00000000
     0.00000000     0.00000000     0.00000000
     0.00000000     0.00000000     0.00000000
     0.00000000     0.00000000     0.00000000
     0.00000000     0.00000000     0.00000000
     0.00000000     0.00000000     0.00000000
     0.00000000     0.00000000     0.00000000
     0.00000000     0.00000000     0.00000000
     0.00000000     0.00000000     0.00000000
     0.00000000     0.00000000     0.00000000
     0.00000000     0.00000000     0.00000000
     0.00000000     0.00000000     0.00000000
     0.00000000     0.00000000     0.00000000
     0.00000000     0.00000000     0.00000000
     0.00000000     0.00000000     0.00000000
     0.00000000     0.00000000     0.00000000
     0.00000000     0.00000000     0.00000000
     0.00000000     0.00000000     0.00000000
     0.00000000     0.00000000     0.00000000
     0.00000000     0.00000000     0.00000000
     0.00000000     0.00000000     0.00000000
     0.00000000     0.00000000     0.00000000
     0.00000000     0.00000000     0.00000000
     0.00000000     0.00000000     0.00000000
     0.00000000     0.00000000     0.00000000
     0.00000000     0.00000000     0.00000000
     0.00000000     0.00000000     0.00000000
     0.00000000     0.00000000     0.00000000
     0.00000000     0.00000000     0.00000000
     0.00000000     0.00000000     0.00000000
     0.00000000     0.00000000     0.00000000
     0.00000000     0.00000000     0.00000000
     0.00000000     0.00000000     0.00000000
     0.00000000     0.00000000     0.00000000
     0.00000000     0.00000000     0.00000000
     0.00000000     0.00000000     0.00000000
     0.00000000     0.00000000     0.00000000
     0.00000000     0.00000000     0.00000000
     0.00000000     0.00000000     0.00000000
     0.00000000     0.00000000     0.00000000
     0.00000000     0.00000000     0.00000000
     0.00000000     0.00000000     0.00000000
     0.00000000     0.00000000     0.00000000
     0.00000000     0.00000000     0.00000000
     0.00000000     0.00000000     0.00000000
     0.00000000     0.00000000     0.00000000
     0.00000000     0.00000000     0.00000000
     0.00000000     0.00000000     0.00000000
     0.00000000     0.00000000     0.00000000
     0.00000000     0.00000000     0.00000000
     0.00000000     0.00000000     0.00000000
     0.00000000     0.00000000     0.00000000
     0.00000000     0.00000000     0.00000000
     0.00000000     0.00000000     0.00000000
     0.00000000     0.00000000     0.00000000
     0.00000000     0.00000000     0.00000000
     0.00000000     0.00000000     0.00000000
     0.00000000     0.00000000     0.00000000
     0.00000000     0.00000000     0.00000000
     0.00000000     0.00000000     0.00000000
     0.00000000     0.00000000     0.00000000
     0.00000000     0.00000000     0.00000000
     0.00000000     0.00000000     0.00000000
     0.00000000     0.00000000     0.00000000
     0.00000000     0.00000000     0.00000000
     0.00000000     0.00000000     0.00000000
     0.00000000     0.00000000     0.00000000
     0.00000000     0.00000000     0.00000000
     0.00000000     0.00000000     0.00000000
     0.00000000     0.00000000     0.00000000
     0.00000000     0.00000000     0.00000000
     0.00000000     0.00000000     0.00000000
     0.00000000     0.00000000     0.00000000
     0.00000000     0.00000000     0.00000000
     0.00000000     0.00000000     0.00000000
     0.00000000     0.00000000     0.00000000
     0.00000000     0.00000000     0.00000000
     0.00000000     0.00000000     0.00000000
     0.00000000     0.00000000     0.00000000
     0.00000000     0.00000000     0.00000000
     0.00000000     0.00000000     0.00000000
     0.00000000     0.00000000     0.00000000
     0.00000000     0.00000000     0.00000000
     0.00000000     0.00000000     0.00000000
     0.00000000     0.00000000     0.00000000
     0.00000000     0.00000000     0.00000000
     0.00000000     0.00000000     0.00000000
     0.00000000     0.00000000     0.00000000
     0.00000000     0.00000000     0.00000000
     0.00000000     0.00000000     0.00000000
     0.00000000     0.00000000     0.00000000
     0.00000000     0.00000000     0.00000000
     0.00000000     0.00000000     0.00000000
     0.00000000     0.00000000     0.00000000
     0.00000000     0.00000000     0.00000000
     0.00000000     0.00000000     0.00000000
     0.00000000     0.00000000     0.00000000
     0.00000000     0.00000000     0.00000000
     0.00000000     0.00000000     0.00000000
     0.00000000     0.00000000     0.00000000
     0.00000000     0.00000000     0.00000000
     0.00000000     0.00000000     0.00000000
     0.00000000     0.00000000     0.00000000
     0.00000000     0.00000000     0.00000000
     0.00000000     0.00000000     0.00000000
     0.00000000     0.00000000     0.00000000
     0.00000000     0.00000000     0.00000000
     0.00000000     0.00000000     0.00000000
     0.00000000     0.00000000     0.00000000
     0.00000000     0.00000000     0.00000000
     0.00000000     0.00000000     0.00000000
     0.00000000     0.00000000     0.00000000
     0.00000000     0.00000000     0.00000000
     0.00000000     0.00000000     0.00000000
     0.00000000     0.00000000     0.00000000
     0.00000000     0.00000000     0.00000000
     0.00000000     0.00000000     0.00000000
     0.00000000     0.00000000     0.00000000
     0.00000000     0.00000000     0.00000000
     0.00000000     0.00000000     0.00000000
     0.00000000     0.00000000     0.00000000
     0.00000000     0.00000000     0.00000000
     0.00000000     0.00000000     0.00000000
     0.00000000     0.00000000     0.00000000
     0.00000000     0.00000000     0.00000000
     0.00000000     0.00000000     0.00000000
     0.00000000     0.00000000     0.00000000
     0.00000000     0.00000000     0.00000000
     0.00000000     0.00000000     0.00000000
     0.00000000     0.00000000     0.00000000
     0.00000000     0.00000000     0.00000000
     0.00000000     0.00000000     0.00000000
     0.00000000     0.00000000     0.00000000
     0.00000000     0.00000000     0.00000000
     0.00000000     0.00000000     0.00000000
     0.00000000     0.00000000     0.00000000
     0.00000000     0.00000000     0.00000000
     0.00000000     0.00000000     0.00000000
     0.00000000     0.00000000     0.00000000
     0.00000000     0.00000000     0.00000000
     0.00000000     0.00000000     0.00000000
     0.00000000     0.00000000     0.00000000
     0.00000000     0.00000000     0.00000000
     0.00000000     0.00000000     0.00000000
     0.00000000     0.00000000     0.00000000
     0.00000000     0.00000000     0.00000000
     0.00000000     0.00000000     0.00000000
     0.00000000     0.00000000     0.00000000
     0.00000000     0.00000000     0.00000000
     0.00000000     0.00000000     0.00000000
     0.00000000     0.00000000     0.00000000
     0.00000000     0.00000000     0.00000000
     0.00000000     0.00000000     0.00000000
     0.00000000     0.00000000     0.00000000
     0.00000000     0.00000000     0.00000000
     0.00000000     0.00000000     0.00000000
     0.00000000     0.00000000     0.00000000
     0.00000000     0.00000000     0.00000000
     0.00000000     0.00000000     0.00000000
     0.00000000     0.00000000     0.00000000
     0.00000000     0.00000000     0.00000000
     0.00000000     0.00000000     0.00000000
     0.00000000     0.00000000     0.00000000
     0.00000000     0.00000000     0.00000000
     0.00000000     0.00000000     0.00000000
     0.00000000     0.00000000     0.00000000
     0.00000000     0.00000000     0.00000000
     0.00000000     0.00000000     0.00000000
     0.00000000     0.00000000     0.00000000
     0.00000000     0.00000000     0.00000000
     0.00000000     0.00000000     0.00000000
     0.00000000     0.00000000     0.00000000
     0.00000000     0.00000000     0.00000000
     0.00000000     0.00000000     0.00000000
     0.00000000     0.00000000     0.00000000
     0.00000000     0.00000000     0.00000000
     0.00000000     0.00000000     0.00000000
     0.00000000     0.00000000     0.00000000
     0.00000000     0.00000000     0.00000000
     0.00000000     0.00000000     0.00000000
     0.00000000     0.00000000     0.00000000
     0.00000000     0.00000000     0.00000000
     0.00000000     0.00000000     0.00000000
     0.00000000     0.00000000     0.00000000
     0.00000000     0.00000000     0.00000000
     0.00000000     0.00000000     0.00000000
     0.00000000     0.00000000     0.00000000
     0.00000000     0.00000000     0.00000000
     0.00000000     0.00000000     0.00000000
     0.00000000     0.00000000     0.00000000
     0.00000000     0.00000000     0.00000000
     0.00000000     0.00000000     0.00000000
     0.00000000     0.00000000     0.00000000
     0.00000000     0.00000000     0.00000000
     0.00000000     0.00000000     0.00000000
     0.00000000     0.00000000     0.00000000
     0.00000000     0.00000000     0.00000000
     0.00000000     0.00000000     0.00000000
     0.00000000     0.00000000     0.00000000
     0.00000000     0.00000000     0.00000000
     0.00000000     0.00000000     0.00000000
     0.00000000     0.00000000     0.00000000
     0.00000000     0.00000000     0.00000000
     0.00000000     0.00000000     0.00000000
     0.00000000     0.00000000     0.00000000
     0.00000000     0.00000000     0.00000000
     0.00000000     0.00000000     0.00000000
     0.00000000     0.00000000     0.00000000
     0.00000000     0.00000000     0.00000000
     0.00000000     0.00000000     0.00000000
     0.00000000     0.00000000     0.00000000
     0.00000000     0.00000000     0.00000000
     0.00000000     0.00000000     0.00000000
     0.00000000     0.00000000     0.00000000
     0.00000000     0.00000000     0.00000000
     0.00000000     0.00000000     0.00000000
     0.00000000     0.00000000     0.00000000
     0.00000000     0.00000000     0.00000000
     0.00000000     0.00000000     0.00000000
     0.00000000     0.00000000     0.00000000
     0.00000000     0.00000000     0.00000000
     0.00000000     0.00000000     0.00000000
     0.00000000     0.00000000     0.00000000
     0.00000000     0.00000000     0.00000000
     0.00000000     0.00000000     0.00000000
     0.00000000     0.00000000     0.00000000
     0.00000000     0.00000000     0.00000000
     0.00000000     0.00000000     0.00000000
     0.00000000     0.00000000     0.00000000
     0.00000000     0.00000000     0.00000000
     0.00000000     0.00000000     0.00000000
     0.00000000     0.00000000     0.00000000
     0.00000000     0.00000000     0.00000000
     0.00000000     0.00000000     0.00000000
     0.00000000     0.00000000     0.00000000
     0.00000000     0.00000000     0.00000000
     0.00000000     0.00000000     0.00000000
     0.00000000     0.00000000     0.00000000
     0.00000000     0.00000000     0.00000000
     0.00000000     0.00000000     0.00000000
     0.00000000     0.00000000     0.00000000
     0.00000000     0.00000000     0.00000000
     0.00000000     0.00000000     0.00000000
     0.00000000     0.00000000     0.00000000
     0.00000000     0.00000000     0.00000000
     0.00000000     0.00000000     0.00000000
     0.00000000     0.00000000     0.00000000
     0.00000000     0.00000000     0.00000000
     0.00000000     0.00000000     0.00000000
     0.00000000     0.00000000     0.00000000
     0.00000000     0.00000000     0.00000000
     0.00000000     0.00000000     0.00000000
     0.00000000     0.00000000     0.00000000
     0.00000000     0.00000000     0.00000000
     0.00000000     0.00000000     0.00000000
     0.00000000     0.00000000     0.00000000
     0.00000000     0.00000000     0.00000000
     0.00000000     0.00000000     0.00000000
     0.00000000     0.00000000     0.00000000
     0.00000000     0.00000000     0.00000000
     0.00000000     0.00000000     0.00000000
     0.00000000     0.00000000     0.00000000
     0.00000000     0.00000000     0.00000000
     0.00000000     0.00000000     0.00000000
     0.00000000     0.00000000     0.00000000
     0.00000000     0.00000000     0.00000000
     0.00000000     0.00000000     0.00000000
     0.00000000     0.00000000     0.00000000
     0.00000000     0.00000000     0.00000000
     0.00000000     0.00000000     0.00000000
     0.00000000     0.00000000     0.00000000
     0.00000000     0.00000000     0.00000000
     0.00000000     0.00000000     0.00000000
     0.00000000     0.00000000     0.00000000
     0.00000000     0.00000000     0.00000000
     0.00000000     0.00000000     0.00000000
     0.00000000     0.00000000     0.00000000
     0.00000000     0.00000000     0.00000000
     0.00000000     0.00000000     0.00000000
     0.00000000     0.00000000     0.00000000
     0.00000000     0.00000000     0.00000000
     0.00000000     0.00000000     0.00000000
     0.00000000     0.00000000     0.00000000
     0.00000000     0.00000000     0.00000000
     0.00000000     0.00000000     0.00000000
     0.00000000     0.00000000     0.00000000
     0.00000000     0.00000000     0.00000000
     0.00000000     0.00000000     0.00000000
     0.00000000     0.00000000     0.00000000
     0.00000000     0.00000000     0.00000000
     0.00000000     0.00000000     0.00000000
     0.00000000     0.00000000     0.00000000
     0.00000000     0.00000000     0.00000000
     0.00000000     0.00000000     0.00000000
     0.00000000     0.00000000     0.00000000
     0.00000000     0.00000000     0.00000000
     0.00000000     0.00000000     0.00000000
     0.00000000     0.00000000     0.00000000
     0.00000000     0.00000000     0.00000000
     0.00000000     0.00000000     0.00000000
     0.00000000     0.00000000     0.00000000
     0.00000000     0.00000000     0.00000000
     0.00000000     0.00000000     0.00000000
     0.00000000     0.00000000     0.00000000
     0.00000000     0.00000000     0.00000000
     0.00000000     0.00000000     0.00000000
     0.00000000     0.00000000     0.00000000
     0.00000000     0.00000000     0.00000000
     0.00000000     0.00000000     0.00000000
     0.00000000     0.00000000     0.00000000
     0.00000000     0.00000000     0.00000000
     0.00000000     0.00000000     0.00000000
     0.00000000     0.00000000     0.00000000
     0.00000000     0.00000000     0.00000000
     0.00000000     0.00000000     0.00000000
     0.00000000     0.00000000     0.00000000
     0.00000000     0.00000000     0.00000000
     0.00000000     0.00000000     0.00000000
     0.00000000     0.00000000     0.00000000
     0.00000000     0.00000000     0.00000000
     0.00000000     0.00000000     0.00000000
     0.00000000     0.00000000     0.00000000
     0.00000000     0.00000000     0.00000000
     0.00000000     0.00000000     0.00000000
     0.00000000     0.00000000     0.00000000
     0.00000000     0.00000000     0.00000000
     0.00000000     0.00000000     0.00000000
     0.00000000     0.00000000     0.00000000
     0.00000000     0.00000000     0.00000000
     0.00000000     0.00000000     0.00000000
     0.00000000     0.00000000     0.00000000
     0.00000000     0.00000000     0.00000000
     0.00000000     0.00000000     0.00000000
     0.00000000     0.00000000     0.00000000
     0.00000000     0.00000000     0.00000000
     0.00000000     0.00000000     0.00000000
     0.00000000     0.00000000     0.00000000
     0.00000000     0.00000000     0.00000000
     0.00000000     0.00000000     0.00000000
     0.00000000     0.00000000     0.00000000
     0.00000000     0.00000000     0.00000000
     0.00000000     0.00000000     0.00000000
     0.00000000     0.00000000     0.00000000
     0.00000000     0.00000000     0.00000000
     0.00000000     0.00000000     0.00000000
     0.00000000     0.00000000     0.00000000
     0.00000000     0.00000000     0.00000000
     0.00000000     0.00000000     0.00000000
     0.00000000     0.00000000     0.00000000
     0.00000000     0.00000000     0.00000000
     0.00000000     0.00000000     0.00000000
     0.00000000     0.00000000     0.00000000
     0.00000000     0.00000000     0.00000000
     0.00000000     0.00000000     0.00000000
     0.00000000     0.00000000     0.00000000
     0.00000000     0.00000000     0.00000000
     0.00000000     0.00000000     0.00000000
     0.00000000     0.00000000     0.00000000
     0.00000000     0.00000000     0.00000000
     0.00000000     0.00000000     0.00000000
     0.00000000     0.00000000     0.00000000
     0.00000000     0.00000000     0.00000000
     0.00000000     0.00000000     0.00000000
     0.00000000     0.00000000     0.00000000
     0.00000000     0.00000000     0.00000000
     0.00000000     0.00000000     0.00000000
     0.00000000     0.00000000     0.00000000
     0.00000000     0.00000000     0.00000000
     0.00000000     0.00000000     0.00000000
     0.00000000     0.00000000     0.00000000
     0.00000000     0.00000000     0.00000000
     0.00000000     0.00000000     0.00000000
     0.00000000     0.00000000     0.00000000
     0.00000000     0.00000000     0.00000000
     0.00000000     0.00000000     0.00000000
     0.00000000     0.00000000     0.00000000
     0.00000000     0.00000000     0.00000000
     0.00000000     0.00000000     0.00000000
     0.00000000     0.00000000     0.00000000
     0.00000000     0.00000000     0.00000000
     0.00000000     0.00000000     0.00000000
     0.00000000     0.00000000     0.00000000
     0.00000000     0.00000000     0.00000000
     0.00000000     0.00000000     0.00000000
     0.00000000     0.00000000     0.00000000
     0.00000000     0.00000000     0.00000000
     0.00000000     0.00000000     0.00000000
     0.00000000     0.00000000     0.00000000
     0.00000000     0.00000000     0.00000000
     0.00000000     0.00000000     0.00000000
     0.00000000     0.00000000     0.00000000
     0.00000000     0.00000000     0.00000000
     0.00000000     0.00000000     0.00000000
     0.00000000     0.00000000     0.00000000
     0.00000000     0.00000000     0.00000000
     0.00000000     0.00000000     0.00000000
     0.00000000     0.00000000     0.00000000
     0.00000000     0.00000000     0.00000000
     0.00000000     0.00000000     0.00000000
     0.00000000     0.00000000     0.00000000
     0.00000000     0.00000000     0.00000000
     0.00000000     0.00000000     0.00000000
     0.00000000     0.00000000     0.00000000
     0.00000000     0.00000000     0.00000000
     0.00000000     0.00000000     0.00000000
     0.00000000     0.00000000     0.00000000
     0.00000000     0.00000000     0.00000000
     0.00000000     0.00000000     0.00000000
     0.00000000     0.00000000     0.00000000
     0.00000000     0.00000000     0.00000000
     0.00000000     0.00000000     0.00000000
     0.00000000     0.00000000     0.00000000
     0.00000000     0.00000000     0.00000000
     0.00000000     0.00000000     0.00000000
     0.00000000     0.00000000     0.00000000
     0.00000000     0.00000000     0.00000000
     0.00000000     0.00000000     0.00000000
     0.00000000     0.00000000     0.00000000
     0.00000000     0.00000000     0.00000000
     0.00000000     0.00000000     0.00000000
     0.00000000     0.00000000     0.00000000
     0.00000000     0.00000000     0.00000000
     0.00000000     0.00000000     0.00000000
     0.00000000     0.00000000     0.00000000
     0.00000000     0.00000000     0.00000000
     0.00000000     0.00000000     0.00000000
     0.00000000     0.00000000     0.00000000
     0.00000000     0.00000000     0.00000000
     0.00000000     0.00000000     0.00000000
     0.00000000     0.00000000     0.00000000
     0.00000000     0.00000000     0.00000000
     0.00000000     0.00000000     0.00000000
     0.00000000     0.00000000     0.00000000
     0.00000000     0.00000000     0.00000000
     0.00000000     0.00000000     0.00000000
     0.00000000     0.00000000     0.00000000
     0.00000000     0.00000000     0.00000000
     0.00000000     0.00000000     0.00000000
     0.00000000     0.00000000     0.00000000
     0.00000000     0.00000000     0.00000000
     0.00000000     0.00000000     0.00000000
     0.00000000     0.00000000     0.00000000
     0.00000000     0.00000000     0.00000000
     0.00000000     0.00000000     0.00000000
     0.00000000     0.00000000     0.00000000
     0.00000000     0.00000000     0.00000000
     0.00000000     0.00000000     0.00000000
     0.00000000     0.00000000     0.00000000
     0.00000000     0.00000000     0.00000000
     0.00000000     0.00000000     0.00000000
     0.00000000     0.00000000     0.00000000
     0.00000000     0.00000000     0.00000000
     0.00000000     0.00000000     0.00000000
     0.00000000     0.00000000     0.00000000
     0.00000000     0.00000000     0.00000000
     0.00000000     0.00000000     0.00000000
     0.00000000     0.00000000     0.00000000
     0.00000000     0.00000000     0.00000000
     0.00000000     0.00000000     0.00000000
     0.00000000     0.00000000     0.00000000
     0.00000000     0.00000000     0.00000000
     0.00000000     0.00000000     0.00000000
     0.00000000     0.00000000     0.00000000
     0.00000000     0.00000000     0.00000000
     0.00000000     0.00000000     0.00000000
     0.00000000     0.00000000     0.00000000
     0.00000000     0.00000000     0.00000000
     0.00000000     0.00000000     0.00000000
     0.00000000     0.00000000     0.00000000
     0.00000000     0.00000000     0.00000000
     0.00000000     0.00000000     0.00000000
     0.00000000     0.00000000     0.00000000
     0.00000000     0.00000000     0.00000000
     0.00000000     0.00000000     0.00000000
     0.00000000     0.00000000     0.00000000
     0.00000000     0.00000000     0.00000000
     0.00000000     0.00000000     0.00000000
     0.00000000     0.00000000     0.00000000
     0.00000000     0.00000000     0.00000000
     0.00000000     0.00000000     0.00000000
     0.00000000     0.00000000     0.00000000
     0.00000000     0.00000000     0.00000000
     0.00000000     0.00000000     0.00000000
     0.00000000     0.00000000     0.00000000
     0.00000000     0.00000000     0.00000000
     0.00000000     0.00000000     0.00000000
     0.00000000     0.00000000     0.00000000
     0.00000000     0.00000000     0.00000000
     0.00000000     0.00000000     0.00000000
     0.00000000     0.00000000     0.00000000
     0.00000000     0.00000000     0.00000000
     0.00000000     0.00000000     0.00000000
     0.00000000     0.00000000     0.00000000
     0.00000000     0.00000000     0.00000000
     0.00000000     0.00000000     0.00000000
     0.00000000     0.00000000     0.00000000
     0.00000000     0.00000000     0.00000000
     0.00000000     0.00000000     0.00000000
     0.00000000     0.00000000     0.00000000
     0.00000000     0.00000000     0.00000000
     0.00000000     0.00000000     0.00000000
     0.00000000     0.00000000     0.00000000
     0.00000000     0.00000000     0.00000000
     0.00000000     0.00000000     0.00000000
     0.00000000     0.00000000     0.00000000
     0.00000000     0.00000000     0.00000000
     0.00000000     0.00000000     0.00000000
     0.00000000     0.00000000     0.00000000
     0.00000000     0.00000000     0.00000000
     0.00000000     0.00000000     0.00000000
     0.00000000     0.00000000     0.00000000
     0.00000000     0.00000000     0.00000000
     0.00000000     0.00000000     0.00000000
     0.00000000     0.00000000     0.00000000
     0.00000000     0.00000000     0.00000000
     0.00000000     0.00000000     0.00000000
     0.00000000     0.00000000     0.00000000
     0.00000000     0.00000000     0.00000000
     0.00000000     0.00000000     0.00000000
     0.00000000     0.00000000     0.00000000
     0.00000000     0.00000000     0.00000000
     0.00000000     0.00000000     0.00000000
     0.00000000     0.00000000     0.00000000
     0.00000000     0.00000000     0.00000000
     0.00000000     0.00000000     0.00000000
     0.00000000     0.00000000     0.00000000
     0.00000000     0.00000000     0.00000000
     0.00000000     0.00000000     0.00000000
     0.00000000     0.00000000     0.00000000
     0.00000000     0.00000000     0.00000000
     0.00000000     0.00000000     0.00000000
     0.00000000     0.00000000     0.00000000
     0.00000000     0.00000000     0.00000000
     0.00000000     0.00000000     0.00000000
     0.00000000     0.00000000     0.00000000
     0.00000000     0.00000000     0.00000000
     0.00000000     0.00000000     0.00000000
     0.00000000     0.00000000     0.00000000
     0.00000000     0.00000000     0.00000000
     0.00000000     0.00000000     0.00000000
     0.00000000     0.00000000     0.00000000
     0.00000000     0.00000000     0.00000000
     0.00000000     0.00000000     0.00000000
     0.00000000     0.00000000     0.00000000
     0.00000000     0.00000000     0.00000000
     0.00000000     0.00000000     0.00000000
     0.00000000     0.00000000     0.00000000
     0.00000000     0.00000000     0.00000000
     0.00000000     0.00000000     0.00000000
     0.00000000     0.00000000     0.00000000
     0.00000000     0.00000000     0.00000000
     0.00000000     0.00000000     0.00000000
     0.00000000     0.00000000     0.00000000
     0.00000000     0.00000000     0.00000000
     0.00000000     0.00000000     0.00000000
     0.00000000     0.00000000     0.00000000
     0.00000000     0.00000000     0.00000000
     0.00000000     0.00000000     0.00000000
     0.00000000     0.00000000     0.00000000
     0.00000000     0.00000000     0.00000000
     0.00000000     0.00000000     0.00000000
     0.00000000     0.00000000     0.00000000
     0.00000000     0.00000000     0.00000000
     0.00000000     0.00000000     0.00000000
     0.00000000     0.00000000     0.00000000
     0.00000000     0.00000000     0.00000000
     0.00000000     0.00000000     0.00000000
     0.00000000     0.00000000     0.00000000
     0.00000000     0.00000000     0.00000000
     0.00000000     0.00000000     0.00000000
     0.00000000     0.00000000     0.00000000
     0.00000000     0.00000000     0.00000000
     0.00000000     0.00000000     0.00000000
     0.00000000     0.00000000     0.00000000
     0.00000000     0.00000000     0.00000000
     0.00000000     0.00000000     0.00000000
     0.00000000     0.00000000     0.00000000
     0.00000000     0.00000000     0.00000000
     0.00000000     0.00000000     0.00000000
     0.00000000     0.00000000     0.00000000
     0.00000000     0.00000000     0.00000000
     0.00000000     0.00000000     0.00000000
     0.00000000     0.00000000     0.00000000
     0.00000000     0.00000000     0.00000000
     0.00000000     0.00000000     0.00000000
     0.00000000     0.00000000     0.00000000
     0.00000000     0.00000000     0.00000000
     0.00000000     0.00000000     0.00000000
     0.00000000     0.00000000     0.00000000
     0.00000000     0.00000000     0.00000000
     0.00000000     0.00000000     0.00000000
     0.00000000     0.00000000     0.00000000
     0.00000000     0.00000000     0.00000000
     0.00000000     0.00000000     0.00000000
     0.00000000     0.00000000     0.00000000
     0.00000000     0.00000000     0.00000000
     0.00000000     0.00000000     0.00000000
     0.00000000     0.00000000     0.00000000
     0.00000000     0.00000000     0.00000000
     0.00000000     0.00000000     0.00000000
     0.00000000     0.00000000     0.00000000
     0.00000000     0.00000000     0.00000000
     0.00000000     0.00000000     0.00000000
     0.00000000     0.00000000     0.00000000
     0.00000000     0.00000000     0.00000000
     0.00000000     0.00000000     0.00000000
     0.00000000     0.00000000     0.00000000
     0.00000000     0.00000000     0.00000000
     0.00000000     0.00000000     0.00000000
     0.00000000     0.00000000     0.00000000
     0.00000000     0.00000000     0.00000000
     0.00000000     0.00000000     0.00000000
     0.00000000     0.00000000     0.00000000
     0.00000000     0.00000000     0.00000000
     0.00000000     0.00000000     0.00000000
     0.00000000     0.00000000     0.00000000
     0.00000000     0.00000000     0.00000000
     0.00000000     0.00000000     0.00000000
     0.00000000     0.00000000     0.00000000
     0.00000000     0.00000000     0.00000000
     0.00000000     0.00000000     0.00000000
     0.00000000     0.00000000     0.00000000
     0.00000000     0.00000000     0.00000000
     0.00000000     0.00000000     0.00000000
     0.00000000     0.00000000     0.00000000
     0.00000000     0.00000000     0.00000000
     0.00000000     0.00000000     0.00000000
     0.00000000     0.00000000     0.00000000
     0.00000000     0.00000000     0.00000000
     0.00000000     0.00000000     0.00000000
     0.00000000     0.00000000     0.00000000
     0.00000000     0.00000000     0.00000000
     0.00000000     0.00000000     0.00000000
     0.00000000     0.00000000     0.00000000
     0.00000000     0.00000000     0.00000000
     0.00000000     0.00000000     0.00000000
     0.00000000     0.00000000     0.00000000
     0.00000000     0.00000000     0.00000000
     0.00000000     0.00000000     0.00000000
     0.00000000     0.00000000     0.00000000
     0.00000000     0.00000000     0.00000000
     0.00000000     0.00000000     0.00000000
     0.00000000     0.00000000     0.00000000
     0.00000000     0.00000000     0.00000000
     0.00000000     0.00000000     0.00000000
     0.00000000     0.00000000     0.00000000
     0.00000000     0.00000000     0.00000000
     0.00000000     0.00000000     0.00000000
     0.00000000     0.00000000     0.00000000
     0.00000000     0.00000000     0.00000000
     0.00000000     0.00000000     0.00000000
     0.00000000     0.00000000     0.00000000
     0.00000000     0.00000000     0.00000000
     0.00000000     0.00000000     0.00000000
     0.00000000     0.00000000     0.00000000
     0.00000000     0.00000000     0.00000000
     0.00000000     0.00000000     0.00000000
     0.00000000     0.00000000     0.00000000
     0.00000000     0.00000000     0.00000000
     0.00000000     0.00000000     0.00000000
     0.00000000     0.00000000     0.00000000
     0.00000000     0.00000000     0.00000000
     0.00000000     0.00000000     0.00000000
     0.00000000     0.00000000     0.00000000
     0.00000000     0.00000000     0.00000000
     0.00000000     0.00000000     0.00000000
     0.00000000     0.00000000     0.00000000
     0.00000000     0.00000000     0.00000000
     0.00000000     0.00000000     0.00000000
     0.00000000     0.00000000     0.00000000
     0.00000000     0.00000000     0.00000000
     0.00000000     0.00000000     0.00000000
     0.00000000     0.00000000     0.00000000
     0.00000000     0.00000000     0.00000000
     0.00000000     0.00000000     0.00000000
     0.00000000     0.00000000     0.00000000
     0.00000000     0.00000000     0.00000000
     0.00000000     0.00000000     0.00000000
     0.00000000     0.00000000     0.00000000
     0.00000000     0.00000000     0.00000000
     0.00000000     0.00000000     0.00000000
     0.00000000     0.00000000     0.00000000
     0.00000000     0.00000000     0.00000000
     0.00000000     0.00000000     0.00000000
     0.00000000     0.00000000     0.00000000
     0.00000000     0.00000000     0.00000000
     0.00000000     0.00000000     0.00000000
     0.00000000     0.00000000     0.00000000
     0.00000000     0.00000000     0.00000000
     0.00000000     0.00000000     0.00000000
     0.00000000     0.00000000     0.00000000
     0.00000000     0.00000000     0.00000000
     0.00000000     0.00000000     0.00000000
     0.00000000     0.00000000     0.00000000
     0.00000000     0.00000000     0.00000000
     0.00000000     0.00000000     0.00000000
     0.00000000     0.00000000     0.00000000
     0.00000000     0.00000000     0.00000000
     0.00000000     0.00000000     0.00000000
     0.00000000     0.00000000     0.00000000
     0.00000000     0.00000000     0.00000000
     0.00000000     0.00000000     0.00000000
     0.00000000     0.00000000     0.00000000
     0.00000000     0.00000000     0.00000000
     0.00000000     0.00000000     0.00000000
     0.00000000     0.00000000     0.00000000
     0.00000000     0.00000000     0.00000000
     0.00000000     0.00000000     0.00000000
     0.00000000     0.00000000     0.00000000
     0.00000000     0.00000000     0.00000000
     0.00000000     0.00000000     0.00000000
     0.00000000     0.00000000     0.00000000
     0.00000000     0.00000000     0.00000000
     0.00000000     0.00000000     0.00000000
     0.00000000     0.00000000     0.00000000
     0.00000000     0.00000000     0.00000000
     0.00000000     0.00000000     0.00000000
     0.00000000     0.00000000     0.00000000
     0.00000000     0.00000000     0.00000000
     0.00000000     0.00000000     0.00000000
     0.00000000     0.00000000     0.00000000
     0.00000000     0.00000000     0.00000000
     0.00000000     0.00000000     0.00000000
     0.00000000     0.00000000     0.00000000
     0.00000000     0.00000000     0.00000000
     0.00000000     0.00000000     0.00000000
     0.00000000     0.00000000     0.00000000
     0.00000000     0.00000000     0.00000000
     0.00000000     0.00000000     0.00000000
     0.00000000     0.00000000     0.00000000
     0.00000000     0.00000000     0.00000000
     0.00000000     0.00000000     0.00000000
     0.00000000     0.00000000     0.00000000
     0.00000000     0.00000000     0.00000000
     0.00000000     0.00000000     0.00000000
     0.00000000     0.00000000     0.00000000
     0.00000000     0.00000000     0.00000000
     0.00000000     0.00000000     0.00000000
     0.00000000     0.00000000     0.00000000
     0.00000000     0.00000000     0.00000000
     0.00000000     0.00000000     0.00000000
     0.00000000     0.00000000     0.00000000
     0.00000000     0.00000000     0.00000000
     0.00000000     0.00000000     0.00000000
     0.00000000     0.00000000     0.00000000
     0.00000000     0.00000000     0.00000000
     0.00000000     0.00000000     0.00000000
     0.00000000     0.00000000     0.00000000
     0.00000000     0.00000000     0.00000000
     0.00000000     0.00000000     0.00000000
     0.00000000     0.00000000     0.00000000
     0.00000000     0.00000000     0.00000000
     0.00000000     0.00000000     0.00000000
     0.00000000     0.00000000     0.00000000
     0.00000000     0.00000000     0.00000000
     0.00000000     0.00000000     0.00000000
     0.00000000     0.00000000     0.00000000
     0.00000000     0.00000000     0.00000000
     0.00000000     0.00000000     0.00000000
     0.00000000     0.00000000     0.00000000
     0.00000000     0.00000000     0.00000000
     0.00000000     0.00000000     0.00000000
     0.00000000     0.00000000     0.00000000
     0.00000000     0.00000000     0.00000000
     0.00000000     0.00000000     0.00000000
     0.00000000     0.00000000     0.00000000
     0.00000000     0.00000000     0.00000000
     0.00000000     0.00000000     0.00000000
     0.00000000     0.00000000     0.00000000
     0.00000000     0.00000000     0.00000000
     0.00000000     0.00000000     0.00000000
     0.00000000     0.00000000     0.00000000
     0.00000000     0.00000000     0.00000000
     0.00000000     0.00000000     0.00000000
     0.00000000     0.00000000     0.00000000
     0.00000000     0.00000000     0.00000000
     0.00000000     0.00000000     0.00000000
     0.00000000     0.00000000     0.00000000
     0.00000000     0.00000000     0.00000000
     0.00000000     0.00000000     0.00000000
     0.00000000     0.00000000     0.00000000
     0.00000000     0.00000000     0.00000000
     0.00000000     0.00000000     0.00000000
     0.00000000     0.00000000     0.00000000
     0.00000000     0.00000000     0.00000000
     0.00000000     0.00000000     0.00000000
     0.00000000     0.00000000     0.00000000
     0.00000000     0.00000000     0.00000000
     0.00000000     0.00000000     0.00000000
     0.00000000     0.00000000     0.00000000
     0.00000000     0.00000000     0.00000000
     0.00000000     0.00000000     0.00000000
     0.00000000     0.00000000     0.00000000
     0.00000000     0.00000000     0.00000000
     0.00000000     0.00000000     0.00000000
     0.00000000     0.00000000     0.00000000
     0.00000000     0.00000000     0.00000000
     0.00000000     0.00000000     0.00000000
     0.00000000     0.00000000     0.00000000
     0.00000000     0.00000000     0.00000000
     0.00000000     0.00000000     0.00000000
     0.00000000     0.00000000     0.00000000
     0.00000000     0.00000000     0.00000000
     0.00000000     0.00000000     0.00000000
     0.00000000     0.00000000     0.00000000
     0.00000000     0.00000000     0.00000000
     0.00000000     0.00000000     0.00000000
     0.00000000     0.00000000     0.00000000
     0.00000000     0.00000000     0.00000000
     0.00000000     0.00000000     0.00000000
     0.00000000     0.00000000     0.00000000
     0.00000000     0.00000000     0.00000000
     0.00000000     0.00000000     0.00000000
     0.00000000     0.00000000     0.00000000
     0.00000000     0.00000000     0.00000000
     0.00000000     0.00000000     0.00000000
     0.00000000     0.00000000     0.00000000
     0.00000000     0.00000000     0.00000000
     0.00000000     0.00000000     0.00000000
     0.00000000     0.00000000     0.00000000
     0.00000000     0.00000000     0.00000000
     0.00000000     0.00000000     0.00000000
     0.00000000     0.00000000     0.00000000
     0.00000000     0.00000000     0.00000000
     0.00000000     0.00000000     0.00000000
     0.00000000     0.00000000     0.00000000
     0.00000000     0.00000000     0.00000000
     0.00000000     0.00000000     0.00000000
     0.00000000     0.00000000     0.00000000
     0.00000000     0.00000000     0.00000000
     0.00000000     0.00000000     0.00000000
     0.00000000     0.00000000     0.00000000
     0.00000000     0.00000000     0.00000000
     0.00000000     0.00000000     0.00000000
     0.00000000     0.00000000     0.00000000
     0.00000000     0.00000000     0.00000000
     0.00000000     0.00000000     0.00000000
     0.00000000     0.00000000     0.00000000
     0.00000000     0.00000000     0.00000000
     0.00000000     0.00000000     0.00000000
     0.00000000     0.00000000     0.00000000
     0.00000000     0.00000000     0.00000000
     0.00000000     0.00000000     0.00000000
     0.00000000     0.00000000     0.00000000
     0.00000000     0.00000000     0.00000000
     0.00000000     0.00000000     0.00000000
     0.00000000     0.00000000     0.00000000
     0.00000000     0.00000000     0.00000000
     0.00000000     0.00000000     0.00000000
     0.00000000     0.00000000     0.00000000
     0.00000000     0.00000000     0.00000000
     0.00000000     0.00000000     0.00000000
     0.00000000     0.00000000     0.00000000
     0.00000000     0.00000000     0.00000000
     0.00000000     0.00000000     0.00000000
     0.00000000     0.00000000     0.00000000
     0.00000000     0.00000000     0.00000000
     0.00000000     0.00000000     0.00000000
     0.00000000     0.00000000     0.00000000
     0.00000000     0.00000000     0.00000000
     0.00000000     0.00000000     0.00000000
     0.00000000     0.00000000     0.00000000
     0.00000000     0.00000000     0.00000000
     0.00000000     0.00000000     0.00000000
     0.00000000     0.00000000     0.00000000
     0.00000000     0.00000000     0.00000000
     0.00000000     0.00000000     0.00000000
     0.00000000     0.00000000     0.00000000
     0.00000000     0.00000000     0.00000000
     0.00000000     0.00000000     0.00000000
     0.00000000     0.00000000     0.00000000
     0.00000000     0.00000000     0.00000000
     0.00000000     0.00000000     0.00000000
     0.00000000     0.00000000     0.00000000
     0.00000000     0.00000000     0.00000000
     0.00000000     0.00000000     0.00000000
     0.00000000     0.00000000     0.00000000
     0.00000000     0.00000000     0.00000000
     0.00000000     0.00000000     0.00000000
     0.00000000     0.00000000     0.00000000
     0.00000000     0.00000000     0.00000000
     0.00000000     0.00000000     0.00000000
     0.00000000     0.00000000     0.00000000
     0.00000000     0.00000000     0.00000000
     0.00000000     0.00000000     0.00000000
     0.00000000     0.00000000     0.00000000
     0.00000000     0.00000000     0.00000000
     0.00000000     0.00000000     0.00000000
     0.00000000     0.00000000     0.00000000
     0.00000000     0.00000000     0.00000000
     0.00000000     0.00000000     0.00000000
     0.00000000     0.00000000     0.00000000
     0.00000000     0.00000000     0.00000000
     0.00000000     0.00000000     0.00000000
     0.00000000     0.00000000     0.00000000
     0.00000000     0.00000000     0.00000000
     0.00000000     0.00000000     0.00000000
     0.00000000     0.00000000     0.00000000
     0.00000000     0.00000000     0.00000000
     0.00000000     0.00000000     0.00000000
     0.00000000     0.00000000     0.00000000
     0.00000000     0.00000000     0.00000000
     0.00000000     0.00000000     0.00000000
     0.00000000     0.00000000     0.00000000
     0.00000000     0.00000000     0.00000000
     0.00000000     0.00000000     0.00000000
     0.00000000     0.00000000     0.00000000
     0.00000000     0.00000000     0.00000000
     0.00000000     0.00000000     0.00000000
     0.00000000     0.00000000     0.00000000
     0.00000000     0.00000000     0.00000000
     0.00000000     0.00000000     0.00000000
     0.00000000     0.00000000     0.00000000
     0.00000000     0.00000000     0.00000000
     0.00000000     0.00000000     0.00000000
     0.00000000     0.00000000     0.00000000
     0.00000000     0.00000000     0.00000000
     0.00000000     0.00000000     0.00000000
     0.00000000     0.00000000     0.00000000
     0.00000000     0.00000000     0.00000000
     0.00000000     0.00000000     0.00000000
     0.00000000     0.00000000     0.00000000
     0.00000000     0.00000000     0.00000000
     0.00000000     0.00000000     0.00000000
     0.00000000     0.00000000     0.00000000
     0.00000000     0.00000000     0.00000000
     0.00000000     0.00000000     0.00000000
     0.00000000     0.00000000     0.00000000
     0.00000000     0.00000000     0.00000000
     0.00000000     0.00000000     0.00000000
     0.00000000     0.00000000     0.00000000
     0.00000000     0.00000000     0.00000000
     0.00000000     0.00000000     0.00000000
     0.00000000     0.00000000     0.00000000
     0.00000000     0.00000000     0.00000000
     0.00000000     0.00000000     0.00000000
     0.00000000     0.00000000     0.00000000
     0.00000000     0.00000000     0.00000000
     0.00000000     0.00000000     0.00000000
     0.00000000     0.00000000     0.00000000
     0.00000000     0.00000000     0.00000000
     0.00000000     0.00000000     0.00000000
     0.00000000     0.00000000     0.00000000
     0.00000000     0.00000000     0.00000000
     0.00000000     0.00000000     0.00000000
     0.00000000     0.00000000     0.00000000
     0.00000000     0.00000000     0.00000000
     0.00000000     0.00000000     0.00000000
     0.00000000     0.00000000     0.00000000
     0.00000000     0.00000000     0.00000000
     0.00000000     0.00000000     0.00000000
     0.00000000     0.00000000     0.00000000
     0.00000000     0.00000000     0.00000000
     0.00000000     0.00000000     0.00000000
     0.00000000     0.00000000     0.00000000
     0.00000000     0.00000000     0.00000000
     0.00000000     0.00000000     0.00000000
     0.00000000     0.00000000     0.00000000
     0.00000000     0.00000000     0.00000000
     0.00000000     0.00000000     0.00000000
     0.00000000     0.00000000     0.00000000
     0.00000000     0.00000000     0.00000000
     0.00000000     0.00000000     0.00000000
     0.00000000     0.00000000     0.00000000
     0.00000000     0.00000000     0.00000000
     0.00000000     0.00000000     0.00000000
     0.00000000     0.00000000     0.00000000
     0.00000000     0.00000000     0.00000000
     0.00000000     0.00000000     0.00000000
     0.00000000     0.00000000     0.00000000
     0.00000000     0.00000000     0.00000000
     0.00000000     0.00000000     0.00000000
     0.00000000     0.00000000     0.00000000
     0.00000000     0.00000000     0.00000000
     0.00000000     0.00000000     0.00000000
     0.00000000     0.00000000     0.00000000
     0.00000000     0.00000000     0.00000000
     0.00000000     0.00000000     0.00000000
     0.00000000     0.00000000     0.00000000
     0.00000000     0.00000000     0.00000000
     0.00000000     0.00000000     0.00000000
     0.00000000     0.00000000     0.00000000
     0.00000000     0.00000000     0.00000000
     0.00000000     0.00000000     0.00000000
     0.00000000     0.00000000     0.00000000
     0.00000000     0.00000000     0.00000000
     0.00000000     0.00000000     0.00000000
     0.00000000     0.00000000     0.00000000
     0.00000000     0.00000000     0.00000000
     0.00000000     0.00000000     0.00000000
     0.00000000     0.00000000     0.00000000
     0.00000000     0.00000000     0.00000000
     0.00000000     0.00000000     0.00000000
     0.00000000     0.00000000     0.00000000
     0.00000000     0.00000000     0.00000000
     0.00000000     0.00000000     0.00000000
     0.00000000     0.00000000     0.00000000
     0.00000000     0.00000000     0.00000000
     0.00000000     0.00000000     0.00000000
     0.00000000     0.00000000     0.00000000
     0.00000000     0.00000000     0.00000000
     0.00000000     0.00000000     0.00000000
     0.00000000     0.00000000     0.00000000
     0.00000000     0.00000000     0.00000000
     0.00000000     0.00000000     0.00000000
     0.00000000     0.00000000     0.00000000
     0.00000000     0.00000000     0.00000000
     0.00000000     0.00000000     0.00000000
     0.00000000     0.00000000     0.00000000
     0.00000000     0.00000000     0.00000000
     0.00000000     0.00000000     0.00000000
     0.00000000     0.00000000     0.00000000
     0.00000000     0.00000000     0.00000000
     0.00000000     0.00000000     0.00000000
     0.00000000     0.00000000     0.00000000
     0.00000000     0.00000000     0.00000000
     0.00000000     0.00000000     0.00000000
     0.00000000     0.00000000     0.00000000
     0.00000000     0.00000000     0.00000000
     0.00000000     0.00000000     0.00000000
     0.00000000     0.00000000     0.00000000
     0.00000000     0.00000000     0.00000000
     0.00000000     0.00000000     0.00000000
     0.00000000     0.00000000     0.00000000
     0.00000000     0.00000000     0.00000000
     0.00000000     0.00000000     0.00000000
     0.00000000     0.00000000     0.00000000
     0.00000000     0.00000000     0.00000000
     0.00000000     0.00000000     0.00000000
     0.00000000     0.00000000     0.00000000
     0.00000000     0.00000000     0.00000000
     0.00000000     0.00000000     0.00000000
     0.00000000     0.00000000     0.00000000
     0.00000000     0.00000000     0.00000000
     0.00000000     0.00000000     0.00000000
     0.00000000     0.00000000     0.00000000
     0.00000000     0.00000000     0.00000000
     0.00000000     0.00000000     0.00000000
     0.00000000     0.00000000     0.00000000
     0.00000000     0.00000000     0.00000000
     0.00000000     0.00000000     0.00000000
     0.00000000     0.00000000     0.00000000
     0.00000000     0.00000000     0.00000000
     0.00000000     0.00000000     0.00000000
     0.00000000     0.00000000     0.00000000
     0.00000000     0.00000000     0.00000000
     0.00000000     0.00000000     0.00000000
     0.00000000     0.00000000     0.00000000
     0.00000000     0.00000000     0.00000000
     0.00000000     0.00000000     0.00000000
     0.00000000     0.00000000     0.00000000
     0.00000000     0.00000000     0.00000000
     0.00000000     0.00000000     0.00000000
     0.00000000     0.00000000     0.00000000
     0.00000000     0.00000000     0.00000000
     0.00000000     0.00000000     0.00000000
     0.00000000     0.00000000     0.00000000
     0.00000000     0.00000000     0.00000000
     0.00000000     0.00000000     0.00000000
     0.00000000     0.00000000     0.00000000
     0.00000000     0.00000000     0.00000000
     0.00000000     0.00000000     0.00000000
     0.00000000     0.00000000     0.00000000
     0.00000000     0.00000000     0.00000000
     0.00000000     0.00000000     0.00000000
     0.00000000     0.00000000     0.00000000
     0.00000000     0.00000000     0.00000000
     0.00000000     0.00000000     0.00000000
     0.00000000     0.00000000     0.00000000
     0.00000000     0.00000000     0.00000000
     0.00000000     0.00000000     0.00000000
     0.00000000     0.00000000     0.00000000
     0.00000000     0.00000000     0.00000000
     0.00000000     0.00000000     0.00000000
     0.00000000     0.00000000     0.00000000
     0.00000000     0.00000000     0.00000000
     0.00000000     0.00000000     0.00000000
     0.00000000     0.00000000     0.00000000
     0.00000000     0.00000000     0.00000000
     0.00000000     0.00000000     0.00000000
     0.00000000     0.00000000     0.00000000
     0.00000000     0.00000000     0.00000000
     0.00000000     0.00000000     0.00000000
     0.00000000     0.00000000     0.00000000
     0.00000000     0.00000000     0.00000000
     0.00000000     0.00000000     0.00000000
     0.00000000     0.00000000     0.00000000
     0.00000000     0.00000000     0.00000000
     0.00000000     0.00000000     0.00000000
     0.00000000     0.00000000     0.00000000
     0.00000000     0.00000000     0.00000000
     0.00000000     0.00000000     0.00000000
     0.00000000     0.00000000     0.00000000
     0.00000000     0.00000000     0.00000000
     0.00000000     0.00000000     0.00000000
     0.00000000     0.00000000     0.00000000
     0.00000000     0.00000000     0.00000000
     0.00000000     0.00000000     0.00000000
     0.00000000     0.00000000     0.00000000
     0.00000000     0.00000000     0.00000000
     0.00000000     0.00000000     0.00000000
     0.00000000     0.00000000     0.00000000
     0.00000000     0.00000000     0.00000000
     0.00000000     0.00000000     0.00000000
     0.00000000     0.00000000     0.00000000
     0.00000000     0.00000000     0.00000000
     0.00000000     0.00000000     0.00000000
     0.00000000     0.00000000     0.00000000
     0.00000000     0.00000000     0.00000000
     0.00000000     0.00000000     0.00000000
     0.00000000     0.00000000     0.00000000
     0.00000000     0.00000000     0.00000000
     0.00000000     0.00000000     0.00000000
     0.00000000     0.00000000     0.00000000
     0.00000000     0.00000000     0.00000000
     0.00000000     0.00000000     0.00000000
     0.00000000     0.00000000     0.00000000
     0.00000000     0.00000000     0.00000000
     0.00000000     0.00000000     0.00000000
     0.00000000     0.00000000     0.00000000
     0.00000000     0.00000000     0.00000000
     0.00000000     0.00000000     0.00000000
     0.00000000     0.00000000     0.00000000
     0.00000000     0.00000000     0.00000000
     0.00000000     0.00000000     0.00000000
     0.00000000     0.00000000     0.00000000
     0.00000000     0.00000000     0.00000000
     0.00000000     0.00000000     0.00000000
     0.00000000     0.00000000     0.00000000
     0.00000000     0.00000000     0.00000000
     0.00000000     0.00000000     0.00000000
     0.00000000     0.00000000     0.00000000
     0.00000000     0.00000000     0.00000000
     0.00000000     0.00000000     0.00000000
     0.00000000     0.00000000     0.00000000
     0.00000000     0.00000000     0.00000000
     0.00000000     0.00000000     0.00000000
     0.00000000     0.00000000     0.00000000
     0.00000000     0.00000000     0.00000000
     0.00000000     0.00000000     0.00000000
     0.00000000     0.00000000     0.00000000
     0.00000000     0.00000000     0.00000000
     0.00000000     0.00000000     0.00000000
     0.00000000     0.00000000     0.00000000
     0.00000000     0.00000000     0.00000000
     0.00000000     0.00000000     0.00000000
     0.00000000     0.00000000     0.00000000
     0.00000000     0.00000000     0.00000000
     0.00000000     0.00000000     0.00000000
     0.00000000     0.00000000     0.00000000
     0.00000000     0.00000000     0.00000000
     0.00000000     0.00000000     0.00000000
     0.00000000     0.00000000     0.00000000
     0.00000000     0.00000000     0.00000000
     0.00000000     0.00000000     0.00000000
     0.00000000     0.00000000     0.00000000
     0.00000000     0.00000000     0.00000000
     0.00000000     0.00000000     0.00000000
     0.00000000     0.00000000     0.00000000
     0.00000000     0.00000000     0.00000000
     0.00000000     0.00000000     0.00000000
     0.00000000     0.00000000     0.00000000
     0.00000000     0.00000000     0.00000000
     0.00000000     0.00000000     0.00000000
     0.00000000     0.00000000     0.00000000
     0.00000000     0.00000000     0.00000000
     0.00000000     0.00000000     0.00000000
     0.00000000     0.00000000     0.00000000
     0.00000000     0.00000000     0.00000000
     0.00000000     0.00000000     0.00000000
     0.00000000     0.00000000     0.00000000
     0.00000000     0.00000000     0.00000000
     0.00000000     0.00000000     0.00000000
     0.00000000     0.00000000     0.00000000
     0.00000000     0.00000000     0.00000000
     0.00000000     0.00000000     0.00000000
     0.00000000     0.00000000     0.00000000
     0.00000000     0.00000000     0.00000000
     0.00000000     0.00000000     0.00000000
     0.00000000     0.00000000     0.00000000
     0.00000000     0.00000000     0.00000000
     0.00000000     0.00000000     0.00000000
     0.00000000     0.00000000     0.00000000
     0.00000000     0.00000000     0.00000000
     0.00000000     0.00000000     0.00000000
     0.00000000     0.00000000     0.00000000
     0.00000000     0.00000000     0.00000000
     0.00000000     0.00000000     0.00000000
     0.00000000     0.00000000     0.00000000
     0.00000000     0.00000000     0.00000000
     0.00000000     0.00000000     0.00000000
     0.00000000     0.00000000     0.00000000
     0.00000000     0.00000000     0.00000000
     0.00000000     0.00000000     0.00000000
     0.00000000     0.00000000     0.00000000
     0.00000000     0.00000000     0.00000000
     0.00000000     0.00000000     0.00000000
     0.00000000     0.00000000     0.00000000
     0.00000000     0.00000000     0.00000000
     0.00000000     0.00000000     0.00000000
     0.00000000     0.00000000     0.00000000
     0.00000000     0.00000000     0.00000000
     0.00000000     0.00000000     0.00000000
     0.00000000     0.00000000     0.00000000
     0.00000000     0.00000000     0.00000000
     0.00000000     0.00000000     0.00000000
     0.00000000     0.00000000     0.00000000
     0.00000000     0.00000000     0.00000000
     0.00000000     0.00000000     0.00000000
     0.00000000     0.00000000     0.00000000
     0.00000000     0.00000000     0.00000000
     0.00000000     0.00000000     0.00000000
     0.00000000     0.00000000     0.00000000
     0.00000000     0.00000000     0.00000000
     0.00000000     0.00000000     0.00000000
     0.00000000     0.00000000     0.00000000
     0.00000000     0.00000000     0.00000000
     0.00000000     0.00000000     0.00000000
     0.00000000     0.00000000     0.00000000
     0.00000000     0.00000000     0.00000000
     0.00000000     0.00000000     0.00000000
     0.00000000     0.00000000     0.00000000
     0.00000000     0.00000000     0.00000000
     0.00000000     0.00000000     0.00000000
     0.00000000     0.00000000     0.00000000
     0.00000000     0.00000000     0.00000000
     0.00000000     0.00000000     0.00000000
     0.00000000     0.00000000     0.00000000
     0.00000000     0.00000000     0.00000000
     0.00000000     0.00000000     0.00000000
     0.00000000     0.00000000     0.00000000
     0.00000000     0.00000000     0.00000000
     0.00000000     0.00000000     0.00000000
     0.00000000     0.00000000     0.00000000
     0.00000000     0.00000000     0.00000000
     0.00000000     0.00000000     0.00000000
     0.00000000     0.00000000     0.00000000
     0.00000000     0.00000000     0.00000000
     0.00000000     0.00000000     0.00000000
     0.00000000     0.00000000     0.00000000
     0.00000000     0.00000000     0.00000000
     0.00000000     0.00000000     0.00000000
     0.00000000     0.00000000     0.00000000
     0.00000000     0.00000000     0.00000000
     0.00000000     0.00000000     0.00000000
     0.00000000     0.00000000     0.00000000
     0.00000000     0.00000000     0.00000000
     0.00000000     0.00000000     0.00000000
     0.00000000     0.00000000     0.00000000
     0.00000000     0.00000000     0.00000000
     0.00000000     0.00000000     0.00000000
     0.00000000     0.00000000     0.00000000
     0.00000000     0.00000000     0.00000000
     0.00000000     0.00000000     0.00000000
     0.00000000     0.00000000     0.00000000
     0.00000000     0.00000000     0.00000000
     0.00000000     0.00000000     0.00000000
     0.00000000     0.00000000     0.00000000
     0.00000000     0.00000000     0.00000000
     0.00000000     0.00000000     0.00000000
     0.00000000     0.00000000     0.00000000
     0.00000000     0.00000000     0.00000000
     0.00000000     0.00000000     0.00000000
     0.00000000     0.00000000     0.00000000
     0.00000000     0.00000000     0.00000000
     0.00000000     0.00000000     0.00000000
     0.00000000     0.00000000     0.00000000
     0.00000000     0.00000000     0.00000000
     0.00000000     0.00000000     0.00000000
     0.00000000     0.00000000     0.00000000
     0.00000000     0.00000000     0.00000000
     0.00000000     0.00000000     0.00000000
     0.00000000     0.00000000     0.00000000
     0.00000000     0.00000000     0.00000000
     0.00000000     0.00000000     0.00000000
     0.00000000     0.00000000     0.00000000
     0.00000000     0.00000000     0.00000000
     0.00000000     0.00000000     0.00000000
     0.00000000     0.00000000     0.00000000
     0.00000000     0.00000000     0.00000000
     0.00000000     0.00000000     0.00000000
     0.00000000     0.00000000     0.00000000
     0.00000000     0.00000000     0.00000000
     0.00000000     0.00000000     0.00000000
     0.00000000     0.00000000     0.00000000
     0.00000000     0.00000000     0.00000000
     0.00000000     0.00000000     0.00000000
     0.00000000     0.00000000     0.00000000
     0.00000000     0.00000000     0.00000000
     0.00000000     0.00000000     0.00000000
     0.00000000     0.00000000     0.00000000
     0.00000000     0.00000000     0.00000000
     0.00000000     0.00000000     0.00000000
     0.00000000     0.00000000     0.00000000
     0.00000000     0.00000000     0.00000000
     0.00000000     0.00000000     0.00000000
     0.00000000     0.00000000     0.00000000
     0.00000000     0.00000000     0.00000000
     0.00000000     0.00000000     0.00000000
     0.00000000     0.00000000     0.00000000
     0.00000000     0.00000000     0.00000000
     0.00000000     0.00000000     0.00000000
     0.00000000     0.00000000     0.00000000
     0.00000000     0.00000000     0.00000000
     0.00000000     0.00000000     0.00000000
     0.00000000     0.00000000     0.00000000
     0.00000000     0.00000000     0.00000000
     0.00000000     0.00000000     0.00000000
     0.00000000     0.00000000     0.00000000
     0.00000000     0.00000000     0.00000000
     0.00000000     0.00000000     0.00000000
     0.00000000     0.00000000     0.00000000
     0.00000000     0.00000000     0.00000000
     0.00000000     0.00000000     0.00000000
     0.00000000     0.00000000     0.00000000
     0.00000000     0.00000000     0.00000000
     0.00000000     0.00000000     0.00000000
     0.00000000     0.00000000     0.00000000
     0.00000000     0.00000000     0.00000000
     0.00000000     0.00000000     0.00000000
     0.00000000     0.00000000     0.00000000
     0.00000000     0.00000000     0.00000000
     0.00000000     0.00000000     0.00000000
     0.00000000     0.00000000     0.00000000
     0.00000000     0.00000000     0.00000000
     0.00000000     0.00000000     0.00000000
     0.00000000     0.00000000     0.00000000
     0.00000000     0.00000000     0.00000000
     0.00000000     0.00000000     0.00000000
     0.00000000     0.00000000     0.00000000
     0.00000000     0.00000000     0.00000000
     0.00000000     0.00000000     0.00000000
     0.00000000     0.00000000     0.00000000
     0.00000000     0.00000000     0.00000000
     0.00000000     0.00000000     0.00000000
     0.00000000     0.00000000     0.00000000
     0.00000000     0.00000000     0.00000000
     0.00000000     0.00000000     0.00000000
     0.00000000     0.00000000     0.00000000
     0.00000000     0.00000000     0.00000000
     0.00000000     0.00000000     0.00000000
     0.00000000     0.00000000     0.00000000
     0.00000000     0.00000000     0.00000000
     0.00000000     0.00000000     0.00000000
     0.00000000     0.00000000     0.00000000
     0.00000000     0.00000000     0.00000000
     0.00000000     0.00000000     0.00000000
     0.00000000     0.00000000     0.00000000
     0.00000000     0.00000000     0.00000000
     0.00000000     0.00000000     0.00000000
     0.00000000     0.00000000     0.00000000
     0.00000000     0.00000000     0.00000000
     0.00000000     0.00000000     0.00000000
     0.00000000     0.00000000     0.00000000
     0.00000000     0.00000000     0.00000000
     0.00000000     0.00000000     0.00000000
     0.00000000     0.00000000     0.00000000
     0.00000000     0.00000000     0.00000000
     0.00000000     0.00000000     0.00000000
     0.00000000     0.00000000     0.00000000
     0.00000000     0.00000000     0.00000000
     0.00000000     0.00000000     0.00000000
     0.00000000     0.00000000     0.00000000
     0.00000000     0.00000000     0.00000000
     0.00000000     0.00000000     0.00000000
     0.00000000     0.00000000     0.00000000
     0.00000000     0.00000000     0.00000000
     0.00000000     0.00000000     0.00000000
     0.00000000     0.00000000     0.00000000
     0.00000000     0.00000000     0.00000000
     0.00000000     0.00000000     0.00000000
     0.00000000     0.00000000     0.00000000
     0.00000000     0.00000000     0.00000000
     0.00000000     0.00000000     0.00000000
     0.00000000     0.00000000     0.00000000
     0.00000000     0.00000000     0.00000000
     0.00000000     0.00000000     0.00000000
     0.00000000     0.00000000     0.00000000
     0.00000000     0.00000000     0.00000000
     0.00000000     0.00000000     0.00000000
     0.00000000     0.00000000     0.00000000
     0.00000000     0.00000000     0.00000000
     0.00000000     0.00000000     0.00000000
     0.00000000     0.00000000     0.00000000
     0.00000000     0.00000000     0.00000000
     0.00000000     0.00000000     0.00000000
     0.00000000     0.00000000     0.00000000
     0.00000000     0.00000000     0.00000000
     0.00000000     0.00000000     0.00000000
     0.00000000     0.00000000     0.00000000
     0.00000000     0.00000000     0.00000000
     0.00000000     0.00000000     0.00000000
     0.00000000     0.00000000     0.00000000
     0.00000000     0.00000000     0.00000000
     0.00000000     0.00000000     0.00000000
     0.00000000     0.00000000     0.00000000
     0.00000000     0.00000000     0.00000000
     0.00000000     0.00000000     0.00000000
     0.00000000     0.00000000     0.00000000
     0.00000000     0.00000000     0.00000000
     0.00000000     0.00000000     0.00000000
     0.00000000     0.00000000     0.00000000
     0.00000000     0.00000000     0.00000000
     0.00000000     0.00000000     0.00000000
     0.00000000     0.00000000     0.00000000
     0.00000000     0.00000000     0.00000000
     0.00000000     0.00000000     0.00000000
     0.00000000     0.00000000     0.00000000
     0.00000000     0.00000000     0.00000000
     0.00000000     0.00000000     0.00000000
     0.00000000     0.00000000     0.00000000
     0.00000000     0.00000000     0.00000000
     0.00000000     0.00000000     0.00000000
     0.00000000     0.00000000     0.00000000
     0.00000000     0.00000000     0.00000000
     0.00000000     0.00000000     0.00000000
     0.00000000     0.00000000     0.00000000
     0.00000000     0.00000000     0.00000000
     0.00000000     0.00000000     0.00000000
     0.00000000     0.00000000     0.00000000
     0.00000000     0.00000000     0.00000000
     0.00000000     0.00000000     0.00000000
     0.00000000     0.00000000     0.00000000
     0.00000000     0.00000000     0.00000000
     0.00000000     0.00000000     0.00000000
     0.00000000     0.00000000     0.00000000
     0.00000000     0.00000000     0.00000000
     0.00000000     0.00000000     0.00000000
     0.00000000     0.00000000     0.00000000
     0.00000000     0.00000000     0.00000000
     0.00000000     0.00000000     0.00000000
     0.00000000     0.00000000     0.00000000
     0.00000000     0.00000000     0.00000000
     0.00000000     0.00000000     0.00000000
     0.00000000     0.00000000     0.00000000
     0.00000000     0.00000000     0.00000000
     0.00000000     0.00000000     0.00000000
     0.00000000     0.00000000     0.00000000
     0.00000000     0.00000000     0.00000000
     0.00000000     0.00000000     0.00000000
     0.00000000     0.00000000     0.00000000
     0.00000000     0.00000000     0.00000000
     0.00000000     0.00000000     0.00000000
     0.00000000     0.00000000     0.00000000
     0.00000000     0.00000000     0.00000000
     0.00000000     0.00000000     0.00000000
     0.00000000     0.00000000     0.00000000
     0.00000000     0.00000000     0.00000000
     0.00000000     0.00000000     0.00000000
     0.00000000     0.00000000     0.00000000
     0.00000000     0.00000000     0.00000000
     0.00000000     0.00000000     0.00000000
     0.00000000     0.00000000     0.00000000
     0.00000000     0.00000000     0.00000000
     0.00000000     0.00000000     0.00000000
     0.00000000     0.00000000     0.00000000
     0.00000000     0.00000000     0.00000000
     0.00000000     0.00000000     0.00000000
     0.00000000     0.00000000     0.00000000
     0.00000000     0.00000000     0.00000000
     0.00000000     0.00000000     0.00000000
     0.00000000     0.00000000     0.00000000
     0.00000000     0.00000000     0.00000000
SCALARS Pressures float
LOOKUP_TABLE default
            NaN
            NaN
            NaN
            NaN
            NaN
            NaN
            NaN
            NaN
            NaN
            NaN
            NaN
            NaN
            NaN
            NaN
            NaN
            NaN
            NaN
            NaN
            NaN
            NaN
            NaN
            NaN
            NaN
            NaN
            NaN
            NaN
            NaN
            NaN
            NaN
            NaN
            NaN
            NaN
            NaN
            NaN
            NaN
            NaN
            NaN
            NaN
            NaN
            NaN
            NaN
            NaN
            NaN
            NaN
            NaN
            NaN
            NaN
            NaN
            NaN
            NaN
            NaN
            NaN
            NaN
            NaN
            NaN
            NaN
            NaN
            NaN
            NaN
            NaN
            NaN
            NaN
            NaN
            NaN
            NaN
            NaN
            NaN
            NaN
            NaN
            NaN
            NaN
            NaN
            NaN
            NaN
            NaN
            NaN
            NaN
            NaN
            NaN
            NaN
            NaN
            NaN
            NaN
            NaN
            NaN
            NaN
            NaN
            NaN
            NaN
            NaN
            NaN
            NaN
            NaN
            NaN
            NaN
            NaN
            NaN
            NaN
            NaN
            NaN
            NaN
            NaN
            NaN
            NaN
            NaN
            NaN
            NaN
            NaN
            NaN
            NaN
            NaN
            NaN
            NaN
            NaN
            NaN
            NaN
            NaN
            NaN
            NaN
            NaN
            NaN
            NaN
            NaN
            NaN
            NaN
            NaN
            NaN
            NaN
            NaN
            NaN
            NaN
            NaN
            NaN
            NaN
            NaN
            NaN
            NaN
            NaN
            NaN
            NaN
            NaN
            NaN
            NaN
            NaN
            NaN
            NaN
            NaN
            NaN
            NaN
            NaN
            NaN
            NaN
            NaN
            NaN
            NaN
            NaN
            NaN
            NaN
            NaN
            NaN
            NaN
            NaN
            NaN
            NaN
            NaN
            NaN
            NaN
            NaN
            NaN
            NaN
            NaN
            NaN
            NaN
            NaN
            NaN
            NaN
            NaN
            NaN
            NaN
            NaN
            NaN
            NaN
            NaN
            NaN
            NaN
            NaN
            NaN
            NaN
            NaN
            NaN
            NaN
            NaN
            NaN
            NaN
            NaN
            NaN
            NaN
            NaN
            NaN
            NaN
            NaN
            NaN
            NaN
            NaN
            NaN
            NaN
            NaN
            NaN
            NaN
            NaN
            NaN
            NaN
            NaN
            NaN
            NaN
            NaN
            NaN
            NaN
            NaN
            NaN
            NaN
            NaN
            NaN
            NaN
            NaN
            NaN
            NaN
            NaN
            NaN
            NaN
            NaN
            NaN
            NaN
            NaN
            NaN
            NaN
            NaN
            NaN
            NaN
            NaN
            NaN
            NaN
            NaN
            NaN
            NaN
            NaN
            NaN
            NaN
            NaN
            NaN
            NaN
            NaN
            NaN
            NaN
            NaN
            NaN
            NaN
            NaN
            NaN
            NaN
            NaN
            NaN
            NaN
            NaN
            NaN
            NaN
            NaN
            NaN
            NaN
            NaN
            NaN
            NaN
            NaN
            NaN
            NaN
            NaN
            NaN
            NaN
            NaN
            NaN
            NaN
            NaN
            NaN
            NaN
            NaN
            NaN
            NaN
            NaN
            NaN
            NaN
            NaN
            NaN
            NaN
            NaN
            NaN
            NaN
            NaN
            NaN
            NaN
            NaN
            NaN
            NaN
            NaN
            NaN
            NaN
            NaN
            NaN
            NaN
            NaN
            NaN
            NaN
            NaN
            NaN
            NaN
            NaN
            NaN
            NaN
            NaN
            NaN
            NaN
            NaN
            NaN
***************
            NaN
            NaN
            NaN
            NaN
            NaN
            NaN
            NaN
            NaN
            NaN
            NaN
            NaN
            NaN
            NaN
            NaN
            NaN
            NaN
            NaN
            NaN
            NaN
            NaN
            NaN
            NaN
            NaN
            NaN
            NaN
            NaN
            NaN
            NaN
            NaN
            NaN
            NaN
            NaN
            NaN
            NaN
            NaN
            NaN
            NaN
            NaN
            NaN
            NaN
            NaN
            NaN
            NaN
            NaN
            NaN
            NaN
            NaN
            NaN
            NaN
            NaN
            NaN
            NaN
            NaN
            NaN
            NaN
            NaN
            NaN
            NaN
            NaN
            NaN
            NaN
     0.00000000
            NaN
            NaN
            NaN
            NaN
            NaN
            NaN
            NaN
            NaN
            NaN
            NaN
            NaN
            NaN
            NaN
            NaN
            NaN
            NaN
            NaN
            NaN
            NaN
            NaN
            NaN
            NaN
            NaN
            NaN
            NaN
            NaN
            NaN
            NaN
            NaN
            NaN
            NaN
            NaN
            NaN
            NaN
            NaN
            NaN
            NaN
            NaN
            NaN
            NaN
            NaN
            NaN
            NaN
            NaN
            NaN
            NaN
            NaN
            NaN
            NaN
     0.00000000
            NaN
            NaN
            NaN
            NaN
            NaN
            NaN
            NaN
     0.00000000
            NaN
            NaN
            NaN
            NaN
            NaN
            NaN
            NaN
            NaN
            NaN
            NaN
            NaN
            NaN
            NaN
            NaN
            NaN
            NaN
            NaN
            NaN
            NaN
            NaN
            NaN
            NaN
            NaN
            NaN
            NaN
            NaN
            NaN
            NaN
            NaN
            NaN
            NaN
            NaN
            NaN
            NaN
            NaN
            NaN
            NaN
            NaN
            NaN
            NaN
     0.00000000
            NaN
            NaN
            NaN
            NaN
            NaN
            NaN
            NaN
            NaN
            NaN
            NaN
            NaN
            NaN
            NaN
            NaN
            NaN
            NaN
            NaN
            NaN
            NaN
            NaN
            NaN
            NaN
            NaN
            NaN
            NaN
            NaN
            NaN
            NaN
            NaN
            NaN
            NaN
            NaN
            NaN
            NaN
            NaN
            NaN
            NaN
            NaN
            NaN
            NaN
            NaN
            NaN
            NaN
            NaN
            NaN
            NaN
            NaN
            NaN
            NaN
            NaN
            NaN
            NaN
            NaN
            NaN
            NaN
            NaN
            NaN
            NaN
            NaN
            NaN
            NaN
            NaN
            NaN
            NaN
            NaN
            NaN
            NaN
            NaN
            NaN
            NaN
            NaN
            NaN
            NaN
            NaN
            NaN
            NaN
            NaN
            NaN
            NaN
            NaN
            NaN
            NaN
            NaN
            NaN
            NaN
            NaN
            NaN
            NaN
            NaN
            NaN
            NaN
            NaN
            NaN
            NaN
            NaN
            NaN
            NaN
            NaN
            NaN
            NaN
            NaN
            NaN
            NaN
            NaN
            NaN
            NaN
            NaN
            NaN
            NaN
            NaN
            NaN
            NaN
            NaN
            NaN
            NaN
            NaN
            NaN
            NaN
            NaN
            NaN
            NaN
            NaN
            NaN
            NaN
            NaN
            NaN
            NaN
            NaN
            NaN
            NaN
            NaN
            NaN
            NaN
            NaN
            NaN
            NaN
            NaN
            NaN
            NaN
            NaN
            NaN
            NaN
            NaN
            NaN
            NaN
            NaN
            NaN
            NaN
            NaN
            NaN
            NaN
            NaN
            NaN
            NaN
            NaN
            NaN
            NaN
            NaN
            NaN
            NaN
            NaN
            NaN
            NaN
            NaN
            NaN
            NaN
            NaN
            NaN
            NaN
            NaN
            NaN
            NaN
            NaN
            NaN
            NaN
            NaN
            NaN
            NaN
            NaN
            NaN
            NaN
            NaN
            NaN
            NaN
            NaN
            NaN
            NaN
            NaN
     0.00000000
            NaN
            NaN
            NaN
            NaN
            NaN
            NaN
            NaN
            NaN
            NaN
            NaN
            NaN
            NaN
            NaN
            NaN
            NaN
            NaN
            NaN
            NaN
            NaN
            NaN
            NaN
            NaN
            NaN
            NaN
            NaN
            NaN
            NaN
            NaN
            NaN
            NaN
            NaN
            NaN
            NaN
            NaN
            NaN
            NaN
            NaN
            NaN
            NaN
            NaN
            NaN
            NaN
            NaN
            NaN
            NaN
            NaN
            NaN
            NaN
            NaN
            NaN
            NaN
            NaN
            NaN
            NaN
            NaN
            NaN
            NaN
            NaN
            NaN
            NaN
            NaN
            NaN
            NaN
            NaN
            NaN
            NaN
            NaN
            NaN
            NaN
            NaN
            NaN
            NaN
            NaN
            NaN
            NaN
            NaN
            NaN
            NaN
            NaN
            NaN
            NaN
            NaN
            NaN
            NaN
            NaN
            NaN
            NaN
            NaN
            NaN
            NaN
            NaN
            NaN
            NaN
            NaN
            NaN
            NaN
            NaN
            NaN
            NaN
            NaN
            NaN
            NaN
            NaN
***************
***************
            NaN
***************
            NaN
            NaN
            NaN
            NaN
            NaN
            NaN
            NaN
            NaN
            NaN
            NaN
            NaN
            NaN
            NaN
            NaN
            NaN
            NaN
            NaN
            NaN
            NaN
            NaN
            NaN
            NaN
            NaN
            NaN
            NaN
            NaN
            NaN
            NaN
            NaN
            NaN
            NaN
            NaN
            NaN
            NaN
            NaN
            NaN
            NaN
            NaN
            NaN
            NaN
            NaN
            NaN
            NaN
            NaN
            NaN
            NaN
            NaN
            NaN
            NaN
            NaN
            NaN
            NaN
            NaN
            NaN
            NaN
            NaN
            NaN
            NaN
            NaN
            NaN
            NaN
            NaN
            NaN
            NaN
            NaN
            NaN
            NaN
            NaN
            NaN
            NaN
            NaN
            NaN
            NaN
            NaN
            NaN
            NaN
            NaN
            NaN
            NaN
            NaN
            NaN
            NaN
            NaN
            NaN
            NaN
            NaN
            NaN
            NaN
            NaN
            NaN
            NaN
            NaN
            NaN
            NaN
            NaN
            NaN
            NaN
            NaN
            NaN
            NaN
            NaN
            NaN
            NaN
            NaN
            NaN
***************
***************
***************
            NaN
***************
            NaN
            NaN
            NaN
            NaN
            NaN
***************
            NaN
            NaN
            NaN
            NaN
            NaN
            NaN
            NaN
            NaN
            NaN
            NaN
            NaN
            NaN
            NaN
            NaN
            NaN
            NaN
            NaN
            NaN
            NaN
            NaN
            NaN
            NaN
            NaN
            NaN
            NaN
            NaN
            NaN
            NaN
            NaN
            NaN
            NaN
            NaN
            NaN
            NaN
            NaN
            NaN
            NaN
            NaN
            NaN
            NaN
            NaN
            NaN
            NaN
            NaN
            NaN
            NaN
            NaN
            NaN
            NaN
            NaN
            NaN
            NaN
            NaN
            NaN
            NaN
            NaN
            NaN
            NaN
            NaN
            NaN
            NaN
            NaN
            NaN
            NaN
            NaN
            NaN
            NaN
            NaN
            NaN
            NaN
            NaN
            NaN
            NaN
            NaN
            NaN
            NaN
            NaN
            NaN
            NaN
            NaN
            NaN
            NaN
            NaN
            NaN
            NaN
            NaN
            NaN
            NaN
            NaN
            NaN
            NaN
            NaN
            NaN
            NaN
            NaN
            NaN
            NaN
            NaN
            NaN
            NaN
            NaN
            NaN
            NaN
            NaN
            NaN
            NaN
            NaN
            NaN
            NaN
            NaN
            NaN
            NaN
            NaN
            NaN
            NaN
            NaN
            NaN
            NaN
            NaN
            NaN
            NaN
            NaN
            NaN
            NaN
            NaN
            NaN
            NaN
            NaN
            NaN
            NaN
            NaN
            NaN
            NaN
            NaN
            NaN
            NaN
            NaN
            NaN
            NaN
            NaN
            NaN
            NaN
            NaN
            NaN
            NaN
            NaN
            NaN
            NaN
            NaN
            NaN
            NaN
            NaN
            NaN
            NaN
            NaN
            NaN
            NaN
            NaN
            NaN
            NaN
            NaN
            NaN
            NaN
            NaN
            NaN
            NaN
            NaN
            NaN
            NaN
            NaN
            NaN
            NaN
            NaN
            NaN
            NaN
            NaN
            NaN
            NaN
            NaN
            NaN
            NaN
            NaN
            NaN
            NaN
            NaN
            NaN
            NaN
            NaN
            NaN
            NaN
            NaN
            NaN
            NaN
            NaN
            NaN
            NaN
            NaN
            NaN
            NaN
            NaN
            NaN
            NaN
            NaN
            NaN
            NaN
            NaN
            NaN
            NaN
            NaN
            NaN
            NaN
            NaN
            NaN
            NaN
            NaN
            NaN
            NaN
            NaN
            NaN
            NaN
            NaN
            NaN
            NaN
            NaN
            NaN
            NaN
            NaN
            NaN
            NaN
            NaN
            NaN
            NaN
            NaN
            NaN
            NaN
            NaN
            NaN
            NaN
            NaN
            NaN
            NaN
            NaN
            NaN
            NaN
            NaN
            NaN
            NaN
            NaN
            NaN
            NaN
            NaN
            NaN
            NaN
            NaN
            NaN
            NaN
            NaN
            NaN
            NaN
            NaN
            NaN
            NaN
            NaN
            NaN
            NaN
            NaN
            NaN
            NaN
            NaN
            NaN
            NaN
            NaN
            NaN
            NaN
            NaN
            NaN
            NaN
            NaN
            NaN
            NaN
            NaN
            NaN
            NaN
            NaN
            NaN
            NaN
            NaN
            NaN
            NaN
            NaN
            NaN
            NaN
            NaN
            NaN
            NaN
            NaN
            NaN
            NaN
            NaN
            NaN
            NaN
            NaN
            NaN
            NaN
            NaN
            NaN
            NaN
            NaN
            NaN
            NaN
            NaN
            NaN
            NaN
            NaN
            NaN
            NaN
            NaN
            NaN
            NaN
            NaN
            NaN
            NaN
            NaN
            NaN
            NaN
            NaN
            NaN
            NaN
            NaN
            NaN
            NaN
            NaN
            NaN
            NaN
            NaN
            NaN
            NaN
            NaN
            NaN
            NaN
            NaN
            NaN
            NaN
            NaN
            NaN
            NaN
            NaN
            NaN
            NaN
            NaN
            NaN
            NaN
            NaN
            NaN
            NaN
     0.00000000
            NaN
            NaN
            NaN
     0.00000000
     0.00000000
            NaN
            NaN
            NaN
     0.00000000
            NaN
            NaN
     0.00000000
            NaN
            NaN
            NaN
     0.00000000
            NaN
            NaN
            NaN
            NaN
            NaN
            NaN
            NaN
            NaN
            NaN
            NaN
            NaN
            NaN
            NaN
            NaN
            NaN
            NaN
            NaN
            NaN
            NaN
            NaN
            NaN
            NaN
            NaN
            NaN
            NaN
            NaN
            NaN
            NaN
            NaN
            NaN
            NaN
            NaN
            NaN
            NaN
            NaN
            NaN
            NaN
            NaN
            NaN
            NaN
            NaN
            NaN
            NaN
            NaN
            NaN
            NaN
            NaN
            NaN
            NaN
            NaN
            NaN
            NaN
            NaN
            NaN
            NaN
            NaN
            NaN
     0.00000000
            NaN
            NaN
            NaN
            NaN
            NaN
            NaN
            NaN
            NaN
     0.00000000
            NaN
            NaN
            NaN
            NaN
            NaN
            NaN
            NaN
            NaN
            NaN
            NaN
            NaN
            NaN
            NaN
            NaN
            NaN
            NaN
            NaN
            NaN
            NaN
            NaN
            NaN
            NaN
            NaN
            NaN
            NaN
            NaN
            NaN
            NaN
            NaN
            NaN
            NaN
            NaN
            NaN
            NaN
            NaN
            NaN
            NaN
            NaN
            NaN
            NaN
            NaN
            NaN
            NaN
            NaN
            NaN
            NaN
            NaN
            NaN
            NaN
            NaN
            NaN
            NaN
            NaN
            NaN
            NaN
     0.00000000
            NaN
            NaN
            NaN
     0.00000000
            NaN
     0.00000000
            NaN
            NaN
            NaN
            NaN
            NaN
            NaN
            NaN
            NaN
            NaN
     0.00000000
            NaN
            NaN
            NaN
            NaN
            NaN
            NaN
     0.00000000
     0.00000000
            NaN
            NaN
            NaN
            NaN
     0.00000000
     0.00000000
            NaN
            NaN
            NaN
     0.00000000
            NaN
            NaN
     0.00000000
     0.00000000
            NaN
            NaN
            NaN
            NaN
            NaN
            NaN
            NaN
            NaN
            NaN
            NaN
            NaN
            NaN
            NaN
            NaN
     0.00000000
            NaN
            NaN
            NaN
            NaN
            NaN
            NaN
            NaN
            NaN
            NaN
            NaN
            NaN
            NaN
            NaN
            NaN
            NaN
            NaN
            NaN
            NaN
            NaN
            NaN
            NaN
            NaN
            NaN
            NaN
            NaN
            NaN
            NaN
            NaN
            NaN
            NaN
            NaN
            NaN
            NaN
            NaN
            NaN
            NaN
            NaN
            NaN
            NaN
            NaN
            NaN
            NaN
            NaN
            NaN
            NaN
            NaN
            NaN
            NaN
            NaN
            NaN
            NaN
            NaN
            NaN
            NaN
            NaN
            NaN
            NaN
            NaN
            NaN
            NaN
            NaN
            NaN
            NaN
            NaN
            NaN
            NaN
            NaN
            NaN
            NaN
            NaN
            NaN
            NaN
            NaN
            NaN
            NaN
            NaN
            NaN
            NaN
            NaN
            NaN
            NaN
            NaN
            NaN
            NaN
            NaN
            NaN
            NaN
            NaN
            NaN
            NaN
            NaN
            NaN
            NaN
            NaN
            NaN
            NaN
            NaN
            NaN
            NaN
            NaN
            NaN
            NaN
            NaN
            NaN
            NaN
            NaN
            NaN
            NaN
            NaN
            NaN
            NaN
            NaN
            NaN
            NaN
            NaN
            NaN
            NaN
            NaN
            NaN
            NaN
            NaN
            NaN
            NaN
            NaN
            NaN
            NaN
            NaN
            NaN
            NaN
            NaN
            NaN
            NaN
            NaN
            NaN
            NaN
            NaN
            NaN
            NaN
            NaN
            NaN
            NaN
            NaN
            NaN
            NaN
            NaN
            NaN
            NaN
            NaN
            NaN
            NaN
            NaN
            NaN
            NaN
            NaN
            NaN
            NaN
            NaN
            NaN
            NaN
            NaN
            NaN
            NaN
            NaN
            NaN
            NaN
            NaN
            NaN
            NaN
            NaN
            NaN
            NaN
            NaN
            NaN
            NaN
            NaN
            NaN
            NaN
            NaN
            NaN
            NaN
            NaN
            NaN
            NaN
            NaN
            NaN
            NaN
            NaN
            NaN
            NaN
            NaN
            NaN
            NaN
            NaN
            NaN
            NaN
            NaN
            NaN
            NaN
            NaN
            NaN
            NaN
            NaN
            NaN
            NaN
            NaN
            NaN
            NaN
            NaN
            NaN
            NaN
            NaN
            NaN
            NaN
            NaN
            NaN
            NaN
            NaN
            NaN
            NaN
            NaN
            NaN
            NaN
            NaN
            NaN
            NaN
            NaN
            NaN
            NaN
            NaN
            NaN
            NaN
            NaN
            NaN
            NaN
            NaN
            NaN
            NaN
            NaN
            NaN
            NaN
            NaN
            NaN
            NaN
            NaN
            NaN
            NaN
            NaN
            NaN
            NaN
            NaN
            NaN
            NaN
            NaN
            NaN
            NaN
            NaN
            NaN
            NaN
            NaN
            NaN
            NaN
            NaN
            NaN
            NaN
            NaN
            NaN
            NaN
            NaN
            NaN
            NaN
            NaN
            NaN
            NaN
            NaN
            NaN
            NaN
            NaN
            NaN
            NaN
            NaN
            NaN
            NaN
            NaN
            NaN
            NaN
            NaN
            NaN
            NaN
            NaN
            NaN
            NaN
            NaN
            NaN
            NaN
            NaN
            NaN
            NaN
            NaN
            NaN
            NaN
            NaN
            NaN
            NaN
            NaN
            NaN
            NaN
            NaN
            NaN
            NaN
            NaN
            NaN
            NaN
            NaN
            NaN
            NaN
            NaN
            NaN
            NaN
            NaN
            NaN
            NaN
            NaN
            NaN
            NaN
            NaN
            NaN
            NaN
            NaN
            NaN
            NaN
            NaN
            NaN
            NaN
            NaN
            NaN
            NaN
            NaN
            NaN
            NaN
            NaN
            NaN
            NaN
            NaN
            NaN
            NaN
            NaN
            NaN
            NaN
            NaN
            NaN
            NaN
            NaN
            NaN
            NaN
     0.00000000
            NaN
            NaN
            NaN
            NaN
            NaN
            NaN
            NaN
            NaN
            NaN
            NaN
            NaN
            NaN
            NaN
     0.00000000
     0.00000000
            NaN
            NaN
            NaN
            NaN
     0.00000000
            NaN
            NaN
            NaN
            NaN
     0.00000000
            NaN
     0.00000000
            NaN
            NaN
            NaN
            NaN
            NaN
            NaN
            NaN
            NaN
            NaN
            NaN
            NaN
            NaN
            NaN
     0.00000000
     0.00000000
     0.00000000
     0.00000000
            NaN
     0.00000000
     0.00000000
     0.00000000
            NaN
     0.00000000
     0.00000000
            NaN
            NaN
     0.00000000
     0.00000000
     0.00000000
     0.00000000
     0.00000000
     0.00000000
     0.00000000
            NaN
            NaN
            NaN
            NaN
            NaN
            NaN
            NaN
            NaN
            NaN
            NaN
            NaN
            NaN
            NaN
     0.00000000
            NaN
            NaN
            NaN
            NaN
            NaN
            NaN
            NaN
            NaN
            NaN
            NaN
            NaN
            NaN
            NaN
            NaN
     0.00000000
            NaN
            NaN
     0.00000000
            NaN
            NaN
            NaN
            NaN
            NaN
            NaN
            NaN
     0.00000000
            NaN
     0.00000000
     0.00000000
     0.00000000
     0.00000000
            NaN
            NaN
            NaN
     0.00000000
     0.00000000
     0.00000000
            NaN
            NaN
            NaN
     0.00000000
     0.00000000
            NaN
            NaN
     0.00000000
            NaN
            NaN
     0.00000000
            NaN
            NaN
            NaN
            NaN
     0.00000000
            NaN
            NaN
            NaN
     0.00000000
            NaN
            NaN
            NaN
            NaN
            NaN
            NaN
     0.00000000
            NaN
            NaN
            NaN
            NaN
     0.00000000
            NaN
     0.00000000
     0.00000000
     0.00000000
            NaN
            NaN
     0.00000000
            NaN
            NaN
            NaN
            NaN
            NaN
            NaN
            NaN
            NaN
            NaN
     0.00000000
     0.00000000
     0.00000000
            NaN
     0.00000000
            NaN
            NaN
            NaN
            NaN
            NaN
            NaN
            NaN
            NaN
            NaN
            NaN
            NaN
            NaN
            NaN
            NaN
            NaN
            NaN
            NaN
            NaN
            NaN
            NaN
            NaN
            NaN
            NaN
            NaN
            NaN
            NaN
            NaN
            NaN
            NaN
            NaN
            NaN
            NaN
            NaN
            NaN
            NaN
            NaN
            NaN
            NaN
            NaN
            NaN
            NaN
            NaN
            NaN
            NaN
            NaN
            NaN
            NaN
            NaN
            NaN
            NaN
            NaN
            NaN
            NaN
            NaN
            NaN
            NaN
            NaN
            NaN
            NaN
            NaN
            NaN
            NaN
            NaN
            NaN
            NaN
            NaN
            NaN
     0.00000000
     0.00000000
     0.00000000
     0.00000000
     0.00000000
     0.00000000
     0.00000000
     0.00000000
     0.00000000
     0.00000000
     0.00000000
     0.00000000
     0.00000000
     0.00000000
     0.00000000
            NaN
     0.00000000
     0.00000000
     0.00000000
     0.00000000
     0.00000000
     0.00000000
     0.00000000
     0.00000000
     0.00000000
     0.00000000
     0.00000000
     0.00000000
     0.00000000
     0.00000000
     0.00000000
     0.00000000
     0.00000000
     0.00000000
     0.00000000
     0.00000000
     0.00000000
     0.00000000
     0.00000000
     0.00000000
     0.00000000
     0.00000000
            NaN
     0.00000000
     0.00000000
     0.00000000
     0.00000000
     0.00000000
     0.00000000
     0.00000000
     0.00000000
     0.00000000
     0.00000000
     0.00000000
     0.00000000
     0.00000000
     0.00000000
     0.00000000
     0.00000000
     0.00000000
     0.00000000
     0.00000000
     0.00000000
     0.00000000
     0.00000000
     0.00000000
     0.00000000
     0.00000000
     0.00000000
     0.00000000
     0.00000000
     0.00000000
     0.00000000
     0.00000000
     0.00000000
     0.00000000
     0.00000000
     0.00000000
     0.00000000
     0.00000000
     0.00000000
     0.00000000
     0.00000000
     0.00000000
     0.00000000
     0.00000000
     0.00000000
     0.00000000
     0.00000000
     0.00000000
     0.00000000
     0.00000000
     0.00000000
     0.00000000
     0.00000000
     0.00000000
     0.00000000
     0.00000000
     0.00000000
     0.00000000
     0.00000000
     0.00000000
     0.00000000
     0.00000000
     0.00000000
     0.00000000
     0.00000000
     0.00000000
     0.00000000
     0.00000000
     0.00000000
     0.00000000
     0.00000000
     0.00000000
     0.00000000
     0.00000000
     0.00000000
     0.00000000
     0.00000000
     0.00000000
     0.00000000
     0.00000000
     0.00000000
     0.00000000
     0.00000000
     0.00000000
     0.00000000
     0.00000000
     0.00000000
     0.00000000
     0.00000000
     0.00000000
     0.00000000
     0.00000000
     0.00000000
     0.00000000
     0.00000000
     0.00000000
     0.00000000
     0.00000000
     0.00000000
     0.00000000
     0.00000000
     0.00000000
     0.00000000
     0.00000000
     0.00000000
     0.00000000
     0.00000000
     0.00000000
     0.00000000
     0.00000000
     0.00000000
     0.00000000
     0.00000000
     0.00000000
     0.00000000
     0.00000000
     0.00000000
     0.00000000
     0.00000000
     0.00000000
     0.00000000
     0.00000000
     0.00000000
     0.00000000
     0.00000000
     0.00000000
     0.00000000
            NaN
     0.00000000
     0.00000000
     0.00000000
     0.00000000
     0.00000000
     0.00000000
     0.00000000
     0.00000000
     0.00000000
     0.00000000
     0.00000000
     0.00000000
     0.00000000
     0.00000000
     0.00000000
     0.00000000
     0.00000000
     0.00000000
     0.00000000
     0.00000000
     0.00000000
     0.00000000
     0.00000000
     0.00000000
     0.00000000
     0.00000000
     0.00000000
     0.00000000
     0.00000000
     0.00000000
     0.00000000
     0.00000000
     0.00000000
     0.00000000
     0.00000000
     0.00000000
     0.00000000
     0.00000000
     0.00000000
     0.00000000
     0.00000000
     0.00000000
     0.00000000
     0.00000000
     0.00000000
     0.00000000
     0.00000000
     0.00000000
     0.00000000
     0.00000000
     0.00000000
     0.00000000
     0.00000000
     0.00000000
     0.00000000
     0.00000000
     0.00000000
     0.00000000
     0.00000000
     0.00000000
     0.00000000
     0.00000000
     0.00000000
     0.00000000
     0.00000000
     0.00000000
     0.00000000
     0.00000000
     0.00000000
     0.00000000
     0.00000000
     0.00000000
     0.00000000
     0.00000000
     0.00000000
     0.00000000
     0.00000000
     0.00000000
     0.00000000
     0.00000000
     0.00000000
     0.00000000
     0.00000000
     0.00000000
     0.00000000
     0.00000000
     0.00000000
     0.00000000
     0.00000000
     0.00000000
     0.00000000
     0.00000000
     0.00000000
     0.00000000
     0.00000000
     0.00000000
     0.00000000
     0.00000000
     0.00000000
     0.00000000
            NaN
     0.00000000
     0.00000000
     0.00000000
     0.00000000
     0.00000000
     0.00000000
     0.00000000
     0.00000000
     0.00000000
     0.00000000
     0.00000000
     0.00000000
     0.00000000
     0.00000000
     0.00000000
     0.00000000
     0.00000000
     0.00000000
     0.00000000
     0.00000000
     0.00000000
     0.00000000
     0.00000000
     0.00000000
     0.00000000
     0.00000000
     0.00000000
     0.00000000
     0.00000000
     0.00000000
     0.00000000
     0.00000000
     0.00000000
     0.00000000
     0.00000000
     0.00000000
     0.00000000
     0.00000000
     0.00000000
     0.00000000
     0.00000000
     0.00000000
     0.00000000
     0.00000000
     0.00000000
     0.00000000
     0.00000000
     0.00000000
     0.00000000
     0.00000000
     0.00000000
     0.00000000
     0.00000000
     0.00000000
     0.00000000
     0.00000000
     0.00000000
     0.00000000
     0.00000000
     0.00000000
     0.00000000
     0.00000000
     0.00000000
     0.00000000
     0.00000000
     0.00000000
     0.00000000
     0.00000000
     0.00000000
     0.00000000
     0.00000000
     0.00000000
     0.00000000
     0.00000000
            NaN
     0.00000000
     0.00000000
            NaN
     0.00000000
     0.00000000
     0.00000000
     0.00000000
            NaN
     0.00000000
     0.00000000
     0.00000000
     0.00000000
     0.00000000
     0.00000000
     0.00000000
     0.00000000
     0.00000000
     0.00000000
     0.00000000
     0.00000000
            NaN
     0.00000000
     0.00000000
     0.00000000
     0.00000000
     0.00000000
     0.00000000
     0.00000000
            NaN
     0.00000000
     0.00000000
     0.00000000
     0.00000000
     0.00000000
     0.00000000
     0.00000000
     0.00000000
     0.00000000
     0.00000000
     0.00000000
     0.00000000
     0.00000000
            NaN
     0.00000000
     0.00000000
     0.00000000
     0.00000000
     0.00000000
     0.00000000
     0.00000000
     0.00000000
            NaN
     0.00000000
     0.00000000
     0.00000000
     0.00000000
     0.00000000
     0.00000000
     0.00000000
     0.00000000
     0.00000000
     0.00000000
     0.00000000
     0.00000000
     0.00000000
     0.00000000
     0.00000000
     0.00000000
     0.00000000
     0.00000000
     0.00000000
     0.00000000
     0.00000000
     0.00000000
     0.00000000
     0.00000000
     0.00000000
     0.00000000
            NaN
     0.00000000
     0.00000000
     0.00000000
     0.00000000
     0.00000000
     0.00000000
     0.00000000
     0.00000000
     0.00000000
     0.00000000
     0.00000000
     0.00000000
     0.00000000
     0.00000000
     0.00000000
     0.00000000
     0.00000000
     0.00000000
     0.00000000
     0.00000000
     0.00000000
     0.00000000
     0.00000000
     0.00000000
     0.00000000
     0.00000000
     0.00000000
     0.00000000
     0.00000000
     0.00000000
     0.00000000
     0.00000000
     0.00000000
     0.00000000
     0.00000000
     0.00000000
     0.00000000
     0.00000000
     0.00000000
     0.00000000
     0.00000000
     0.00000000
     0.00000000
     0.00000000
     0.00000000
     0.00000000
     0.00000000
     0.00000000
     0.00000000
     0.00000000
     0.00000000
     0.00000000
     0.00000000
     0.00000000
     0.00000000
     0.00000000
     0.00000000
     0.00000000
     0.00000000
     0.00000000
     0.00000000
     0.00000000
     0.00000000
     0.00000000
     0.00000000
     0.00000000
     0.00000000
     0.00000000
     0.00000000
     0.00000000
     0.00000000
     0.00000000
     0.00000000
     0.00000000
     0.00000000
     0.00000000
     0.00000000
            NaN
     0.00000000
     0.00000000
     0.00000000
     0.00000000
     0.00000000
     0.00000000
     0.00000000
     0.00000000
            NaN
     0.00000000
     0.00000000
     0.00000000
     0.00000000
     0.00000000
     0.00000000
            NaN
     0.00000000
     0.00000000
     0.00000000
     0.00000000
     0.00000000
     0.00000000
     0.00000000
     0.00000000
     0.00000000
     0.00000000
     0.00000000
     0.00000000
     0.00000000
     0.00000000
            NaN
            NaN
            NaN
     0.00000000
     0.00000000
            NaN
            NaN
            NaN
     0.00000000
     0.00000000
     0.00000000
     0.00000000
     0.00000000
            NaN
     0.00000000
     0.00000000
     0.00000000
     0.00000000
     0.00000000
     0.00000000
            NaN
     0.00000000
     0.00000000
     0.00000000
     0.00000000
     0.00000000
     0.00000000
     0.00000000
     0.00000000
     0.00000000
     0.00000000
            NaN
     0.00000000
     0.00000000
     0.00000000
     0.00000000
     0.00000000
     0.00000000
     0.00000000
     0.00000000
     0.00000000
     0.00000000
     0.00000000
     0.00000000
     0.00000000
     0.00000000
            NaN
     0.00000000
     0.00000000
     0.00000000
     0.00000000
     0.00000000
     0.00000000
     0.00000000
     0.00000000
     0.00000000
     0.00000000
     0.00000000
     0.00000000
     0.00000000
     0.00000000
            NaN
     0.00000000
     0.00000000
     0.00000000
     0.00000000
     0.00000000
     0.00000000
     0.00000000
     0.00000000
     0.00000000
     0.00000000
     0.00000000
     0.00000000
     0.00000000
     0.00000000
     0.00000000
     0.00000000
     0.00000000
     0.00000000
     0.00000000
     0.00000000
     0.00000000
     0.00000000
            NaN
     0.00000000
     0.00000000
     0.00000000
     0.00000000
     0.00000000
     0.00000000
     0.00000000
            NaN
     0.00000000
            NaN
     0.00000000
     0.00000000
     0.00000000
     0.00000000
     0.00000000
            NaN
     0.00000000
     0.00000000
            NaN
            NaN
            NaN
            NaN
     0.00000000
            NaN
     0.00000000
            NaN
            NaN
     0.00000000
     0.00000000
     0.00000000
            NaN
            NaN
     0.00000000
            NaN
            NaN
     0.00000000
     0.00000000
     0.00000000
     0.00000000
     0.00000000
     0.00000000
            NaN
     0.00000000
     0.00000000
     0.00000000
     0.00000000
     0.00000000
     0.00000000
     0.00000000
     0.00000000
     0.00000000
            NaN
     0.00000000
     0.00000000
            NaN
     0.00000000
     0.00000000
     0.00000000
     0.00000000
     0.00000000
     0.00000000
     0.00000000
     0.00000000
     0.00000000
     0.00000000
            NaN
     0.00000000
            NaN
     0.00000000
     0.00000000
     0.00000000
     0.00000000
     0.00000000
            NaN
     0.00000000
     0.00000000
     0.00000000
            NaN
     0.00000000
     0.00000000
     0.00000000
     0.00000000
            NaN
     0.00000000
     0.00000000
     0.00000000
     0.00000000
***************
***************
            NaN
            NaN
     0.00000000
     0.00000000
     0.00000000
     0.00000000
     0.00000000
            NaN
     0.00000000
            NaN
     0.00000000
     0.00000000
     0.00000000
            NaN
            NaN
            NaN
     0.00000000
     0.00000000
            NaN
     0.00000000
            NaN
     0.00000000
     0.00000000
     0.00000000
            NaN
     0.00000000
            NaN
     0.00000000
            NaN
            NaN
     0.00000000
            NaN
     0.00000000
     0.00000000
            NaN
            NaN
     0.00000000
     0.00000000
            NaN
            NaN
            NaN
     0.00000000
     0.00000000
            NaN
     0.00000000
     0.00000000
     0.00000000
            NaN
            NaN
            NaN
            NaN
            NaN
     0.00000000
     0.00000000
            NaN
            NaN
     0.00000000
            NaN
            NaN
     0.00000000
     0.00000000
     0.00000000
     0.00000000
     0.00000000
            NaN
     0.00000000
     0.00000000
            NaN
            NaN
            NaN
     0.00000000
     0.00000000
     0.00000000
     0.00000000
     0.00000000
     0.00000000
     0.00000000
     0.00000000
     0.00000000
     0.00000000
     0.00000000
            NaN
     0.00000000
     0.00000000
            NaN
            NaN
            NaN
            NaN
     0.00000000
     0.00000000
     0.00000000
     0.00000000
     0.00000000
            NaN
     0.00000000
     0.00000000
     0.00000000
            NaN
     0.00000000
     0.00000000
            NaN
            NaN
            NaN
     0.00000000
     0.00000000
            NaN
     0.00000000
     0.00000000
            NaN
            NaN
            NaN
     0.00000000
     0.00000000
     0.00000000
     0.00000000
            NaN
     0.00000000
     0.00000000
            NaN
     0.00000000
     0.00000000
            NaN
            NaN
            NaN
     0.00000000
            NaN
     0.00000000
     0.00000000
     0.00000000
     0.00000000
     0.00000000
     0.00000000
            NaN
            NaN
            NaN
            NaN
            NaN
     0.00000000
     0.00000000
     0.00000000
     0.00000000
     0.00000000
     0.00000000
            NaN
            NaN
     0.00000000
     0.00000000
            NaN
            NaN
     0.00000000
            NaN
     0.00000000
***************
     0.00000000
     0.00000000
            NaN
     0.00000000
     0.00000000
            NaN
     0.00000000
     0.00000000
     0.00000000
     0.00000000
            NaN
     0.00000000
            NaN
            NaN
     0.00000000
     0.00000000
     0.00000000
            NaN
            NaN
            NaN
            NaN
     0.00000000
     0.00000000
            NaN
            NaN
     0.00000000
     0.00000000
            NaN
     0.00000000
            NaN
     0.00000000
            NaN
     0.00000000
     0.00000000
     0.00000000
            NaN
     0.00000000
     0.00000000
     0.00000000
            NaN
     0.00000000
     0.00000000
     0.00000000
     0.00000000
     0.00000000
            NaN
            NaN
            NaN
     0.00000000
     0.00000000
     0.00000000
     0.00000000
     0.00000000
     0.00000000
     0.00000000
     0.00000000
     0.00000000
     0.00000000
            NaN
     0.00000000
     0.00000000
     0.00000000
     0.00000000
     0.00000000
     0.00000000
     0.00000000
     0.00000000
     0.00000000
     0.00000000
            NaN
     0.00000000
     0.00000000
     0.00000000
            NaN
            NaN
     0.00000000
     0.00000000
            NaN
     0.00000000
     0.00000000
     0.00000000
     0.00000000
     0.00000000
            NaN
            NaN
     0.00000000
     0.00000000
     0.00000000
            NaN
            NaN
     0.00000000
     0.00000000
     0.00000000
     0.00000000
     0.00000000
     0.00000000
     0.00000000
     0.00000000
            NaN
            NaN
            NaN
            NaN
***************
     0.00000000
     0.00000000
     0.00000000
     0.00000000
     0.00000000
     0.00000000
     0.00000000
     0.00000000
     0.00000000
     0.00000000
     0.00000000
     0.00000000
            NaN
            NaN
            NaN
     0.00000000
     0.00000000
     0.00000000
     0.00000000
     0.00000000
     0.00000000
     0.00000000
     0.00000000
     0.00000000
            NaN
     0.00000000
     0.00000000
     0.00000000
     0.00000000
     0.00000000
     0.00000000
            NaN
     0.00000000
            NaN
     0.00000000
     0.00000000
            NaN
     0.00000000
     0.00000000
            NaN
            NaN
     0.00000000
            NaN
     0.00000000
            NaN
     0.00000000
            NaN
     0.00000000
     0.00000000
     0.00000000
     0.00000000
            NaN
     0.00000000
     0.00000000
     0.00000000
            NaN
            NaN
     0.00000000
     0.00000000
     0.00000000
     0.00000000
     0.00000000
     0.00000000
     0.00000000
     0.00000000
     0.00000000
            NaN
     0.00000000
            NaN
     0.00000000
     0.00000000
     0.00000000
            NaN
            NaN
     0.00000000
            NaN
     0.00000000
     0.00000000
     0.00000000
            NaN
     0.00000000
            NaN
     0.00000000
     0.00000000
     0.00000000
            NaN
     0.00000000
     0.00000000
     0.00000000
     0.00000000
     0.00000000
     0.00000000
     0.00000000
     0.00000000
     0.00000000
     0.00000000
     0.00000000
     0.00000000
            NaN
     0.00000000
            NaN
     0.00000000
            NaN
            NaN
     0.00000000
            NaN
            NaN
     0.00000000
     0.00000000
            NaN
            NaN
            NaN
     0.00000000
     0.00000000
***************
     0.00000000
***************
     0.00000000
     0.00000000
     0.00000000
     0.00000000
     0.00000000
     0.00000000
     0.00000000
     0.00000000
     0.00000000
     0.00000000
     0.00000000
     0.00000000
     0.00000000
            NaN
            NaN
            NaN
     0.00000000
            NaN
     0.00000000
     0.00000000
            NaN
            NaN
            NaN
     0.00000000
     0.00000000
     0.00000000
            NaN
     0.00000000
     0.00000000
     0.00000000
     0.00000000
     0.00000000
     0.00000000
     0.00000000
     0.00000000
     0.00000000
     0.00000000
     0.00000000
            NaN
            NaN
     0.00000000
     0.00000000
     0.00000000
     0.00000000
            NaN
            NaN
            NaN
            NaN
            NaN
     0.00000000
            NaN
     0.00000000
     0.00000000
     0.00000000
     0.00000000
            NaN
     0.00000000
            NaN
     0.00000000
     0.00000000
     0.00000000
     0.00000000
     0.00000000
     0.00000000
     0.00000000
     0.00000000
     0.00000000
     0.00000000
     0.00000000
     0.00000000
     0.00000000
     0.00000000
     0.00000000
     0.00000000
     0.00000000
     0.00000000
     0.00000000
     0.00000000
            NaN
     0.00000000
            NaN
            NaN
     0.00000000
            NaN
     0.00000000
            NaN
            NaN
     0.00000000
            NaN
            NaN
     0.00000000
            NaN
            NaN
     0.00000000
     0.00000000
     0.00000000
     0.00000000
     0.00000000
     0.00000000
     0.00000000
            NaN
     0.00000000
     0.00000000
     0.00000000
     0.00000000
     0.00000000
     0.00000000
     0.00000000
            NaN
            NaN
            NaN
            NaN
            NaN
            NaN
            NaN
     0.00000000
     0.00000000
     0.00000000
     0.00000000
            NaN
     0.00000000
     0.00000000
     0.00000000
     0.00000000
     0.00000000
            NaN
            NaN
            NaN
            NaN
     0.00000000
     0.00000000
     0.00000000
     0.00000000
     0.00000000
     0.00000000
     0.00000000
     0.00000000
     0.00000000
     0.00000000
     0.00000000
     0.00000000
     0.00000000
            NaN
     0.00000000
     0.00000000
     0.00000000
     0.00000000
     0.00000000
     0.00000000
     0.00000000
     0.00000000
     0.00000000
     0.00000000
     0.00000000
     0.00000000
     0.00000000
     0.00000000
     0.00000000
     0.00000000
            NaN
            NaN
            NaN
            NaN
            NaN
     0.00000000
     0.00000000
     0.00000000
     0.00000000
            NaN
     0.00000000
     0.00000000
     0.00000000
     0.00000000
     0.00000000
     0.00000000
     0.00000000
            NaN
     0.00000000
     0.00000000
            NaN
     0.00000000
     0.00000000
            NaN
     0.00000000
     0.00000000
     0.00000000
     0.00000000
     0.00000000
     0.00000000
            NaN
     0.00000000
     0.00000000
     0.00000000
     0.00000000
     0.00000000
     0.00000000
     0.00000000
     0.00000000
     0.00000000
     0.00000000
     0.00000000
     0.00000000
     0.00000000
     0.00000000
     0.00000000
     0.00000000
     0.00000000
            NaN
     0.00000000
     0.00000000
            NaN
            NaN
     0.00000000
     0.00000000
     0.00000000
     0.00000000
            NaN
            NaN
     0.00000000
     0.00000000
     0.00000000
     0.00000000
     0.00000000
     0.00000000
     0.00000000
     0.00000000
     0.00000000
            NaN
            NaN
            NaN
     0.00000000
     0.00000000
            NaN
     0.00000000
     0.00000000
     0.00000000
     0.00000000
     0.00000000
     0.00000000
     0.00000000
     0.00000000
     0.00000000
     0.00000000
     0.00000000
            NaN
     0.00000000
     0.00000000
     0.00000000
     0.00000000
     0.00000000
     0.00000000
            NaN
     0.00000000
     0.00000000
     0.00000000
            NaN
            NaN
            NaN
     0.00000000
     0.00000000
            NaN
            NaN
     0.00000000
            NaN
     0.00000000
     0.00000000
     0.00000000
            NaN
     0.00000000
     0.00000000
     0.00000000
     0.00000000
            NaN
            NaN
     0.00000000
     0.00000000
     0.00000000
     0.00000000
     0.00000000
     0.00000000
     0.00000000
     0.00000000
     0.00000000
     0.00000000
     0.00000000
     0.00000000
     0.00000000
     0.00000000
            NaN
     0.00000000
     0.00000000
     0.00000000
     0.00000000
            NaN
            NaN
     0.00000000
     0.00000000
     0.00000000
     0.00000000
     0.00000000
     0.00000000
     0.00000000
     0.00000000
     0.00000000
     0.00000000
     0.00000000
     0.00000000
     0.00000000
     0.00000000
     0.00000000
***************
     0.00000000
     0.00000000
     0.00000000
     0.00000000
     0.00000000
     0.00000000
     0.00000000
            NaN
            NaN
            NaN
     0.00000000
     0.00000000
     0.00000000
     0.00000000
     0.00000000
     0.00000000
     0.00000000
     0.00000000
     0.00000000
     0.00000000
     0.00000000
            NaN
     0.00000000
     0.00000000
     0.00000000
     0.00000000
     0.00000000
     0.00000000
     0.00000000
            NaN
     0.00000000
     0.00000000
     0.00000000
     0.00000000
            NaN
            NaN
     0.00000000
     0.00000000
     0.00000000
     0.00000000
            NaN
            NaN
     0.00000000
            NaN
            NaN
            NaN
            NaN
     0.00000000
            NaN
     0.00000000
     0.00000000
            NaN
     0.00000000
     0.00000000
     0.00000000
     0.00000000
     0.00000000
     0.00000000
     0.00000000
     0.00000000
     0.00000000
     0.00000000
     0.00000000
     0.00000000
     0.00000000
     0.00000000
     0.00000000
     0.00000000
     0.00000000
     0.00000000
     0.00000000
     0.00000000
     0.00000000
     0.00000000
     0.00000000
     0.00000000
     0.00000000
     0.00000000
     0.00000000
     0.00000000
     0.00000000
     0.00000000
            NaN
            NaN
     0.00000000
     0.00000000
            NaN
     0.00000000
     0.00000000
     0.00000000
     0.00000000
            NaN
     0.00000000
            NaN
            NaN
            NaN
            NaN
            NaN
            NaN
     0.00000000
            NaN
            NaN
     0.00000000
     0.00000000
            NaN
     0.00000000
     0.00000000
     0.00000000
     0.00000000
            NaN
     0.00000000
     0.00000000
     0.00000000
     0.00000000
     0.00000000
     0.00000000
     0.00000000
     0.00000000
     0.00000000
     0.00000000
     0.00000000
     0.00000000
            NaN
     0.00000000
     0.00000000
     0.00000000
     0.00000000
            NaN
            NaN
     0.00000000
     0.00000000
     0.00000000
     0.00000000
            NaN
            NaN
     0.00000000
            NaN
            NaN
     0.00000000
     0.00000000
            NaN
     0.00000000
            NaN
            NaN
            NaN
            NaN
     0.00000000
            NaN
            NaN
     0.00000000
            NaN
     0.00000000
     0.00000000
     0.00000000
     0.00000000
     0.00000000
            NaN
     0.00000000
     0.00000000
     0.00000000
     0.00000000
     0.00000000
     0.00000000
     0.00000000
            NaN
     0.00000000
            NaN
            NaN
     0.00000000
     0.00000000
     0.00000000
     0.00000000
            NaN
            NaN
     0.00000000
     0.00000000
     0.00000000
     0.00000000
     0.00000000
     0.00000000
            NaN
            NaN
            NaN
            NaN
     0.00000000
     0.00000000
     0.00000000
            NaN
     0.00000000
     0.00000000
     0.00000000
     0.00000000
     0.00000000
            NaN
     0.00000000
     0.00000000
     0.00000000
     0.00000000
     0.00000000
            NaN
     0.00000000
     0.00000000
     0.00000000
     0.00000000
     0.00000000
     0.00000000
     0.00000000
     0.00000000
            NaN
            NaN
     0.00000000
     0.00000000
     0.00000000
     0.00000000
            NaN
     0.00000000
     0.00000000
     0.00000000
            NaN
     0.00000000
     0.00000000
     0.00000000
            NaN
     0.00000000
            NaN
            NaN
            NaN
     0.00000000
            NaN
            NaN
     0.00000000
            NaN
            NaN
     0.00000000
***************
            NaN
     0.00000000
     0.00000000
     0.00000000
     0.00000000
     0.00000000
            NaN
            NaN
            NaN
            NaN
     0.00000000
     0.00000000
     0.00000000
     0.00000000
     0.00000000
     0.00000000
     0.00000000
     0.00000000
***************
            NaN
     0.00000000
     0.00000000
            NaN
     0.00000000
            NaN
            NaN
     0.00000000
            NaN
     0.00000000
     0.00000000
     0.00000000
            NaN
     0.00000000
            NaN
            NaN
            NaN
     0.00000000
     0.00000000
            NaN
     0.00000000
            NaN
     0.00000000
     0.00000000
     0.00000000
     0.00000000
     0.00000000
     0.00000000
            NaN
     0.00000000
     0.00000000
     0.00000000
            NaN
     0.00000000
     0.00000000
     0.00000000
     0.00000000
     0.00000000
     0.00000000
     0.00000000
            NaN
     0.00000000
     0.00000000
     0.00000000
     0.00000000
     0.00000000
     0.00000000
     0.00000000
     0.00000000
     0.00000000
     0.00000000
     0.00000000
     0.00000000
     0.00000000
            NaN
     0.00000000
     0.00000000
     0.00000000
     0.00000000
     0.00000000
            NaN
     0.00000000
     0.00000000
     0.00000000
            NaN
     0.00000000
            NaN
            NaN
     0.00000000
     0.00000000
     0.00000000
     0.00000000
     0.00000000
     0.00000000
     0.00000000
     0.00000000
     0.00000000
     0.00000000
     0.00000000
     0.00000000
     0.00000000
     0.00000000
            NaN
     0.00000000
     0.00000000
     0.00000000
     0.00000000
            NaN
     0.00000000
     0.00000000
     0.00000000
     0.00000000
     0.00000000
     0.00000000
     0.00000000
     0.00000000
     0.00000000
     0.00000000
     0.00000000
     0.00000000
     0.00000000
     0.00000000
     0.00000000
     0.00000000
     0.00000000
     0.00000000
     0.00000000
     0.00000000
     0.00000000
            NaN
     0.00000000
     0.00000000
     0.00000000
            NaN
            NaN
     0.00000000
            NaN
            NaN
            NaN
            NaN
     0.00000000
            NaN
     0.00000000
     0.00000000
     0.00000000
     0.00000000
     0.00000000
***************
     0.00000000
            NaN
     0.00000000
            NaN
     0.00000000
     0.00000000
     0.00000000
     0.00000000
     0.00000000
     0.00000000
     0.00000000
     0.00000000
     0.00000000
     0.00000000
     0.00000000
     0.00000000
     0.00000000
     0.00000000
     0.00000000
     0.00000000
     0.00000000
     0.00000000
     0.00000000
     0.00000000
            NaN
     0.00000000
     0.00000000
     0.00000000
     0.00000000
     0.00000000
            NaN
            NaN
     0.00000000
     0.00000000
     0.00000000
     0.00000000
     0.00000000
     0.00000000
     0.00000000
     0.00000000
     0.00000000
     0.00000000
     0.00000000
     0.00000000
     0.00000000
     0.00000000
     0.00000000
     0.00000000
     0.00000000
     0.00000000
     0.00000000
     0.00000000
     0.00000000
     0.00000000
            NaN
     0.00000000
     0.00000000
     0.00000000
            NaN
     0.00000000
     0.00000000
     0.00000000
     0.00000000
     0.00000000
     0.00000000
     0.00000000
     0.00000000
            NaN
            NaN
            NaN
     0.00000000
     0.00000000
     0.00000000
            NaN
            NaN
     0.00000000
     0.00000000
     0.00000000
     0.00000000
     0.00000000
     0.00000000
     0.00000000
     0.00000000
            NaN
            NaN
     0.00000000
     0.00000000
     0.00000000
     0.00000000
     0.00000000
     0.00000000
     0.00000000
     0.00000000
     0.00000000
            NaN
     0.00000000
     0.00000000
     0.00000000
     0.00000000
     0.00000000
     0.00000000
     0.00000000
     0.00000000
     0.00000000
            NaN
     0.00000000
     0.00000000
     0.00000000
     0.00000000
     0.00000000
     0.00000000
     0.00000000
     0.00000000
     0.00000000
     0.00000000
            NaN
            NaN
            NaN
     0.00000000
     0.00000000
     0.00000000
     0.00000000
     0.00000000
     0.00000000
     0.00000000
     0.00000000
            NaN
     0.00000000
     0.00000000
            NaN
     0.00000000
     0.00000000
     0.00000000
     0.00000000
            NaN
            NaN
            NaN
     0.00000000
     0.00000000
     0.00000000
     0.00000000
     0.00000000
     0.00000000
            NaN
     0.00000000
            NaN
            NaN
            NaN
            NaN
            NaN
     0.00000000
     0.00000000
            NaN
     0.00000000
            NaN
            NaN
     0.00000000
     0.00000000
     0.00000000
     0.00000000
     0.00000000
            NaN
     0.00000000
     0.00000000
     0.00000000
     0.00000000
     0.00000000
     0.00000000
     0.00000000
     0.00000000
     0.00000000
     0.00000000
     0.00000000
     0.00000000
     0.00000000
     0.00000000
     0.00000000
     0.00000000
     0.00000000
     0.00000000
     0.00000000
     0.00000000
     0.00000000
     0.00000000
     0.00000000
     0.00000000
     0.00000000
            NaN
            NaN
     0.00000000
     0.00000000
     0.00000000
     0.00000000
            NaN
     0.00000000
     0.00000000
     0.00000000
     0.00000000
     0.00000000
     0.00000000
     0.00000000
     0.00000000
     0.00000000
     0.00000000
     0.00000000
            NaN
     0.00000000
     0.00000000
            NaN
            NaN
     0.00000000
     0.00000000
            NaN
            NaN
            NaN
            NaN
            NaN
            NaN
            NaN
     0.00000000
            NaN
     0.00000000
     0.00000000
     0.00000000
     0.00000000
            NaN
     0.00000000
     0.00000000
     0.00000000
     0.00000000
     0.00000000
            NaN
            NaN
     0.00000000
     0.00000000
            NaN
            NaN
     0.00000000
     0.00000000
     0.00000000
     0.00000000
     0.00000000
     0.00000000
     0.00000000
     0.00000000
     0.00000000
     0.00000000
     0.00000000
     0.00000000
     0.00000000
     0.00000000
     0.00000000
     0.00000000
     0.00000000
     0.00000000
     0.00000000
     0.00000000
     0.00000000
            NaN
     0.00000000
     0.00000000
     0.00000000
            NaN
     0.00000000
     0.00000000
     0.00000000
     0.00000000
            NaN
     0.00000000
     0.00000000
     0.00000000
     0.00000000
     0.00000000
            NaN
            NaN
            NaN
     0.00000000
            NaN
            NaN
     0.00000000
     0.00000000
            NaN
     0.00000000
            NaN
     0.00000000
            NaN
            NaN
     0.00000000
            NaN
     0.00000000
     0.00000000
     0.00000000
     0.00000000
            NaN
     0.00000000
     0.00000000
     0.00000000
     0.00000000
     0.00000000
     0.00000000
     0.00000000
     0.00000000
     0.00000000
     0.00000000
     0.00000000
     0.00000000
     0.00000000
     0.00000000
            NaN
     0.00000000
     0.00000000
     0.00000000
     0.00000000
            NaN
     0.00000000
     0.00000000
     0.00000000
     0.00000000
     0.00000000
            NaN
     0.00000000
     0.00000000
     0.00000000
     0.00000000
     0.00000000
     0.00000000
     0.00000000
     0.00000000
     0.00000000
     0.00000000
     0.00000000
     0.00000000
     0.00000000
     0.00000000
     0.00000000
     0.00000000
     0.00000000
            NaN
     0.00000000
     0.00000000
     0.00000000
     0.00000000
            NaN
     0.00000000
     0.00000000
     0.00000000
     0.00000000
     0.00000000
     0.00000000
            NaN
     0.00000000
     0.00000000
     0.00000000
     0.00000000
            NaN
            NaN
     0.00000000
     0.00000000
     0.00000000
     0.00000000
     0.00000000
     0.00000000
     0.00000000
     0.00000000
     0.00000000
     0.00000000
     0.00000000
     0.00000000
     0.00000000
     0.00000000
     0.00000000
     0.00000000
     0.00000000
            NaN
     0.00000000
            NaN
     0.00000000
            NaN
            NaN
     0.00000000
            NaN
     0.00000000
     0.00000000
     0.00000000
     0.00000000
     0.00000000
     0.00000000
     0.00000000
            NaN
     0.00000000
     0.00000000
     0.00000000
     0.00000000
            NaN
     0.00000000
     0.00000000
            NaN
     0.00000000
     0.00000000
            NaN
     0.00000000
     0.00000000
            NaN
     0.00000000
     0.00000000
            NaN
     0.00000000
     0.00000000
     0.00000000
     0.00000000
     0.00000000
     0.00000000
     0.00000000
     0.00000000
     0.00000000
     0.00000000
     0.00000000
     0.00000000
            NaN
            NaN
     0.00000000
     0.00000000
     0.00000000
            NaN
     0.00000000
            NaN
     0.00000000
     0.00000000
     0.00000000
            NaN
     0.00000000
     0.00000000
     0.00000000
     0.00000000
     0.00000000
     0.00000000
     0.00000000
     0.00000000
     0.00000000
     0.00000000
     0.00000000
     0.00000000
     0.00000000
            NaN
     0.00000000
            NaN
     0.00000000
     0.00000000
     0.00000000
     0.00000000
     0.00000000
     0.00000000
     0.00000000
            NaN
     0.00000000
     0.00000000
            NaN
     0.00000000
            NaN
     0.00000000
     0.00000000
     0.00000000
     0.00000000
     0.00000000
     0.00000000
     0.00000000
     0.00000000
     0.00000000
     0.00000000
     0.00000000
     0.00000000
     0.00000000
     0.00000000
     0.00000000
     0.00000000
     0.00000000
     0.00000000
     0.00000000
     0.00000000
     0.00000000
     0.00000000
     0.00000000
     0.00000000
     0.00000000
     0.00000000
     0.00000000
     0.00000000
     0.00000000
     0.00000000
     0.00000000
     0.00000000
     0.00000000
     0.00000000
     0.00000000
     0.00000000
     0.00000000
     0.00000000
     0.00000000
     0.00000000
     0.00000000
     0.00000000
     0.00000000
     0.00000000
     0.00000000
     0.00000000
     0.00000000
     0.00000000
     0.00000000
     0.00000000
     0.00000000
     0.00000000
     0.00000000
     0.00000000
     0.00000000
     0.00000000
            NaN
            NaN
     0.00000000
            NaN
     0.00000000
     0.00000000
     0.00000000
     0.00000000
     0.00000000
     0.00000000
     0.00000000
     0.00000000
     0.00000000
            NaN
            NaN
            NaN
     0.00000000
            NaN
     0.00000000
            NaN
     0.00000000
     0.00000000
            NaN
            NaN
     0.00000000
     0.00000000
     0.00000000
            NaN
     0.00000000
            NaN
            NaN
     0.00000000
     0.00000000
            NaN
     0.00000000
***************
     0.00000000
     0.00000000
     0.00000000
     0.00000000
     0.00000000
     0.00000000
     0.00000000
     0.00000000
            NaN
            NaN
     0.00000000
     0.00000000
     0.00000000
            NaN
     0.00000000
     0.00000000
     0.00000000
     0.00000000
            NaN
            NaN
            NaN
            NaN
     0.00000000
     0.00000000
     0.00000000
     0.00000000
            NaN
            NaN
     0.00000000
     0.00000000
     0.00000000
     0.00000000
     0.00000000
     0.00000000
     0.00000000
     0.00000000
     0.00000000
     0.00000000
     0.00000000
     0.00000000
     0.00000000
     0.00000000
            NaN
            NaN
     0.00000000
     0.00000000
     0.00000000
     0.00000000
     0.00000000
     0.00000000
            NaN
            NaN
     0.00000000
     0.00000000
     0.00000000
     0.00000000
     0.00000000
     0.00000000
     0.00000000
            NaN
     0.00000000
     0.00000000
     0.00000000
     0.00000000
     0.00000000
            NaN
     0.00000000
            NaN
            NaN
            NaN
            NaN
     0.00000000
            NaN
     0.00000000
     0.00000000
            NaN
     0.00000000
     0.00000000
     0.00000000
     0.00000000
            NaN
     0.00000000
     0.00000000
     0.00000000
     0.00000000
            NaN
     0.00000000
     0.00000000
     0.00000000
     0.00000000
     0.00000000
     0.00000000
     0.00000000
     0.00000000
     0.00000000
     0.00000000
     0.00000000
     0.00000000
     0.00000000
     0.00000000
     0.00000000
            NaN
     0.00000000
     0.00000000
     0.00000000
     0.00000000
     0.00000000
            NaN
     0.00000000
     0.00000000
     0.00000000
            NaN
            NaN
            NaN
     0.00000000
     0.00000000
     0.00000000
     0.00000000
            NaN
            NaN
     0.00000000
     0.00000000
     0.00000000
     0.00000000
     0.00000000
            NaN
     0.00000000
     0.00000000
     0.00000000
     0.00000000
     0.00000000
     0.00000000
     0.00000000
            NaN
     0.00000000
     0.00000000
     0.00000000
     0.00000000
     0.00000000
     0.00000000
            NaN
     0.00000000
     0.00000000
            NaN
     0.00000000
     0.00000000
     0.00000000
     0.00000000
     0.00000000
     0.00000000
     0.00000000
     0.00000000
     0.00000000
     0.00000000
     0.00000000
     0.00000000
     0.00000000
            NaN
     0.00000000
     0.00000000
     0.00000000
     0.00000000
     0.00000000
     0.00000000
     0.00000000
     0.00000000
     0.00000000
     0.00000000
     0.00000000
     0.00000000
     0.00000000
     0.00000000
            NaN
     0.00000000
     0.00000000
     0.00000000
     0.00000000
     0.00000000
     0.00000000
     0.00000000
     0.00000000
     0.00000000
     0.00000000
     0.00000000
     0.00000000
     0.00000000
     0.00000000
            NaN
     0.00000000
     0.00000000
     0.00000000
     0.00000000
     0.00000000
     0.00000000
     0.00000000
     0.00000000
     0.00000000
     0.00000000
            NaN
     0.00000000
     0.00000000
     0.00000000
     0.00000000
     0.00000000
     0.00000000
     0.00000000
     0.00000000
     0.00000000
     0.00000000
     0.00000000
     0.00000000
     0.00000000
     0.00000000
            NaN
            NaN
     0.00000000
     0.00000000
     0.00000000
     0.00000000
     0.00000000
     0.00000000
            NaN
     0.00000000
            NaN
            NaN
     0.00000000
     0.00000000
     0.00000000
     0.00000000
            NaN
            NaN
            NaN
            NaN
     0.00000000
     0.00000000
     0.00000000
     0.00000000
     0.00000000
     0.00000000
     0.00000000
     0.00000000
            NaN
            NaN
            NaN
     0.00000000
     0.00000000
            NaN
     0.00000000
            NaN
     0.00000000
     0.00000000
     0.00000000
     0.00000000
     0.00000000
     0.00000000
            NaN
     0.00000000
     0.00000000
     0.00000000
     0.00000000
            NaN
            NaN
     0.00000000
     0.00000000
     0.00000000
     0.00000000
     0.00000000
     0.00000000
     0.00000000
     0.00000000
     0.00000000
            NaN
     0.00000000
     0.00000000
     0.00000000
     0.00000000
     0.00000000
     0.00000000
     0.00000000
     0.00000000
     0.00000000
            NaN
     0.00000000
     0.00000000
     0.00000000
     0.00000000
     0.00000000
     0.00000000
     0.00000000
     0.00000000
     0.00000000
     0.00000000
            NaN
     0.00000000
     0.00000000
     0.00000000
     0.00000000
     0.00000000
     0.00000000
     0.00000000
            NaN
            NaN
            NaN
     0.00000000
            NaN
            NaN
            NaN
            NaN
            NaN
     0.00000000
     0.00000000
     0.00000000
     0.00000000
     0.00000000
     0.00000000
     0.00000000
     0.00000000
     0.00000000
     0.00000000
     0.00000000
     0.00000000
     0.00000000
     0.00000000
     0.00000000
     0.00000000
     0.00000000
     0.00000000
     0.00000000
     0.00000000
     0.00000000
     0.00000000
     0.00000000
     0.00000000
     0.00000000
     0.00000000
     0.00000000
     0.00000000
     0.00000000
     0.00000000
            NaN
***************
     0.00000000
     0.00000000
     0.00000000
            NaN
            NaN
     0.00000000
     0.00000000
     0.00000000
     0.00000000
     0.00000000
            NaN
            NaN
            NaN
     0.00000000
     0.00000000
            NaN
     0.00000000
     0.00000000
     0.00000000
     0.00000000
     0.00000000
     0.00000000
     0.00000000
     0.00000000
            NaN
     0.00000000
     0.00000000
            NaN
     0.00000000
     0.00000000
     0.00000000
     0.00000000
     0.00000000
     0.00000000
     0.00000000
            NaN
     0.00000000
     0.00000000
     0.00000000
            NaN
     0.00000000
     0.00000000
     0.00000000
            NaN
     0.00000000
            NaN
            NaN
            NaN
     0.00000000
     0.00000000
     0.00000000
     0.00000000
            NaN
     0.00000000
     0.00000000
     0.00000000
     0.00000000
            NaN
     0.00000000
            NaN
            NaN
     0.00000000
     0.00000000
     0.00000000
     0.00000000
            NaN
     0.00000000
     0.00000000
     0.00000000
     0.00000000
     0.00000000
     0.00000000
            NaN
            NaN
     0.00000000
            NaN
     0.00000000
            NaN
            NaN
     0.00000000
     0.00000000
     0.00000000
     0.00000000
            NaN
     0.00000000
            NaN
     0.00000000
     0.00000000
     0.00000000
     0.00000000
            NaN
     0.00000000
            NaN
     0.00000000
     0.00000000
     0.00000000
     0.00000000
            NaN
     0.00000000
     0.00000000
            NaN
     0.00000000
     0.00000000
     0.00000000
            NaN
            NaN
     0.00000000
     0.00000000
     0.00000000
            NaN
            NaN
     0.00000000
     0.00000000
     0.00000000
     0.00000000
            NaN
     0.00000000
     0.00000000
     0.00000000
     0.00000000
            NaN
     0.00000000
     0.00000000
            NaN
            NaN
     0.00000000
     0.00000000
     0.00000000
     0.00000000
            NaN
            NaN
            NaN
     0.00000000
            NaN
     0.00000000
     0.00000000
     0.00000000
            NaN
     0.00000000
     0.00000000
     0.00000000
            NaN
     0.00000000
     0.00000000
     0.00000000
     0.00000000
     0.00000000
     0.00000000
     0.00000000
     0.00000000
     0.00000000
     0.00000000
     0.00000000
     0.00000000
     0.00000000
            NaN
     0.00000000
     0.00000000
     0.00000000
            NaN
     0.00000000
     0.00000000
     0.00000000
     0.00000000
            NaN
            NaN
            NaN
     0.00000000
     0.00000000
     0.00000000
     0.00000000
     0.00000000
     0.00000000
     0.00000000
     0.00000000
     0.00000000
     0.00000000
     0.00000000
     0.00000000
     0.00000000
     0.00000000
            NaN
            NaN
            NaN
     0.00000000
     0.00000000
     0.00000000
     0.00000000
     0.00000000
            NaN
            NaN
            NaN
            NaN
            NaN
            NaN
     0.00000000
     0.00000000
            NaN
            NaN
            NaN
            NaN
     0.00000000
            NaN
            NaN
            NaN
     0.00000000
     0.00000000
     0.00000000
            NaN
            NaN
     0.00000000
     0.00000000
     0.00000000
     0.00000000
     0.00000000
            NaN
     0.00000000
     0.00000000
     0.00000000
     0.00000000
            NaN
            NaN
            NaN
            NaN
     0.00000000
     0.00000000
     0.00000000
     0.00000000
     0.00000000
     0.00000000
     0.00000000
     0.00000000
     0.00000000
     0.00000000
     0.00000000
     0.00000000
            NaN
     0.00000000
            NaN
     0.00000000
     0.00000000
     0.00000000
            NaN
     0.00000000
     0.00000000
     0.00000000
     0.00000000
     0.00000000
     0.00000000
     0.00000000
     0.00000000
     0.00000000
            NaN
            NaN
            NaN
            NaN
            NaN
     0.00000000
     0.00000000
     0.00000000
     0.00000000
     0.00000000
     0.00000000
     0.00000000
     0.00000000
     0.00000000
     0.00000000
     0.00000000
     0.00000000
     0.00000000
     0.00000000
     0.00000000
     0.00000000
     0.00000000
     0.00000000
     0.00000000
     0.00000000
     0.00000000
            NaN
            NaN
     0.00000000
     0.00000000
     0.00000000
     0.00000000
     0.00000000
     0.00000000
     0.00000000
     0.00000000
     0.00000000
     0.00000000
     0.00000000
     0.00000000
     0.00000000
     0.00000000
     0.00000000
     0.00000000
            NaN
     0.00000000
     0.00000000
     0.00000000
     0.00000000
     0.00000000
     0.00000000
            NaN
     0.00000000
     0.00000000
     0.00000000
     0.00000000
     0.00000000
     0.00000000
     0.00000000
     0.00000000
     0.00000000
     0.00000000
     0.00000000
     0.00000000
     0.00000000
     0.00000000
     0.00000000
     0.00000000
     0.00000000
     0.00000000
     0.00000000
     0.00000000
     0.00000000
     0.00000000
     0.00000000
     0.00000000
     0.00000000
     0.00000000
            NaN
     0.00000000
     0.00000000
     0.00000000
     0.00000000
     0.00000000
     0.00000000
     0.00000000
     0.00000000
     0.00000000
            NaN
     0.00000000
     0.00000000
            NaN
     0.00000000
     0.00000000
     0.00000000
     0.00000000
     0.00000000
     0.00000000
     0.00000000
            NaN
            NaN
            NaN
            NaN
     0.00000000
     0.00000000
     0.00000000
     0.00000000
     0.00000000
     0.00000000
     0.00000000
            NaN
            NaN
            NaN
     0.00000000
     0.00000000
     0.00000000
            NaN
     0.00000000
     0.00000000
     0.00000000
     0.00000000
     0.00000000
     0.00000000
            NaN
     0.00000000
     0.00000000
     0.00000000
     0.00000000
            NaN
            NaN
            NaN
            NaN
     0.00000000
     0.00000000
            NaN
     0.00000000
            NaN
     0.00000000
     0.00000000
     0.00000000
     0.00000000
     0.00000000
     0.00000000
            NaN
     0.00000000
     0.00000000
     0.00000000
     0.00000000
     0.00000000
     0.00000000
     0.00000000
     0.00000000
     0.00000000
     0.00000000
     0.00000000
     0.00000000
            NaN
     0.00000000
     0.00000000
     0.00000000
     0.00000000
     0.00000000
     0.00000000
     0.00000000
     0.00000000
     0.00000000
     0.00000000
            NaN
            NaN
     0.00000000
     0.00000000
     0.00000000
            NaN
     0.00000000
     0.00000000
     0.00000000
     0.00000000
            NaN
            NaN
     0.00000000
     0.00000000
     0.00000000
     0.00000000
     0.00000000
     0.00000000
     0.00000000
     0.00000000
     0.00000000
            NaN
            NaN
     0.00000000
     0.00000000
     0.00000000
     0.00000000
     0.00000000
     0.00000000
            NaN
     0.00000000
     0.00000000
     0.00000000
            NaN
            NaN
            NaN
            NaN
     0.00000000
     0.00000000
     0.00000000
     0.00000000
     0.00000000
     0.00000000
     0.00000000
     0.00000000
     0.00000000
     0.00000000
     0.00000000
     0.00000000
     0.00000000
     0.00000000
     0.00000000
     0.00000000
     0.00000000
     0.00000000
     0.00000000
            NaN
            NaN
            NaN
     0.00000000
     0.00000000
     0.00000000
            NaN
     0.00000000
     0.00000000
     0.00000000
     0.00000000
            NaN
     0.00000000
            NaN
     0.00000000
     0.00000000
     0.00000000
     0.00000000
     0.00000000
     0.00000000
     0.00000000
     0.00000000
     0.00000000
     0.00000000
     0.00000000
     0.00000000
     0.00000000
     0.00000000
            NaN
            NaN
     0.00000000
     0.00000000
     0.00000000
     0.00000000
     0.00000000
     0.00000000
            NaN
            NaN
     0.00000000
     0.00000000
     0.00000000
     0.00000000
            NaN
            NaN
     0.00000000
     0.00000000
            NaN
            NaN
     0.00000000
     0.00000000
            NaN
     0.00000000
     0.00000000
     0.00000000
            NaN
     0.00000000
     0.00000000
     0.00000000
     0.00000000
     0.00000000
     0.00000000
            NaN
     0.00000000
     0.00000000
            NaN
            NaN
     0.00000000
     0.00000000
     0.00000000
            NaN
            NaN
     0.00000000
     0.00000000
     0.00000000
     0.00000000
     0.00000000
     0.00000000
     0.00000000
            NaN
     0.00000000
            NaN
     0.00000000
     0.00000000
     0.00000000
            NaN
            NaN
            NaN
     0.00000000
     0.00000000
     0.00000000
     0.00000000
     0.00000000
     0.00000000
            NaN
            NaN
            NaN
            NaN
     0.00000000
            NaN
     0.00000000
     0.00000000
     0.00000000
     0.00000000
            NaN
     0.00000000
     0.00000000
            NaN
     0.00000000
***************
            NaN
     0.00000000
     0.00000000
            NaN
            NaN
     0.00000000
     0.00000000
     0.00000000
     0.00000000
     0.00000000
            NaN
     0.00000000
     0.00000000
     0.00000000
     0.00000000
     0.00000000
     0.00000000
     0.00000000
     0.00000000
     0.00000000
     0.00000000
     0.00000000
     0.00000000
     0.00000000
     0.00000000
     0.00000000
     0.00000000
     0.00000000
     0.00000000
     0.00000000
     0.00000000
     0.00000000
     0.00000000
            NaN
     0.00000000
     0.00000000
     0.00000000
     0.00000000
     0.00000000
     0.00000000
            NaN
     0.00000000
     0.00000000
     0.00000000
     0.00000000
     0.00000000
     0.00000000
     0.00000000
     0.00000000
     0.00000000
     0.00000000
     0.00000000
     0.00000000
     0.00000000
     0.00000000
     0.00000000
     0.00000000
     0.00000000
     0.00000000
     0.00000000
            NaN
            NaN
     0.00000000
     0.00000000
     0.00000000
     0.00000000
            NaN
     0.00000000
     0.00000000
     0.00000000
     0.00000000
     0.00000000
            NaN
            NaN
     0.00000000
     0.00000000
     0.00000000
            NaN
            NaN
     0.00000000
     0.00000000
     0.00000000
            NaN
     0.00000000
     0.00000000
     0.00000000
     0.00000000
     0.00000000
     0.00000000
     0.00000000
     0.00000000
     0.00000000
     0.00000000
     0.00000000
     0.00000000
     0.00000000
     0.00000000
     0.00000000
     0.00000000
            NaN
     0.00000000
     0.00000000
     0.00000000
     0.00000000
     0.00000000
     0.00000000
     0.00000000
     0.00000000
     0.00000000
     0.00000000
     0.00000000
            NaN
            NaN
            NaN
            NaN
            NaN
            NaN
            NaN
            NaN
            NaN
     0.00000000
            NaN
     0.00000000
     0.00000000
     0.00000000
            NaN
     0.00000000
     0.00000000
     0.00000000
     0.00000000
     0.00000000
     0.00000000
     0.00000000
     0.00000000
     0.00000000
     0.00000000
     0.00000000
     0.00000000
     0.00000000
            NaN
     0.00000000
            NaN
     0.00000000
     0.00000000
     0.00000000
     0.00000000
     0.00000000
     0.00000000
     0.00000000
            NaN
     0.00000000
     0.00000000
     0.00000000
     0.00000000
     0.00000000
            NaN
     0.00000000
     0.00000000
     0.00000000
     0.00000000
            NaN
     0.00000000
     0.00000000
     0.00000000
     0.00000000
     0.00000000
     0.00000000
     0.00000000
     0.00000000
     0.00000000
            NaN
     0.00000000
            NaN
            NaN
     0.00000000
            NaN
     0.00000000
            NaN
     0.00000000
     0.00000000
     0.00000000
     0.00000000
     0.00000000
     0.00000000
     0.00000000
            NaN
            NaN
            NaN
            NaN
            NaN
            NaN
     0.00000000
     0.00000000
     0.00000000
     0.00000000
            NaN
     0.00000000
     0.00000000
     0.00000000
     0.00000000
     0.00000000
     0.00000000
     0.00000000
     0.00000000
     0.00000000
     0.00000000
     0.00000000
     0.00000000
     0.00000000
     0.00000000
     0.00000000
     0.00000000
     0.00000000
     0.00000000
     0.00000000
            NaN
            NaN
     0.00000000
            NaN
     0.00000000
     0.00000000
     0.00000000
     0.00000000
     0.00000000
     0.00000000
     0.00000000
     0.00000000
     0.00000000
     0.00000000
     0.00000000
     0.00000000
     0.00000000
     0.00000000
     0.00000000
     0.00000000
     0.00000000
     0.00000000
     0.00000000
     0.00000000
     0.00000000
            NaN
     0.00000000
     0.00000000
     0.00000000
            NaN
     0.00000000
     0.00000000
     0.00000000
     0.00000000
            NaN
     0.00000000
     0.00000000
     0.00000000
            NaN
     0.00000000
     0.00000000
            NaN
            NaN
     0.00000000
     0.00000000
     0.00000000
     0.00000000
     0.00000000
     0.00000000
     0.00000000
     0.00000000
     0.00000000
     0.00000000
     0.00000000
     0.00000000
     0.00000000
            NaN
     0.00000000
            NaN
            NaN
            NaN
            NaN
     0.00000000
            NaN
     0.00000000
     0.00000000
     0.00000000
     0.00000000
            NaN
            NaN
     0.00000000
            NaN
            NaN
            NaN
     0.00000000
     0.00000000
            NaN
     0.00000000
     0.00000000
     0.00000000
     0.00000000
     0.00000000
     0.00000000
     0.00000000
            NaN
            NaN
            NaN
     0.00000000
     0.00000000
            NaN
     0.00000000
            NaN
     0.00000000
     0.00000000
     0.00000000
     0.00000000
            NaN
            NaN
     0.00000000
            NaN
     0.00000000
            NaN
     0.00000000
     0.00000000
     0.00000000
            NaN
     0.00000000
     0.00000000
     0.00000000
     0.00000000
            NaN
     0.00000000
     0.00000000
            NaN
     0.00000000
     0.00000000
     0.00000000
     0.00000000
     0.00000000
     0.00000000
     0.00000000
            NaN
            NaN
            NaN
     0.00000000
     0.00000000
            NaN
            NaN
     0.00000000
     0.00000000
     0.00000000
     0.00000000
     0.00000000
     0.00000000
     0.00000000
     0.00000000
     0.00000000
            NaN
***************
     0.00000000
     0.00000000
            NaN
     0.00000000
     0.00000000
     0.00000000
     0.00000000
     0.00000000
            NaN
            NaN
            NaN
            NaN
     0.00000000
     0.00000000
     0.00000000
     0.00000000
     0.00000000
     0.00000000
     0.00000000
     0.00000000
     0.00000000
     0.00000000
     0.00000000
     0.00000000
     0.00000000
     0.00000000
     0.00000000
     0.00000000
     0.00000000
     0.00000000
     0.00000000
     0.00000000
     0.00000000
     0.00000000
     0.00000000
     0.00000000
     0.00000000
     0.00000000
     0.00000000
     0.00000000
     0.00000000
     0.00000000
     0.00000000
     0.00000000
     0.00000000
            NaN
     0.00000000
     0.00000000
     0.00000000
     0.00000000
            NaN
            NaN
     0.00000000
            NaN
     0.00000000
     0.00000000
            NaN
     0.00000000
     0.00000000
     0.00000000
            NaN
     0.00000000
     0.00000000
     0.00000000
     0.00000000
     0.00000000
     0.00000000
     0.00000000
     0.00000000
     0.00000000
            NaN
     0.00000000
     0.00000000
            NaN
            NaN
     0.00000000
     0.00000000
     0.00000000
            NaN
     0.00000000
     0.00000000
     0.00000000
     0.00000000
     0.00000000
     0.00000000
     0.00000000
            NaN
     0.00000000
            NaN
     0.00000000
     0.00000000
     0.00000000
     0.00000000
            NaN
     0.00000000
            NaN
            NaN
     0.00000000
     0.00000000
     0.00000000
     0.00000000
     0.00000000
     0.00000000
     0.00000000
     0.00000000
     0.00000000
     0.00000000
     0.00000000
     0.00000000
     0.00000000
     0.00000000
     0.00000000
     0.00000000
     0.00000000
     0.00000000
     0.00000000
     0.00000000
     0.00000000
     0.00000000
     0.00000000
     0.00000000
     0.00000000
     0.00000000
            NaN
            NaN
     0.00000000
     0.00000000
     0.00000000
     0.00000000
     0.00000000
            NaN
     0.00000000
     0.00000000
     0.00000000
            NaN
     0.00000000
            NaN
            NaN
     0.00000000
     0.00000000
     0.00000000
            NaN
     0.00000000
     0.00000000
     0.00000000
     0.00000000
     0.00000000
     0.00000000
     0.00000000
            NaN
            NaN
            NaN
     0.00000000
     0.00000000
     0.00000000
     0.00000000
     0.00000000
            NaN
            NaN
            NaN
     0.00000000
     0.00000000
            NaN
     0.00000000
            NaN
            NaN
            NaN
     0.00000000
     0.00000000
     0.00000000
     0.00000000
     0.00000000
     0.00000000
            NaN
     0.00000000
     0.00000000
     0.00000000
     0.00000000
     0.00000000
     0.00000000
     0.00000000
     0.00000000
     0.00000000
     0.00000000
     0.00000000
     0.00000000
     0.00000000
            NaN
     0.00000000
     0.00000000
     0.00000000
     0.00000000
     0.00000000
     0.00000000
     0.00000000
     0.00000000
     0.00000000
     0.00000000
            NaN
            NaN
     0.00000000
     0.00000000
            NaN
     0.00000000
     0.00000000
     0.00000000
     0.00000000
            NaN
     0.00000000
     0.00000000
     0.00000000
     0.00000000
     0.00000000
     0.00000000
     0.00000000
     0.00000000
     0.00000000
     0.00000000
     0.00000000
     0.00000000
     0.00000000
     0.00000000
     0.00000000
     0.00000000
     0.00000000
     0.00000000
     0.00000000
     0.00000000
     0.00000000
            NaN
     0.00000000
     0.00000000
     0.00000000
     0.00000000
     0.00000000
     0.00000000
     0.00000000
     0.00000000
     0.00000000
     0.00000000
     0.00000000
     0.00000000
     0.00000000
     0.00000000
     0.00000000
     0.00000000
     0.00000000
     0.00000000
     0.00000000
     0.00000000
     0.00000000
     0.00000000
     0.00000000
     0.00000000
     0.00000000
     0.00000000
     0.00000000
     0.00000000
            NaN
     0.00000000
     0.00000000
     0.00000000
     0.00000000
     0.00000000
     0.00000000
     0.00000000
     0.00000000
     0.00000000
     0.00000000
     0.00000000
     0.00000000
     0.00000000
     0.00000000
     0.00000000
     0.00000000
     0.00000000
            NaN
     0.00000000
     0.00000000
            NaN
            NaN
     0.00000000
     0.00000000
     0.00000000
     0.00000000
     0.00000000
     0.00000000
     0.00000000
     0.00000000
     0.00000000
            NaN
            NaN
     0.00000000
     0.00000000
     0.00000000
     0.00000000
     0.00000000
     0.00000000
     0.00000000
     0.00000000
            NaN
            NaN
     0.00000000
     0.00000000
            NaN
            NaN
     0.00000000
     0.00000000
     0.00000000
            NaN
     0.00000000
     0.00000000
            NaN
     0.00000000
     0.00000000
     0.00000000
     0.00000000
     0.00000000
            NaN
            NaN
     0.00000000
     0.00000000
            NaN
     0.00000000
            NaN
            NaN
     0.00000000
     0.00000000
     0.00000000
     0.00000000
     0.00000000
     0.00000000
            NaN
     0.00000000
     0.00000000
            NaN
     0.00000000
     0.00000000
     0.00000000
     0.00000000
     0.00000000
            NaN
            NaN
            NaN
     0.00000000
     0.00000000
            NaN
            NaN
     0.00000000
            NaN
     0.00000000
     0.00000000
            NaN
            NaN
            NaN
     0.00000000
     0.00000000
     0.00000000
     0.00000000
     0.00000000
     0.00000000
            NaN
     0.00000000
     0.00000000
     0.00000000
     0.00000000
            NaN
            NaN
     0.00000000
     0.00000000
     0.00000000
            NaN
            NaN
     0.00000000
     0.00000000
     0.00000000
     0.00000000
     0.00000000
     0.00000000
     0.00000000
     0.00000000
            NaN
     0.00000000
            NaN
     0.00000000
     0.00000000
     0.00000000
            NaN
     0.00000000
     0.00000000
     0.00000000
            NaN
     0.00000000
     0.00000000
     0.00000000
     0.00000000
     0.00000000
            NaN
            NaN
     0.00000000
     0.00000000
     0.00000000
            NaN
     0.00000000
     0.00000000
            NaN
     0.00000000
     0.00000000
     0.00000000
     0.00000000
     0.00000000
     0.00000000
     0.00000000
     0.00000000
     0.00000000
     0.00000000
     0.00000000
            NaN
     0.00000000
     0.00000000
            NaN
            NaN
***************
            NaN
     0.00000000
            NaN
            NaN
     0.00000000
     0.00000000
     0.00000000
     0.00000000
     0.00000000
     0.00000000
     0.00000000
     0.00000000
            NaN
     0.00000000
     0.00000000
            NaN
     0.00000000
     0.00000000
     0.00000000
     0.00000000
     0.00000000
     0.00000000
     0.00000000
     0.00000000
     0.00000000
     0.00000000
     0.00000000
     0.00000000
            NaN
     0.00000000
     0.00000000
     0.00000000
     0.00000000
            NaN
     0.00000000
            NaN
     0.00000000
     0.00000000
     0.00000000
     0.00000000
     0.00000000
     0.00000000
            NaN
     0.00000000
     0.00000000
     0.00000000
            NaN
     0.00000000
     0.00000000
     0.00000000
     0.00000000
     0.00000000
     0.00000000
     0.00000000
     0.00000000
     0.00000000
            NaN
            NaN
     0.00000000
     0.00000000
     0.00000000
            NaN
     0.00000000
     0.00000000
     0.00000000
     0.00000000
     0.00000000
     0.00000000
     0.00000000
            NaN
     0.00000000
     0.00000000
            NaN
            NaN
     0.00000000
     0.00000000
     0.00000000
     0.00000000
     0.00000000
     0.00000000
     0.00000000
            NaN
     0.00000000
     0.00000000
            NaN
     0.00000000
     0.00000000
     0.00000000
     0.00000000
            NaN
     0.00000000
     0.00000000
     0.00000000
     0.00000000
     0.00000000
     0.00000000
     0.00000000
     0.00000000
     0.00000000
     0.00000000
     0.00000000
     0.00000000
     0.00000000
     0.00000000
     0.00000000
     0.00000000
     0.00000000
     0.00000000
            NaN
     0.00000000
            NaN
     0.00000000
     0.00000000
     0.00000000
     0.00000000
     0.00000000
     0.00000000
     0.00000000
     0.00000000
     0.00000000
     0.00000000
            NaN
     0.00000000
            NaN
            NaN
            NaN
     0.00000000
     0.00000000
     0.00000000
     0.00000000
     0.00000000
     0.00000000
     0.00000000
     0.00000000
            NaN
     0.00000000
     0.00000000
     0.00000000
            NaN
     0.00000000
     0.00000000
     0.00000000
     0.00000000
     0.00000000
     0.00000000
     0.00000000
     0.00000000
     0.00000000
     0.00000000
     0.00000000
     0.00000000
            NaN
     0.00000000
     0.00000000
     0.00000000
            NaN
     0.00000000
            NaN
     0.00000000
     0.00000000
     0.00000000
     0.00000000
     0.00000000
     0.00000000
     0.00000000
     0.00000000
            NaN
     0.00000000
            NaN
     0.00000000
     0.00000000
     0.00000000
     0.00000000
     0.00000000
     0.00000000
            NaN
            NaN
            NaN
     0.00000000
     0.00000000
     0.00000000
     0.00000000
     0.00000000
     0.00000000
     0.00000000
     0.00000000
     0.00000000
            NaN
            NaN
     0.00000000
     0.00000000
     0.00000000
     0.00000000
     0.00000000
     0.00000000
     0.00000000
     0.00000000
     0.00000000
     0.00000000
            NaN
     0.00000000
     0.00000000
     0.00000000
     0.00000000
     0.00000000
     0.00000000
            NaN
            NaN
     0.00000000
     0.00000000
            NaN
            NaN
            NaN
     0.00000000
     0.00000000
            NaN
            NaN
            NaN
     0.00000000
     0.00000000
            NaN
            NaN
            NaN
     0.00000000
     0.00000000
            NaN
     0.00000000
     0.00000000
            NaN
            NaN
     0.00000000
     0.00000000
     0.00000000
     0.00000000
     0.00000000
            NaN
     0.00000000
     0.00000000
            NaN
     0.00000000
     0.00000000
     0.00000000
     0.00000000
     0.00000000
            NaN
            NaN
            NaN
     0.00000000
            NaN
     0.00000000
     0.00000000
     0.00000000
            NaN
            NaN
     0.00000000
            NaN
            NaN
     0.00000000
     0.00000000
     0.00000000
     0.00000000
     0.00000000
     0.00000000
     0.00000000
            NaN
            NaN
     0.00000000
            NaN
     0.00000000
     0.00000000
     0.00000000
     0.00000000
     0.00000000
            NaN
     0.00000000
     0.00000000
            NaN
     0.00000000
     0.00000000
     0.00000000
     0.00000000
     0.00000000
     0.00000000
     0.00000000
     0.00000000
     0.00000000
            NaN
     0.00000000
     0.00000000
            NaN
     0.00000000
     0.00000000
     0.00000000
     0.00000000
            NaN
     0.00000000
     0.00000000
     0.00000000
     0.00000000
     0.00000000
     0.00000000
     0.00000000
     0.00000000
     0.00000000
     0.00000000
     0.00000000
            NaN
     0.00000000
     0.00000000
     0.00000000
     0.00000000
     0.00000000
            NaN
            NaN
     0.00000000
     0.00000000
     0.00000000
            NaN
            NaN
            NaN
     0.00000000
     0.00000000
     0.00000000
     0.00000000
     0.00000000
     0.00000000
     0.00000000
     0.00000000
     0.00000000
     0.00000000
     0.00000000
     0.00000000
     0.00000000
     0.00000000
     0.00000000
     0.00000000
     0.00000000
     0.00000000
     0.00000000
     0.00000000
            NaN
            NaN
            NaN
     0.00000000
            NaN
     0.00000000
            NaN
     0.00000000
     0.00000000
     0.00000000
     0.00000000
     0.00000000
     0.00000000
     0.00000000
     0.00000000
            NaN
     0.00000000
     0.00000000
     0.00000000
     0.00000000
     0.00000000
     0.00000000
     0.00000000
     0.00000000
     0.00000000
     0.00000000
     0.00000000
            NaN
            NaN
     0.00000000
     0.00000000
     0.00000000
     0.00000000
            NaN
     0.00000000
     0.00000000
     0.00000000
     0.00000000
     0.00000000
     0.00000000
            NaN
     0.00000000
     0.00000000
     0.00000000
     0.00000000
     0.00000000
            NaN
            NaN
     0.00000000
     0.00000000
     0.00000000
     0.00000000
            NaN
     0.00000000
     0.00000000
     0.00000000
     0.00000000
     0.00000000
     0.00000000
     0.00000000
     0.00000000
     0.00000000
            NaN
     0.00000000
            NaN
     0.00000000
     0.00000000
     0.00000000
     0.00000000
     0.00000000
     0.00000000
     0.00000000
     0.00000000
     0.00000000
     0.00000000
     0.00000000
     0.00000000
     0.00000000
     0.00000000
     0.00000000
     0.00000000
            NaN
     0.00000000
     0.00000000
     0.00000000
     0.00000000
     0.00000000
            NaN
            NaN
     0.00000000
     0.00000000
     0.00000000
     0.00000000
     0.00000000
     0.00000000
     0.00000000
     0.00000000
     0.00000000
     0.00000000
     0.00000000
     0.00000000
     0.00000000
     0.00000000
     0.00000000
     0.00000000
     0.00000000
     0.00000000
            NaN
     0.00000000
            NaN
            NaN
            NaN
     0.00000000
     0.00000000
     0.00000000
     0.00000000
     0.00000000
     0.00000000
     0.00000000
     0.00000000
     0.00000000
     0.00000000
     0.00000000
            NaN
            NaN
     0.00000000
     0.00000000
     0.00000000
     0.00000000
     0.00000000
            NaN
            NaN
     0.00000000
     0.00000000
     0.00000000
            NaN
            NaN
            NaN
     0.00000000
            NaN
     0.00000000
     0.00000000
     0.00000000
     0.00000000
     0.00000000
            NaN
     0.00000000
     0.00000000
     0.00000000
     0.00000000
     0.00000000
     0.00000000
     0.00000000
     0.00000000
     0.00000000
            NaN
     0.00000000
            NaN
     0.00000000
            NaN
     0.00000000
     0.00000000
     0.00000000
     0.00000000
     0.00000000
     0.00000000
     0.00000000
            NaN
            NaN
     0.00000000
     0.00000000
     0.00000000
            NaN
     0.00000000
     0.00000000
     0.00000000
            NaN
            NaN
     0.00000000
     0.00000000
     0.00000000
     0.00000000
     0.00000000
            NaN
     0.00000000
     0.00000000
     0.00000000
            NaN
     0.00000000
     0.00000000
     0.00000000
     0.00000000
     0.00000000
     0.00000000
            NaN
     0.00000000
            NaN
     0.00000000
            NaN
     0.00000000
            NaN
     0.00000000
     0.00000000
     0.00000000
     0.00000000
     0.00000000
     0.00000000
     0.00000000
     0.00000000
     0.00000000
     0.00000000
     0.00000000
     0.00000000
     0.00000000
            NaN
     0.00000000
     0.00000000
     0.00000000
            NaN
     0.00000000
     0.00000000
     0.00000000
     0.00000000
            NaN
            NaN
            NaN
     0.00000000
            NaN
     0.00000000
     0.00000000
     0.00000000
            NaN
     0.00000000
     0.00000000
     0.00000000
     0.00000000
     0.00000000
     0.00000000
     0.00000000
     0.00000000
     0.00000000
     0.00000000
     0.00000000
     0.00000000
     0.00000000
            NaN
            NaN
            NaN
            NaN
     0.00000000
     0.00000000
            NaN
     0.00000000
     0.00000000
     0.00000000
     0.00000000
     0.00000000
     0.00000000
     0.00000000
     0.00000000
     0.00000000
     0.00000000
            NaN
     0.00000000
     0.00000000
     0.00000000
     0.00000000
     0.00000000
     0.00000000
     0.00000000
     0.00000000
            NaN
     0.00000000
     0.00000000
     0.00000000
     0.00000000
     0.00000000
     0.00000000
     0.00000000
     0.00000000
     0.00000000
     0.00000000
     0.00000000
     0.00000000
     0.00000000
     0.00000000
     0.00000000
     0.00000000
     0.00000000
     0.00000000
     0.00000000
     0.00000000
     0.00000000
     0.00000000
            NaN
     0.00000000
     0.00000000
     0.00000000
     0.00000000
     0.00000000
     0.00000000
     0.00000000
     0.00000000
     0.00000000
     0.00000000
     0.00000000
     0.00000000
     0.00000000
***************
     0.00000000
     0.00000000
     0.00000000
     0.00000000
     0.00000000
     0.00000000
     0.00000000
            NaN
            NaN
            NaN
            NaN
     0.00000000
            NaN
     0.00000000
     0.00000000
     0.00000000
     0.00000000
     0.00000000
     0.00000000
     0.00000000
            NaN
     0.00000000
     0.00000000
     0.00000000
     0.00000000
     0.00000000
     0.00000000
            NaN
     0.00000000
     0.00000000
     0.00000000
     0.00000000
            NaN
     0.00000000
     0.00000000
     0.00000000
     0.00000000
     0.00000000
            NaN
     0.00000000
     0.00000000
     0.00000000
            NaN
     0.00000000
     0.00000000
     0.00000000
            NaN
     0.00000000
     0.00000000
     0.00000000
     0.00000000
     0.00000000
     0.00000000
     0.00000000
     0.00000000
     0.00000000
     0.00000000
     0.00000000
            NaN
            NaN
     0.00000000
     0.00000000
     0.00000000
     0.00000000
     0.00000000
            NaN
     0.00000000
     0.00000000
            NaN
     0.00000000
     0.00000000
     0.00000000
     0.00000000
     0.00000000
     0.00000000
            NaN
     0.00000000
     0.00000000
     0.00000000
     0.00000000
     0.00000000
            NaN
     0.00000000
            NaN
            NaN
            NaN
     0.00000000
     0.00000000
     0.00000000
            NaN
     0.00000000
     0.00000000
     0.00000000
     0.00000000
     0.00000000
     0.00000000
     0.00000000
     0.00000000
     0.00000000
            NaN
            NaN
            NaN
     0.00000000
     0.00000000
     0.00000000
     0.00000000
            NaN
     0.00000000
     0.00000000
     0.00000000
            NaN
            NaN
            NaN
     0.00000000
     0.00000000
     0.00000000
     0.00000000
     0.00000000
     0.00000000
     0.00000000
            NaN
            NaN
     0.00000000
     0.00000000
     0.00000000
     0.00000000
     0.00000000
     0.00000000
     0.00000000
     0.00000000
     0.00000000
     0.00000000
     0.00000000
     0.00000000
            NaN
            NaN
            NaN
            NaN
            NaN
     0.00000000
     0.00000000
            NaN
     0.00000000
     0.00000000
     0.00000000
            NaN
     0.00000000
     0.00000000
     0.00000000
     0.00000000
            NaN
     0.00000000
     0.00000000
     0.00000000
     0.00000000
     0.00000000
            NaN
            NaN
            NaN
            NaN
     0.00000000
     0.00000000
            NaN
            NaN
     0.00000000
     0.00000000
     0.00000000
     0.00000000
     0.00000000
     0.00000000
     0.00000000
     0.00000000
     0.00000000
     0.00000000
            NaN
     0.00000000
     0.00000000
            NaN
     0.00000000
     0.00000000
            NaN
     0.00000000
     0.00000000
     0.00000000
     0.00000000
     0.00000000
     0.00000000
     0.00000000
     0.00000000
VECTORS Displacements float 
     0.00000000     0.00000000     0.00000000
     0.00000000     0.00000000     0.00000000
     0.00000000     0.00000000     0.00000000
     0.00000000     0.00000000     0.00000000
     0.00000000     0.00000000     0.00000000
     0.00000000     0.00000000     0.00000000
     0.00000000     0.00000000     0.00000000
     0.00000000     0.00000000     0.00000000
     0.00000000     0.00000000     0.00000000
     0.00000000     0.00000000     0.00000000
     0.00000000     0.00000000     0.00000000
     0.00000000     0.00000000     0.00000000
     0.00000000     0.00000000     0.00000000
     0.00000000     0.00000000     0.00000000
     0.00000000     0.00000000     0.00000000
     0.00000000     0.00000000     0.00000000
     0.00000000     0.00000000     0.00000000
     0.00000000     0.00000000     0.00000000
     0.00000000     0.00000000     0.00000000
     0.00000000     0.00000000     0.00000000
     0.00000000     0.00000000     0.00000000
     0.00000000     0.00000000     0.00000000
     0.00000000     0.00000000     0.00000000
     0.00000000     0.00000000     0.00000000
     0.00000000     0.00000000     0.00000000
     0.00000000     0.00000000     0.00000000
     0.00000000     0.00000000     0.00000000
     0.00000000     0.00000000     0.00000000
     0.00000000     0.00000000     0.00000000
     0.00000000     0.00000000     0.00000000
     0.00000000     0.00000000     0.00000000
     0.00000000     0.00000000     0.00000000
     0.00000000     0.00000000     0.00000000
     0.00000000     0.00000000     0.00000000
     0.00000000     0.00000000     0.00000000
     0.00000000     0.00000000     0.00000000
     0.00000000     0.00000000     0.00000000
     0.00000000     0.00000000     0.00000000
     0.00000000     0.00000000     0.00000000
     0.00000000     0.00000000     0.00000000
     0.00000000     0.00000000     0.00000000
     0.00000000     0.00000000     0.00000000
     0.00000000     0.00000000     0.00000000
     0.00000000     0.00000000     0.00000000
     0.00000000     0.00000000     0.00000000
     0.00000000     0.00000000     0.00000000
     0.00000000     0.00000000     0.00000000
     0.00000000     0.00000000     0.00000000
     0.00000000     0.00000000     0.00000000
     0.00000000     0.00000000     0.00000000
     0.00000000     0.00000000     0.00000000
     0.00000000     0.00000000     0.00000000
     0.00000000     0.00000000     0.00000000
     0.00000000     0.00000000     0.00000000
     0.00000000     0.00000000     0.00000000
     0.00000000     0.00000000     0.00000000
     0.00000000     0.00000000     0.00000000
     0.00000000     0.00000000     0.00000000
     0.00000000     0.00000000     0.00000000
     0.00000000     0.00000000     0.00000000
     0.00000000     0.00000000     0.00000000
     0.00000000     0.00000000     0.00000000
     0.00000000     0.00000000     0.00000000
     0.00000000     0.00000000     0.00000000
     0.00000000     0.00000000     0.00000000
     0.00000000     0.00000000     0.00000000
     0.00000000     0.00000000     0.00000000
     0.00000000     0.00000000     0.00000000
     0.00000000     0.00000000     0.00000000
     0.00000000     0.00000000     0.00000000
     0.00000000     0.00000000     0.00000000
     0.00000000     0.00000000     0.00000000
     0.00000000     0.00000000     0.00000000
     0.00000000     0.00000000     0.00000000
     0.00000000     0.00000000     0.00000000
     0.00000000     0.00000000     0.00000000
     0.00000000     0.00000000     0.00000000
     0.00000000     0.00000000     0.00000000
     0.00000000     0.00000000     0.00000000
     0.00000000     0.00000000     0.00000000
     0.00000000     0.00000000     0.00000000
     0.00000000     0.00000000     0.00000000
     0.00000000     0.00000000     0.00000000
     0.00000000     0.00000000     0.00000000
     0.00000000     0.00000000     0.00000000
     0.00000000     0.00000000     0.00000000
     0.00000000     0.00000000     0.00000000
     0.00000000     0.00000000     0.00000000
     0.00000000     0.00000000     0.00000000
     0.00000000     0.00000000     0.00000000
     0.00000000     0.00000000     0.00000000
     0.00000000     0.00000000     0.00000000
     0.00000000     0.00000000     0.00000000
     0.00000000     0.00000000     0.00000000
     0.00000000     0.00000000     0.00000000
     0.00000000     0.00000000     0.00000000
     0.00000000     0.00000000     0.00000000
     0.00000000     0.00000000     0.00000000
     0.00000000     0.00000000     0.00000000
     0.00000000     0.00000000     0.00000000
     0.00000000     0.00000000     0.00000000
     0.00000000     0.00000000     0.00000000
     0.00000000     0.00000000     0.00000000
     0.00000000     0.00000000     0.00000000
     0.00000000     0.00000000     0.00000000
     0.00000000     0.00000000     0.00000000
     0.00000000     0.00000000     0.00000000
     0.00000000     0.00000000     0.00000000
     0.00000000     0.00000000     0.00000000
     0.00000000     0.00000000     0.00000000
     0.00000000     0.00000000     0.00000000
     0.00000000     0.00000000     0.00000000
     0.00000000     0.00000000     0.00000000
     0.00000000     0.00000000     0.00000000
     0.00000000     0.00000000     0.00000000
     0.00000000     0.00000000     0.00000000
     0.00000000     0.00000000     0.00000000
     0.00000000     0.00000000     0.00000000
     0.00000000     0.00000000     0.00000000
     0.00000000     0.00000000     0.00000000
     0.00000000     0.00000000     0.00000000
     0.00000000     0.00000000     0.00000000
     0.00000000     0.00000000     0.00000000
     0.00000000     0.00000000     0.00000000
     0.00000000     0.00000000     0.00000000
     0.00000000     0.00000000     0.00000000
     0.00000000     0.00000000     0.00000000
     0.00000000     0.00000000     0.00000000
     0.00000000     0.00000000     0.00000000
     0.00000000     0.00000000     0.00000000
     0.00000000     0.00000000     0.00000000
     0.00000000     0.00000000     0.00000000
     0.00000000     0.00000000     0.00000000
     0.00000000     0.00000000     0.00000000
     0.00000000     0.00000000     0.00000000
     0.00000000     0.00000000     0.00000000
     0.00000000     0.00000000     0.00000000
     0.00000000     0.00000000     0.00000000
     0.00000000     0.00000000     0.00000000
     0.00000000     0.00000000     0.00000000
     0.00000000     0.00000000     0.00000000
     0.00000000     0.00000000     0.00000000
     0.00000000     0.00000000     0.00000000
     0.00000000     0.00000000     0.00000000
     0.00000000     0.00000000     0.00000000
     0.00000000     0.00000000     0.00000000
     0.00000000     0.00000000     0.00000000
     0.00000000     0.00000000     0.00000000
     0.00000000     0.00000000     0.00000000
     0.00000000     0.00000000     0.00000000
     0.00000000     0.00000000     0.00000000
     0.00000000     0.00000000     0.00000000
     0.00000000     0.00000000     0.00000000
     0.00000000     0.00000000     0.00000000
     0.00000000     0.00000000     0.00000000
     0.00000000     0.00000000     0.00000000
     0.00000000     0.00000000     0.00000000
     0.00000000     0.00000000     0.00000000
     0.00000000     0.00000000     0.00000000
     0.00000000     0.00000000     0.00000000
     0.00000000     0.00000000     0.00000000
     0.00000000     0.00000000     0.00000000
     0.00000000     0.00000000     0.00000000
     0.00000000     0.00000000     0.00000000
     0.00000000     0.00000000     0.00000000
     0.00000000     0.00000000     0.00000000
     0.00000000     0.00000000     0.00000000
     0.00000000     0.00000000     0.00000000
     0.00000000     0.00000000     0.00000000
     0.00000000     0.00000000     0.00000000
     0.00000000     0.00000000     0.00000000
     0.00000000     0.00000000     0.00000000
     0.00000000     0.00000000     0.00000000
     0.00000000     0.00000000     0.00000000
     0.00000000     0.00000000     0.00000000
     0.00000000     0.00000000     0.00000000
     0.00000000     0.00000000     0.00000000
     0.00000000     0.00000000     0.00000000
     0.00000000     0.00000000     0.00000000
     0.00000000     0.00000000     0.00000000
     0.00000000     0.00000000     0.00000000
     0.00000000     0.00000000     0.00000000
     0.00000000     0.00000000     0.00000000
     0.00000000     0.00000000     0.00000000
     0.00000000     0.00000000     0.00000000
     0.00000000     0.00000000     0.00000000
     0.00000000     0.00000000     0.00000000
     0.00000000     0.00000000     0.00000000
     0.00000000     0.00000000     0.00000000
     0.00000000     0.00000000     0.00000000
     0.00000000     0.00000000     0.00000000
     0.00000000     0.00000000     0.00000000
     0.00000000     0.00000000     0.00000000
     0.00000000     0.00000000     0.00000000
     0.00000000     0.00000000     0.00000000
     0.00000000     0.00000000     0.00000000
     0.00000000     0.00000000     0.00000000
     0.00000000     0.00000000     0.00000000
     0.00000000     0.00000000     0.00000000
     0.00000000     0.00000000     0.00000000
     0.00000000     0.00000000     0.00000000
     0.00000000     0.00000000     0.00000000
     0.00000000     0.00000000     0.00000000
     0.00000000     0.00000000     0.00000000
     0.00000000     0.00000000     0.00000000
     0.00000000     0.00000000     0.00000000
     0.00000000     0.00000000     0.00000000
     0.00000000     0.00000000     0.00000000
     0.00000000     0.00000000     0.00000000
     0.00000000     0.00000000     0.00000000
     0.00000000     0.00000000     0.00000000
     0.00000000     0.00000000     0.00000000
     0.00000000     0.00000000     0.00000000
     0.00000000     0.00000000     0.00000000
     0.00000000     0.00000000     0.00000000
     0.00000000     0.00000000     0.00000000
     0.00000000     0.00000000     0.00000000
     0.00000000     0.00000000     0.00000000
     0.00000000     0.00000000     0.00000000
     0.00000000     0.00000000     0.00000000
     0.00000000     0.00000000     0.00000000
     0.00000000     0.00000000     0.00000000
     0.00000000     0.00000000     0.00000000
     0.00000000     0.00000000     0.00000000
     0.00000000     0.00000000     0.00000000
     0.00000000     0.00000000     0.00000000
     0.00000000     0.00000000     0.00000000
     0.00000000     0.00000000     0.00000000
     0.00000000     0.00000000     0.00000000
     0.00000000     0.00000000     0.00000000
     0.00000000     0.00000000     0.00000000
     0.00000000     0.00000000     0.00000000
     0.00000000     0.00000000     0.00000000
     0.00000000     0.00000000     0.00000000
     0.00000000     0.00000000     0.00000000
     0.00000000     0.00000000     0.00000000
     0.00000000     0.00000000     0.00000000
     0.00000000     0.00000000     0.00000000
     0.00000000     0.00000000     0.00000000
     0.00000000     0.00000000     0.00000000
     0.00000000     0.00000000     0.00000000
     0.00000000     0.00000000     0.00000000
     0.00000000     0.00000000     0.00000000
     0.00000000     0.00000000     0.00000000
     0.00000000     0.00000000     0.00000000
     0.00000000     0.00000000     0.00000000
     0.00000000     0.00000000     0.00000000
     0.00000000     0.00000000     0.00000000
     0.00000000     0.00000000     0.00000000
     0.00000000     0.00000000     0.00000000
     0.00000000     0.00000000     0.00000000
     0.00000000     0.00000000     0.00000000
     0.00000000     0.00000000     0.00000000
     0.00000000     0.00000000     0.00000000
     0.00000000     0.00000000     0.00000000
     0.00000000     0.00000000     0.00000000
     0.00000000     0.00000000     0.00000000
     0.00000000     0.00000000     0.00000000
     0.00000000     0.00000000     0.00000000
     0.00000000     0.00000000     0.00000000
     0.00000000     0.00000000     0.00000000
     0.00000000     0.00000000     0.00000000
     0.00000000     0.00000000     0.00000000
     0.00000000     0.00000000     0.00000000
     0.00000000     0.00000000     0.00000000
     0.00000000     0.00000000     0.00000000
     0.00000000     0.00000000     0.00000000
     0.00000000     0.00000000     0.00000000
     0.00000000     0.00000000     0.00000000
     0.00000000     0.00000000     0.00000000
     0.00000000     0.00000000     0.00000000
     0.00000000     0.00000000     0.00000000
     0.00000000     0.00000000     0.00000000
     0.00000000     0.00000000     0.00000000
     0.00000000     0.00000000     0.00000000
     0.00000000     0.00000000     0.00000000
     0.00000000     0.00000000     0.00000000
     0.00000000     0.00000000     0.00000000
     0.00000000     0.00000000     0.00000000
     0.00000000     0.00000000     0.00000000
     0.00000000     0.00000000     0.00000000
     0.00000000     0.00000000     0.00000000
     0.00000000     0.00000000     0.00000000
     0.00000000     0.00000000     0.00000000
     0.00000000     0.00000000     0.00000000
     0.00000000     0.00000000     0.00000000
     0.00000000     0.00000000     0.00000000
     0.00000000     0.00000000     0.00000000
     0.00000000     0.00000000     0.00000000
     0.00000000     0.00000000     0.00000000
     0.00000000     0.00000000     0.00000000
     0.00000000     0.00000000     0.00000000
     0.00000000     0.00000000     0.00000000
     0.00000000     0.00000000     0.00000000
     0.00000000     0.00000000     0.00000000
     0.00000000     0.00000000     0.00000000
     0.00000000     0.00000000     0.00000000
     0.00000000     0.00000000     0.00000000
     0.00000000     0.00000000     0.00000000
     0.00000000     0.00000000     0.00000000
     0.00000000     0.00000000     0.00000000
     0.00000000     0.00000000     0.00000000
     0.00000000     0.00000000     0.00000000
     0.00000000     0.00000000     0.00000000
     0.00000000     0.00000000     0.00000000
     0.00000000     0.00000000     0.00000000
     0.00000000     0.00000000     0.00000000
     0.00000000     0.00000000     0.00000000
     0.00000000     0.00000000     0.00000000
     0.00000000     0.00000000     0.00000000
     0.00000000     0.00000000     0.00000000
     0.00000000     0.00000000     0.00000000
     0.00000000     0.00000000     0.00000000
     0.00000000     0.00000000     0.00000000
     0.00000000     0.00000000     0.00000000
     0.00000000     0.00000000     0.00000000
     0.00000000     0.00000000     0.00000000
     0.00000000     0.00000000     0.00000000
     0.00000000     0.00000000     0.00000000
     0.00000000     0.00000000     0.00000000
     0.00000000     0.00000000     0.00000000
     0.00000000     0.00000000     0.00000000
     0.00000000     0.00000000     0.00000000
     0.00000000     0.00000000     0.00000000
     0.00000000     0.00000000     0.00000000
     0.00000000     0.00000000     0.00000000
     0.00000000     0.00000000     0.00000000
     0.00000000     0.00000000     0.00000000
     0.00000000     0.00000000     0.00000000
     0.00000000     0.00000000     0.00000000
     0.00000000     0.00000000     0.00000000
     0.00000000     0.00000000     0.00000000
     0.00000000     0.00000000     0.00000000
     0.00000000     0.00000000     0.00000000
     0.00000000     0.00000000     0.00000000
     0.00000000     0.00000000     0.00000000
     0.00000000     0.00000000     0.00000000
     0.00000000     0.00000000     0.00000000
     0.00000000     0.00000000     0.00000000
     0.00000000     0.00000000     0.00000000
     0.00000000     0.00000000     0.00000000
     0.00000000     0.00000000     0.00000000
     0.00000000     0.00000000     0.00000000
     0.00000000     0.00000000     0.00000000
     0.00000000     0.00000000     0.00000000
     0.00000000     0.00000000     0.00000000
     0.00000000     0.00000000     0.00000000
     0.00000000     0.00000000     0.00000000
     0.00000000     0.00000000     0.00000000
     0.00000000     0.00000000     0.00000000
     0.00000000     0.00000000     0.00000000
     0.00000000     0.00000000     0.00000000
     0.00000000     0.00000000     0.00000000
     0.00000000     0.00000000     0.00000000
     0.00000000     0.00000000     0.00000000
     0.00000000     0.00000000     0.00000000
     0.00000000     0.00000000     0.00000000
     0.00000000     0.00000000     0.00000000
     0.00000000     0.00000000     0.00000000
     0.00000000     0.00000000     0.00000000
     0.00000000     0.00000000     0.00000000
     0.00000000     0.00000000     0.00000000
     0.00000000     0.00000000     0.00000000
     0.00000000     0.00000000     0.00000000
     0.00000000     0.00000000     0.00000000
     0.00000000     0.00000000     0.00000000
     0.00000000     0.00000000     0.00000000
     0.00000000     0.00000000     0.00000000
     0.00000000     0.00000000     0.00000000
     0.00000000     0.00000000     0.00000000
     0.00000000     0.00000000     0.00000000
     0.00000000     0.00000000     0.00000000
     0.00000000     0.00000000     0.00000000
     0.00000000     0.00000000     0.00000000
     0.00000000     0.00000000     0.00000000
     0.00000000     0.00000000     0.00000000
     0.00000000     0.00000000     0.00000000
     0.00000000     0.00000000     0.00000000
     0.00000000     0.00000000     0.00000000
     0.00000000     0.00000000     0.00000000
     0.00000000     0.00000000     0.00000000
     0.00000000     0.00000000     0.00000000
     0.00000000     0.00000000     0.00000000
     0.00000000     0.00000000     0.00000000
     0.00000000     0.00000000     0.00000000
     0.00000000     0.00000000     0.00000000
     0.00000000     0.00000000     0.00000000
     0.00000000     0.00000000     0.00000000
     0.00000000     0.00000000     0.00000000
     0.00000000     0.00000000     0.00000000
     0.00000000     0.00000000     0.00000000
     0.00000000     0.00000000     0.00000000
     0.00000000     0.00000000     0.00000000
     0.00000000     0.00000000     0.00000000
     0.00000000     0.00000000     0.00000000
     0.00000000     0.00000000     0.00000000
     0.00000000     0.00000000     0.00000000
     0.00000000     0.00000000     0.00000000
     0.00000000     0.00000000     0.00000000
     0.00000000     0.00000000     0.00000000
     0.00000000     0.00000000     0.00000000
     0.00000000     0.00000000     0.00000000
     0.00000000     0.00000000     0.00000000
     0.00000000     0.00000000     0.00000000
     0.00000000     0.00000000     0.00000000
     0.00000000     0.00000000     0.00000000
     0.00000000     0.00000000     0.00000000
     0.00000000     0.00000000     0.00000000
     0.00000000     0.00000000     0.00000000
     0.00000000     0.00000000     0.00000000
     0.00000000     0.00000000     0.00000000
     0.00000000     0.00000000     0.00000000
     0.00000000     0.00000000     0.00000000
     0.00000000     0.00000000     0.00000000
     0.00000000     0.00000000     0.00000000
     0.00000000     0.00000000     0.00000000
     0.00000000     0.00000000     0.00000000
     0.00000000     0.00000000     0.00000000
     0.00000000     0.00000000     0.00000000
     0.00000000     0.00000000     0.00000000
     0.00000000     0.00000000     0.00000000
     0.00000000     0.00000000     0.00000000
     0.00000000     0.00000000     0.00000000
     0.00000000     0.00000000     0.00000000
     0.00000000     0.00000000     0.00000000
     0.00000000     0.00000000     0.00000000
     0.00000000     0.00000000     0.00000000
     0.00000000     0.00000000     0.00000000
     0.00000000     0.00000000     0.00000000
     0.00000000     0.00000000     0.00000000
     0.00000000     0.00000000     0.00000000
     0.00000000     0.00000000     0.00000000
     0.00000000     0.00000000     0.00000000
     0.00000000     0.00000000     0.00000000
     0.00000000     0.00000000     0.00000000
     0.00000000     0.00000000     0.00000000
     0.00000000     0.00000000     0.00000000
     0.00000000     0.00000000     0.00000000
     0.00000000     0.00000000     0.00000000
     0.00000000     0.00000000     0.00000000
     0.00000000     0.00000000     0.00000000
     0.00000000     0.00000000     0.00000000
     0.00000000     0.00000000     0.00000000
     0.00000000     0.00000000     0.00000000
     0.00000000     0.00000000     0.00000000
     0.00000000     0.00000000     0.00000000
     0.00000000     0.00000000     0.00000000
     0.00000000     0.00000000     0.00000000
     0.00000000     0.00000000     0.00000000
     0.00000000     0.00000000     0.00000000
     0.00000000     0.00000000     0.00000000
     0.00000000     0.00000000     0.00000000
     0.00000000     0.00000000     0.00000000
     0.00000000     0.00000000     0.00000000
     0.00000000     0.00000000     0.00000000
     0.00000000     0.00000000     0.00000000
     0.00000000     0.00000000     0.00000000
     0.00000000     0.00000000     0.00000000
     0.00000000     0.00000000     0.00000000
     0.00000000     0.00000000     0.00000000
     0.00000000     0.00000000     0.00000000
     0.00000000     0.00000000     0.00000000
     0.00000000     0.00000000     0.00000000
     0.00000000     0.00000000     0.00000000
     0.00000000     0.00000000     0.00000000
     0.00000000     0.00000000     0.00000000
     0.00000000     0.00000000     0.00000000
     0.00000000     0.00000000     0.00000000
     0.00000000     0.00000000     0.00000000
     0.00000000     0.00000000     0.00000000
     0.00000000     0.00000000     0.00000000
     0.00000000     0.00000000     0.00000000
     0.00000000     0.00000000     0.00000000
     0.00000000     0.00000000     0.00000000
     0.00000000     0.00000000     0.00000000
     0.00000000     0.00000000     0.00000000
     0.00000000     0.00000000     0.00000000
     0.00000000     0.00000000     0.00000000
     0.00000000     0.00000000     0.00000000
     0.00000000     0.00000000     0.00000000
     0.00000000     0.00000000     0.00000000
     0.00000000     0.00000000     0.00000000
     0.00000000     0.00000000     0.00000000
     0.00000000     0.00000000     0.00000000
     0.00000000     0.00000000     0.00000000
     0.00000000     0.00000000     0.00000000
     0.00000000     0.00000000     0.00000000
     0.00000000     0.00000000     0.00000000
     0.00000000     0.00000000     0.00000000
     0.00000000     0.00000000     0.00000000
     0.00000000     0.00000000     0.00000000
     0.00000000     0.00000000     0.00000000
     0.00000000     0.00000000     0.00000000
     0.00000000     0.00000000     0.00000000
     0.00000000     0.00000000     0.00000000
     0.00000000     0.00000000     0.00000000
     0.00000000     0.00000000     0.00000000
     0.00000000     0.00000000     0.00000000
     0.00000000     0.00000000     0.00000000
     0.00000000     0.00000000     0.00000000
     0.00000000     0.00000000     0.00000000
     0.00000000     0.00000000     0.00000000
     0.00000000     0.00000000     0.00000000
     0.00000000     0.00000000     0.00000000
     0.00000000     0.00000000     0.00000000
     0.00000000     0.00000000     0.00000000
     0.00000000     0.00000000     0.00000000
     0.00000000     0.00000000     0.00000000
     0.00000000     0.00000000     0.00000000
     0.00000000     0.00000000     0.00000000
     0.00000000     0.00000000     0.00000000
     0.00000000     0.00000000     0.00000000
     0.00000000     0.00000000     0.00000000
     0.00000000     0.00000000     0.00000000
     0.00000000     0.00000000     0.00000000
     0.00000000     0.00000000     0.00000000
     0.00000000     0.00000000     0.00000000
     0.00000000     0.00000000     0.00000000
     0.00000000     0.00000000     0.00000000
     0.00000000     0.00000000     0.00000000
     0.00000000     0.00000000     0.00000000
     0.00000000     0.00000000     0.00000000
     0.00000000     0.00000000     0.00000000
     0.00000000     0.00000000     0.00000000
     0.00000000     0.00000000     0.00000000
     0.00000000     0.00000000     0.00000000
     0.00000000     0.00000000     0.00000000
     0.00000000     0.00000000     0.00000000
     0.00000000     0.00000000     0.00000000
     0.00000000     0.00000000     0.00000000
     0.00000000     0.00000000     0.00000000
     0.00000000     0.00000000     0.00000000
     0.00000000     0.00000000     0.00000000
     0.00000000     0.00000000     0.00000000
     0.00000000     0.00000000     0.00000000
     0.00000000     0.00000000     0.00000000
     0.00000000     0.00000000     0.00000000
     0.00000000     0.00000000     0.00000000
     0.00000000     0.00000000     0.00000000
     0.00000000     0.00000000     0.00000000
     0.00000000     0.00000000     0.00000000
     0.00000000     0.00000000     0.00000000
     0.00000000     0.00000000     0.00000000
     0.00000000     0.00000000     0.00000000
     0.00000000     0.00000000     0.00000000
     0.00000000     0.00000000     0.00000000
     0.00000000     0.00000000     0.00000000
     0.00000000     0.00000000     0.00000000
     0.00000000     0.00000000     0.00000000
     0.00000000     0.00000000     0.00000000
     0.00000000     0.00000000     0.00000000
     0.00000000     0.00000000     0.00000000
     0.00000000     0.00000000     0.00000000
     0.00000000     0.00000000     0.00000000
     0.00000000     0.00000000     0.00000000
     0.00000000     0.00000000     0.00000000
     0.00000000     0.00000000     0.00000000
     0.00000000     0.00000000     0.00000000
     0.00000000     0.00000000     0.00000000
     0.00000000     0.00000000     0.00000000
     0.00000000     0.00000000     0.00000000
     0.00000000     0.00000000     0.00000000
     0.00000000     0.00000000     0.00000000
     0.00000000     0.00000000     0.00000000
     0.00000000     0.00000000     0.00000000
     0.00000000     0.00000000     0.00000000
     0.00000000     0.00000000     0.00000000
     0.00000000     0.00000000     0.00000000
     0.00000000     0.00000000     0.00000000
     0.00000000     0.00000000     0.00000000
     0.00000000     0.00000000     0.00000000
     0.00000000     0.00000000     0.00000000
     0.00000000     0.00000000     0.00000000
     0.00000000     0.00000000     0.00000000
     0.00000000     0.00000000     0.00000000
     0.00000000     0.00000000     0.00000000
     0.00000000     0.00000000     0.00000000
     0.00000000     0.00000000     0.00000000
     0.00000000     0.00000000     0.00000000
     0.00000000     0.00000000     0.00000000
     0.00000000     0.00000000     0.00000000
     0.00000000     0.00000000     0.00000000
     0.00000000     0.00000000     0.00000000
     0.00000000     0.00000000     0.00000000
     0.00000000     0.00000000     0.00000000
     0.00000000     0.00000000     0.00000000
     0.00000000     0.00000000     0.00000000
     0.00000000     0.00000000     0.00000000
     0.00000000     0.00000000     0.00000000
     0.00000000     0.00000000     0.00000000
     0.00000000     0.00000000     0.00000000
     0.00000000     0.00000000     0.00000000
     0.00000000     0.00000000     0.00000000
     0.00000000     0.00000000     0.00000000
     0.00000000     0.00000000     0.00000000
     0.00000000     0.00000000     0.00000000
     0.00000000     0.00000000     0.00000000
     0.00000000     0.00000000     0.00000000
     0.00000000     0.00000000     0.00000000
     0.00000000     0.00000000     0.00000000
     0.00000000     0.00000000     0.00000000
     0.00000000     0.00000000     0.00000000
     0.00000000     0.00000000     0.00000000
     0.00000000     0.00000000     0.00000000
     0.00000000     0.00000000     0.00000000
     0.00000000     0.00000000     0.00000000
     0.00000000     0.00000000     0.00000000
     0.00000000     0.00000000     0.00000000
     0.00000000     0.00000000     0.00000000
     0.00000000     0.00000000     0.00000000
     0.00000000     0.00000000     0.00000000
     0.00000000     0.00000000     0.00000000
     0.00000000     0.00000000     0.00000000
     0.00000000     0.00000000     0.00000000
     0.00000000     0.00000000     0.00000000
     0.00000000     0.00000000     0.00000000
     0.00000000     0.00000000     0.00000000
     0.00000000     0.00000000     0.00000000
     0.00000000     0.00000000     0.00000000
     0.00000000     0.00000000     0.00000000
     0.00000000     0.00000000     0.00000000
     0.00000000     0.00000000     0.00000000
     0.00000000     0.00000000     0.00000000
     0.00000000     0.00000000     0.00000000
     0.00000000     0.00000000     0.00000000
     0.00000000     0.00000000     0.00000000
     0.00000000     0.00000000     0.00000000
     0.00000000     0.00000000     0.00000000
     0.00000000     0.00000000     0.00000000
     0.00000000     0.00000000     0.00000000
     0.00000000     0.00000000     0.00000000
     0.00000000     0.00000000     0.00000000
     0.00000000     0.00000000     0.00000000
     0.00000000     0.00000000     0.00000000
     0.00000000     0.00000000     0.00000000
     0.00000000     0.00000000     0.00000000
     0.00000000     0.00000000     0.00000000
     0.00000000     0.00000000     0.00000000
     0.00000000     0.00000000     0.00000000
     0.00000000     0.00000000     0.00000000
     0.00000000     0.00000000     0.00000000
     0.00000000     0.00000000     0.00000000
     0.00000000     0.00000000     0.00000000
     0.00000000     0.00000000     0.00000000
     0.00000000     0.00000000     0.00000000
     0.00000000     0.00000000     0.00000000
     0.00000000     0.00000000     0.00000000
     0.00000000     0.00000000     0.00000000
     0.00000000     0.00000000     0.00000000
     0.00000000     0.00000000     0.00000000
     0.00000000     0.00000000     0.00000000
     0.00000000     0.00000000     0.00000000
     0.00000000     0.00000000     0.00000000
     0.00000000     0.00000000     0.00000000
     0.00000000     0.00000000     0.00000000
     0.00000000     0.00000000     0.00000000
     0.00000000     0.00000000     0.00000000
     0.00000000     0.00000000     0.00000000
     0.00000000     0.00000000     0.00000000
     0.00000000     0.00000000     0.00000000
     0.00000000     0.00000000     0.00000000
     0.00000000     0.00000000     0.00000000
     0.00000000     0.00000000     0.00000000
     0.00000000     0.00000000     0.00000000
     0.00000000     0.00000000     0.00000000
     0.00000000     0.00000000     0.00000000
     0.00000000     0.00000000     0.00000000
     0.00000000     0.00000000     0.00000000
     0.00000000     0.00000000     0.00000000
     0.00000000     0.00000000     0.00000000
     0.00000000     0.00000000     0.00000000
     0.00000000     0.00000000     0.00000000
     0.00000000     0.00000000     0.00000000
     0.00000000     0.00000000     0.00000000
     0.00000000     0.00000000     0.00000000
     0.00000000     0.00000000     0.00000000
     0.00000000     0.00000000     0.00000000
     0.00000000     0.00000000     0.00000000
     0.00000000     0.00000000     0.00000000
     0.00000000     0.00000000     0.00000000
     0.00000000     0.00000000     0.00000000
     0.00000000     0.00000000     0.00000000
     0.00000000     0.00000000     0.00000000
     0.00000000     0.00000000     0.00000000
     0.00000000     0.00000000     0.00000000
     0.00000000     0.00000000     0.00000000
     0.00000000     0.00000000     0.00000000
     0.00000000     0.00000000     0.00000000
     0.00000000     0.00000000     0.00000000
     0.00000000     0.00000000     0.00000000
     0.00000000     0.00000000     0.00000000
     0.00000000     0.00000000     0.00000000
     0.00000000     0.00000000     0.00000000
     0.00000000     0.00000000     0.00000000
     0.00000000     0.00000000     0.00000000
     0.00000000     0.00000000     0.00000000
     0.00000000     0.00000000     0.00000000
     0.00000000     0.00000000     0.00000000
     0.00000000     0.00000000     0.00000000
     0.00000000     0.00000000     0.00000000
     0.00000000     0.00000000     0.00000000
     0.00000000     0.00000000     0.00000000
     0.00000000     0.00000000     0.00000000
     0.00000000     0.00000000     0.00000000
     0.00000000     0.00000000     0.00000000
     0.00000000     0.00000000     0.00000000
     0.00000000     0.00000000     0.00000000
     0.00000000     0.00000000     0.00000000
     0.00000000     0.00000000     0.00000000
     0.00000000     0.00000000     0.00000000
     0.00000000     0.00000000     0.00000000
     0.00000000     0.00000000     0.00000000
     0.00000000     0.00000000     0.00000000
     0.00000000     0.00000000     0.00000000
     0.00000000     0.00000000     0.00000000
     0.00000000     0.00000000     0.00000000
     0.00000000     0.00000000     0.00000000
     0.00000000     0.00000000     0.00000000
     0.00000000     0.00000000     0.00000000
     0.00000000     0.00000000     0.00000000
     0.00000000     0.00000000     0.00000000
     0.00000000     0.00000000     0.00000000
     0.00000000     0.00000000     0.00000000
     0.00000000     0.00000000     0.00000000
     0.00000000     0.00000000     0.00000000
     0.00000000     0.00000000     0.00000000
     0.00000000     0.00000000     0.00000000
     0.00000000     0.00000000     0.00000000
     0.00000000     0.00000000     0.00000000
     0.00000000     0.00000000     0.00000000
     0.00000000     0.00000000     0.00000000
     0.00000000     0.00000000     0.00000000
     0.00000000     0.00000000     0.00000000
     0.00000000     0.00000000     0.00000000
     0.00000000     0.00000000     0.00000000
     0.00000000     0.00000000     0.00000000
     0.00000000     0.00000000     0.00000000
     0.00000000     0.00000000     0.00000000
     0.00000000     0.00000000     0.00000000
     0.00000000     0.00000000     0.00000000
     0.00000000     0.00000000     0.00000000
     0.00000000     0.00000000     0.00000000
     0.00000000     0.00000000     0.00000000
     0.00000000     0.00000000     0.00000000
     0.00000000     0.00000000     0.00000000
     0.00000000     0.00000000     0.00000000
     0.00000000     0.00000000     0.00000000
     0.00000000     0.00000000     0.00000000
     0.00000000     0.00000000     0.00000000
     0.00000000     0.00000000     0.00000000
     0.00000000     0.00000000     0.00000000
     0.00000000     0.00000000     0.00000000
     0.00000000     0.00000000     0.00000000
     0.00000000     0.00000000     0.00000000
     0.00000000     0.00000000     0.00000000
     0.00000000     0.00000000     0.00000000
     0.00000000     0.00000000     0.00000000
     0.00000000     0.00000000     0.00000000
     0.00000000     0.00000000     0.00000000
     0.00000000     0.00000000     0.00000000
     0.00000000     0.00000000     0.00000000
     0.00000000     0.00000000     0.00000000
     0.00000000     0.00000000     0.00000000
     0.00000000     0.00000000     0.00000000
     0.00000000     0.00000000     0.00000000
     0.00000000     0.00000000     0.00000000
     0.00000000     0.00000000     0.00000000
     0.00000000     0.00000000     0.00000000
     0.00000000     0.00000000     0.00000000
     0.00000000     0.00000000     0.00000000
     0.00000000     0.00000000     0.00000000
     0.00000000     0.00000000     0.00000000
     0.00000000     0.00000000     0.00000000
     0.00000000     0.00000000     0.00000000
     0.00000000     0.00000000     0.00000000
     0.00000000     0.00000000     0.00000000
     0.00000000     0.00000000     0.00000000
     0.00000000     0.00000000     0.00000000
     0.00000000     0.00000000     0.00000000
     0.00000000     0.00000000     0.00000000
     0.00000000     0.00000000     0.00000000
     0.00000000     0.00000000     0.00000000
     0.00000000     0.00000000     0.00000000
     0.00000000     0.00000000     0.00000000
     0.00000000     0.00000000     0.00000000
     0.00000000     0.00000000     0.00000000
     0.00000000     0.00000000     0.00000000
     0.00000000     0.00000000     0.00000000
     0.00000000     0.00000000     0.00000000
     0.00000000     0.00000000     0.00000000
     0.00000000     0.00000000     0.00000000
     0.00000000     0.00000000     0.00000000
     0.00000000     0.00000000     0.00000000
     0.00000000     0.00000000     0.00000000
     0.00000000     0.00000000     0.00000000
     0.00000000     0.00000000     0.00000000
     0.00000000     0.00000000     0.00000000
     0.00000000     0.00000000     0.00000000
     0.00000000     0.00000000     0.00000000
     0.00000000     0.00000000     0.00000000
     0.00000000     0.00000000     0.00000000
     0.00000000     0.00000000     0.00000000
     0.00000000     0.00000000     0.00000000
     0.00000000     0.00000000     0.00000000
     0.00000000     0.00000000     0.00000000
     0.00000000     0.00000000     0.00000000
     0.00000000     0.00000000     0.00000000
     0.00000000     0.00000000     0.00000000
     0.00000000     0.00000000     0.00000000
     0.00000000     0.00000000     0.00000000
     0.00000000     0.00000000     0.00000000
     0.00000000     0.00000000     0.00000000
     0.00000000     0.00000000     0.00000000
     0.00000000     0.00000000     0.00000000
     0.00000000     0.00000000     0.00000000
     0.00000000     0.00000000     0.00000000
     0.00000000     0.00000000     0.00000000
     0.00000000     0.00000000     0.00000000
     0.00000000     0.00000000     0.00000000
     0.00000000     0.00000000     0.00000000
     0.00000000     0.00000000     0.00000000
     0.00000000     0.00000000     0.00000000
     0.00000000     0.00000000     0.00000000
     0.00000000     0.00000000     0.00000000
     0.00000000     0.00000000     0.00000000
     0.00000000     0.00000000     0.00000000
     0.00000000     0.00000000     0.00000000
     0.00000000     0.00000000     0.00000000
     0.00000000     0.00000000     0.00000000
     0.00000000     0.00000000     0.00000000
     0.00000000     0.00000000     0.00000000
     0.00000000     0.00000000     0.00000000
     0.00000000     0.00000000     0.00000000
     0.00000000     0.00000000     0.00000000
     0.00000000     0.00000000     0.00000000
     0.00000000     0.00000000     0.00000000
     0.00000000     0.00000000     0.00000000
     0.00000000     0.00000000     0.00000000
     0.00000000     0.00000000     0.00000000
     0.00000000     0.00000000     0.00000000
     0.00000000     0.00000000     0.00000000
     0.00000000     0.00000000     0.00000000
     0.00000000     0.00000000     0.00000000
     0.00000000     0.00000000     0.00000000
     0.00000000     0.00000000     0.00000000
     0.00000000     0.00000000     0.00000000
     0.00000000     0.00000000     0.00000000
     0.00000000     0.00000000     0.00000000
     0.00000000     0.00000000     0.00000000
     0.00000000     0.00000000     0.00000000
     0.00000000     0.00000000     0.00000000
     0.00000000     0.00000000     0.00000000
     0.00000000     0.00000000     0.00000000
     0.00000000     0.00000000     0.00000000
     0.00000000     0.00000000     0.00000000
     0.00000000     0.00000000     0.00000000
     0.00000000     0.00000000     0.00000000
     0.00000000     0.00000000     0.00000000
     0.00000000     0.00000000     0.00000000
     0.00000000     0.00000000     0.00000000
     0.00000000     0.00000000     0.00000000
     0.00000000     0.00000000     0.00000000
     0.00000000     0.00000000     0.00000000
     0.00000000     0.00000000     0.00000000
     0.00000000     0.00000000     0.00000000
     0.00000000     0.00000000     0.00000000
     0.00000000     0.00000000     0.00000000
     0.00000000     0.00000000     0.00000000
     0.00000000     0.00000000     0.00000000
     0.00000000     0.00000000     0.00000000
     0.00000000     0.00000000     0.00000000
     0.00000000     0.00000000     0.00000000
     0.00000000     0.00000000     0.00000000
     0.00000000     0.00000000     0.00000000
     0.00000000     0.00000000     0.00000000
     0.00000000     0.00000000     0.00000000
     0.00000000     0.00000000     0.00000000
     0.00000000     0.00000000     0.00000000
     0.00000000     0.00000000     0.00000000
     0.00000000     0.00000000     0.00000000
     0.00000000     0.00000000     0.00000000
     0.00000000     0.00000000     0.00000000
     0.00000000     0.00000000     0.00000000
     0.00000000     0.00000000     0.00000000
     0.00000000     0.00000000     0.00000000
     0.00000000     0.00000000     0.00000000
     0.00000000     0.00000000     0.00000000
     0.00000000     0.00000000     0.00000000
     0.00000000     0.00000000     0.00000000
     0.00000000     0.00000000     0.00000000
     0.00000000     0.00000000     0.00000000
     0.00000000     0.00000000     0.00000000
     0.00000000     0.00000000     0.00000000
     0.00000000     0.00000000     0.00000000
     0.00000000     0.00000000     0.00000000
     0.00000000     0.00000000     0.00000000
     0.00000000     0.00000000     0.00000000
     0.00000000     0.00000000     0.00000000
     0.00000000     0.00000000     0.00000000
     0.00000000     0.00000000     0.00000000
     0.00000000     0.00000000     0.00000000
     0.00000000     0.00000000     0.00000000
     0.00000000     0.00000000     0.00000000
     0.00000000     0.00000000     0.00000000
     0.00000000     0.00000000     0.00000000
     0.00000000     0.00000000     0.00000000
     0.00000000     0.00000000     0.00000000
     0.00000000     0.00000000     0.00000000
     0.00000000     0.00000000     0.00000000
     0.00000000     0.00000000     0.00000000
     0.00000000     0.00000000     0.00000000
     0.00000000     0.00000000     0.00000000
     0.00000000     0.00000000     0.00000000
     0.00000000     0.00000000     0.00000000
     0.00000000     0.00000000     0.00000000
     0.00000000     0.00000000     0.00000000
     0.00000000     0.00000000     0.00000000
     0.00000000     0.00000000     0.00000000
     0.00000000     0.00000000     0.00000000
     0.00000000     0.00000000     0.00000000
     0.00000000     0.00000000     0.00000000
     0.00000000     0.00000000     0.00000000
     0.00000000     0.00000000     0.00000000
     0.00000000     0.00000000     0.00000000
     0.00000000     0.00000000     0.00000000
     0.00000000     0.00000000     0.00000000
     0.00000000     0.00000000     0.00000000
     0.00000000     0.00000000     0.00000000
     0.00000000     0.00000000     0.00000000
     0.00000000     0.00000000     0.00000000
     0.00000000     0.00000000     0.00000000
     0.00000000     0.00000000     0.00000000
     0.00000000     0.00000000     0.00000000
     0.00000000     0.00000000     0.00000000
     0.00000000     0.00000000     0.00000000
     0.00000000     0.00000000     0.00000000
     0.00000000     0.00000000     0.00000000
     0.00000000     0.00000000     0.00000000
     0.00000000     0.00000000     0.00000000
     0.00000000     0.00000000     0.00000000
     0.00000000     0.00000000     0.00000000
     0.00000000     0.00000000     0.00000000
     0.00000000     0.00000000     0.00000000
     0.00000000     0.00000000     0.00000000
     0.00000000     0.00000000     0.00000000
     0.00000000     0.00000000     0.00000000
     0.00000000     0.00000000     0.00000000
     0.00000000     0.00000000     0.00000000
     0.00000000     0.00000000     0.00000000
     0.00000000     0.00000000     0.00000000
     0.00000000     0.00000000     0.00000000
     0.00000000     0.00000000     0.00000000
     0.00000000     0.00000000     0.00000000
     0.00000000     0.00000000     0.00000000
     0.00000000     0.00000000     0.00000000
     0.00000000     0.00000000     0.00000000
     0.00000000     0.00000000     0.00000000
     0.00000000     0.00000000     0.00000000
     0.00000000     0.00000000     0.00000000
     0.00000000     0.00000000     0.00000000
     0.00000000     0.00000000     0.00000000
     0.00000000     0.00000000     0.00000000
     0.00000000     0.00000000     0.00000000
     0.00000000     0.00000000     0.00000000
     0.00000000     0.00000000     0.00000000
     0.00000000     0.00000000     0.00000000
     0.00000000     0.00000000     0.00000000
     0.00000000     0.00000000     0.00000000
     0.00000000     0.00000000     0.00000000
     0.00000000     0.00000000     0.00000000
     0.00000000     0.00000000     0.00000000
     0.00000000     0.00000000     0.00000000
     0.00000000     0.00000000     0.00000000
     0.00000000     0.00000000     0.00000000
     0.00000000     0.00000000     0.00000000
     0.00000000     0.00000000     0.00000000
     0.00000000     0.00000000     0.00000000
     0.00000000     0.00000000     0.00000000
     0.00000000     0.00000000     0.00000000
     0.00000000     0.00000000     0.00000000
     0.00000000     0.00000000     0.00000000
     0.00000000     0.00000000     0.00000000
     0.00000000     0.00000000     0.00000000
     0.00000000     0.00000000     0.00000000
     0.00000000     0.00000000     0.00000000
     0.00000000     0.00000000     0.00000000
     0.00000000     0.00000000     0.00000000
     0.00000000     0.00000000     0.00000000
     0.00000000     0.00000000     0.00000000
     0.00000000     0.00000000     0.00000000
     0.00000000     0.00000000     0.00000000
     0.00000000     0.00000000     0.00000000
     0.00000000     0.00000000     0.00000000
     0.00000000     0.00000000     0.00000000
     0.00000000     0.00000000     0.00000000
     0.00000000     0.00000000     0.00000000
     0.00000000     0.00000000     0.00000000
     0.00000000     0.00000000     0.00000000
     0.00000000     0.00000000     0.00000000
     0.00000000     0.00000000     0.00000000
     0.00000000     0.00000000     0.00000000
     0.00000000     0.00000000     0.00000000
     0.00000000     0.00000000     0.00000000
     0.00000000     0.00000000     0.00000000
     0.00000000     0.00000000     0.00000000
     0.00000000     0.00000000     0.00000000
     0.00000000     0.00000000     0.00000000
     0.00000000     0.00000000     0.00000000
     0.00000000     0.00000000     0.00000000
     0.00000000     0.00000000     0.00000000
     0.00000000     0.00000000     0.00000000
     0.00000000     0.00000000     0.00000000
     0.00000000     0.00000000     0.00000000
     0.00000000     0.00000000     0.00000000
     0.00000000     0.00000000     0.00000000
     0.00000000     0.00000000     0.00000000
     0.00000000     0.00000000     0.00000000
     0.00000000     0.00000000     0.00000000
     0.00000000     0.00000000     0.00000000
     0.00000000     0.00000000     0.00000000
     0.00000000     0.00000000     0.00000000
     0.00000000     0.00000000     0.00000000
     0.00000000     0.00000000     0.00000000
     0.00000000     0.00000000     0.00000000
     0.00000000     0.00000000     0.00000000
     0.00000000     0.00000000     0.00000000
     0.00000000     0.00000000     0.00000000
     0.00000000     0.00000000     0.00000000
     0.00000000     0.00000000     0.00000000
     0.00000000     0.00000000     0.00000000
     0.00000000     0.00000000     0.00000000
     0.00000000     0.00000000     0.00000000
     0.00000000     0.00000000     0.00000000
     0.00000000     0.00000000     0.00000000
     0.00000000     0.00000000     0.00000000
     0.00000000     0.00000000     0.00000000
     0.00000000     0.00000000     0.00000000
     0.00000000     0.00000000     0.00000000
     0.00000000     0.00000000     0.00000000
     0.00000000     0.00000000     0.00000000
     0.00000000     0.00000000     0.00000000
     0.00000000     0.00000000     0.00000000
     0.00000000     0.00000000     0.00000000
     0.00000000     0.00000000     0.00000000
     0.00000000     0.00000000     0.00000000
     0.00000000     0.00000000     0.00000000
     0.00000000     0.00000000     0.00000000
     0.00000000     0.00000000     0.00000000
     0.00000000     0.00000000     0.00000000
     0.00000000     0.00000000     0.00000000
     0.00000000     0.00000000     0.00000000
     0.00000000     0.00000000     0.00000000
     0.00000000     0.00000000     0.00000000
     0.00000000     0.00000000     0.00000000
     0.00000000     0.00000000     0.00000000
     0.00000000     0.00000000     0.00000000
     0.00000000     0.00000000     0.00000000
     0.00000000     0.00000000     0.00000000
     0.00000000     0.00000000     0.00000000
     0.00000000     0.00000000     0.00000000
     0.00000000     0.00000000     0.00000000
     0.00000000     0.00000000     0.00000000
     0.00000000     0.00000000     0.00000000
     0.00000000     0.00000000     0.00000000
     0.00000000     0.00000000     0.00000000
     0.00000000     0.00000000     0.00000000
     0.00000000     0.00000000     0.00000000
     0.00000000     0.00000000     0.00000000
     0.00000000     0.00000000     0.00000000
     0.00000000     0.00000000     0.00000000
     0.00000000     0.00000000     0.00000000
     0.00000000     0.00000000     0.00000000
     0.00000000     0.00000000     0.00000000
     0.00000000     0.00000000     0.00000000
     0.00000000     0.00000000     0.00000000
     0.00000000     0.00000000     0.00000000
     0.00000000     0.00000000     0.00000000
     0.00000000     0.00000000     0.00000000
     0.00000000     0.00000000     0.00000000
     0.00000000     0.00000000     0.00000000
     0.00000000     0.00000000     0.00000000
     0.00000000     0.00000000     0.00000000
     0.00000000     0.00000000     0.00000000
     0.00000000     0.00000000     0.00000000
     0.00000000     0.00000000     0.00000000
     0.00000000     0.00000000     0.00000000
     0.00000000     0.00000000     0.00000000
     0.00000000     0.00000000     0.00000000
     0.00000000     0.00000000     0.00000000
     0.00000000     0.00000000     0.00000000
     0.00000000     0.00000000     0.00000000
     0.00000000     0.00000000     0.00000000
     0.00000000     0.00000000     0.00000000
     0.00000000     0.00000000     0.00000000
     0.00000000     0.00000000     0.00000000
     0.00000000     0.00000000     0.00000000
     0.00000000     0.00000000     0.00000000
     0.00000000     0.00000000     0.00000000
     0.00000000     0.00000000     0.00000000
     0.00000000     0.00000000     0.00000000
     0.00000000     0.00000000     0.00000000
     0.00000000     0.00000000     0.00000000
     0.00000000     0.00000000     0.00000000
     0.00000000     0.00000000     0.00000000
     0.00000000     0.00000000     0.00000000
     0.00000000     0.00000000     0.00000000
     0.00000000     0.00000000     0.00000000
     0.00000000     0.00000000     0.00000000
     0.00000000     0.00000000     0.00000000
     0.00000000     0.00000000     0.00000000
     0.00000000     0.00000000     0.00000000
     0.00000000     0.00000000     0.00000000
     0.00000000     0.00000000     0.00000000
     0.00000000     0.00000000     0.00000000
     0.00000000     0.00000000     0.00000000
     0.00000000     0.00000000     0.00000000
     0.00000000     0.00000000     0.00000000
     0.00000000     0.00000000     0.00000000
     0.00000000     0.00000000     0.00000000
     0.00000000     0.00000000     0.00000000
     0.00000000     0.00000000     0.00000000
     0.00000000     0.00000000     0.00000000
     0.00000000     0.00000000     0.00000000
     0.00000000     0.00000000     0.00000000
     0.00000000     0.00000000     0.00000000
     0.00000000     0.00000000     0.00000000
     0.00000000     0.00000000     0.00000000
     0.00000000     0.00000000     0.00000000
     0.00000000     0.00000000     0.00000000
     0.00000000     0.00000000     0.00000000
     0.00000000     0.00000000     0.00000000
     0.00000000     0.00000000     0.00000000
     0.00000000     0.00000000     0.00000000
     0.00000000     0.00000000     0.00000000
     0.00000000     0.00000000     0.00000000
     0.00000000     0.00000000     0.00000000
     0.00000000     0.00000000     0.00000000
     0.00000000     0.00000000     0.00000000
     0.00000000     0.00000000     0.00000000
     0.00000000     0.00000000     0.00000000
     0.00000000     0.00000000     0.00000000
     0.00000000     0.00000000     0.00000000
     0.00000000     0.00000000     0.00000000
     0.00000000     0.00000000     0.00000000
     0.00000000     0.00000000     0.00000000
     0.00000000     0.00000000     0.00000000
     0.00000000     0.00000000     0.00000000
     0.00000000     0.00000000     0.00000000
     0.00000000     0.00000000     0.00000000
     0.00000000     0.00000000     0.00000000
     0.00000000     0.00000000     0.00000000
     0.00000000     0.00000000     0.00000000
     0.00000000     0.00000000     0.00000000
     0.00000000     0.00000000     0.00000000
     0.00000000     0.00000000     0.00000000
     0.00000000     0.00000000     0.00000000
     0.00000000     0.00000000     0.00000000
     0.00000000     0.00000000     0.00000000
     0.00000000     0.00000000     0.00000000
     0.00000000     0.00000000     0.00000000
     0.00000000     0.00000000     0.00000000
     0.00000000     0.00000000     0.00000000
     0.00000000     0.00000000     0.00000000
     0.00000000     0.00000000     0.00000000
     0.00000000     0.00000000     0.00000000
     0.00000000     0.00000000     0.00000000
     0.00000000     0.00000000     0.00000000
     0.00000000     0.00000000     0.00000000
     0.00000000     0.00000000     0.00000000
     0.00000000     0.00000000     0.00000000
     0.00000000     0.00000000     0.00000000
     0.00000000     0.00000000     0.00000000
     0.00000000     0.00000000     0.00000000
     0.00000000     0.00000000     0.00000000
     0.00000000     0.00000000     0.00000000
     0.00000000     0.00000000     0.00000000
     0.00000000     0.00000000     0.00000000
     0.00000000     0.00000000     0.00000000
     0.00000000     0.00000000     0.00000000
     0.00000000     0.00000000     0.00000000
     0.00000000     0.00000000     0.00000000
     0.00000000     0.00000000     0.00000000
     0.00000000     0.00000000     0.00000000
     0.00000000     0.00000000     0.00000000
     0.00000000     0.00000000     0.00000000
     0.00000000     0.00000000     0.00000000
     0.00000000     0.00000000     0.00000000
     0.00000000     0.00000000     0.00000000
     0.00000000     0.00000000     0.00000000
     0.00000000     0.00000000     0.00000000
     0.00000000     0.00000000     0.00000000
     0.00000000     0.00000000     0.00000000
     0.00000000     0.00000000     0.00000000
     0.00000000     0.00000000     0.00000000
     0.00000000     0.00000000     0.00000000
     0.00000000     0.00000000     0.00000000
     0.00000000     0.00000000     0.00000000
     0.00000000     0.00000000     0.00000000
     0.00000000     0.00000000     0.00000000
     0.00000000     0.00000000     0.00000000
     0.00000000     0.00000000     0.00000000
     0.00000000     0.00000000     0.00000000
     0.00000000     0.00000000     0.00000000
     0.00000000     0.00000000     0.00000000
     0.00000000     0.00000000     0.00000000
     0.00000000     0.00000000     0.00000000
     0.00000000     0.00000000     0.00000000
     0.00000000     0.00000000     0.00000000
     0.00000000     0.00000000     0.00000000
     0.00000000     0.00000000     0.00000000
     0.00000000     0.00000000     0.00000000
     0.00000000     0.00000000     0.00000000
     0.00000000     0.00000000     0.00000000
     0.00000000     0.00000000     0.00000000
     0.00000000     0.00000000     0.00000000
     0.00000000     0.00000000     0.00000000
     0.00000000     0.00000000     0.00000000
     0.00000000     0.00000000     0.00000000
     0.00000000     0.00000000     0.00000000
     0.00000000     0.00000000     0.00000000
     0.00000000     0.00000000     0.00000000
     0.00000000     0.00000000     0.00000000
     0.00000000     0.00000000     0.00000000
     0.00000000     0.00000000     0.00000000
     0.00000000     0.00000000     0.00000000
     0.00000000     0.00000000     0.00000000
     0.00000000     0.00000000     0.00000000
     0.00000000     0.00000000     0.00000000
     0.00000000     0.00000000     0.00000000
     0.00000000     0.00000000     0.00000000
     0.00000000     0.00000000     0.00000000
     0.00000000     0.00000000     0.00000000
     0.00000000     0.00000000     0.00000000
     0.00000000     0.00000000     0.00000000
     0.00000000     0.00000000     0.00000000
     0.00000000     0.00000000     0.00000000
     0.00000000     0.00000000     0.00000000
     0.00000000     0.00000000     0.00000000
     0.00000000     0.00000000     0.00000000
     0.00000000     0.00000000     0.00000000
     0.00000000     0.00000000     0.00000000
     0.00000000     0.00000000     0.00000000
     0.00000000     0.00000000     0.00000000
     0.00000000     0.00000000     0.00000000
     0.00000000     0.00000000     0.00000000
     0.00000000     0.00000000     0.00000000
     0.00000000     0.00000000     0.00000000
     0.00000000     0.00000000     0.00000000
     0.00000000     0.00000000     0.00000000
     0.00000000     0.00000000     0.00000000
     0.00000000     0.00000000     0.00000000
     0.00000000     0.00000000     0.00000000
     0.00000000     0.00000000     0.00000000
     0.00000000     0.00000000     0.00000000
     0.00000000     0.00000000     0.00000000
     0.00000000     0.00000000     0.00000000
     0.00000000     0.00000000     0.00000000
     0.00000000     0.00000000     0.00000000
     0.00000000     0.00000000     0.00000000
     0.00000000     0.00000000     0.00000000
     0.00000000     0.00000000     0.00000000
     0.00000000     0.00000000     0.00000000
     0.00000000     0.00000000     0.00000000
     0.00000000     0.00000000     0.00000000
     0.00000000     0.00000000     0.00000000
     0.00000000     0.00000000     0.00000000
     0.00000000     0.00000000     0.00000000
     0.00000000     0.00000000     0.00000000
     0.00000000     0.00000000     0.00000000
     0.00000000     0.00000000     0.00000000
     0.00000000     0.00000000     0.00000000
     0.00000000     0.00000000     0.00000000
     0.00000000     0.00000000     0.00000000
     0.00000000     0.00000000     0.00000000
     0.00000000     0.00000000     0.00000000
     0.00000000     0.00000000     0.00000000
     0.00000000     0.00000000     0.00000000
     0.00000000     0.00000000     0.00000000
     0.00000000     0.00000000     0.00000000
     0.00000000     0.00000000     0.00000000
     0.00000000     0.00000000     0.00000000
     0.00000000     0.00000000     0.00000000
     0.00000000     0.00000000     0.00000000
     0.00000000     0.00000000     0.00000000
     0.00000000     0.00000000     0.00000000
     0.00000000     0.00000000     0.00000000
     0.00000000     0.00000000     0.00000000
     0.00000000     0.00000000     0.00000000
     0.00000000     0.00000000     0.00000000
     0.00000000     0.00000000     0.00000000
     0.00000000     0.00000000     0.00000000
     0.00000000     0.00000000     0.00000000
     0.00000000     0.00000000     0.00000000
     0.00000000     0.00000000     0.00000000
     0.00000000     0.00000000     0.00000000
     0.00000000     0.00000000     0.00000000
     0.00000000     0.00000000     0.00000000
     0.00000000     0.00000000     0.00000000
     0.00000000     0.00000000     0.00000000
     0.00000000     0.00000000     0.00000000
     0.00000000     0.00000000     0.00000000
     0.00000000     0.00000000     0.00000000
     0.00000000     0.00000000     0.00000000
     0.00000000     0.00000000     0.00000000
     0.00000000     0.00000000     0.00000000
     0.00000000     0.00000000     0.00000000
     0.00000000     0.00000000     0.00000000
     0.00000000     0.00000000     0.00000000
     0.00000000     0.00000000     0.00000000
     0.00000000     0.00000000     0.00000000
     0.00000000     0.00000000     0.00000000
     0.00000000     0.00000000     0.00000000
     0.00000000     0.00000000     0.00000000
     0.00000000     0.00000000     0.00000000
     0.00000000     0.00000000     0.00000000
     0.00000000     0.00000000     0.00000000
     0.00000000     0.00000000     0.00000000
     0.00000000     0.00000000     0.00000000
     0.00000000     0.00000000     0.00000000
     0.00000000     0.00000000     0.00000000
     0.00000000     0.00000000     0.00000000
     0.00000000     0.00000000     0.00000000
     0.00000000     0.00000000     0.00000000
     0.00000000     0.00000000     0.00000000
     0.00000000     0.00000000     0.00000000
     0.00000000     0.00000000     0.00000000
     0.00000000     0.00000000     0.00000000
     0.00000000     0.00000000     0.00000000
     0.00000000     0.00000000     0.00000000
     0.00000000     0.00000000     0.00000000
     0.00000000     0.00000000     0.00000000
     0.00000000     0.00000000     0.00000000
     0.00000000     0.00000000     0.00000000
     0.00000000     0.00000000     0.00000000
     0.00000000     0.00000000     0.00000000
     0.00000000     0.00000000     0.00000000
     0.00000000     0.00000000     0.00000000
     0.00000000     0.00000000     0.00000000
     0.00000000     0.00000000     0.00000000
     0.00000000     0.00000000     0.00000000
     0.00000000     0.00000000     0.00000000
     0.00000000     0.00000000     0.00000000
     0.00000000     0.00000000     0.00000000
     0.00000000     0.00000000     0.00000000
     0.00000000     0.00000000     0.00000000
     0.00000000     0.00000000     0.00000000
     0.00000000     0.00000000     0.00000000
     0.00000000     0.00000000     0.00000000
     0.00000000     0.00000000     0.00000000
     0.00000000     0.00000000     0.00000000
     0.00000000     0.00000000     0.00000000
     0.00000000     0.00000000     0.00000000
     0.00000000     0.00000000     0.00000000
     0.00000000     0.00000000     0.00000000
     0.00000000     0.00000000     0.00000000
     0.00000000     0.00000000     0.00000000
     0.00000000     0.00000000     0.00000000
     0.00000000     0.00000000     0.00000000
     0.00000000     0.00000000     0.00000000
     0.00000000     0.00000000     0.00000000
     0.00000000     0.00000000     0.00000000
     0.00000000     0.00000000     0.00000000
     0.00000000     0.00000000     0.00000000
     0.00000000     0.00000000     0.00000000
     0.00000000     0.00000000     0.00000000
     0.00000000     0.00000000     0.00000000
     0.00000000     0.00000000     0.00000000
     0.00000000     0.00000000     0.00000000
     0.00000000     0.00000000     0.00000000
     0.00000000     0.00000000     0.00000000
     0.00000000     0.00000000     0.00000000
     0.00000000     0.00000000     0.00000000
     0.00000000     0.00000000     0.00000000
     0.00000000     0.00000000     0.00000000
     0.00000000     0.00000000     0.00000000
     0.00000000     0.00000000     0.00000000
     0.00000000     0.00000000     0.00000000
     0.00000000     0.00000000     0.00000000
     0.00000000     0.00000000     0.00000000
     0.00000000     0.00000000     0.00000000
     0.00000000     0.00000000     0.00000000
     0.00000000     0.00000000     0.00000000
     0.00000000     0.00000000     0.00000000
     0.00000000     0.00000000     0.00000000
     0.00000000     0.00000000     0.00000000
     0.00000000     0.00000000     0.00000000
     0.00000000     0.00000000     0.00000000
     0.00000000     0.00000000     0.00000000
     0.00000000     0.00000000     0.00000000
     0.00000000     0.00000000     0.00000000
     0.00000000     0.00000000     0.00000000
     0.00000000     0.00000000     0.00000000
     0.00000000     0.00000000     0.00000000
     0.00000000     0.00000000     0.00000000
     0.00000000     0.00000000     0.00000000
     0.00000000     0.00000000     0.00000000
     0.00000000     0.00000000     0.00000000
     0.00000000     0.00000000     0.00000000
     0.00000000     0.00000000     0.00000000
     0.00000000     0.00000000     0.00000000
     0.00000000     0.00000000     0.00000000
     0.00000000     0.00000000     0.00000000
     0.00000000     0.00000000     0.00000000
     0.00000000     0.00000000     0.00000000
     0.00000000     0.00000000     0.00000000
     0.00000000     0.00000000     0.00000000
     0.00000000     0.00000000     0.00000000
     0.00000000     0.00000000     0.00000000
     0.00000000     0.00000000     0.00000000
     0.00000000     0.00000000     0.00000000
     0.00000000     0.00000000     0.00000000
     0.00000000     0.00000000     0.00000000
     0.00000000     0.00000000     0.00000000
     0.00000000     0.00000000     0.00000000
     0.00000000     0.00000000     0.00000000
     0.00000000     0.00000000     0.00000000
     0.00000000     0.00000000     0.00000000
     0.00000000     0.00000000     0.00000000
     0.00000000     0.00000000     0.00000000
     0.00000000     0.00000000     0.00000000
     0.00000000     0.00000000     0.00000000
     0.00000000     0.00000000     0.00000000
     0.00000000     0.00000000     0.00000000
     0.00000000     0.00000000     0.00000000
     0.00000000     0.00000000     0.00000000
     0.00000000     0.00000000     0.00000000
     0.00000000     0.00000000     0.00000000
     0.00000000     0.00000000     0.00000000
     0.00000000     0.00000000     0.00000000
     0.00000000     0.00000000     0.00000000
     0.00000000     0.00000000     0.00000000
     0.00000000     0.00000000     0.00000000
     0.00000000     0.00000000     0.00000000
     0.00000000     0.00000000     0.00000000
     0.00000000     0.00000000     0.00000000
     0.00000000     0.00000000     0.00000000
     0.00000000     0.00000000     0.00000000
     0.00000000     0.00000000     0.00000000
     0.00000000     0.00000000     0.00000000
     0.00000000     0.00000000     0.00000000
     0.00000000     0.00000000     0.00000000
     0.00000000     0.00000000     0.00000000
     0.00000000     0.00000000     0.00000000
     0.00000000     0.00000000     0.00000000
     0.00000000     0.00000000     0.00000000
     0.00000000     0.00000000     0.00000000
     0.00000000     0.00000000     0.00000000
     0.00000000     0.00000000     0.00000000
     0.00000000     0.00000000     0.00000000
     0.00000000     0.00000000     0.00000000
     0.00000000     0.00000000     0.00000000
     0.00000000     0.00000000     0.00000000
     0.00000000     0.00000000     0.00000000
     0.00000000     0.00000000     0.00000000
     0.00000000     0.00000000     0.00000000
     0.00000000     0.00000000     0.00000000
     0.00000000     0.00000000     0.00000000
     0.00000000     0.00000000     0.00000000
     0.00000000     0.00000000     0.00000000
     0.00000000     0.00000000     0.00000000
     0.00000000     0.00000000     0.00000000
     0.00000000     0.00000000     0.00000000
     0.00000000     0.00000000     0.00000000
     0.00000000     0.00000000     0.00000000
     0.00000000     0.00000000     0.00000000
     0.00000000     0.00000000     0.00000000
     0.00000000     0.00000000     0.00000000
     0.00000000     0.00000000     0.00000000
     0.00000000     0.00000000     0.00000000
     0.00000000     0.00000000     0.00000000
     0.00000000     0.00000000     0.00000000
     0.00000000     0.00000000     0.00000000
     0.00000000     0.00000000     0.00000000
     0.00000000     0.00000000     0.00000000
     0.00000000     0.00000000     0.00000000
     0.00000000     0.00000000     0.00000000
     0.00000000     0.00000000     0.00000000
     0.00000000     0.00000000     0.00000000
     0.00000000     0.00000000     0.00000000
     0.00000000     0.00000000     0.00000000
     0.00000000     0.00000000     0.00000000
     0.00000000     0.00000000     0.00000000
     0.00000000     0.00000000     0.00000000
     0.00000000     0.00000000     0.00000000
     0.00000000     0.00000000     0.00000000
     0.00000000     0.00000000     0.00000000
     0.00000000     0.00000000     0.00000000
     0.00000000     0.00000000     0.00000000
     0.00000000     0.00000000     0.00000000
     0.00000000     0.00000000     0.00000000
     0.00000000     0.00000000     0.00000000
     0.00000000     0.00000000     0.00000000
     0.00000000     0.00000000     0.00000000
     0.00000000     0.00000000     0.00000000
     0.00000000     0.00000000     0.00000000
     0.00000000     0.00000000     0.00000000
     0.00000000     0.00000000     0.00000000
     0.00000000     0.00000000     0.00000000
     0.00000000     0.00000000     0.00000000
     0.00000000     0.00000000     0.00000000
     0.00000000     0.00000000     0.00000000
     0.00000000     0.00000000     0.00000000
     0.00000000     0.00000000     0.00000000
     0.00000000     0.00000000     0.00000000
     0.00000000     0.00000000     0.00000000
     0.00000000     0.00000000     0.00000000
     0.00000000     0.00000000     0.00000000
     0.00000000     0.00000000     0.00000000
     0.00000000     0.00000000     0.00000000
     0.00000000     0.00000000     0.00000000
     0.00000000     0.00000000     0.00000000
     0.00000000     0.00000000     0.00000000
     0.00000000     0.00000000     0.00000000
     0.00000000     0.00000000     0.00000000
     0.00000000     0.00000000     0.00000000
     0.00000000     0.00000000     0.00000000
     0.00000000     0.00000000     0.00000000
     0.00000000     0.00000000     0.00000000
     0.00000000     0.00000000     0.00000000
     0.00000000     0.00000000     0.00000000
     0.00000000     0.00000000     0.00000000
     0.00000000     0.00000000     0.00000000
     0.00000000     0.00000000     0.00000000
     0.00000000     0.00000000     0.00000000
     0.00000000     0.00000000     0.00000000
     0.00000000     0.00000000     0.00000000
     0.00000000     0.00000000     0.00000000
     0.00000000     0.00000000     0.00000000
     0.00000000     0.00000000     0.00000000
     0.00000000     0.00000000     0.00000000
     0.00000000     0.00000000     0.00000000
     0.00000000     0.00000000     0.00000000
     0.00000000     0.00000000     0.00000000
     0.00000000     0.00000000     0.00000000
     0.00000000     0.00000000     0.00000000
     0.00000000     0.00000000     0.00000000
     0.00000000     0.00000000     0.00000000
     0.00000000     0.00000000     0.00000000
     0.00000000     0.00000000     0.00000000
     0.00000000     0.00000000     0.00000000
     0.00000000     0.00000000     0.00000000
     0.00000000     0.00000000     0.00000000
     0.00000000     0.00000000     0.00000000
     0.00000000     0.00000000     0.00000000
     0.00000000     0.00000000     0.00000000
     0.00000000     0.00000000     0.00000000
     0.00000000     0.00000000     0.00000000
     0.00000000     0.00000000     0.00000000
     0.00000000     0.00000000     0.00000000
     0.00000000     0.00000000     0.00000000
     0.00000000     0.00000000     0.00000000
     0.00000000     0.00000000     0.00000000
     0.00000000     0.00000000     0.00000000
     0.00000000     0.00000000     0.00000000
     0.00000000     0.00000000     0.00000000
     0.00000000     0.00000000     0.00000000
     0.00000000     0.00000000     0.00000000
     0.00000000     0.00000000     0.00000000
     0.00000000     0.00000000     0.00000000
     0.00000000     0.00000000     0.00000000
     0.00000000     0.00000000     0.00000000
     0.00000000     0.00000000     0.00000000
     0.00000000     0.00000000     0.00000000
     0.00000000     0.00000000     0.00000000
     0.00000000     0.00000000     0.00000000
     0.00000000     0.00000000     0.00000000
     0.00000000     0.00000000     0.00000000
     0.00000000     0.00000000     0.00000000
     0.00000000     0.00000000     0.00000000
     0.00000000     0.00000000     0.00000000
     0.00000000     0.00000000     0.00000000
     0.00000000     0.00000000     0.00000000
     0.00000000     0.00000000     0.00000000
     0.00000000     0.00000000     0.00000000
     0.00000000     0.00000000     0.00000000
     0.00000000     0.00000000     0.00000000
     0.00000000     0.00000000     0.00000000
     0.00000000     0.00000000     0.00000000
     0.00000000     0.00000000     0.00000000
     0.00000000     0.00000000     0.00000000
     0.00000000     0.00000000     0.00000000
     0.00000000     0.00000000     0.00000000
     0.00000000     0.00000000     0.00000000
     0.00000000     0.00000000     0.00000000
     0.00000000     0.00000000     0.00000000
     0.00000000     0.00000000     0.00000000
     0.00000000     0.00000000     0.00000000
     0.00000000     0.00000000     0.00000000
     0.00000000     0.00000000     0.00000000
     0.00000000     0.00000000     0.00000000
     0.00000000     0.00000000     0.00000000
     0.00000000     0.00000000     0.00000000
     0.00000000     0.00000000     0.00000000
     0.00000000     0.00000000     0.00000000
     0.00000000     0.00000000     0.00000000
     0.00000000     0.00000000     0.00000000
     0.00000000     0.00000000     0.00000000
     0.00000000     0.00000000     0.00000000
     0.00000000     0.00000000     0.00000000
     0.00000000     0.00000000     0.00000000
     0.00000000     0.00000000     0.00000000
     0.00000000     0.00000000     0.00000000
     0.00000000     0.00000000     0.00000000
     0.00000000     0.00000000     0.00000000
     0.00000000     0.00000000     0.00000000
     0.00000000     0.00000000     0.00000000
     0.00000000     0.00000000     0.00000000
     0.00000000     0.00000000     0.00000000
     0.00000000     0.00000000     0.00000000
     0.00000000     0.00000000     0.00000000
     0.00000000     0.00000000     0.00000000
     0.00000000     0.00000000     0.00000000
     0.00000000     0.00000000     0.00000000
     0.00000000     0.00000000     0.00000000
     0.00000000     0.00000000     0.00000000
     0.00000000     0.00000000     0.00000000
     0.00000000     0.00000000     0.00000000
     0.00000000     0.00000000     0.00000000
     0.00000000     0.00000000     0.00000000
     0.00000000     0.00000000     0.00000000
     0.00000000     0.00000000     0.00000000
     0.00000000     0.00000000     0.00000000
     0.00000000     0.00000000     0.00000000
     0.00000000     0.00000000     0.00000000
     0.00000000     0.00000000     0.00000000
     0.00000000     0.00000000     0.00000000
     0.00000000     0.00000000     0.00000000
     0.00000000     0.00000000     0.00000000
     0.00000000     0.00000000     0.00000000
     0.00000000     0.00000000     0.00000000
     0.00000000     0.00000000     0.00000000
     0.00000000     0.00000000     0.00000000
     0.00000000     0.00000000     0.00000000
     0.00000000     0.00000000     0.00000000
     0.00000000     0.00000000     0.00000000
     0.00000000     0.00000000     0.00000000
     0.00000000     0.00000000     0.00000000
     0.00000000     0.00000000     0.00000000
     0.00000000     0.00000000     0.00000000
     0.00000000     0.00000000     0.00000000
     0.00000000     0.00000000     0.00000000
     0.00000000     0.00000000     0.00000000
     0.00000000     0.00000000     0.00000000
     0.00000000     0.00000000     0.00000000
     0.00000000     0.00000000     0.00000000
     0.00000000     0.00000000     0.00000000
     0.00000000     0.00000000     0.00000000
     0.00000000     0.00000000     0.00000000
     0.00000000     0.00000000     0.00000000
     0.00000000     0.00000000     0.00000000
     0.00000000     0.00000000     0.00000000
     0.00000000     0.00000000     0.00000000
     0.00000000     0.00000000     0.00000000
     0.00000000     0.00000000     0.00000000
     0.00000000     0.00000000     0.00000000
     0.00000000     0.00000000     0.00000000
     0.00000000     0.00000000     0.00000000
     0.00000000     0.00000000     0.00000000
     0.00000000     0.00000000     0.00000000
     0.00000000     0.00000000     0.00000000
     0.00000000     0.00000000     0.00000000
     0.00000000     0.00000000     0.00000000
     0.00000000     0.00000000     0.00000000
     0.00000000     0.00000000     0.00000000
     0.00000000     0.00000000     0.00000000
     0.00000000     0.00000000     0.00000000
     0.00000000     0.00000000     0.00000000
     0.00000000     0.00000000     0.00000000
     0.00000000     0.00000000     0.00000000
     0.00000000     0.00000000     0.00000000
     0.00000000     0.00000000     0.00000000
     0.00000000     0.00000000     0.00000000
     0.00000000     0.00000000     0.00000000
     0.00000000     0.00000000     0.00000000
     0.00000000     0.00000000     0.00000000
     0.00000000     0.00000000     0.00000000
     0.00000000     0.00000000     0.00000000
     0.00000000     0.00000000     0.00000000
     0.00000000     0.00000000     0.00000000
     0.00000000     0.00000000     0.00000000
     0.00000000     0.00000000     0.00000000
     0.00000000     0.00000000     0.00000000
     0.00000000     0.00000000     0.00000000
     0.00000000     0.00000000     0.00000000
     0.00000000     0.00000000     0.00000000
     0.00000000     0.00000000     0.00000000
     0.00000000     0.00000000     0.00000000
     0.00000000     0.00000000     0.00000000
     0.00000000     0.00000000     0.00000000
     0.00000000     0.00000000     0.00000000
     0.00000000     0.00000000     0.00000000
     0.00000000     0.00000000     0.00000000
     0.00000000     0.00000000     0.00000000
     0.00000000     0.00000000     0.00000000
     0.00000000     0.00000000     0.00000000
     0.00000000     0.00000000     0.00000000
     0.00000000     0.00000000     0.00000000
     0.00000000     0.00000000     0.00000000
     0.00000000     0.00000000     0.00000000
     0.00000000     0.00000000     0.00000000
     0.00000000     0.00000000     0.00000000
     0.00000000     0.00000000     0.00000000
     0.00000000     0.00000000     0.00000000
     0.00000000     0.00000000     0.00000000
     0.00000000     0.00000000     0.00000000
     0.00000000     0.00000000     0.00000000
     0.00000000     0.00000000     0.00000000
     0.00000000     0.00000000     0.00000000
     0.00000000     0.00000000     0.00000000
     0.00000000     0.00000000     0.00000000
     0.00000000     0.00000000     0.00000000
     0.00000000     0.00000000     0.00000000
     0.00000000     0.00000000     0.00000000
     0.00000000     0.00000000     0.00000000
     0.00000000     0.00000000     0.00000000
     0.00000000     0.00000000     0.00000000
     0.00000000     0.00000000     0.00000000
     0.00000000     0.00000000     0.00000000
     0.00000000     0.00000000     0.00000000
     0.00000000     0.00000000     0.00000000
     0.00000000     0.00000000     0.00000000
     0.00000000     0.00000000     0.00000000
     0.00000000     0.00000000     0.00000000
     0.00000000     0.00000000     0.00000000
     0.00000000     0.00000000     0.00000000
     0.00000000     0.00000000     0.00000000
     0.00000000     0.00000000     0.00000000
     0.00000000     0.00000000     0.00000000
     0.00000000     0.00000000     0.00000000
     0.00000000     0.00000000     0.00000000
     0.00000000     0.00000000     0.00000000
     0.00000000     0.00000000     0.00000000
     0.00000000     0.00000000     0.00000000
     0.00000000     0.00000000     0.00000000
     0.00000000     0.00000000     0.00000000
     0.00000000     0.00000000     0.00000000
     0.00000000     0.00000000     0.00000000
     0.00000000     0.00000000     0.00000000
     0.00000000     0.00000000     0.00000000
     0.00000000     0.00000000     0.00000000
     0.00000000     0.00000000     0.00000000
     0.00000000     0.00000000     0.00000000
     0.00000000     0.00000000     0.00000000
     0.00000000     0.00000000     0.00000000
     0.00000000     0.00000000     0.00000000
     0.00000000     0.00000000     0.00000000
     0.00000000     0.00000000     0.00000000
     0.00000000     0.00000000     0.00000000
     0.00000000     0.00000000     0.00000000
     0.00000000     0.00000000     0.00000000
     0.00000000     0.00000000     0.00000000
     0.00000000     0.00000000     0.00000000
     0.00000000     0.00000000     0.00000000
     0.00000000     0.00000000     0.00000000
     0.00000000     0.00000000     0.00000000
     0.00000000     0.00000000     0.00000000
     0.00000000     0.00000000     0.00000000
     0.00000000     0.00000000     0.00000000
     0.00000000     0.00000000     0.00000000
     0.00000000     0.00000000     0.00000000
     0.00000000     0.00000000     0.00000000
     0.00000000     0.00000000     0.00000000
     0.00000000     0.00000000     0.00000000
     0.00000000     0.00000000     0.00000000
     0.00000000     0.00000000     0.00000000
     0.00000000     0.00000000     0.00000000
     0.00000000     0.00000000     0.00000000
     0.00000000     0.00000000     0.00000000
     0.00000000     0.00000000     0.00000000
     0.00000000     0.00000000     0.00000000
     0.00000000     0.00000000     0.00000000
     0.00000000     0.00000000     0.00000000
     0.00000000     0.00000000     0.00000000
     0.00000000     0.00000000     0.00000000
     0.00000000     0.00000000     0.00000000
     0.00000000     0.00000000     0.00000000
     0.00000000     0.00000000     0.00000000
     0.00000000     0.00000000     0.00000000
     0.00000000     0.00000000     0.00000000
     0.00000000     0.00000000     0.00000000
     0.00000000     0.00000000     0.00000000
     0.00000000     0.00000000     0.00000000
     0.00000000     0.00000000     0.00000000
     0.00000000     0.00000000     0.00000000
     0.00000000     0.00000000     0.00000000
     0.00000000     0.00000000     0.00000000
     0.00000000     0.00000000     0.00000000
     0.00000000     0.00000000     0.00000000
     0.00000000     0.00000000     0.00000000
     0.00000000     0.00000000     0.00000000
     0.00000000     0.00000000     0.00000000
     0.00000000     0.00000000     0.00000000
     0.00000000     0.00000000     0.00000000
     0.00000000     0.00000000     0.00000000
     0.00000000     0.00000000     0.00000000
     0.00000000     0.00000000     0.00000000
     0.00000000     0.00000000     0.00000000
     0.00000000     0.00000000     0.00000000
     0.00000000     0.00000000     0.00000000
     0.00000000     0.00000000     0.00000000
     0.00000000     0.00000000     0.00000000
     0.00000000     0.00000000     0.00000000
     0.00000000     0.00000000     0.00000000
     0.00000000     0.00000000     0.00000000
     0.00000000     0.00000000     0.00000000
     0.00000000     0.00000000     0.00000000
     0.00000000     0.00000000     0.00000000
     0.00000000     0.00000000     0.00000000
     0.00000000     0.00000000     0.00000000
     0.00000000     0.00000000     0.00000000
     0.00000000     0.00000000     0.00000000
     0.00000000     0.00000000     0.00000000
     0.00000000     0.00000000     0.00000000
     0.00000000     0.00000000     0.00000000
     0.00000000     0.00000000     0.00000000
     0.00000000     0.00000000     0.00000000
     0.00000000     0.00000000     0.00000000
     0.00000000     0.00000000     0.00000000
     0.00000000     0.00000000     0.00000000
     0.00000000     0.00000000     0.00000000
     0.00000000     0.00000000     0.00000000
     0.00000000     0.00000000     0.00000000
     0.00000000     0.00000000     0.00000000
     0.00000000     0.00000000     0.00000000
     0.00000000     0.00000000     0.00000000
     0.00000000     0.00000000     0.00000000
     0.00000000     0.00000000     0.00000000
     0.00000000     0.00000000     0.00000000
     0.00000000     0.00000000     0.00000000
     0.00000000     0.00000000     0.00000000
     0.00000000     0.00000000     0.00000000
     0.00000000     0.00000000     0.00000000
     0.00000000     0.00000000     0.00000000
     0.00000000     0.00000000     0.00000000
     0.00000000     0.00000000     0.00000000
     0.00000000     0.00000000     0.00000000
     0.00000000     0.00000000     0.00000000
     0.00000000     0.00000000     0.00000000
     0.00000000     0.00000000     0.00000000
     0.00000000     0.00000000     0.00000000
     0.00000000     0.00000000     0.00000000
     0.00000000     0.00000000     0.00000000
     0.00000000     0.00000000     0.00000000
     0.00000000     0.00000000     0.00000000
     0.00000000     0.00000000     0.00000000
     0.00000000     0.00000000     0.00000000
     0.00000000     0.00000000     0.00000000
     0.00000000     0.00000000     0.00000000
     0.00000000     0.00000000     0.00000000
     0.00000000     0.00000000     0.00000000
     0.00000000     0.00000000     0.00000000
     0.00000000     0.00000000     0.00000000
     0.00000000     0.00000000     0.00000000
     0.00000000     0.00000000     0.00000000
     0.00000000     0.00000000     0.00000000
     0.00000000     0.00000000     0.00000000
     0.00000000     0.00000000     0.00000000
     0.00000000     0.00000000     0.00000000
     0.00000000     0.00000000     0.00000000
     0.00000000     0.00000000     0.00000000
     0.00000000     0.00000000     0.00000000
     0.00000000     0.00000000     0.00000000
     0.00000000     0.00000000     0.00000000
     0.00000000     0.00000000     0.00000000
     0.00000000     0.00000000     0.00000000
     0.00000000     0.00000000     0.00000000
     0.00000000     0.00000000     0.00000000
     0.00000000     0.00000000     0.00000000
     0.00000000     0.00000000     0.00000000
     0.00000000     0.00000000     0.00000000
     0.00000000     0.00000000     0.00000000
     0.00000000     0.00000000     0.00000000
     0.00000000     0.00000000     0.00000000
     0.00000000     0.00000000     0.00000000
     0.00000000     0.00000000     0.00000000
     0.00000000     0.00000000     0.00000000
     0.00000000     0.00000000     0.00000000
     0.00000000     0.00000000     0.00000000
     0.00000000     0.00000000     0.00000000
     0.00000000     0.00000000     0.00000000
     0.00000000     0.00000000     0.00000000
     0.00000000     0.00000000     0.00000000
     0.00000000     0.00000000     0.00000000
     0.00000000     0.00000000     0.00000000
     0.00000000     0.00000000     0.00000000
     0.00000000     0.00000000     0.00000000
     0.00000000     0.00000000     0.00000000
     0.00000000     0.00000000     0.00000000
     0.00000000     0.00000000     0.00000000
     0.00000000     0.00000000     0.00000000
     0.00000000     0.00000000     0.00000000
     0.00000000     0.00000000     0.00000000
     0.00000000     0.00000000     0.00000000
     0.00000000     0.00000000     0.00000000
     0.00000000     0.00000000     0.00000000
     0.00000000     0.00000000     0.00000000
     0.00000000     0.00000000     0.00000000
     0.00000000     0.00000000     0.00000000
     0.00000000     0.00000000     0.00000000
     0.00000000     0.00000000     0.00000000
     0.00000000     0.00000000     0.00000000
     0.00000000     0.00000000     0.00000000
     0.00000000     0.00000000     0.00000000
     0.00000000     0.00000000     0.00000000
     0.00000000     0.00000000     0.00000000
     0.00000000     0.00000000     0.00000000
     0.00000000     0.00000000     0.00000000
     0.00000000     0.00000000     0.00000000
     0.00000000     0.00000000     0.00000000
     0.00000000     0.00000000     0.00000000
     0.00000000     0.00000000     0.00000000
     0.00000000     0.00000000     0.00000000
     0.00000000     0.00000000     0.00000000
     0.00000000     0.00000000     0.00000000
     0.00000000     0.00000000     0.00000000
     0.00000000     0.00000000     0.00000000
     0.00000000     0.00000000     0.00000000
     0.00000000     0.00000000     0.00000000
     0.00000000     0.00000000     0.00000000
     0.00000000     0.00000000     0.00000000
     0.00000000     0.00000000     0.00000000
     0.00000000     0.00000000     0.00000000
     0.00000000     0.00000000     0.00000000
     0.00000000     0.00000000     0.00000000
     0.00000000     0.00000000     0.00000000
     0.00000000     0.00000000     0.00000000
     0.00000000     0.00000000     0.00000000
     0.00000000     0.00000000     0.00000000
     0.00000000     0.00000000     0.00000000
     0.00000000     0.00000000     0.00000000
     0.00000000     0.00000000     0.00000000
     0.00000000     0.00000000     0.00000000
     0.00000000     0.00000000     0.00000000
     0.00000000     0.00000000     0.00000000
     0.00000000     0.00000000     0.00000000
     0.00000000     0.00000000     0.00000000
     0.00000000     0.00000000     0.00000000
     0.00000000     0.00000000     0.00000000
     0.00000000     0.00000000     0.00000000
     0.00000000     0.00000000     0.00000000
     0.00000000     0.00000000     0.00000000
     0.00000000     0.00000000     0.00000000
     0.00000000     0.00000000     0.00000000
     0.00000000     0.00000000     0.00000000
     0.00000000     0.00000000     0.00000000
     0.00000000     0.00000000     0.00000000
     0.00000000     0.00000000     0.00000000
     0.00000000     0.00000000     0.00000000
     0.00000000     0.00000000     0.00000000
     0.00000000     0.00000000     0.00000000
     0.00000000     0.00000000     0.00000000
     0.00000000     0.00000000     0.00000000
     0.00000000     0.00000000     0.00000000
     0.00000000     0.00000000     0.00000000
     0.00000000     0.00000000     0.00000000
     0.00000000     0.00000000     0.00000000
     0.00000000     0.00000000     0.00000000
     0.00000000     0.00000000     0.00000000
     0.00000000     0.00000000     0.00000000
     0.00000000     0.00000000     0.00000000
     0.00000000     0.00000000     0.00000000
     0.00000000     0.00000000     0.00000000
     0.00000000     0.00000000     0.00000000
     0.00000000     0.00000000     0.00000000
     0.00000000     0.00000000     0.00000000
     0.00000000     0.00000000     0.00000000
     0.00000000     0.00000000     0.00000000
     0.00000000     0.00000000     0.00000000
     0.00000000     0.00000000     0.00000000
     0.00000000     0.00000000     0.00000000
     0.00000000     0.00000000     0.00000000
     0.00000000     0.00000000     0.00000000
     0.00000000     0.00000000     0.00000000
     0.00000000     0.00000000     0.00000000
     0.00000000     0.00000000     0.00000000
     0.00000000     0.00000000     0.00000000
     0.00000000     0.00000000     0.00000000
     0.00000000     0.00000000     0.00000000
     0.00000000     0.00000000     0.00000000
     0.00000000     0.00000000     0.00000000
     0.00000000     0.00000000     0.00000000
     0.00000000     0.00000000     0.00000000
     0.00000000     0.00000000     0.00000000
     0.00000000     0.00000000     0.00000000
     0.00000000     0.00000000     0.00000000
     0.00000000     0.00000000     0.00000000
     0.00000000     0.00000000     0.00000000
     0.00000000     0.00000000     0.00000000
     0.00000000     0.00000000     0.00000000
     0.00000000     0.00000000     0.00000000
     0.00000000     0.00000000     0.00000000
     0.00000000     0.00000000     0.00000000
     0.00000000     0.00000000     0.00000000
     0.00000000     0.00000000     0.00000000
     0.00000000     0.00000000     0.00000000
     0.00000000     0.00000000     0.00000000
     0.00000000     0.00000000     0.00000000
     0.00000000     0.00000000     0.00000000
     0.00000000     0.00000000     0.00000000
     0.00000000     0.00000000     0.00000000
     0.00000000     0.00000000     0.00000000
     0.00000000     0.00000000     0.00000000
     0.00000000     0.00000000     0.00000000
     0.00000000     0.00000000     0.00000000
     0.00000000     0.00000000     0.00000000
     0.00000000     0.00000000     0.00000000
     0.00000000     0.00000000     0.00000000
     0.00000000     0.00000000     0.00000000
     0.00000000     0.00000000     0.00000000
     0.00000000     0.00000000     0.00000000
     0.00000000     0.00000000     0.00000000
     0.00000000     0.00000000     0.00000000
     0.00000000     0.00000000     0.00000000
     0.00000000     0.00000000     0.00000000
     0.00000000     0.00000000     0.00000000
     0.00000000     0.00000000     0.00000000
     0.00000000     0.00000000     0.00000000
     0.00000000     0.00000000     0.00000000
     0.00000000     0.00000000     0.00000000
     0.00000000     0.00000000     0.00000000
     0.00000000     0.00000000     0.00000000
     0.00000000     0.00000000     0.00000000
     0.00000000     0.00000000     0.00000000
     0.00000000     0.00000000     0.00000000
     0.00000000     0.00000000     0.00000000
     0.00000000     0.00000000     0.00000000
     0.00000000     0.00000000     0.00000000
     0.00000000     0.00000000     0.00000000
     0.00000000     0.00000000     0.00000000
     0.00000000     0.00000000     0.00000000
     0.00000000     0.00000000     0.00000000
     0.00000000     0.00000000     0.00000000
     0.00000000     0.00000000     0.00000000
     0.00000000     0.00000000     0.00000000
     0.00000000     0.00000000     0.00000000
     0.00000000     0.00000000     0.00000000
     0.00000000     0.00000000     0.00000000
     0.00000000     0.00000000     0.00000000
     0.00000000     0.00000000     0.00000000
     0.00000000     0.00000000     0.00000000
     0.00000000     0.00000000     0.00000000
     0.00000000     0.00000000     0.00000000
     0.00000000     0.00000000     0.00000000
     0.00000000     0.00000000     0.00000000
     0.00000000     0.00000000     0.00000000
     0.00000000     0.00000000     0.00000000
     0.00000000     0.00000000     0.00000000
     0.00000000     0.00000000     0.00000000
     0.00000000     0.00000000     0.00000000
     0.00000000     0.00000000     0.00000000
     0.00000000     0.00000000     0.00000000
     0.00000000     0.00000000     0.00000000
     0.00000000     0.00000000     0.00000000
     0.00000000     0.00000000     0.00000000
     0.00000000     0.00000000     0.00000000
     0.00000000     0.00000000     0.00000000
     0.00000000     0.00000000     0.00000000
     0.00000000     0.00000000     0.00000000
     0.00000000     0.00000000     0.00000000
     0.00000000     0.00000000     0.00000000
     0.00000000     0.00000000     0.00000000
     0.00000000     0.00000000     0.00000000
     0.00000000     0.00000000     0.00000000
     0.00000000     0.00000000     0.00000000
     0.00000000     0.00000000     0.00000000
     0.00000000     0.00000000     0.00000000
     0.00000000     0.00000000     0.00000000
     0.00000000     0.00000000     0.00000000
     0.00000000     0.00000000     0.00000000
     0.00000000     0.00000000     0.00000000
     0.00000000     0.00000000     0.00000000
     0.00000000     0.00000000     0.00000000
     0.00000000     0.00000000     0.00000000
     0.00000000     0.00000000     0.00000000
     0.00000000     0.00000000     0.00000000
     0.00000000     0.00000000     0.00000000
     0.00000000     0.00000000     0.00000000
     0.00000000     0.00000000     0.00000000
     0.00000000     0.00000000     0.00000000
     0.00000000     0.00000000     0.00000000
     0.00000000     0.00000000     0.00000000
     0.00000000     0.00000000     0.00000000
     0.00000000     0.00000000     0.00000000
     0.00000000     0.00000000     0.00000000
     0.00000000     0.00000000     0.00000000
     0.00000000     0.00000000     0.00000000
     0.00000000     0.00000000     0.00000000
     0.00000000     0.00000000     0.00000000
     0.00000000     0.00000000     0.00000000
     0.00000000     0.00000000     0.00000000
     0.00000000     0.00000000     0.00000000
     0.00000000     0.00000000     0.00000000
     0.00000000     0.00000000     0.00000000
     0.00000000     0.00000000     0.00000000
     0.00000000     0.00000000     0.00000000
     0.00000000     0.00000000     0.00000000
     0.00000000     0.00000000     0.00000000
     0.00000000     0.00000000     0.00000000
     0.00000000     0.00000000     0.00000000
     0.00000000     0.00000000     0.00000000
     0.00000000     0.00000000     0.00000000
     0.00000000     0.00000000     0.00000000
     0.00000000     0.00000000     0.00000000
     0.00000000     0.00000000     0.00000000
     0.00000000     0.00000000     0.00000000
     0.00000000     0.00000000     0.00000000
     0.00000000     0.00000000     0.00000000
     0.00000000     0.00000000     0.00000000
     0.00000000     0.00000000     0.00000000
     0.00000000     0.00000000     0.00000000
     0.00000000     0.00000000     0.00000000
     0.00000000     0.00000000     0.00000000
     0.00000000     0.00000000     0.00000000
     0.00000000     0.00000000     0.00000000
     0.00000000     0.00000000     0.00000000
     0.00000000     0.00000000     0.00000000
     0.00000000     0.00000000     0.00000000
     0.00000000     0.00000000     0.00000000
     0.00000000     0.00000000     0.00000000
     0.00000000     0.00000000     0.00000000
     0.00000000     0.00000000     0.00000000
     0.00000000     0.00000000     0.00000000
     0.00000000     0.00000000     0.00000000
     0.00000000     0.00000000     0.00000000
     0.00000000     0.00000000     0.00000000
     0.00000000     0.00000000     0.00000000
     0.00000000     0.00000000     0.00000000
     0.00000000     0.00000000     0.00000000
     0.00000000     0.00000000     0.00000000
     0.00000000     0.00000000     0.00000000
     0.00000000     0.00000000     0.00000000
     0.00000000     0.00000000     0.00000000
     0.00000000     0.00000000     0.00000000
     0.00000000     0.00000000     0.00000000
     0.00000000     0.00000000     0.00000000
     0.00000000     0.00000000     0.00000000
     0.00000000     0.00000000     0.00000000
     0.00000000     0.00000000     0.00000000
     0.00000000     0.00000000     0.00000000
     0.00000000     0.00000000     0.00000000
     0.00000000     0.00000000     0.00000000
     0.00000000     0.00000000     0.00000000
     0.00000000     0.00000000     0.00000000
     0.00000000     0.00000000     0.00000000
     0.00000000     0.00000000     0.00000000
     0.00000000     0.00000000     0.00000000
     0.00000000     0.00000000     0.00000000
     0.00000000     0.00000000     0.00000000
     0.00000000     0.00000000     0.00000000
     0.00000000     0.00000000     0.00000000
     0.00000000     0.00000000     0.00000000
     0.00000000     0.00000000     0.00000000
     0.00000000     0.00000000     0.00000000
     0.00000000     0.00000000     0.00000000
     0.00000000     0.00000000     0.00000000
     0.00000000     0.00000000     0.00000000
     0.00000000     0.00000000     0.00000000
     0.00000000     0.00000000     0.00000000
     0.00000000     0.00000000     0.00000000
     0.00000000     0.00000000     0.00000000
     0.00000000     0.00000000     0.00000000
     0.00000000     0.00000000     0.00000000
     0.00000000     0.00000000     0.00000000
     0.00000000     0.00000000     0.00000000
     0.00000000     0.00000000     0.00000000
     0.00000000     0.00000000     0.00000000
     0.00000000     0.00000000     0.00000000
     0.00000000     0.00000000     0.00000000
     0.00000000     0.00000000     0.00000000
     0.00000000     0.00000000     0.00000000
     0.00000000     0.00000000     0.00000000
     0.00000000     0.00000000     0.00000000
     0.00000000     0.00000000     0.00000000
     0.00000000     0.00000000     0.00000000
     0.00000000     0.00000000     0.00000000
     0.00000000     0.00000000     0.00000000
     0.00000000     0.00000000     0.00000000
     0.00000000     0.00000000     0.00000000
     0.00000000     0.00000000     0.00000000
     0.00000000     0.00000000     0.00000000
     0.00000000     0.00000000     0.00000000
     0.00000000     0.00000000     0.00000000
     0.00000000     0.00000000     0.00000000
     0.00000000     0.00000000     0.00000000
     0.00000000     0.00000000     0.00000000
     0.00000000     0.00000000     0.00000000
     0.00000000     0.00000000     0.00000000
     0.00000000     0.00000000     0.00000000
     0.00000000     0.00000000     0.00000000
     0.00000000     0.00000000     0.00000000
     0.00000000     0.00000000     0.00000000
     0.00000000     0.00000000     0.00000000
     0.00000000     0.00000000     0.00000000
     0.00000000     0.00000000     0.00000000
     0.00000000     0.00000000     0.00000000
     0.00000000     0.00000000     0.00000000
     0.00000000     0.00000000     0.00000000
     0.00000000     0.00000000     0.00000000
     0.00000000     0.00000000     0.00000000
     0.00000000     0.00000000     0.00000000
     0.00000000     0.00000000     0.00000000
     0.00000000     0.00000000     0.00000000
     0.00000000     0.00000000     0.00000000
     0.00000000     0.00000000     0.00000000
     0.00000000     0.00000000     0.00000000
     0.00000000     0.00000000     0.00000000
     0.00000000     0.00000000     0.00000000
     0.00000000     0.00000000     0.00000000
     0.00000000     0.00000000     0.00000000
     0.00000000     0.00000000     0.00000000
     0.00000000     0.00000000     0.00000000
     0.00000000     0.00000000     0.00000000
     0.00000000     0.00000000     0.00000000
     0.00000000     0.00000000     0.00000000
     0.00000000     0.00000000     0.00000000
     0.00000000     0.00000000     0.00000000
     0.00000000     0.00000000     0.00000000
     0.00000000     0.00000000     0.00000000
     0.00000000     0.00000000     0.00000000
     0.00000000     0.00000000     0.00000000
     0.00000000     0.00000000     0.00000000
     0.00000000     0.00000000     0.00000000
     0.00000000     0.00000000     0.00000000
     0.00000000     0.00000000     0.00000000
     0.00000000     0.00000000     0.00000000
     0.00000000     0.00000000     0.00000000
     0.00000000     0.00000000     0.00000000
     0.00000000     0.00000000     0.00000000
     0.00000000     0.00000000     0.00000000
     0.00000000     0.00000000     0.00000000
     0.00000000     0.00000000     0.00000000
     0.00000000     0.00000000     0.00000000
     0.00000000     0.00000000     0.00000000
     0.00000000     0.00000000     0.00000000
     0.00000000     0.00000000     0.00000000
     0.00000000     0.00000000     0.00000000
     0.00000000     0.00000000     0.00000000
     0.00000000     0.00000000     0.00000000
     0.00000000     0.00000000     0.00000000
     0.00000000     0.00000000     0.00000000
     0.00000000     0.00000000     0.00000000
     0.00000000     0.00000000     0.00000000
     0.00000000     0.00000000     0.00000000
     0.00000000     0.00000000     0.00000000
     0.00000000     0.00000000     0.00000000
     0.00000000     0.00000000     0.00000000
     0.00000000     0.00000000     0.00000000
     0.00000000     0.00000000     0.00000000
     0.00000000     0.00000000     0.00000000
     0.00000000     0.00000000     0.00000000
     0.00000000     0.00000000     0.00000000
     0.00000000     0.00000000     0.00000000
     0.00000000     0.00000000     0.00000000
     0.00000000     0.00000000     0.00000000
     0.00000000     0.00000000     0.00000000
     0.00000000     0.00000000     0.00000000
     0.00000000     0.00000000     0.00000000
     0.00000000     0.00000000     0.00000000
     0.00000000     0.00000000     0.00000000
     0.00000000     0.00000000     0.00000000
     0.00000000     0.00000000     0.00000000
     0.00000000     0.00000000     0.00000000
     0.00000000     0.00000000     0.00000000
     0.00000000     0.00000000     0.00000000
     0.00000000     0.00000000     0.00000000
     0.00000000     0.00000000     0.00000000
     0.00000000     0.00000000     0.00000000
     0.00000000     0.00000000     0.00000000
     0.00000000     0.00000000     0.00000000
     0.00000000     0.00000000     0.00000000
     0.00000000     0.00000000     0.00000000
     0.00000000     0.00000000     0.00000000
     0.00000000     0.00000000     0.00000000
     0.00000000     0.00000000     0.00000000
     0.00000000     0.00000000     0.00000000
     0.00000000     0.00000000     0.00000000
     0.00000000     0.00000000     0.00000000
     0.00000000     0.00000000     0.00000000
     0.00000000     0.00000000     0.00000000
     0.00000000     0.00000000     0.00000000
     0.00000000     0.00000000     0.00000000
     0.00000000     0.00000000     0.00000000
     0.00000000     0.00000000     0.00000000
     0.00000000     0.00000000     0.00000000
     0.00000000     0.00000000     0.00000000
     0.00000000     0.00000000     0.00000000
     0.00000000     0.00000000     0.00000000
     0.00000000     0.00000000     0.00000000
     0.00000000     0.00000000     0.00000000
     0.00000000     0.00000000     0.00000000
     0.00000000     0.00000000     0.00000000
     0.00000000     0.00000000     0.00000000
     0.00000000     0.00000000     0.00000000
     0.00000000     0.00000000     0.00000000
     0.00000000     0.00000000     0.00000000
     0.00000000     0.00000000     0.00000000
     0.00000000     0.00000000     0.00000000
     0.00000000     0.00000000     0.00000000
     0.00000000     0.00000000     0.00000000
     0.00000000     0.00000000     0.00000000
     0.00000000     0.00000000     0.00000000
     0.00000000     0.00000000     0.00000000
     0.00000000     0.00000000     0.00000000
     0.00000000     0.00000000     0.00000000
     0.00000000     0.00000000     0.00000000
     0.00000000     0.00000000     0.00000000
     0.00000000     0.00000000     0.00000000
     0.00000000     0.00000000     0.00000000
     0.00000000     0.00000000     0.00000000
     0.00000000     0.00000000     0.00000000
     0.00000000     0.00000000     0.00000000
     0.00000000     0.00000000     0.00000000
     0.00000000     0.00000000     0.00000000
     0.00000000     0.00000000     0.00000000
     0.00000000     0.00000000     0.00000000
     0.00000000     0.00000000     0.00000000
     0.00000000     0.00000000     0.00000000
     0.00000000     0.00000000     0.00000000
     0.00000000     0.00000000     0.00000000
     0.00000000     0.00000000     0.00000000
     0.00000000     0.00000000     0.00000000
     0.00000000     0.00000000     0.00000000
     0.00000000     0.00000000     0.00000000
     0.00000000     0.00000000     0.00000000
     0.00000000     0.00000000     0.00000000
     0.00000000     0.00000000     0.00000000
     0.00000000     0.00000000     0.00000000
     0.00000000     0.00000000     0.00000000
     0.00000000     0.00000000     0.00000000
     0.00000000     0.00000000     0.00000000
     0.00000000     0.00000000     0.00000000
     0.00000000     0.00000000     0.00000000
     0.00000000     0.00000000     0.00000000
     0.00000000     0.00000000     0.00000000
     0.00000000     0.00000000     0.00000000
     0.00000000     0.00000000     0.00000000
     0.00000000     0.00000000     0.00000000
     0.00000000     0.00000000     0.00000000
     0.00000000     0.00000000     0.00000000
     0.00000000     0.00000000     0.00000000
     0.00000000     0.00000000     0.00000000
     0.00000000     0.00000000     0.00000000
     0.00000000     0.00000000     0.00000000
     0.00000000     0.00000000     0.00000000
     0.00000000     0.00000000     0.00000000
     0.00000000     0.00000000     0.00000000
     0.00000000     0.00000000     0.00000000
     0.00000000     0.00000000     0.00000000
     0.00000000     0.00000000     0.00000000
     0.00000000     0.00000000     0.00000000
     0.00000000     0.00000000     0.00000000
     0.00000000     0.00000000     0.00000000
     0.00000000     0.00000000     0.00000000
     0.00000000     0.00000000     0.00000000
     0.00000000     0.00000000     0.00000000
     0.00000000     0.00000000     0.00000000
     0.00000000     0.00000000     0.00000000
     0.00000000     0.00000000     0.00000000
     0.00000000     0.00000000     0.00000000
     0.00000000     0.00000000     0.00000000
     0.00000000     0.00000000     0.00000000
     0.00000000     0.00000000     0.00000000
     0.00000000     0.00000000     0.00000000
     0.00000000     0.00000000     0.00000000
     0.00000000     0.00000000     0.00000000
     0.00000000     0.00000000     0.00000000
     0.00000000     0.00000000     0.00000000
     0.00000000     0.00000000     0.00000000
     0.00000000     0.00000000     0.00000000
     0.00000000     0.00000000     0.00000000
     0.00000000     0.00000000     0.00000000
     0.00000000     0.00000000     0.00000000
     0.00000000     0.00000000     0.00000000
     0.00000000     0.00000000     0.00000000
     0.00000000     0.00000000     0.00000000
     0.00000000     0.00000000     0.00000000
     0.00000000     0.00000000     0.00000000
     0.00000000     0.00000000     0.00000000
     0.00000000     0.00000000     0.00000000
     0.00000000     0.00000000     0.00000000
     0.00000000     0.00000000     0.00000000
     0.00000000     0.00000000     0.00000000
     0.00000000     0.00000000     0.00000000
     0.00000000     0.00000000     0.00000000
     0.00000000     0.00000000     0.00000000
     0.00000000     0.00000000     0.00000000
     0.00000000     0.00000000     0.00000000
     0.00000000     0.00000000     0.00000000
     0.00000000     0.00000000     0.00000000
     0.00000000     0.00000000     0.00000000
     0.00000000     0.00000000     0.00000000
     0.00000000     0.00000000     0.00000000
     0.00000000     0.00000000     0.00000000
     0.00000000     0.00000000     0.00000000
     0.00000000     0.00000000     0.00000000
     0.00000000     0.00000000     0.00000000
     0.00000000     0.00000000     0.00000000
     0.00000000     0.00000000     0.00000000
     0.00000000     0.00000000     0.00000000
     0.00000000     0.00000000     0.00000000
     0.00000000     0.00000000     0.00000000
     0.00000000     0.00000000     0.00000000
     0.00000000     0.00000000     0.00000000
     0.00000000     0.00000000     0.00000000
     0.00000000     0.00000000     0.00000000
     0.00000000     0.00000000     0.00000000
     0.00000000     0.00000000     0.00000000
     0.00000000     0.00000000     0.00000000
     0.00000000     0.00000000     0.00000000
     0.00000000     0.00000000     0.00000000
     0.00000000     0.00000000     0.00000000
     0.00000000     0.00000000     0.00000000
     0.00000000     0.00000000     0.00000000
     0.00000000     0.00000000     0.00000000
     0.00000000     0.00000000     0.00000000
     0.00000000     0.00000000     0.00000000
     0.00000000     0.00000000     0.00000000
     0.00000000     0.00000000     0.00000000
     0.00000000     0.00000000     0.00000000
     0.00000000     0.00000000     0.00000000
     0.00000000     0.00000000     0.00000000
     0.00000000     0.00000000     0.00000000
     0.00000000     0.00000000     0.00000000
     0.00000000     0.00000000     0.00000000
     0.00000000     0.00000000     0.00000000
     0.00000000     0.00000000     0.00000000
     0.00000000     0.00000000     0.00000000
     0.00000000     0.00000000     0.00000000
     0.00000000     0.00000000     0.00000000
     0.00000000     0.00000000     0.00000000
     0.00000000     0.00000000     0.00000000
     0.00000000     0.00000000     0.00000000
     0.00000000     0.00000000     0.00000000
     0.00000000     0.00000000     0.00000000
     0.00000000     0.00000000     0.00000000
     0.00000000     0.00000000     0.00000000
     0.00000000     0.00000000     0.00000000
     0.00000000     0.00000000     0.00000000
     0.00000000     0.00000000     0.00000000
     0.00000000     0.00000000     0.00000000
     0.00000000     0.00000000     0.00000000
     0.00000000     0.00000000     0.00000000
     0.00000000     0.00000000     0.00000000
     0.00000000     0.00000000     0.00000000
     0.00000000     0.00000000     0.00000000
     0.00000000     0.00000000     0.00000000
     0.00000000     0.00000000     0.00000000
     0.00000000     0.00000000     0.00000000
     0.00000000     0.00000000     0.00000000
     0.00000000     0.00000000     0.00000000
     0.00000000     0.00000000     0.00000000
     0.00000000     0.00000000     0.00000000
     0.00000000     0.00000000     0.00000000
     0.00000000     0.00000000     0.00000000
     0.00000000     0.00000000     0.00000000
     0.00000000     0.00000000     0.00000000
     0.00000000     0.00000000     0.00000000
     0.00000000     0.00000000     0.00000000
     0.00000000     0.00000000     0.00000000
     0.00000000     0.00000000     0.00000000
     0.00000000     0.00000000     0.00000000
     0.00000000     0.00000000     0.00000000
     0.00000000     0.00000000     0.00000000
     0.00000000     0.00000000     0.00000000
     0.00000000     0.00000000     0.00000000
     0.00000000     0.00000000     0.00000000
     0.00000000     0.00000000     0.00000000
     0.00000000     0.00000000     0.00000000
     0.00000000     0.00000000     0.00000000
     0.00000000     0.00000000     0.00000000
     0.00000000     0.00000000     0.00000000
     0.00000000     0.00000000     0.00000000
     0.00000000     0.00000000     0.00000000
     0.00000000     0.00000000     0.00000000
     0.00000000     0.00000000     0.00000000
     0.00000000     0.00000000     0.00000000
     0.00000000     0.00000000     0.00000000
     0.00000000     0.00000000     0.00000000
     0.00000000     0.00000000     0.00000000
     0.00000000     0.00000000     0.00000000
     0.00000000     0.00000000     0.00000000
     0.00000000     0.00000000     0.00000000
     0.00000000     0.00000000     0.00000000
     0.00000000     0.00000000     0.00000000
     0.00000000     0.00000000     0.00000000
     0.00000000     0.00000000     0.00000000
     0.00000000     0.00000000     0.00000000
     0.00000000     0.00000000     0.00000000
     0.00000000     0.00000000     0.00000000
     0.00000000     0.00000000     0.00000000
     0.00000000     0.00000000     0.00000000
     0.00000000     0.00000000     0.00000000
     0.00000000     0.00000000     0.00000000
     0.00000000     0.00000000     0.00000000
     0.00000000     0.00000000     0.00000000
     0.00000000     0.00000000     0.00000000
     0.00000000     0.00000000     0.00000000
     0.00000000     0.00000000     0.00000000
     0.00000000     0.00000000     0.00000000
     0.00000000     0.00000000     0.00000000
     0.00000000     0.00000000     0.00000000
     0.00000000     0.00000000     0.00000000
     0.00000000     0.00000000     0.00000000
     0.00000000     0.00000000     0.00000000
     0.00000000     0.00000000     0.00000000
     0.00000000     0.00000000     0.00000000
     0.00000000     0.00000000     0.00000000
     0.00000000     0.00000000     0.00000000
     0.00000000     0.00000000     0.00000000
     0.00000000     0.00000000     0.00000000
     0.00000000     0.00000000     0.00000000
     0.00000000     0.00000000     0.00000000
     0.00000000     0.00000000     0.00000000
     0.00000000     0.00000000     0.00000000
     0.00000000     0.00000000     0.00000000
     0.00000000     0.00000000     0.00000000
     0.00000000     0.00000000     0.00000000
     0.00000000     0.00000000     0.00000000
     0.00000000     0.00000000     0.00000000
     0.00000000     0.00000000     0.00000000
     0.00000000     0.00000000     0.00000000
     0.00000000     0.00000000     0.00000000
     0.00000000     0.00000000     0.00000000
     0.00000000     0.00000000     0.00000000
     0.00000000     0.00000000     0.00000000
     0.00000000     0.00000000     0.00000000
     0.00000000     0.00000000     0.00000000
     0.00000000     0.00000000     0.00000000
     0.00000000     0.00000000     0.00000000
     0.00000000     0.00000000     0.00000000
     0.00000000     0.00000000     0.00000000
     0.00000000     0.00000000     0.00000000
     0.00000000     0.00000000     0.00000000
     0.00000000     0.00000000     0.00000000
     0.00000000     0.00000000     0.00000000
     0.00000000     0.00000000     0.00000000
     0.00000000     0.00000000     0.00000000
     0.00000000     0.00000000     0.00000000
     0.00000000     0.00000000     0.00000000
     0.00000000     0.00000000     0.00000000
     0.00000000     0.00000000     0.00000000
     0.00000000     0.00000000     0.00000000
     0.00000000     0.00000000     0.00000000
     0.00000000     0.00000000     0.00000000
     0.00000000     0.00000000     0.00000000
     0.00000000     0.00000000     0.00000000
     0.00000000     0.00000000     0.00000000
     0.00000000     0.00000000     0.00000000
     0.00000000     0.00000000     0.00000000
     0.00000000     0.00000000     0.00000000
     0.00000000     0.00000000     0.00000000
     0.00000000     0.00000000     0.00000000
     0.00000000     0.00000000     0.00000000
     0.00000000     0.00000000     0.00000000
     0.00000000     0.00000000     0.00000000
     0.00000000     0.00000000     0.00000000
     0.00000000     0.00000000     0.00000000
     0.00000000     0.00000000     0.00000000
     0.00000000     0.00000000     0.00000000
     0.00000000     0.00000000     0.00000000
     0.00000000     0.00000000     0.00000000
     0.00000000     0.00000000     0.00000000
     0.00000000     0.00000000     0.00000000
     0.00000000     0.00000000     0.00000000
     0.00000000     0.00000000     0.00000000
     0.00000000     0.00000000     0.00000000
     0.00000000     0.00000000     0.00000000
     0.00000000     0.00000000     0.00000000
     0.00000000     0.00000000     0.00000000
     0.00000000     0.00000000     0.00000000
     0.00000000     0.00000000     0.00000000
     0.00000000     0.00000000     0.00000000
     0.00000000     0.00000000     0.00000000
     0.00000000     0.00000000     0.00000000
     0.00000000     0.00000000     0.00000000
     0.00000000     0.00000000     0.00000000
     0.00000000     0.00000000     0.00000000
     0.00000000     0.00000000     0.00000000
     0.00000000     0.00000000     0.00000000
     0.00000000     0.00000000     0.00000000
     0.00000000     0.00000000     0.00000000
     0.00000000     0.00000000     0.00000000
     0.00000000     0.00000000     0.00000000
     0.00000000     0.00000000     0.00000000
     0.00000000     0.00000000     0.00000000
     0.00000000     0.00000000     0.00000000
     0.00000000     0.00000000     0.00000000
     0.00000000     0.00000000     0.00000000
     0.00000000     0.00000000     0.00000000
     0.00000000     0.00000000     0.00000000
     0.00000000     0.00000000     0.00000000
     0.00000000     0.00000000     0.00000000
     0.00000000     0.00000000     0.00000000
     0.00000000     0.00000000     0.00000000
     0.00000000     0.00000000     0.00000000
     0.00000000     0.00000000     0.00000000
     0.00000000     0.00000000     0.00000000
     0.00000000     0.00000000     0.00000000
     0.00000000     0.00000000     0.00000000
     0.00000000     0.00000000     0.00000000
     0.00000000     0.00000000     0.00000000
     0.00000000     0.00000000     0.00000000
     0.00000000     0.00000000     0.00000000
     0.00000000     0.00000000     0.00000000
     0.00000000     0.00000000     0.00000000
     0.00000000     0.00000000     0.00000000
     0.00000000     0.00000000     0.00000000
     0.00000000     0.00000000     0.00000000
     0.00000000     0.00000000     0.00000000
     0.00000000     0.00000000     0.00000000
     0.00000000     0.00000000     0.00000000
     0.00000000     0.00000000     0.00000000
     0.00000000     0.00000000     0.00000000
     0.00000000     0.00000000     0.00000000
     0.00000000     0.00000000     0.00000000
     0.00000000     0.00000000     0.00000000
     0.00000000     0.00000000     0.00000000
     0.00000000     0.00000000     0.00000000
     0.00000000     0.00000000     0.00000000
     0.00000000     0.00000000     0.00000000
     0.00000000     0.00000000     0.00000000
     0.00000000     0.00000000     0.00000000
     0.00000000     0.00000000     0.00000000
     0.00000000     0.00000000     0.00000000
     0.00000000     0.00000000     0.00000000
     0.00000000     0.00000000     0.00000000
     0.00000000     0.00000000     0.00000000
     0.00000000     0.00000000     0.00000000
     0.00000000     0.00000000     0.00000000
     0.00000000     0.00000000     0.00000000
     0.00000000     0.00000000     0.00000000
     0.00000000     0.00000000     0.00000000
     0.00000000     0.00000000     0.00000000
     0.00000000     0.00000000     0.00000000
     0.00000000     0.00000000     0.00000000
     0.00000000     0.00000000     0.00000000
     0.00000000     0.00000000     0.00000000
     0.00000000     0.00000000     0.00000000
     0.00000000     0.00000000     0.00000000
     0.00000000     0.00000000     0.00000000
     0.00000000     0.00000000     0.00000000
     0.00000000     0.00000000     0.00000000
     0.00000000     0.00000000     0.00000000
     0.00000000     0.00000000     0.00000000
     0.00000000     0.00000000     0.00000000
     0.00000000     0.00000000     0.00000000
     0.00000000     0.00000000     0.00000000
     0.00000000     0.00000000     0.00000000
     0.00000000     0.00000000     0.00000000
     0.00000000     0.00000000     0.00000000
     0.00000000     0.00000000     0.00000000
     0.00000000     0.00000000     0.00000000
     0.00000000     0.00000000     0.00000000
     0.00000000     0.00000000     0.00000000
     0.00000000     0.00000000     0.00000000
     0.00000000     0.00000000     0.00000000
     0.00000000     0.00000000     0.00000000
     0.00000000     0.00000000     0.00000000
     0.00000000     0.00000000     0.00000000
     0.00000000     0.00000000     0.00000000
     0.00000000     0.00000000     0.00000000
     0.00000000     0.00000000     0.00000000
     0.00000000     0.00000000     0.00000000
     0.00000000     0.00000000     0.00000000
     0.00000000     0.00000000     0.00000000
     0.00000000     0.00000000     0.00000000
     0.00000000     0.00000000     0.00000000
     0.00000000     0.00000000     0.00000000
     0.00000000     0.00000000     0.00000000
     0.00000000     0.00000000     0.00000000
     0.00000000     0.00000000     0.00000000
     0.00000000     0.00000000     0.00000000
     0.00000000     0.00000000     0.00000000
     0.00000000     0.00000000     0.00000000
     0.00000000     0.00000000     0.00000000
     0.00000000     0.00000000     0.00000000
     0.00000000     0.00000000     0.00000000
     0.00000000     0.00000000     0.00000000
     0.00000000     0.00000000     0.00000000
     0.00000000     0.00000000     0.00000000
     0.00000000     0.00000000     0.00000000
     0.00000000     0.00000000     0.00000000
     0.00000000     0.00000000     0.00000000
     0.00000000     0.00000000     0.00000000
     0.00000000     0.00000000     0.00000000
     0.00000000     0.00000000     0.00000000
     0.00000000     0.00000000     0.00000000
     0.00000000     0.00000000     0.00000000
     0.00000000     0.00000000     0.00000000
     0.00000000     0.00000000     0.00000000
     0.00000000     0.00000000     0.00000000
     0.00000000     0.00000000     0.00000000
     0.00000000     0.00000000     0.00000000
     0.00000000     0.00000000     0.00000000
     0.00000000     0.00000000     0.00000000
     0.00000000     0.00000000     0.00000000
     0.00000000     0.00000000     0.00000000
     0.00000000     0.00000000     0.00000000
     0.00000000     0.00000000     0.00000000
     0.00000000     0.00000000     0.00000000
     0.00000000     0.00000000     0.00000000
     0.00000000     0.00000000     0.00000000
     0.00000000     0.00000000     0.00000000
     0.00000000     0.00000000     0.00000000
     0.00000000     0.00000000     0.00000000
     0.00000000     0.00000000     0.00000000
     0.00000000     0.00000000     0.00000000
     0.00000000     0.00000000     0.00000000
     0.00000000     0.00000000     0.00000000
     0.00000000     0.00000000     0.00000000
     0.00000000     0.00000000     0.00000000
     0.00000000     0.00000000     0.00000000
     0.00000000     0.00000000     0.00000000
     0.00000000     0.00000000     0.00000000
     0.00000000     0.00000000     0.00000000
     0.00000000     0.00000000     0.00000000
     0.00000000     0.00000000     0.00000000
     0.00000000     0.00000000     0.00000000
     0.00000000     0.00000000     0.00000000
     0.00000000     0.00000000     0.00000000
     0.00000000     0.00000000     0.00000000
     0.00000000     0.00000000     0.00000000
     0.00000000     0.00000000     0.00000000
     0.00000000     0.00000000     0.00000000
     0.00000000     0.00000000     0.00000000
     0.00000000     0.00000000     0.00000000
     0.00000000     0.00000000     0.00000000
     0.00000000     0.00000000     0.00000000
     0.00000000     0.00000000     0.00000000
     0.00000000     0.00000000     0.00000000
     0.00000000     0.00000000     0.00000000
     0.00000000     0.00000000     0.00000000
     0.00000000     0.00000000     0.00000000
     0.00000000     0.00000000     0.00000000
     0.00000000     0.00000000     0.00000000
     0.00000000     0.00000000     0.00000000
     0.00000000     0.00000000     0.00000000
     0.00000000     0.00000000     0.00000000
     0.00000000     0.00000000     0.00000000
     0.00000000     0.00000000     0.00000000
     0.00000000     0.00000000     0.00000000
     0.00000000     0.00000000     0.00000000
     0.00000000     0.00000000     0.00000000
     0.00000000     0.00000000     0.00000000
     0.00000000     0.00000000     0.00000000
     0.00000000     0.00000000     0.00000000
     0.00000000     0.00000000     0.00000000
     0.00000000     0.00000000     0.00000000
     0.00000000     0.00000000     0.00000000
     0.00000000     0.00000000     0.00000000
     0.00000000     0.00000000     0.00000000
     0.00000000     0.00000000     0.00000000
     0.00000000     0.00000000     0.00000000
     0.00000000     0.00000000     0.00000000
     0.00000000     0.00000000     0.00000000
     0.00000000     0.00000000     0.00000000
     0.00000000     0.00000000     0.00000000
     0.00000000     0.00000000     0.00000000
     0.00000000     0.00000000     0.00000000
     0.00000000     0.00000000     0.00000000
     0.00000000     0.00000000     0.00000000
     0.00000000     0.00000000     0.00000000
     0.00000000     0.00000000     0.00000000
     0.00000000     0.00000000     0.00000000
     0.00000000     0.00000000     0.00000000
     0.00000000     0.00000000     0.00000000
     0.00000000     0.00000000     0.00000000
     0.00000000     0.00000000     0.00000000
     0.00000000     0.00000000     0.00000000
     0.00000000     0.00000000     0.00000000
     0.00000000     0.00000000     0.00000000
     0.00000000     0.00000000     0.00000000
     0.00000000     0.00000000     0.00000000
     0.00000000     0.00000000     0.00000000
     0.00000000     0.00000000     0.00000000
     0.00000000     0.00000000     0.00000000
     0.00000000     0.00000000     0.00000000
     0.00000000     0.00000000     0.00000000
     0.00000000     0.00000000     0.00000000
     0.00000000     0.00000000     0.00000000
     0.00000000     0.00000000     0.00000000
     0.00000000     0.00000000     0.00000000
     0.00000000     0.00000000     0.00000000
     0.00000000     0.00000000     0.00000000
     0.00000000     0.00000000     0.00000000
     0.00000000     0.00000000     0.00000000
     0.00000000     0.00000000     0.00000000
     0.00000000     0.00000000     0.00000000
     0.00000000     0.00000000     0.00000000
     0.00000000     0.00000000     0.00000000
     0.00000000     0.00000000     0.00000000
     0.00000000     0.00000000     0.00000000
     0.00000000     0.00000000     0.00000000
     0.00000000     0.00000000     0.00000000
     0.00000000     0.00000000     0.00000000
     0.00000000     0.00000000     0.00000000
     0.00000000     0.00000000     0.00000000
     0.00000000     0.00000000     0.00000000
     0.00000000     0.00000000     0.00000000
     0.00000000     0.00000000     0.00000000
     0.00000000     0.00000000     0.00000000
     0.00000000     0.00000000     0.00000000
     0.00000000     0.00000000     0.00000000
     0.00000000     0.00000000     0.00000000
     0.00000000     0.00000000     0.00000000
     0.00000000     0.00000000     0.00000000
     0.00000000     0.00000000     0.00000000
     0.00000000     0.00000000     0.00000000
     0.00000000     0.00000000     0.00000000
     0.00000000     0.00000000     0.00000000
     0.00000000     0.00000000     0.00000000
     0.00000000     0.00000000     0.00000000
     0.00000000     0.00000000     0.00000000
     0.00000000     0.00000000     0.00000000
     0.00000000     0.00000000     0.00000000
     0.00000000     0.00000000     0.00000000
     0.00000000     0.00000000     0.00000000
     0.00000000     0.00000000     0.00000000
     0.00000000     0.00000000     0.00000000
     0.00000000     0.00000000     0.00000000
     0.00000000     0.00000000     0.00000000
     0.00000000     0.00000000     0.00000000
     0.00000000     0.00000000     0.00000000
     0.00000000     0.00000000     0.00000000
     0.00000000     0.00000000     0.00000000
     0.00000000     0.00000000     0.00000000
     0.00000000     0.00000000     0.00000000
     0.00000000     0.00000000     0.00000000
     0.00000000     0.00000000     0.00000000
     0.00000000     0.00000000     0.00000000
     0.00000000     0.00000000     0.00000000
     0.00000000     0.00000000     0.00000000
     0.00000000     0.00000000     0.00000000
     0.00000000     0.00000000     0.00000000
     0.00000000     0.00000000     0.00000000
     0.00000000     0.00000000     0.00000000
     0.00000000     0.00000000     0.00000000
     0.00000000     0.00000000     0.00000000
     0.00000000     0.00000000     0.00000000
     0.00000000     0.00000000     0.00000000
     0.00000000     0.00000000     0.00000000
     0.00000000     0.00000000     0.00000000
     0.00000000     0.00000000     0.00000000
     0.00000000     0.00000000     0.00000000
     0.00000000     0.00000000     0.00000000
     0.00000000     0.00000000     0.00000000
     0.00000000     0.00000000     0.00000000
     0.00000000     0.00000000     0.00000000
     0.00000000     0.00000000     0.00000000
     0.00000000     0.00000000     0.00000000
     0.00000000     0.00000000     0.00000000
     0.00000000     0.00000000     0.00000000
     0.00000000     0.00000000     0.00000000
     0.00000000     0.00000000     0.00000000
     0.00000000     0.00000000     0.00000000
     0.00000000     0.00000000     0.00000000
     0.00000000     0.00000000     0.00000000
     0.00000000     0.00000000     0.00000000
     0.00000000     0.00000000     0.00000000
     0.00000000     0.00000000     0.00000000
     0.00000000     0.00000000     0.00000000
     0.00000000     0.00000000     0.00000000
     0.00000000     0.00000000     0.00000000
     0.00000000     0.00000000     0.00000000
     0.00000000     0.00000000     0.00000000
     0.00000000     0.00000000     0.00000000
     0.00000000     0.00000000     0.00000000
     0.00000000     0.00000000     0.00000000
     0.00000000     0.00000000     0.00000000
     0.00000000     0.00000000     0.00000000
     0.00000000     0.00000000     0.00000000
     0.00000000     0.00000000     0.00000000
     0.00000000     0.00000000     0.00000000
     0.00000000     0.00000000     0.00000000
     0.00000000     0.00000000     0.00000000
     0.00000000     0.00000000     0.00000000
     0.00000000     0.00000000     0.00000000
     0.00000000     0.00000000     0.00000000
     0.00000000     0.00000000     0.00000000
     0.00000000     0.00000000     0.00000000
     0.00000000     0.00000000     0.00000000
     0.00000000     0.00000000     0.00000000
     0.00000000     0.00000000     0.00000000
     0.00000000     0.00000000     0.00000000
     0.00000000     0.00000000     0.00000000
     0.00000000     0.00000000     0.00000000
     0.00000000     0.00000000     0.00000000
     0.00000000     0.00000000     0.00000000
     0.00000000     0.00000000     0.00000000
     0.00000000     0.00000000     0.00000000
     0.00000000     0.00000000     0.00000000
     0.00000000     0.00000000     0.00000000
     0.00000000     0.00000000     0.00000000
     0.00000000     0.00000000     0.00000000
     0.00000000     0.00000000     0.00000000
     0.00000000     0.00000000     0.00000000
     0.00000000     0.00000000     0.00000000
     0.00000000     0.00000000     0.00000000
     0.00000000     0.00000000     0.00000000
     0.00000000     0.00000000     0.00000000
     0.00000000     0.00000000     0.00000000
     0.00000000     0.00000000     0.00000000
     0.00000000     0.00000000     0.00000000
     0.00000000     0.00000000     0.00000000
     0.00000000     0.00000000     0.00000000
     0.00000000     0.00000000     0.00000000
     0.00000000     0.00000000     0.00000000
     0.00000000     0.00000000     0.00000000
     0.00000000     0.00000000     0.00000000
     0.00000000     0.00000000     0.00000000
     0.00000000     0.00000000     0.00000000
     0.00000000     0.00000000     0.00000000
     0.00000000     0.00000000     0.00000000
     0.00000000     0.00000000     0.00000000
     0.00000000     0.00000000     0.00000000
     0.00000000     0.00000000     0.00000000
     0.00000000     0.00000000     0.00000000
     0.00000000     0.00000000     0.00000000
     0.00000000     0.00000000     0.00000000
     0.00000000     0.00000000     0.00000000
     0.00000000     0.00000000     0.00000000
     0.00000000     0.00000000     0.00000000
     0.00000000     0.00000000     0.00000000
     0.00000000     0.00000000     0.00000000
     0.00000000     0.00000000     0.00000000
     0.00000000     0.00000000     0.00000000
     0.00000000     0.00000000     0.00000000
     0.00000000     0.00000000     0.00000000
     0.00000000     0.00000000     0.00000000
     0.00000000     0.00000000     0.00000000
     0.00000000     0.00000000     0.00000000
     0.00000000     0.00000000     0.00000000
     0.00000000     0.00000000     0.00000000
     0.00000000     0.00000000     0.00000000
     0.00000000     0.00000000     0.00000000
     0.00000000     0.00000000     0.00000000
     0.00000000     0.00000000     0.00000000
     0.00000000     0.00000000     0.00000000
     0.00000000     0.00000000     0.00000000
     0.00000000     0.00000000     0.00000000
     0.00000000     0.00000000     0.00000000
     0.00000000     0.00000000     0.00000000
     0.00000000     0.00000000     0.00000000
     0.00000000     0.00000000     0.00000000
     0.00000000     0.00000000     0.00000000
     0.00000000     0.00000000     0.00000000
     0.00000000     0.00000000     0.00000000
     0.00000000     0.00000000     0.00000000
     0.00000000     0.00000000     0.00000000
     0.00000000     0.00000000     0.00000000
     0.00000000     0.00000000     0.00000000
     0.00000000     0.00000000     0.00000000
     0.00000000     0.00000000     0.00000000
     0.00000000     0.00000000     0.00000000
     0.00000000     0.00000000     0.00000000
     0.00000000     0.00000000     0.00000000
     0.00000000     0.00000000     0.00000000
     0.00000000     0.00000000     0.00000000
     0.00000000     0.00000000     0.00000000
     0.00000000     0.00000000     0.00000000
     0.00000000     0.00000000     0.00000000
     0.00000000     0.00000000     0.00000000
     0.00000000     0.00000000     0.00000000
     0.00000000     0.00000000     0.00000000
     0.00000000     0.00000000     0.00000000
     0.00000000     0.00000000     0.00000000
     0.00000000     0.00000000     0.00000000
     0.00000000     0.00000000     0.00000000
     0.00000000     0.00000000     0.00000000
     0.00000000     0.00000000     0.00000000
     0.00000000     0.00000000     0.00000000
     0.00000000     0.00000000     0.00000000
     0.00000000     0.00000000     0.00000000
     0.00000000     0.00000000     0.00000000
     0.00000000     0.00000000     0.00000000
     0.00000000     0.00000000     0.00000000
     0.00000000     0.00000000     0.00000000
     0.00000000     0.00000000     0.00000000
     0.00000000     0.00000000     0.00000000
     0.00000000     0.00000000     0.00000000
     0.00000000     0.00000000     0.00000000
     0.00000000     0.00000000     0.00000000
     0.00000000     0.00000000     0.00000000
     0.00000000     0.00000000     0.00000000
     0.00000000     0.00000000     0.00000000
     0.00000000     0.00000000     0.00000000
     0.00000000     0.00000000     0.00000000
     0.00000000     0.00000000     0.00000000
     0.00000000     0.00000000     0.00000000
     0.00000000     0.00000000     0.00000000
     0.00000000     0.00000000     0.00000000
     0.00000000     0.00000000     0.00000000
     0.00000000     0.00000000     0.00000000
     0.00000000     0.00000000     0.00000000
     0.00000000     0.00000000     0.00000000
     0.00000000     0.00000000     0.00000000
     0.00000000     0.00000000     0.00000000
     0.00000000     0.00000000     0.00000000
     0.00000000     0.00000000     0.00000000
     0.00000000     0.00000000     0.00000000
     0.00000000     0.00000000     0.00000000
     0.00000000     0.00000000     0.00000000
     0.00000000     0.00000000     0.00000000
     0.00000000     0.00000000     0.00000000
     0.00000000     0.00000000     0.00000000
     0.00000000     0.00000000     0.00000000
     0.00000000     0.00000000     0.00000000
     0.00000000     0.00000000     0.00000000
     0.00000000     0.00000000     0.00000000
     0.00000000     0.00000000     0.00000000
     0.00000000     0.00000000     0.00000000
     0.00000000     0.00000000     0.00000000
     0.00000000     0.00000000     0.00000000
     0.00000000     0.00000000     0.00000000
     0.00000000     0.00000000     0.00000000
     0.00000000     0.00000000     0.00000000
     0.00000000     0.00000000     0.00000000
     0.00000000     0.00000000     0.00000000
     0.00000000     0.00000000     0.00000000
     0.00000000     0.00000000     0.00000000
     0.00000000     0.00000000     0.00000000
     0.00000000     0.00000000     0.00000000
     0.00000000     0.00000000     0.00000000
     0.00000000     0.00000000     0.00000000
     0.00000000     0.00000000     0.00000000
     0.00000000     0.00000000     0.00000000
     0.00000000     0.00000000     0.00000000
     0.00000000     0.00000000     0.00000000
     0.00000000     0.00000000     0.00000000
     0.00000000     0.00000000     0.00000000
     0.00000000     0.00000000     0.00000000
     0.00000000     0.00000000     0.00000000
     0.00000000     0.00000000     0.00000000
     0.00000000     0.00000000     0.00000000
     0.00000000     0.00000000     0.00000000
     0.00000000     0.00000000     0.00000000
     0.00000000     0.00000000     0.00000000
     0.00000000     0.00000000     0.00000000
     0.00000000     0.00000000     0.00000000
     0.00000000     0.00000000     0.00000000
     0.00000000     0.00000000     0.00000000
     0.00000000     0.00000000     0.00000000
     0.00000000     0.00000000     0.00000000
     0.00000000     0.00000000     0.00000000
     0.00000000     0.00000000     0.00000000
     0.00000000     0.00000000     0.00000000
     0.00000000     0.00000000     0.00000000
     0.00000000     0.00000000     0.00000000
     0.00000000     0.00000000     0.00000000
     0.00000000     0.00000000     0.00000000
     0.00000000     0.00000000     0.00000000
     0.00000000     0.00000000     0.00000000
     0.00000000     0.00000000     0.00000000
     0.00000000     0.00000000     0.00000000
     0.00000000     0.00000000     0.00000000
     0.00000000     0.00000000     0.00000000
     0.00000000     0.00000000     0.00000000
     0.00000000     0.00000000     0.00000000
     0.00000000     0.00000000     0.00000000
     0.00000000     0.00000000     0.00000000
     0.00000000     0.00000000     0.00000000
     0.00000000     0.00000000     0.00000000
     0.00000000     0.00000000     0.00000000
     0.00000000     0.00000000     0.00000000
     0.00000000     0.00000000     0.00000000
     0.00000000     0.00000000     0.00000000
     0.00000000     0.00000000     0.00000000
     0.00000000     0.00000000     0.00000000
     0.00000000     0.00000000     0.00000000
     0.00000000     0.00000000     0.00000000
     0.00000000     0.00000000     0.00000000
     0.00000000     0.00000000     0.00000000
     0.00000000     0.00000000     0.00000000
     0.00000000     0.00000000     0.00000000
     0.00000000     0.00000000     0.00000000
     0.00000000     0.00000000     0.00000000
     0.00000000     0.00000000     0.00000000
     0.00000000     0.00000000     0.00000000
     0.00000000     0.00000000     0.00000000
     0.00000000     0.00000000     0.00000000
     0.00000000     0.00000000     0.00000000
     0.00000000     0.00000000     0.00000000
     0.00000000     0.00000000     0.00000000
     0.00000000     0.00000000     0.00000000
     0.00000000     0.00000000     0.00000000
     0.00000000     0.00000000     0.00000000
     0.00000000     0.00000000     0.00000000
     0.00000000     0.00000000     0.00000000
     0.00000000     0.00000000     0.00000000
     0.00000000     0.00000000     0.00000000
     0.00000000     0.00000000     0.00000000
     0.00000000     0.00000000     0.00000000
     0.00000000     0.00000000     0.00000000
     0.00000000     0.00000000     0.00000000
     0.00000000     0.00000000     0.00000000
     0.00000000     0.00000000     0.00000000
     0.00000000     0.00000000     0.00000000
     0.00000000     0.00000000     0.00000000
     0.00000000     0.00000000     0.00000000
     0.00000000     0.00000000     0.00000000
     0.00000000     0.00000000     0.00000000
     0.00000000     0.00000000     0.00000000
     0.00000000     0.00000000     0.00000000
     0.00000000     0.00000000     0.00000000
     0.00000000     0.00000000     0.00000000
     0.00000000     0.00000000     0.00000000
     0.00000000     0.00000000     0.00000000
     0.00000000     0.00000000     0.00000000
     0.00000000     0.00000000     0.00000000
     0.00000000     0.00000000     0.00000000
     0.00000000     0.00000000     0.00000000
     0.00000000     0.00000000     0.00000000
     0.00000000     0.00000000     0.00000000
     0.00000000     0.00000000     0.00000000
     0.00000000     0.00000000     0.00000000
     0.00000000     0.00000000     0.00000000
     0.00000000     0.00000000     0.00000000
     0.00000000     0.00000000     0.00000000
     0.00000000     0.00000000     0.00000000
     0.00000000     0.00000000     0.00000000
     0.00000000     0.00000000     0.00000000
     0.00000000     0.00000000     0.00000000
     0.00000000     0.00000000     0.00000000
     0.00000000     0.00000000     0.00000000
     0.00000000     0.00000000     0.00000000
     0.00000000     0.00000000     0.00000000
     0.00000000     0.00000000     0.00000000
     0.00000000     0.00000000     0.00000000
     0.00000000     0.00000000     0.00000000
     0.00000000     0.00000000     0.00000000
     0.00000000     0.00000000     0.00000000
     0.00000000     0.00000000     0.00000000
     0.00000000     0.00000000     0.00000000
     0.00000000     0.00000000     0.00000000
     0.00000000     0.00000000     0.00000000
     0.00000000     0.00000000     0.00000000
     0.00000000     0.00000000     0.00000000
     0.00000000     0.00000000     0.00000000
     0.00000000     0.00000000     0.00000000
     0.00000000     0.00000000     0.00000000
     0.00000000     0.00000000     0.00000000
     0.00000000     0.00000000     0.00000000
     0.00000000     0.00000000     0.00000000
     0.00000000     0.00000000     0.00000000
     0.00000000     0.00000000     0.00000000
     0.00000000     0.00000000     0.00000000
     0.00000000     0.00000000     0.00000000
     0.00000000     0.00000000     0.00000000
     0.00000000     0.00000000     0.00000000
     0.00000000     0.00000000     0.00000000
     0.00000000     0.00000000     0.00000000
     0.00000000     0.00000000     0.00000000
     0.00000000     0.00000000     0.00000000
     0.00000000     0.00000000     0.00000000
     0.00000000     0.00000000     0.00000000
     0.00000000     0.00000000     0.00000000
     0.00000000     0.00000000     0.00000000
     0.00000000     0.00000000     0.00000000
     0.00000000     0.00000000     0.00000000
     0.00000000     0.00000000     0.00000000
     0.00000000     0.00000000     0.00000000
     0.00000000     0.00000000     0.00000000
     0.00000000     0.00000000     0.00000000
     0.00000000     0.00000000     0.00000000
     0.00000000     0.00000000     0.00000000
     0.00000000     0.00000000     0.00000000
     0.00000000     0.00000000     0.00000000
     0.00000000     0.00000000     0.00000000
     0.00000000     0.00000000     0.00000000
     0.00000000     0.00000000     0.00000000
     0.00000000     0.00000000     0.00000000
     0.00000000     0.00000000     0.00000000
     0.00000000     0.00000000     0.00000000
     0.00000000     0.00000000     0.00000000
     0.00000000     0.00000000     0.00000000
     0.00000000     0.00000000     0.00000000
     0.00000000     0.00000000     0.00000000
     0.00000000     0.00000000     0.00000000
     0.00000000     0.00000000     0.00000000
     0.00000000     0.00000000     0.00000000
     0.00000000     0.00000000     0.00000000
     0.00000000     0.00000000     0.00000000
     0.00000000     0.00000000     0.00000000
     0.00000000     0.00000000     0.00000000
     0.00000000     0.00000000     0.00000000
     0.00000000     0.00000000     0.00000000
     0.00000000     0.00000000     0.00000000
     0.00000000     0.00000000     0.00000000
     0.00000000     0.00000000     0.00000000
     0.00000000     0.00000000     0.00000000
     0.00000000     0.00000000     0.00000000
     0.00000000     0.00000000     0.00000000
     0.00000000     0.00000000     0.00000000
     0.00000000     0.00000000     0.00000000
     0.00000000     0.00000000     0.00000000
     0.00000000     0.00000000     0.00000000
     0.00000000     0.00000000     0.00000000
     0.00000000     0.00000000     0.00000000
     0.00000000     0.00000000     0.00000000
     0.00000000     0.00000000     0.00000000
     0.00000000     0.00000000     0.00000000
     0.00000000     0.00000000     0.00000000
     0.00000000     0.00000000     0.00000000
     0.00000000     0.00000000     0.00000000
     0.00000000     0.00000000     0.00000000
     0.00000000     0.00000000     0.00000000
     0.00000000     0.00000000     0.00000000
     0.00000000     0.00000000     0.00000000
     0.00000000     0.00000000     0.00000000
     0.00000000     0.00000000     0.00000000
     0.00000000     0.00000000     0.00000000
     0.00000000     0.00000000     0.00000000
     0.00000000     0.00000000     0.00000000
     0.00000000     0.00000000     0.00000000
     0.00000000     0.00000000     0.00000000
     0.00000000     0.00000000     0.00000000
     0.00000000     0.00000000     0.00000000
     0.00000000     0.00000000     0.00000000
     0.00000000     0.00000000     0.00000000
     0.00000000     0.00000000     0.00000000
     0.00000000     0.00000000     0.00000000
     0.00000000     0.00000000     0.00000000
     0.00000000     0.00000000     0.00000000
     0.00000000     0.00000000     0.00000000
     0.00000000     0.00000000     0.00000000
     0.00000000     0.00000000     0.00000000
     0.00000000     0.00000000     0.00000000
     0.00000000     0.00000000     0.00000000
     0.00000000     0.00000000     0.00000000
     0.00000000     0.00000000     0.00000000
     0.00000000     0.00000000     0.00000000
     0.00000000     0.00000000     0.00000000
     0.00000000     0.00000000     0.00000000
     0.00000000     0.00000000     0.00000000
     0.00000000     0.00000000     0.00000000
     0.00000000     0.00000000     0.00000000
     0.00000000     0.00000000     0.00000000
     0.00000000     0.00000000     0.00000000
     0.00000000     0.00000000     0.00000000
     0.00000000     0.00000000     0.00000000
     0.00000000     0.00000000     0.00000000
     0.00000000     0.00000000     0.00000000
     0.00000000     0.00000000     0.00000000
     0.00000000     0.00000000     0.00000000
     0.00000000     0.00000000     0.00000000
     0.00000000     0.00000000     0.00000000
     0.00000000     0.00000000     0.00000000
     0.00000000     0.00000000     0.00000000
     0.00000000     0.00000000     0.00000000
     0.00000000     0.00000000     0.00000000
     0.00000000     0.00000000     0.00000000
     0.00000000     0.00000000     0.00000000
     0.00000000     0.00000000     0.00000000
     0.00000000     0.00000000     0.00000000
     0.00000000     0.00000000     0.00000000
     0.00000000     0.00000000     0.00000000
     0.00000000     0.00000000     0.00000000
     0.00000000     0.00000000     0.00000000
     0.00000000     0.00000000     0.00000000
     0.00000000     0.00000000     0.00000000
     0.00000000     0.00000000     0.00000000
     0.00000000     0.00000000     0.00000000
     0.00000000     0.00000000     0.00000000
     0.00000000     0.00000000     0.00000000
     0.00000000     0.00000000     0.00000000
     0.00000000     0.00000000     0.00000000
     0.00000000     0.00000000     0.00000000
     0.00000000     0.00000000     0.00000000
     0.00000000     0.00000000     0.00000000
     0.00000000     0.00000000     0.00000000
     0.00000000     0.00000000     0.00000000
     0.00000000     0.00000000     0.00000000
     0.00000000     0.00000000     0.00000000
     0.00000000     0.00000000     0.00000000
     0.00000000     0.00000000     0.00000000
     0.00000000     0.00000000     0.00000000
     0.00000000     0.00000000     0.00000000
     0.00000000     0.00000000     0.00000000
     0.00000000     0.00000000     0.00000000
     0.00000000     0.00000000     0.00000000
     0.00000000     0.00000000     0.00000000
     0.00000000     0.00000000     0.00000000
     0.00000000     0.00000000     0.00000000
     0.00000000     0.00000000     0.00000000
     0.00000000     0.00000000     0.00000000
     0.00000000     0.00000000     0.00000000
     0.00000000     0.00000000     0.00000000
     0.00000000     0.00000000     0.00000000
     0.00000000     0.00000000     0.00000000
     0.00000000     0.00000000     0.00000000
     0.00000000     0.00000000     0.00000000
     0.00000000     0.00000000     0.00000000
     0.00000000     0.00000000     0.00000000
     0.00000000     0.00000000     0.00000000
     0.00000000     0.00000000     0.00000000
     0.00000000     0.00000000     0.00000000
     0.00000000     0.00000000     0.00000000
     0.00000000     0.00000000     0.00000000
     0.00000000     0.00000000     0.00000000
     0.00000000     0.00000000     0.00000000
     0.00000000     0.00000000     0.00000000
     0.00000000     0.00000000     0.00000000
     0.00000000     0.00000000     0.00000000
     0.00000000     0.00000000     0.00000000
     0.00000000     0.00000000     0.00000000
     0.00000000     0.00000000     0.00000000
     0.00000000     0.00000000     0.00000000
     0.00000000     0.00000000     0.00000000
     0.00000000     0.00000000     0.00000000
     0.00000000     0.00000000     0.00000000
     0.00000000     0.00000000     0.00000000
     0.00000000     0.00000000     0.00000000
     0.00000000     0.00000000     0.00000000
     0.00000000     0.00000000     0.00000000
     0.00000000     0.00000000     0.00000000
     0.00000000     0.00000000     0.00000000
     0.00000000     0.00000000     0.00000000
     0.00000000     0.00000000     0.00000000
     0.00000000     0.00000000     0.00000000
     0.00000000     0.00000000     0.00000000
     0.00000000     0.00000000     0.00000000
     0.00000000     0.00000000     0.00000000
     0.00000000     0.00000000     0.00000000
     0.00000000     0.00000000     0.00000000
     0.00000000     0.00000000     0.00000000
     0.00000000     0.00000000     0.00000000
     0.00000000     0.00000000     0.00000000
     0.00000000     0.00000000     0.00000000
     0.00000000     0.00000000     0.00000000
     0.00000000     0.00000000     0.00000000
     0.00000000     0.00000000     0.00000000
     0.00000000     0.00000000     0.00000000
     0.00000000     0.00000000     0.00000000
     0.00000000     0.00000000     0.00000000
     0.00000000     0.00000000     0.00000000
     0.00000000     0.00000000     0.00000000
     0.00000000     0.00000000     0.00000000
     0.00000000     0.00000000     0.00000000
     0.00000000     0.00000000     0.00000000
     0.00000000     0.00000000     0.00000000
     0.00000000     0.00000000     0.00000000
     0.00000000     0.00000000     0.00000000
     0.00000000     0.00000000     0.00000000
     0.00000000     0.00000000     0.00000000
     0.00000000     0.00000000     0.00000000
     0.00000000     0.00000000     0.00000000
     0.00000000     0.00000000     0.00000000
     0.00000000     0.00000000     0.00000000
     0.00000000     0.00000000     0.00000000
     0.00000000     0.00000000     0.00000000
     0.00000000     0.00000000     0.00000000
     0.00000000     0.00000000     0.00000000
     0.00000000     0.00000000     0.00000000
     0.00000000     0.00000000     0.00000000
     0.00000000     0.00000000     0.00000000
     0.00000000     0.00000000     0.00000000
     0.00000000     0.00000000     0.00000000
     0.00000000     0.00000000     0.00000000
     0.00000000     0.00000000     0.00000000
     0.00000000     0.00000000     0.00000000
     0.00000000     0.00000000     0.00000000
     0.00000000     0.00000000     0.00000000
     0.00000000     0.00000000     0.00000000
     0.00000000     0.00000000     0.00000000
     0.00000000     0.00000000     0.00000000
     0.00000000     0.00000000     0.00000000
     0.00000000     0.00000000     0.00000000
     0.00000000     0.00000000     0.00000000
     0.00000000     0.00000000     0.00000000
     0.00000000     0.00000000     0.00000000
     0.00000000     0.00000000     0.00000000
     0.00000000     0.00000000     0.00000000
     0.00000000     0.00000000     0.00000000
     0.00000000     0.00000000     0.00000000
     0.00000000     0.00000000     0.00000000
     0.00000000     0.00000000     0.00000000
     0.00000000     0.00000000     0.00000000
     0.00000000     0.00000000     0.00000000
     0.00000000     0.00000000     0.00000000
     0.00000000     0.00000000     0.00000000
     0.00000000     0.00000000     0.00000000
     0.00000000     0.00000000     0.00000000
     0.00000000     0.00000000     0.00000000
     0.00000000     0.00000000     0.00000000
     0.00000000     0.00000000     0.00000000
     0.00000000     0.00000000     0.00000000
     0.00000000     0.00000000     0.00000000
     0.00000000     0.00000000     0.00000000
     0.00000000     0.00000000     0.00000000
     0.00000000     0.00000000     0.00000000
     0.00000000     0.00000000     0.00000000
     0.00000000     0.00000000     0.00000000
     0.00000000     0.00000000     0.00000000
     0.00000000     0.00000000     0.00000000
     0.00000000     0.00000000     0.00000000
     0.00000000     0.00000000     0.00000000
     0.00000000     0.00000000     0.00000000
     0.00000000     0.00000000     0.00000000
     0.00000000     0.00000000     0.00000000
     0.00000000     0.00000000     0.00000000
     0.00000000     0.00000000     0.00000000
     0.00000000     0.00000000     0.00000000
     0.00000000     0.00000000     0.00000000
     0.00000000     0.00000000     0.00000000
     0.00000000     0.00000000     0.00000000
     0.00000000     0.00000000     0.00000000
     0.00000000     0.00000000     0.00000000
     0.00000000     0.00000000     0.00000000
     0.00000000     0.00000000     0.00000000
     0.00000000     0.00000000     0.00000000
     0.00000000     0.00000000     0.00000000
     0.00000000     0.00000000     0.00000000
     0.00000000     0.00000000     0.00000000
     0.00000000     0.00000000     0.00000000
     0.00000000     0.00000000     0.00000000
     0.00000000     0.00000000     0.00000000
     0.00000000     0.00000000     0.00000000
     0.00000000     0.00000000     0.00000000
     0.00000000     0.00000000     0.00000000
     0.00000000     0.00000000     0.00000000
     0.00000000     0.00000000     0.00000000
     0.00000000     0.00000000     0.00000000
     0.00000000     0.00000000     0.00000000
     0.00000000     0.00000000     0.00000000
     0.00000000     0.00000000     0.00000000
     0.00000000     0.00000000     0.00000000
     0.00000000     0.00000000     0.00000000
     0.00000000     0.00000000     0.00000000
     0.00000000     0.00000000     0.00000000
     0.00000000     0.00000000     0.00000000
     0.00000000     0.00000000     0.00000000
     0.00000000     0.00000000     0.00000000
     0.00000000     0.00000000     0.00000000
     0.00000000     0.00000000     0.00000000
     0.00000000     0.00000000     0.00000000
     0.00000000     0.00000000     0.00000000
     0.00000000     0.00000000     0.00000000
     0.00000000     0.00000000     0.00000000
     0.00000000     0.00000000     0.00000000
     0.00000000     0.00000000     0.00000000
     0.00000000     0.00000000     0.00000000
     0.00000000     0.00000000     0.00000000
     0.00000000     0.00000000     0.00000000
     0.00000000     0.00000000     0.00000000
     0.00000000     0.00000000     0.00000000
     0.00000000     0.00000000     0.00000000
     0.00000000     0.00000000     0.00000000
     0.00000000     0.00000000     0.00000000
     0.00000000     0.00000000     0.00000000
     0.00000000     0.00000000     0.00000000
     0.00000000     0.00000000     0.00000000
     0.00000000     0.00000000     0.00000000
     0.00000000     0.00000000     0.00000000
     0.00000000     0.00000000     0.00000000
     0.00000000     0.00000000     0.00000000
     0.00000000     0.00000000     0.00000000
     0.00000000     0.00000000     0.00000000
     0.00000000     0.00000000     0.00000000
     0.00000000     0.00000000     0.00000000
     0.00000000     0.00000000     0.00000000
     0.00000000     0.00000000     0.00000000
     0.00000000     0.00000000     0.00000000
     0.00000000     0.00000000     0.00000000
     0.00000000     0.00000000     0.00000000
     0.00000000     0.00000000     0.00000000
     0.00000000     0.00000000     0.00000000
     0.00000000     0.00000000     0.00000000
     0.00000000     0.00000000     0.00000000
     0.00000000     0.00000000     0.00000000
     0.00000000     0.00000000     0.00000000
     0.00000000     0.00000000     0.00000000
     0.00000000     0.00000000     0.00000000
     0.00000000     0.00000000     0.00000000
     0.00000000     0.00000000     0.00000000
     0.00000000     0.00000000     0.00000000
     0.00000000     0.00000000     0.00000000
     0.00000000     0.00000000     0.00000000
     0.00000000     0.00000000     0.00000000
     0.00000000     0.00000000     0.00000000
     0.00000000     0.00000000     0.00000000
     0.00000000     0.00000000     0.00000000
     0.00000000     0.00000000     0.00000000
     0.00000000     0.00000000     0.00000000
     0.00000000     0.00000000     0.00000000
     0.00000000     0.00000000     0.00000000
     0.00000000     0.00000000     0.00000000
     0.00000000     0.00000000     0.00000000
     0.00000000     0.00000000     0.00000000
     0.00000000     0.00000000     0.00000000
     0.00000000     0.00000000     0.00000000
     0.00000000     0.00000000     0.00000000
     0.00000000     0.00000000     0.00000000
     0.00000000     0.00000000     0.00000000
     0.00000000     0.00000000     0.00000000
     0.00000000     0.00000000     0.00000000
     0.00000000     0.00000000     0.00000000
     0.00000000     0.00000000     0.00000000
     0.00000000     0.00000000     0.00000000
     0.00000000     0.00000000     0.00000000
     0.00000000     0.00000000     0.00000000
     0.00000000     0.00000000     0.00000000
     0.00000000     0.00000000     0.00000000
     0.00000000     0.00000000     0.00000000
     0.00000000     0.00000000     0.00000000
     0.00000000     0.00000000     0.00000000
     0.00000000     0.00000000     0.00000000
     0.00000000     0.00000000     0.00000000
     0.00000000     0.00000000     0.00000000
     0.00000000     0.00000000     0.00000000
     0.00000000     0.00000000     0.00000000
     0.00000000     0.00000000     0.00000000
     0.00000000     0.00000000     0.00000000
     0.00000000     0.00000000     0.00000000
     0.00000000     0.00000000     0.00000000
     0.00000000     0.00000000     0.00000000
     0.00000000     0.00000000     0.00000000
     0.00000000     0.00000000     0.00000000
     0.00000000     0.00000000     0.00000000
     0.00000000     0.00000000     0.00000000
     0.00000000     0.00000000     0.00000000
     0.00000000     0.00000000     0.00000000
     0.00000000     0.00000000     0.00000000
     0.00000000     0.00000000     0.00000000
     0.00000000     0.00000000     0.00000000
     0.00000000     0.00000000     0.00000000
     0.00000000     0.00000000     0.00000000
     0.00000000     0.00000000     0.00000000
     0.00000000     0.00000000     0.00000000
     0.00000000     0.00000000     0.00000000
     0.00000000     0.00000000     0.00000000
     0.00000000     0.00000000     0.00000000
     0.00000000     0.00000000     0.00000000
     0.00000000     0.00000000     0.00000000
     0.00000000     0.00000000     0.00000000
     0.00000000     0.00000000     0.00000000
     0.00000000     0.00000000     0.00000000
     0.00000000     0.00000000     0.00000000
     0.00000000     0.00000000     0.00000000
     0.00000000     0.00000000     0.00000000
     0.00000000     0.00000000     0.00000000
     0.00000000     0.00000000     0.00000000
     0.00000000     0.00000000     0.00000000
     0.00000000     0.00000000     0.00000000
     0.00000000     0.00000000     0.00000000
     0.00000000     0.00000000     0.00000000
     0.00000000     0.00000000     0.00000000
     0.00000000     0.00000000     0.00000000
     0.00000000     0.00000000     0.00000000
     0.00000000     0.00000000     0.00000000
     0.00000000     0.00000000     0.00000000
     0.00000000     0.00000000     0.00000000
     0.00000000     0.00000000     0.00000000
     0.00000000     0.00000000     0.00000000
     0.00000000     0.00000000     0.00000000
     0.00000000     0.00000000     0.00000000
     0.00000000     0.00000000     0.00000000
     0.00000000     0.00000000     0.00000000
     0.00000000     0.00000000     0.00000000
     0.00000000     0.00000000     0.00000000
     0.00000000     0.00000000     0.00000000
     0.00000000     0.00000000     0.00000000
     0.00000000     0.00000000     0.00000000
     0.00000000     0.00000000     0.00000000
     0.00000000     0.00000000     0.00000000
     0.00000000     0.00000000     0.00000000
     0.00000000     0.00000000     0.00000000
     0.00000000     0.00000000     0.00000000
     0.00000000     0.00000000     0.00000000
     0.00000000     0.00000000     0.00000000
     0.00000000     0.00000000     0.00000000
     0.00000000     0.00000000     0.00000000
     0.00000000     0.00000000     0.00000000
     0.00000000     0.00000000     0.00000000
     0.00000000     0.00000000     0.00000000
     0.00000000     0.00000000     0.00000000
     0.00000000     0.00000000     0.00000000
     0.00000000     0.00000000     0.00000000
     0.00000000     0.00000000     0.00000000
     0.00000000     0.00000000     0.00000000
     0.00000000     0.00000000     0.00000000
     0.00000000     0.00000000     0.00000000
     0.00000000     0.00000000     0.00000000
     0.00000000     0.00000000     0.00000000
     0.00000000     0.00000000     0.00000000
     0.00000000     0.00000000     0.00000000
     0.00000000     0.00000000     0.00000000
     0.00000000     0.00000000     0.00000000
     0.00000000     0.00000000     0.00000000
     0.00000000     0.00000000     0.00000000
     0.00000000     0.00000000     0.00000000
     0.00000000     0.00000000     0.00000000
     0.00000000     0.00000000     0.00000000
     0.00000000     0.00000000     0.00000000
     0.00000000     0.00000000     0.00000000
     0.00000000     0.00000000     0.00000000
     0.00000000     0.00000000     0.00000000
     0.00000000     0.00000000     0.00000000
     0.00000000     0.00000000     0.00000000
     0.00000000     0.00000000     0.00000000
     0.00000000     0.00000000     0.00000000
     0.00000000     0.00000000     0.00000000
     0.00000000     0.00000000     0.00000000
     0.00000000     0.00000000     0.00000000
     0.00000000     0.00000000     0.00000000
     0.00000000     0.00000000     0.00000000
     0.00000000     0.00000000     0.00000000
     0.00000000     0.00000000     0.00000000
     0.00000000     0.00000000     0.00000000
     0.00000000     0.00000000     0.00000000
     0.00000000     0.00000000     0.00000000
     0.00000000     0.00000000     0.00000000
     0.00000000     0.00000000     0.00000000
     0.00000000     0.00000000     0.00000000
     0.00000000     0.00000000     0.00000000
     0.00000000     0.00000000     0.00000000
     0.00000000     0.00000000     0.00000000
     0.00000000     0.00000000     0.00000000
     0.00000000     0.00000000     0.00000000
     0.00000000     0.00000000     0.00000000
     0.00000000     0.00000000     0.00000000
     0.00000000     0.00000000     0.00000000
     0.00000000     0.00000000     0.00000000
     0.00000000     0.00000000     0.00000000
     0.00000000     0.00000000     0.00000000
     0.00000000     0.00000000     0.00000000
     0.00000000     0.00000000     0.00000000
     0.00000000     0.00000000     0.00000000
     0.00000000     0.00000000     0.00000000
     0.00000000     0.00000000     0.00000000
     0.00000000     0.00000000     0.00000000
     0.00000000     0.00000000     0.00000000
     0.00000000     0.00000000     0.00000000
     0.00000000     0.00000000     0.00000000
     0.00000000     0.00000000     0.00000000
     0.00000000     0.00000000     0.00000000
     0.00000000     0.00000000     0.00000000
     0.00000000     0.00000000     0.00000000
     0.00000000     0.00000000     0.00000000
     0.00000000     0.00000000     0.00000000
     0.00000000     0.00000000     0.00000000
     0.00000000     0.00000000     0.00000000
     0.00000000     0.00000000     0.00000000
     0.00000000     0.00000000     0.00000000
     0.00000000     0.00000000     0.00000000
     0.00000000     0.00000000     0.00000000
     0.00000000     0.00000000     0.00000000
     0.00000000     0.00000000     0.00000000
     0.00000000     0.00000000     0.00000000
     0.00000000     0.00000000     0.00000000
     0.00000000     0.00000000     0.00000000
     0.00000000     0.00000000     0.00000000
     0.00000000     0.00000000     0.00000000
     0.00000000     0.00000000     0.00000000
     0.00000000     0.00000000     0.00000000
     0.00000000     0.00000000     0.00000000
     0.00000000     0.00000000     0.00000000
     0.00000000     0.00000000     0.00000000
     0.00000000     0.00000000     0.00000000
     0.00000000     0.00000000     0.00000000
     0.00000000     0.00000000     0.00000000
     0.00000000     0.00000000     0.00000000
     0.00000000     0.00000000     0.00000000
     0.00000000     0.00000000     0.00000000
     0.00000000     0.00000000     0.00000000
     0.00000000     0.00000000     0.00000000
     0.00000000     0.00000000     0.00000000
     0.00000000     0.00000000     0.00000000
     0.00000000     0.00000000     0.00000000
     0.00000000     0.00000000     0.00000000
     0.00000000     0.00000000     0.00000000
     0.00000000     0.00000000     0.00000000
     0.00000000     0.00000000     0.00000000
     0.00000000     0.00000000     0.00000000
     0.00000000     0.00000000     0.00000000
     0.00000000     0.00000000     0.00000000
     0.00000000     0.00000000     0.00000000
     0.00000000     0.00000000     0.00000000
     0.00000000     0.00000000     0.00000000
     0.00000000     0.00000000     0.00000000
     0.00000000     0.00000000     0.00000000
     0.00000000     0.00000000     0.00000000
     0.00000000     0.00000000     0.00000000
     0.00000000     0.00000000     0.00000000
     0.00000000     0.00000000     0.00000000
     0.00000000     0.00000000     0.00000000
     0.00000000     0.00000000     0.00000000
     0.00000000     0.00000000     0.00000000
     0.00000000     0.00000000     0.00000000
     0.00000000     0.00000000     0.00000000
     0.00000000     0.00000000     0.00000000
     0.00000000     0.00000000     0.00000000
     0.00000000     0.00000000     0.00000000
     0.00000000     0.00000000     0.00000000
     0.00000000     0.00000000     0.00000000
     0.00000000     0.00000000     0.00000000
     0.00000000     0.00000000     0.00000000
     0.00000000     0.00000000     0.00000000
     0.00000000     0.00000000     0.00000000
     0.00000000     0.00000000     0.00000000
     0.00000000     0.00000000     0.00000000
     0.00000000     0.00000000     0.00000000
     0.00000000     0.00000000     0.00000000
     0.00000000     0.00000000     0.00000000
     0.00000000     0.00000000     0.00000000
     0.00000000     0.00000000     0.00000000
     0.00000000     0.00000000     0.00000000
     0.00000000     0.00000000     0.00000000
     0.00000000     0.00000000     0.00000000
     0.00000000     0.00000000     0.00000000
     0.00000000     0.00000000     0.00000000
     0.00000000     0.00000000     0.00000000
     0.00000000     0.00000000     0.00000000
     0.00000000     0.00000000     0.00000000
     0.00000000     0.00000000     0.00000000
     0.00000000     0.00000000     0.00000000
     0.00000000     0.00000000     0.00000000
     0.00000000     0.00000000     0.00000000
     0.00000000     0.00000000     0.00000000
     0.00000000     0.00000000     0.00000000
     0.00000000     0.00000000     0.00000000
     0.00000000     0.00000000     0.00000000
     0.00000000     0.00000000     0.00000000
     0.00000000     0.00000000     0.00000000
     0.00000000     0.00000000     0.00000000
     0.00000000     0.00000000     0.00000000
     0.00000000     0.00000000     0.00000000
     0.00000000     0.00000000     0.00000000
     0.00000000     0.00000000     0.00000000
     0.00000000     0.00000000     0.00000000
     0.00000000     0.00000000     0.00000000
     0.00000000     0.00000000     0.00000000
     0.00000000     0.00000000     0.00000000
     0.00000000     0.00000000     0.00000000
     0.00000000     0.00000000     0.00000000
     0.00000000     0.00000000     0.00000000
     0.00000000     0.00000000     0.00000000
     0.00000000     0.00000000     0.00000000
     0.00000000     0.00000000     0.00000000
     0.00000000     0.00000000     0.00000000
     0.00000000     0.00000000     0.00000000
     0.00000000     0.00000000     0.00000000
     0.00000000     0.00000000     0.00000000
     0.00000000     0.00000000     0.00000000
     0.00000000     0.00000000     0.00000000
     0.00000000     0.00000000     0.00000000
     0.00000000     0.00000000     0.00000000
     0.00000000     0.00000000     0.00000000
     0.00000000     0.00000000     0.00000000
     0.00000000     0.00000000     0.00000000
     0.00000000     0.00000000     0.00000000
     0.00000000     0.00000000     0.00000000
     0.00000000     0.00000000     0.00000000
     0.00000000     0.00000000     0.00000000
     0.00000000     0.00000000     0.00000000
     0.00000000     0.00000000     0.00000000
     0.00000000     0.00000000     0.00000000
     0.00000000     0.00000000     0.00000000
     0.00000000     0.00000000     0.00000000
     0.00000000     0.00000000     0.00000000
     0.00000000     0.00000000     0.00000000
     0.00000000     0.00000000     0.00000000
     0.00000000     0.00000000     0.00000000
     0.00000000     0.00000000     0.00000000
     0.00000000     0.00000000     0.00000000
     0.00000000     0.00000000     0.00000000
     0.00000000     0.00000000     0.00000000
     0.00000000     0.00000000     0.00000000
     0.00000000     0.00000000     0.00000000
     0.00000000     0.00000000     0.00000000
     0.00000000     0.00000000     0.00000000
     0.00000000     0.00000000     0.00000000
     0.00000000     0.00000000     0.00000000
     0.00000000     0.00000000     0.00000000
     0.00000000     0.00000000     0.00000000
     0.00000000     0.00000000     0.00000000
     0.00000000     0.00000000     0.00000000
     0.00000000     0.00000000     0.00000000
     0.00000000     0.00000000     0.00000000
     0.00000000     0.00000000     0.00000000
     0.00000000     0.00000000     0.00000000
     0.00000000     0.00000000     0.00000000
     0.00000000     0.00000000     0.00000000
     0.00000000     0.00000000     0.00000000
     0.00000000     0.00000000     0.00000000
     0.00000000     0.00000000     0.00000000
     0.00000000     0.00000000     0.00000000
     0.00000000     0.00000000     0.00000000
     0.00000000     0.00000000     0.00000000
     0.00000000     0.00000000     0.00000000
     0.00000000     0.00000000     0.00000000
     0.00000000     0.00000000     0.00000000
     0.00000000     0.00000000     0.00000000
     0.00000000     0.00000000     0.00000000
     0.00000000     0.00000000     0.00000000
     0.00000000     0.00000000     0.00000000
     0.00000000     0.00000000     0.00000000
     0.00000000     0.00000000     0.00000000
     0.00000000     0.00000000     0.00000000
     0.00000000     0.00000000     0.00000000
     0.00000000     0.00000000     0.00000000
     0.00000000     0.00000000     0.00000000
     0.00000000     0.00000000     0.00000000
     0.00000000     0.00000000     0.00000000
     0.00000000     0.00000000     0.00000000
     0.00000000     0.00000000     0.00000000
     0.00000000     0.00000000     0.00000000
     0.00000000     0.00000000     0.00000000
     0.00000000     0.00000000     0.00000000
     0.00000000     0.00000000     0.00000000
     0.00000000     0.00000000     0.00000000
     0.00000000     0.00000000     0.00000000
     0.00000000     0.00000000     0.00000000
     0.00000000     0.00000000     0.00000000
     0.00000000     0.00000000     0.00000000
     0.00000000     0.00000000     0.00000000
     0.00000000     0.00000000     0.00000000
     0.00000000     0.00000000     0.00000000
     0.00000000     0.00000000     0.00000000
     0.00000000     0.00000000     0.00000000
     0.00000000     0.00000000     0.00000000
     0.00000000     0.00000000     0.00000000
     0.00000000     0.00000000     0.00000000
     0.00000000     0.00000000     0.00000000
     0.00000000     0.00000000     0.00000000
     0.00000000     0.00000000     0.00000000
     0.00000000     0.00000000     0.00000000
     0.00000000     0.00000000     0.00000000
     0.00000000     0.00000000     0.00000000
     0.00000000     0.00000000     0.00000000
     0.00000000     0.00000000     0.00000000
     0.00000000     0.00000000     0.00000000
     0.00000000     0.00000000     0.00000000
     0.00000000     0.00000000     0.00000000
     0.00000000     0.00000000     0.00000000
     0.00000000     0.00000000     0.00000000
     0.00000000     0.00000000     0.00000000
     0.00000000     0.00000000     0.00000000
     0.00000000     0.00000000     0.00000000
     0.00000000     0.00000000     0.00000000
     0.00000000     0.00000000     0.00000000
     0.00000000     0.00000000     0.00000000
     0.00000000     0.00000000     0.00000000
     0.00000000     0.00000000     0.00000000
     0.00000000     0.00000000     0.00000000
     0.00000000     0.00000000     0.00000000
     0.00000000     0.00000000     0.00000000
     0.00000000     0.00000000     0.00000000
     0.00000000     0.00000000     0.00000000
     0.00000000     0.00000000     0.00000000
     0.00000000     0.00000000     0.00000000
     0.00000000     0.00000000     0.00000000
     0.00000000     0.00000000     0.00000000
     0.00000000     0.00000000     0.00000000
     0.00000000     0.00000000     0.00000000
     0.00000000     0.00000000     0.00000000
     0.00000000     0.00000000     0.00000000
     0.00000000     0.00000000     0.00000000
     0.00000000     0.00000000     0.00000000
     0.00000000     0.00000000     0.00000000
     0.00000000     0.00000000     0.00000000
     0.00000000     0.00000000     0.00000000
     0.00000000     0.00000000     0.00000000
     0.00000000     0.00000000     0.00000000
     0.00000000     0.00000000     0.00000000
     0.00000000     0.00000000     0.00000000
     0.00000000     0.00000000     0.00000000
     0.00000000     0.00000000     0.00000000
     0.00000000     0.00000000     0.00000000
     0.00000000     0.00000000     0.00000000
     0.00000000     0.00000000     0.00000000
     0.00000000     0.00000000     0.00000000
     0.00000000     0.00000000     0.00000000
     0.00000000     0.00000000     0.00000000
     0.00000000     0.00000000     0.00000000
     0.00000000     0.00000000     0.00000000
     0.00000000     0.00000000     0.00000000
     0.00000000     0.00000000     0.00000000
     0.00000000     0.00000000     0.00000000
     0.00000000     0.00000000     0.00000000
     0.00000000     0.00000000     0.00000000
     0.00000000     0.00000000     0.00000000
     0.00000000     0.00000000     0.00000000
     0.00000000     0.00000000     0.00000000
     0.00000000     0.00000000     0.00000000
     0.00000000     0.00000000     0.00000000
     0.00000000     0.00000000     0.00000000
     0.00000000     0.00000000     0.00000000
     0.00000000     0.00000000     0.00000000
     0.00000000     0.00000000     0.00000000
     0.00000000     0.00000000     0.00000000
     0.00000000     0.00000000     0.00000000
     0.00000000     0.00000000     0.00000000
     0.00000000     0.00000000     0.00000000
     0.00000000     0.00000000     0.00000000
     0.00000000     0.00000000     0.00000000
     0.00000000     0.00000000     0.00000000
     0.00000000     0.00000000     0.00000000
     0.00000000     0.00000000     0.00000000
     0.00000000     0.00000000     0.00000000
     0.00000000     0.00000000     0.00000000
     0.00000000     0.00000000     0.00000000
     0.00000000     0.00000000     0.00000000
     0.00000000     0.00000000     0.00000000
     0.00000000     0.00000000     0.00000000
     0.00000000     0.00000000     0.00000000
     0.00000000     0.00000000     0.00000000
     0.00000000     0.00000000     0.00000000
     0.00000000     0.00000000     0.00000000
     0.00000000     0.00000000     0.00000000
     0.00000000     0.00000000     0.00000000
     0.00000000     0.00000000     0.00000000
     0.00000000     0.00000000     0.00000000
     0.00000000     0.00000000     0.00000000
     0.00000000     0.00000000     0.00000000
     0.00000000     0.00000000     0.00000000
     0.00000000     0.00000000     0.00000000
     0.00000000     0.00000000     0.00000000
     0.00000000     0.00000000     0.00000000
     0.00000000     0.00000000     0.00000000
     0.00000000     0.00000000     0.00000000
     0.00000000     0.00000000     0.00000000
     0.00000000     0.00000000     0.00000000
     0.00000000     0.00000000     0.00000000
     0.00000000     0.00000000     0.00000000
     0.00000000     0.00000000     0.00000000
     0.00000000     0.00000000     0.00000000
     0.00000000     0.00000000     0.00000000
     0.00000000     0.00000000     0.00000000
     0.00000000     0.00000000     0.00000000
     0.00000000     0.00000000     0.00000000
     0.00000000     0.00000000     0.00000000
     0.00000000     0.00000000     0.00000000
     0.00000000     0.00000000     0.00000000
     0.00000000     0.00000000     0.00000000
     0.00000000     0.00000000     0.00000000
     0.00000000     0.00000000     0.00000000
     0.00000000     0.00000000     0.00000000
     0.00000000     0.00000000     0.00000000
     0.00000000     0.00000000     0.00000000
     0.00000000     0.00000000     0.00000000
     0.00000000     0.00000000     0.00000000
     0.00000000     0.00000000     0.00000000
     0.00000000     0.00000000     0.00000000
     0.00000000     0.00000000     0.00000000
     0.00000000     0.00000000     0.00000000
     0.00000000     0.00000000     0.00000000
     0.00000000     0.00000000     0.00000000
     0.00000000     0.00000000     0.00000000
     0.00000000     0.00000000     0.00000000
     0.00000000     0.00000000     0.00000000
     0.00000000     0.00000000     0.00000000
     0.00000000     0.00000000     0.00000000
     0.00000000     0.00000000     0.00000000
     0.00000000     0.00000000     0.00000000
     0.00000000     0.00000000     0.00000000
     0.00000000     0.00000000     0.00000000
     0.00000000     0.00000000     0.00000000
     0.00000000     0.00000000     0.00000000
     0.00000000     0.00000000     0.00000000
     0.00000000     0.00000000     0.00000000
     0.00000000     0.00000000     0.00000000
     0.00000000     0.00000000     0.00000000
     0.00000000     0.00000000     0.00000000
     0.00000000     0.00000000     0.00000000
     0.00000000     0.00000000     0.00000000
     0.00000000     0.00000000     0.00000000
     0.00000000     0.00000000     0.00000000
     0.00000000     0.00000000     0.00000000
     0.00000000     0.00000000     0.00000000
     0.00000000     0.00000000     0.00000000
     0.00000000     0.00000000     0.00000000
     0.00000000     0.00000000     0.00000000
     0.00000000     0.00000000     0.00000000
     0.00000000     0.00000000     0.00000000
     0.00000000     0.00000000     0.00000000
     0.00000000     0.00000000     0.00000000
     0.00000000     0.00000000     0.00000000
     0.00000000     0.00000000     0.00000000
     0.00000000     0.00000000     0.00000000
     0.00000000     0.00000000     0.00000000
     0.00000000     0.00000000     0.00000000
     0.00000000     0.00000000     0.00000000
     0.00000000     0.00000000     0.00000000
     0.00000000     0.00000000     0.00000000
     0.00000000     0.00000000     0.00000000
     0.00000000     0.00000000     0.00000000
     0.00000000     0.00000000     0.00000000
     0.00000000     0.00000000     0.00000000
     0.00000000     0.00000000     0.00000000
     0.00000000     0.00000000     0.00000000
     0.00000000     0.00000000     0.00000000
     0.00000000     0.00000000     0.00000000
     0.00000000     0.00000000     0.00000000
     0.00000000     0.00000000     0.00000000
     0.00000000     0.00000000     0.00000000
     0.00000000     0.00000000     0.00000000
     0.00000000     0.00000000     0.00000000
     0.00000000     0.00000000     0.00000000
     0.00000000     0.00000000     0.00000000
     0.00000000     0.00000000     0.00000000
     0.00000000     0.00000000     0.00000000
     0.00000000     0.00000000     0.00000000
     0.00000000     0.00000000     0.00000000
     0.00000000     0.00000000     0.00000000
     0.00000000     0.00000000     0.00000000
     0.00000000     0.00000000     0.00000000
     0.00000000     0.00000000     0.00000000
     0.00000000     0.00000000     0.00000000
     0.00000000     0.00000000     0.00000000
     0.00000000     0.00000000     0.00000000
     0.00000000     0.00000000     0.00000000
     0.00000000     0.00000000     0.00000000
     0.00000000     0.00000000     0.00000000
     0.00000000     0.00000000     0.00000000
     0.00000000     0.00000000     0.00000000
     0.00000000     0.00000000     0.00000000
     0.00000000     0.00000000     0.00000000
     0.00000000     0.00000000     0.00000000
     0.00000000     0.00000000     0.00000000
     0.00000000     0.00000000     0.00000000
     0.00000000     0.00000000     0.00000000
     0.00000000     0.00000000     0.00000000
     0.00000000     0.00000000     0.00000000
     0.00000000     0.00000000     0.00000000
     0.00000000     0.00000000     0.00000000
     0.00000000     0.00000000     0.00000000
     0.00000000     0.00000000     0.00000000
     0.00000000     0.00000000     0.00000000
     0.00000000     0.00000000     0.00000000
     0.00000000     0.00000000     0.00000000
     0.00000000     0.00000000     0.00000000
     0.00000000     0.00000000     0.00000000
     0.00000000     0.00000000     0.00000000
     0.00000000     0.00000000     0.00000000
     0.00000000     0.00000000     0.00000000
     0.00000000     0.00000000     0.00000000
     0.00000000     0.00000000     0.00000000
     0.00000000     0.00000000     0.00000000
     0.00000000     0.00000000     0.00000000
     0.00000000     0.00000000     0.00000000
     0.00000000     0.00000000     0.00000000
     0.00000000     0.00000000     0.00000000
     0.00000000     0.00000000     0.00000000
     0.00000000     0.00000000     0.00000000
     0.00000000     0.00000000     0.00000000
     0.00000000     0.00000000     0.00000000
     0.00000000     0.00000000     0.00000000
     0.00000000     0.00000000     0.00000000
     0.00000000     0.00000000     0.00000000
     0.00000000     0.00000000     0.00000000
     0.00000000     0.00000000     0.00000000
     0.00000000     0.00000000     0.00000000
     0.00000000     0.00000000     0.00000000
     0.00000000     0.00000000     0.00000000
     0.00000000     0.00000000     0.00000000
     0.00000000     0.00000000     0.00000000
     0.00000000     0.00000000     0.00000000
     0.00000000     0.00000000     0.00000000
     0.00000000     0.00000000     0.00000000
     0.00000000     0.00000000     0.00000000
     0.00000000     0.00000000     0.00000000
     0.00000000     0.00000000     0.00000000
     0.00000000     0.00000000     0.00000000
     0.00000000     0.00000000     0.00000000
     0.00000000     0.00000000     0.00000000
     0.00000000     0.00000000     0.00000000
     0.00000000     0.00000000     0.00000000
     0.00000000     0.00000000     0.00000000
     0.00000000     0.00000000     0.00000000
     0.00000000     0.00000000     0.00000000
     0.00000000     0.00000000     0.00000000
     0.00000000     0.00000000     0.00000000
     0.00000000     0.00000000     0.00000000
     0.00000000     0.00000000     0.00000000
     0.00000000     0.00000000     0.00000000
     0.00000000     0.00000000     0.00000000
     0.00000000     0.00000000     0.00000000
     0.00000000     0.00000000     0.00000000
     0.00000000     0.00000000     0.00000000
     0.00000000     0.00000000     0.00000000
     0.00000000     0.00000000     0.00000000
     0.00000000     0.00000000     0.00000000
     0.00000000     0.00000000     0.00000000
     0.00000000     0.00000000     0.00000000
     0.00000000     0.00000000     0.00000000
     0.00000000     0.00000000     0.00000000
     0.00000000     0.00000000     0.00000000
     0.00000000     0.00000000     0.00000000
     0.00000000     0.00000000     0.00000000
     0.00000000     0.00000000     0.00000000
     0.00000000     0.00000000     0.00000000
     0.00000000     0.00000000     0.00000000
     0.00000000     0.00000000     0.00000000
     0.00000000     0.00000000     0.00000000
     0.00000000     0.00000000     0.00000000
     0.00000000     0.00000000     0.00000000
     0.00000000     0.00000000     0.00000000
     0.00000000     0.00000000     0.00000000
     0.00000000     0.00000000     0.00000000
     0.00000000     0.00000000     0.00000000
     0.00000000     0.00000000     0.00000000
     0.00000000     0.00000000     0.00000000
     0.00000000     0.00000000     0.00000000
     0.00000000     0.00000000     0.00000000
     0.00000000     0.00000000     0.00000000
     0.00000000     0.00000000     0.00000000
     0.00000000     0.00000000     0.00000000
     0.00000000     0.00000000     0.00000000
     0.00000000     0.00000000     0.00000000
     0.00000000     0.00000000     0.00000000
     0.00000000     0.00000000     0.00000000
     0.00000000     0.00000000     0.00000000
     0.00000000     0.00000000     0.00000000
     0.00000000     0.00000000     0.00000000
     0.00000000     0.00000000     0.00000000
     0.00000000     0.00000000     0.00000000
     0.00000000     0.00000000     0.00000000
     0.00000000     0.00000000     0.00000000
     0.00000000     0.00000000     0.00000000
     0.00000000     0.00000000     0.00000000
     0.00000000     0.00000000     0.00000000
     0.00000000     0.00000000     0.00000000
     0.00000000     0.00000000     0.00000000
     0.00000000     0.00000000     0.00000000
     0.00000000     0.00000000     0.00000000
     0.00000000     0.00000000     0.00000000
     0.00000000     0.00000000     0.00000000
     0.00000000     0.00000000     0.00000000
     0.00000000     0.00000000     0.00000000
     0.00000000     0.00000000     0.00000000
     0.00000000     0.00000000     0.00000000
     0.00000000     0.00000000     0.00000000
     0.00000000     0.00000000     0.00000000
     0.00000000     0.00000000     0.00000000
     0.00000000     0.00000000     0.00000000
     0.00000000     0.00000000     0.00000000
     0.00000000     0.00000000     0.00000000
     0.00000000     0.00000000     0.00000000
     0.00000000     0.00000000     0.00000000
     0.00000000     0.00000000     0.00000000
     0.00000000     0.00000000     0.00000000
     0.00000000     0.00000000     0.00000000
     0.00000000     0.00000000     0.00000000
     0.00000000     0.00000000     0.00000000
     0.00000000     0.00000000     0.00000000
     0.00000000     0.00000000     0.00000000
     0.00000000     0.00000000     0.00000000
     0.00000000     0.00000000     0.00000000
     0.00000000     0.00000000     0.00000000
     0.00000000     0.00000000     0.00000000
     0.00000000     0.00000000     0.00000000
     0.00000000     0.00000000     0.00000000
     0.00000000     0.00000000     0.00000000
     0.00000000     0.00000000     0.00000000
     0.00000000     0.00000000     0.00000000
     0.00000000     0.00000000     0.00000000
     0.00000000     0.00000000     0.00000000
     0.00000000     0.00000000     0.00000000
     0.00000000     0.00000000     0.00000000
     0.00000000     0.00000000     0.00000000
     0.00000000     0.00000000     0.00000000
     0.00000000     0.00000000     0.00000000
     0.00000000     0.00000000     0.00000000
     0.00000000     0.00000000     0.00000000
     0.00000000     0.00000000     0.00000000
     0.00000000     0.00000000     0.00000000
     0.00000000     0.00000000     0.00000000
     0.00000000     0.00000000     0.00000000
     0.00000000     0.00000000     0.00000000
     0.00000000     0.00000000     0.00000000
     0.00000000     0.00000000     0.00000000
     0.00000000     0.00000000     0.00000000
     0.00000000     0.00000000     0.00000000
     0.00000000     0.00000000     0.00000000
     0.00000000     0.00000000     0.00000000
     0.00000000     0.00000000     0.00000000
     0.00000000     0.00000000     0.00000000
     0.00000000     0.00000000     0.00000000
     0.00000000     0.00000000     0.00000000
     0.00000000     0.00000000     0.00000000
     0.00000000     0.00000000     0.00000000
     0.00000000     0.00000000     0.00000000
     0.00000000     0.00000000     0.00000000
     0.00000000     0.00000000     0.00000000
     0.00000000     0.00000000     0.00000000
     0.00000000     0.00000000     0.00000000
     0.00000000     0.00000000     0.00000000
     0.00000000     0.00000000     0.00000000
     0.00000000     0.00000000     0.00000000
     0.00000000     0.00000000     0.00000000
     0.00000000     0.00000000     0.00000000
     0.00000000     0.00000000     0.00000000
     0.00000000     0.00000000     0.00000000
     0.00000000     0.00000000     0.00000000
     0.00000000     0.00000000     0.00000000
     0.00000000     0.00000000     0.00000000
     0.00000000     0.00000000     0.00000000
     0.00000000     0.00000000     0.00000000
     0.00000000     0.00000000     0.00000000
     0.00000000     0.00000000     0.00000000
     0.00000000     0.00000000     0.00000000
     0.00000000     0.00000000     0.00000000
     0.00000000     0.00000000     0.00000000
     0.00000000     0.00000000     0.00000000
     0.00000000     0.00000000     0.00000000
     0.00000000     0.00000000     0.00000000
     0.00000000     0.00000000     0.00000000
     0.00000000     0.00000000     0.00000000
     0.00000000     0.00000000     0.00000000
     0.00000000     0.00000000     0.00000000
     0.00000000     0.00000000     0.00000000
     0.00000000     0.00000000     0.00000000
     0.00000000     0.00000000     0.00000000
     0.00000000     0.00000000     0.00000000
     0.00000000     0.00000000     0.00000000
     0.00000000     0.00000000     0.00000000
     0.00000000     0.00000000     0.00000000
     0.00000000     0.00000000     0.00000000
     0.00000000     0.00000000     0.00000000
     0.00000000     0.00000000     0.00000000
     0.00000000     0.00000000     0.00000000
     0.00000000     0.00000000     0.00000000
     0.00000000     0.00000000     0.00000000
     0.00000000     0.00000000     0.00000000
     0.00000000     0.00000000     0.00000000
     0.00000000     0.00000000     0.00000000
     0.00000000     0.00000000     0.00000000
     0.00000000     0.00000000     0.00000000
     0.00000000     0.00000000     0.00000000
     0.00000000     0.00000000     0.00000000
     0.00000000     0.00000000     0.00000000
     0.00000000     0.00000000     0.00000000
     0.00000000     0.00000000     0.00000000
     0.00000000     0.00000000     0.00000000
     0.00000000     0.00000000     0.00000000
     0.00000000     0.00000000     0.00000000
     0.00000000     0.00000000     0.00000000
     0.00000000     0.00000000     0.00000000
     0.00000000     0.00000000     0.00000000
     0.00000000     0.00000000     0.00000000
     0.00000000     0.00000000     0.00000000
     0.00000000     0.00000000     0.00000000
     0.00000000     0.00000000     0.00000000
     0.00000000     0.00000000     0.00000000
     0.00000000     0.00000000     0.00000000
     0.00000000     0.00000000     0.00000000
     0.00000000     0.00000000     0.00000000
     0.00000000     0.00000000     0.00000000
     0.00000000     0.00000000     0.00000000
     0.00000000     0.00000000     0.00000000
     0.00000000     0.00000000     0.00000000
     0.00000000     0.00000000     0.00000000
     0.00000000     0.00000000     0.00000000
     0.00000000     0.00000000     0.00000000
     0.00000000     0.00000000     0.00000000
     0.00000000     0.00000000     0.00000000
     0.00000000     0.00000000     0.00000000
     0.00000000     0.00000000     0.00000000
     0.00000000     0.00000000     0.00000000
     0.00000000     0.00000000     0.00000000
     0.00000000     0.00000000     0.00000000
     0.00000000     0.00000000     0.00000000
     0.00000000     0.00000000     0.00000000
     0.00000000     0.00000000     0.00000000
     0.00000000     0.00000000     0.00000000
     0.00000000     0.00000000     0.00000000
     0.00000000     0.00000000     0.00000000
     0.00000000     0.00000000     0.00000000
     0.00000000     0.00000000     0.00000000
     0.00000000     0.00000000     0.00000000
     0.00000000     0.00000000     0.00000000
     0.00000000     0.00000000     0.00000000
     0.00000000     0.00000000     0.00000000
     0.00000000     0.00000000     0.00000000
     0.00000000     0.00000000     0.00000000
     0.00000000     0.00000000     0.00000000
     0.00000000     0.00000000     0.00000000
     0.00000000     0.00000000     0.00000000
     0.00000000     0.00000000     0.00000000
     0.00000000     0.00000000     0.00000000
     0.00000000     0.00000000     0.00000000
     0.00000000     0.00000000     0.00000000
     0.00000000     0.00000000     0.00000000
     0.00000000     0.00000000     0.00000000
     0.00000000     0.00000000     0.00000000
     0.00000000     0.00000000     0.00000000
     0.00000000     0.00000000     0.00000000
     0.00000000     0.00000000     0.00000000
     0.00000000     0.00000000     0.00000000
     0.00000000     0.00000000     0.00000000
     0.00000000     0.00000000     0.00000000
     0.00000000     0.00000000     0.00000000
     0.00000000     0.00000000     0.00000000
     0.00000000     0.00000000     0.00000000
     0.00000000     0.00000000     0.00000000
     0.00000000     0.00000000     0.00000000
     0.00000000     0.00000000     0.00000000
     0.00000000     0.00000000     0.00000000
     0.00000000     0.00000000     0.00000000
     0.00000000     0.00000000     0.00000000
     0.00000000     0.00000000     0.00000000
     0.00000000     0.00000000     0.00000000
     0.00000000     0.00000000     0.00000000
     0.00000000     0.00000000     0.00000000
     0.00000000     0.00000000     0.00000000
     0.00000000     0.00000000     0.00000000
     0.00000000     0.00000000     0.00000000
     0.00000000     0.00000000     0.00000000
     0.00000000     0.00000000     0.00000000
     0.00000000     0.00000000     0.00000000
     0.00000000     0.00000000     0.00000000
     0.00000000     0.00000000     0.00000000
     0.00000000     0.00000000     0.00000000
     0.00000000     0.00000000     0.00000000
     0.00000000     0.00000000     0.00000000
     0.00000000     0.00000000     0.00000000
     0.00000000     0.00000000     0.00000000
     0.00000000     0.00000000     0.00000000
     0.00000000     0.00000000     0.00000000
     0.00000000     0.00000000     0.00000000
     0.00000000     0.00000000     0.00000000
     0.00000000     0.00000000     0.00000000
     0.00000000     0.00000000     0.00000000
     0.00000000     0.00000000     0.00000000
     0.00000000     0.00000000     0.00000000
     0.00000000     0.00000000     0.00000000
     0.00000000     0.00000000     0.00000000
     0.00000000     0.00000000     0.00000000
     0.00000000     0.00000000     0.00000000
     0.00000000     0.00000000     0.00000000
     0.00000000     0.00000000     0.00000000
     0.00000000     0.00000000     0.00000000
     0.00000000     0.00000000     0.00000000
     0.00000000     0.00000000     0.00000000
     0.00000000     0.00000000     0.00000000
     0.00000000     0.00000000     0.00000000
     0.00000000     0.00000000     0.00000000
     0.00000000     0.00000000     0.00000000
     0.00000000     0.00000000     0.00000000
     0.00000000     0.00000000     0.00000000
     0.00000000     0.00000000     0.00000000
     0.00000000     0.00000000     0.00000000
     0.00000000     0.00000000     0.00000000
     0.00000000     0.00000000     0.00000000
     0.00000000     0.00000000     0.00000000
     0.00000000     0.00000000     0.00000000
     0.00000000     0.00000000     0.00000000
     0.00000000     0.00000000     0.00000000
     0.00000000     0.00000000     0.00000000
     0.00000000     0.00000000     0.00000000
     0.00000000     0.00000000     0.00000000
     0.00000000     0.00000000     0.00000000
     0.00000000     0.00000000     0.00000000
     0.00000000     0.00000000     0.00000000
     0.00000000     0.00000000     0.00000000
     0.00000000     0.00000000     0.00000000
     0.00000000     0.00000000     0.00000000
     0.00000000     0.00000000     0.00000000
     0.00000000     0.00000000     0.00000000
     0.00000000     0.00000000     0.00000000
     0.00000000     0.00000000     0.00000000
     0.00000000     0.00000000     0.00000000
     0.00000000     0.00000000     0.00000000
     0.00000000     0.00000000     0.00000000
     0.00000000     0.00000000     0.00000000
     0.00000000     0.00000000     0.00000000
     0.00000000     0.00000000     0.00000000
     0.00000000     0.00000000     0.00000000
     0.00000000     0.00000000     0.00000000
     0.00000000     0.00000000     0.00000000
     0.00000000     0.00000000     0.00000000
     0.00000000     0.00000000     0.00000000
     0.00000000     0.00000000     0.00000000
     0.00000000     0.00000000     0.00000000
     0.00000000     0.00000000     0.00000000
     0.00000000     0.00000000     0.00000000
     0.00000000     0.00000000     0.00000000
     0.00000000     0.00000000     0.00000000
     0.00000000     0.00000000     0.00000000
     0.00000000     0.00000000     0.00000000
     0.00000000     0.00000000     0.00000000
     0.00000000     0.00000000     0.00000000
     0.00000000     0.00000000     0.00000000
     0.00000000     0.00000000     0.00000000
     0.00000000     0.00000000     0.00000000
     0.00000000     0.00000000     0.00000000
     0.00000000     0.00000000     0.00000000
     0.00000000     0.00000000     0.00000000
     0.00000000     0.00000000     0.00000000
     0.00000000     0.00000000     0.00000000
     0.00000000     0.00000000     0.00000000
     0.00000000     0.00000000     0.00000000
     0.00000000     0.00000000     0.00000000
     0.00000000     0.00000000     0.00000000
     0.00000000     0.00000000     0.00000000
     0.00000000     0.00000000     0.00000000
     0.00000000     0.00000000     0.00000000
     0.00000000     0.00000000     0.00000000
     0.00000000     0.00000000     0.00000000
     0.00000000     0.00000000     0.00000000
     0.00000000     0.00000000     0.00000000
     0.00000000     0.00000000     0.00000000
     0.00000000     0.00000000     0.00000000
     0.00000000     0.00000000     0.00000000
     0.00000000     0.00000000     0.00000000
     0.00000000     0.00000000     0.00000000
     0.00000000     0.00000000     0.00000000
     0.00000000     0.00000000     0.00000000
     0.00000000     0.00000000     0.00000000
     0.00000000     0.00000000     0.00000000
     0.00000000     0.00000000     0.00000000
     0.00000000     0.00000000     0.00000000
     0.00000000     0.00000000     0.00000000
     0.00000000     0.00000000     0.00000000
     0.00000000     0.00000000     0.00000000
     0.00000000     0.00000000     0.00000000
     0.00000000     0.00000000     0.00000000
     0.00000000     0.00000000     0.00000000
     0.00000000     0.00000000     0.00000000
     0.00000000     0.00000000     0.00000000
     0.00000000     0.00000000     0.00000000
     0.00000000     0.00000000     0.00000000
     0.00000000     0.00000000     0.00000000
     0.00000000     0.00000000     0.00000000
     0.00000000     0.00000000     0.00000000
     0.00000000     0.00000000     0.00000000
     0.00000000     0.00000000     0.00000000
     0.00000000     0.00000000     0.00000000
     0.00000000     0.00000000     0.00000000
     0.00000000     0.00000000     0.00000000
     0.00000000     0.00000000     0.00000000
     0.00000000     0.00000000     0.00000000
     0.00000000     0.00000000     0.00000000
     0.00000000     0.00000000     0.00000000
     0.00000000     0.00000000     0.00000000
     0.00000000     0.00000000     0.00000000
     0.00000000     0.00000000     0.00000000
     0.00000000     0.00000000     0.00000000
     0.00000000     0.00000000     0.00000000
     0.00000000     0.00000000     0.00000000
     0.00000000     0.00000000     0.00000000
     0.00000000     0.00000000     0.00000000
     0.00000000     0.00000000     0.00000000
     0.00000000     0.00000000     0.00000000
     0.00000000     0.00000000     0.00000000
     0.00000000     0.00000000     0.00000000
     0.00000000     0.00000000     0.00000000
     0.00000000     0.00000000     0.00000000
     0.00000000     0.00000000     0.00000000
     0.00000000     0.00000000     0.00000000
     0.00000000     0.00000000     0.00000000
     0.00000000     0.00000000     0.00000000
     0.00000000     0.00000000     0.00000000
     0.00000000     0.00000000     0.00000000
     0.00000000     0.00000000     0.00000000
     0.00000000     0.00000000     0.00000000
     0.00000000     0.00000000     0.00000000
     0.00000000     0.00000000     0.00000000
     0.00000000     0.00000000     0.00000000
     0.00000000     0.00000000     0.00000000
     0.00000000     0.00000000     0.00000000
     0.00000000     0.00000000     0.00000000
     0.00000000     0.00000000     0.00000000
     0.00000000     0.00000000     0.00000000
     0.00000000     0.00000000     0.00000000
     0.00000000     0.00000000     0.00000000
     0.00000000     0.00000000     0.00000000
     0.00000000     0.00000000     0.00000000
     0.00000000     0.00000000     0.00000000
     0.00000000     0.00000000     0.00000000
     0.00000000     0.00000000     0.00000000
     0.00000000     0.00000000     0.00000000
     0.00000000     0.00000000     0.00000000
     0.00000000     0.00000000     0.00000000
     0.00000000     0.00000000     0.00000000
     0.00000000     0.00000000     0.00000000
     0.00000000     0.00000000     0.00000000
     0.00000000     0.00000000     0.00000000
     0.00000000     0.00000000     0.00000000
     0.00000000     0.00000000     0.00000000
     0.00000000     0.00000000     0.00000000
     0.00000000     0.00000000     0.00000000
     0.00000000     0.00000000     0.00000000
     0.00000000     0.00000000     0.00000000
     0.00000000     0.00000000     0.00000000
     0.00000000     0.00000000     0.00000000
     0.00000000     0.00000000     0.00000000
     0.00000000     0.00000000     0.00000000
     0.00000000     0.00000000     0.00000000
     0.00000000     0.00000000     0.00000000
     0.00000000     0.00000000     0.00000000
     0.00000000     0.00000000     0.00000000
     0.00000000     0.00000000     0.00000000
     0.00000000     0.00000000     0.00000000
     0.00000000     0.00000000     0.00000000
     0.00000000     0.00000000     0.00000000
     0.00000000     0.00000000     0.00000000
     0.00000000     0.00000000     0.00000000
     0.00000000     0.00000000     0.00000000
     0.00000000     0.00000000     0.00000000
     0.00000000     0.00000000     0.00000000
     0.00000000     0.00000000     0.00000000
     0.00000000     0.00000000     0.00000000
     0.00000000     0.00000000     0.00000000
     0.00000000     0.00000000     0.00000000
     0.00000000     0.00000000     0.00000000
     0.00000000     0.00000000     0.00000000
     0.00000000     0.00000000     0.00000000
     0.00000000     0.00000000     0.00000000
     0.00000000     0.00000000     0.00000000
     0.00000000     0.00000000     0.00000000
     0.00000000     0.00000000     0.00000000
     0.00000000     0.00000000     0.00000000
     0.00000000     0.00000000     0.00000000
     0.00000000     0.00000000     0.00000000
     0.00000000     0.00000000     0.00000000
     0.00000000     0.00000000     0.00000000
     0.00000000     0.00000000     0.00000000
     0.00000000     0.00000000     0.00000000
     0.00000000     0.00000000     0.00000000
     0.00000000     0.00000000     0.00000000
     0.00000000     0.00000000     0.00000000
     0.00000000     0.00000000     0.00000000
     0.00000000     0.00000000     0.00000000
     0.00000000     0.00000000     0.00000000
     0.00000000     0.00000000     0.00000000
     0.00000000     0.00000000     0.00000000
     0.00000000     0.00000000     0.00000000
     0.00000000     0.00000000     0.00000000
     0.00000000     0.00000000     0.00000000
     0.00000000     0.00000000     0.00000000
     0.00000000     0.00000000     0.00000000
     0.00000000     0.00000000     0.00000000
     0.00000000     0.00000000     0.00000000
     0.00000000     0.00000000     0.00000000
     0.00000000     0.00000000     0.00000000
     0.00000000     0.00000000     0.00000000
     0.00000000     0.00000000     0.00000000
     0.00000000     0.00000000     0.00000000
     0.00000000     0.00000000     0.00000000
     0.00000000     0.00000000     0.00000000
     0.00000000     0.00000000     0.00000000
     0.00000000     0.00000000     0.00000000
     0.00000000     0.00000000     0.00000000
     0.00000000     0.00000000     0.00000000
     0.00000000     0.00000000     0.00000000
     0.00000000     0.00000000     0.00000000
     0.00000000     0.00000000     0.00000000
     0.00000000     0.00000000     0.00000000
     0.00000000     0.00000000     0.00000000
     0.00000000     0.00000000     0.00000000
     0.00000000     0.00000000     0.00000000
     0.00000000     0.00000000     0.00000000
     0.00000000     0.00000000     0.00000000
     0.00000000     0.00000000     0.00000000
     0.00000000     0.00000000     0.00000000
     0.00000000     0.00000000     0.00000000
     0.00000000     0.00000000     0.00000000
     0.00000000     0.00000000     0.00000000
     0.00000000     0.00000000     0.00000000
     0.00000000     0.00000000     0.00000000
     0.00000000     0.00000000     0.00000000
     0.00000000     0.00000000     0.00000000
     0.00000000     0.00000000     0.00000000
     0.00000000     0.00000000     0.00000000
     0.00000000     0.00000000     0.00000000
     0.00000000     0.00000000     0.00000000
     0.00000000     0.00000000     0.00000000
     0.00000000     0.00000000     0.00000000
     0.00000000     0.00000000     0.00000000
     0.00000000     0.00000000     0.00000000
     0.00000000     0.00000000     0.00000000
     0.00000000     0.00000000     0.00000000
     0.00000000     0.00000000     0.00000000
     0.00000000     0.00000000     0.00000000
     0.00000000     0.00000000     0.00000000
     0.00000000     0.00000000     0.00000000
     0.00000000     0.00000000     0.00000000
     0.00000000     0.00000000     0.00000000
     0.00000000     0.00000000     0.00000000
     0.00000000     0.00000000     0.00000000
     0.00000000     0.00000000     0.00000000
     0.00000000     0.00000000     0.00000000
     0.00000000     0.00000000     0.00000000
     0.00000000     0.00000000     0.00000000
     0.00000000     0.00000000     0.00000000
     0.00000000     0.00000000     0.00000000
     0.00000000     0.00000000     0.00000000
     0.00000000     0.00000000     0.00000000
     0.00000000     0.00000000     0.00000000
     0.00000000     0.00000000     0.00000000
     0.00000000     0.00000000     0.00000000
     0.00000000     0.00000000     0.00000000
     0.00000000     0.00000000     0.00000000
     0.00000000     0.00000000     0.00000000
     0.00000000     0.00000000     0.00000000
     0.00000000     0.00000000     0.00000000
     0.00000000     0.00000000     0.00000000
     0.00000000     0.00000000     0.00000000
     0.00000000     0.00000000     0.00000000
     0.00000000     0.00000000     0.00000000
     0.00000000     0.00000000     0.00000000
     0.00000000     0.00000000     0.00000000
     0.00000000     0.00000000     0.00000000
     0.00000000     0.00000000     0.00000000
     0.00000000     0.00000000     0.00000000
     0.00000000     0.00000000     0.00000000
     0.00000000     0.00000000     0.00000000
     0.00000000     0.00000000     0.00000000
     0.00000000     0.00000000     0.00000000
     0.00000000     0.00000000     0.00000000
     0.00000000     0.00000000     0.00000000
     0.00000000     0.00000000     0.00000000
     0.00000000     0.00000000     0.00000000
     0.00000000     0.00000000     0.00000000
     0.00000000     0.00000000     0.00000000
     0.00000000     0.00000000     0.00000000
     0.00000000     0.00000000     0.00000000
     0.00000000     0.00000000     0.00000000
     0.00000000     0.00000000     0.00000000
     0.00000000     0.00000000     0.00000000
     0.00000000     0.00000000     0.00000000
     0.00000000     0.00000000     0.00000000
     0.00000000     0.00000000     0.00000000
     0.00000000     0.00000000     0.00000000
     0.00000000     0.00000000     0.00000000
     0.00000000     0.00000000     0.00000000
     0.00000000     0.00000000     0.00000000
     0.00000000     0.00000000     0.00000000
     0.00000000     0.00000000     0.00000000
     0.00000000     0.00000000     0.00000000
     0.00000000     0.00000000     0.00000000
     0.00000000     0.00000000     0.00000000
     0.00000000     0.00000000     0.00000000
     0.00000000     0.00000000     0.00000000
     0.00000000     0.00000000     0.00000000
     0.00000000     0.00000000     0.00000000
     0.00000000     0.00000000     0.00000000
     0.00000000     0.00000000     0.00000000
     0.00000000     0.00000000     0.00000000
     0.00000000     0.00000000     0.00000000
     0.00000000     0.00000000     0.00000000
     0.00000000     0.00000000     0.00000000
     0.00000000     0.00000000     0.00000000
     0.00000000     0.00000000     0.00000000
     0.00000000     0.00000000     0.00000000
     0.00000000     0.00000000     0.00000000
     0.00000000     0.00000000     0.00000000
     0.00000000     0.00000000     0.00000000
     0.00000000     0.00000000     0.00000000
     0.00000000     0.00000000     0.00000000
     0.00000000     0.00000000     0.00000000
     0.00000000     0.00000000     0.00000000
     0.00000000     0.00000000     0.00000000
     0.00000000     0.00000000     0.00000000
     0.00000000     0.00000000     0.00000000
     0.00000000     0.00000000     0.00000000
     0.00000000     0.00000000     0.00000000
     0.00000000     0.00000000     0.00000000
     0.00000000     0.00000000     0.00000000
     0.00000000     0.00000000     0.00000000
     0.00000000     0.00000000     0.00000000
     0.00000000     0.00000000     0.00000000
     0.00000000     0.00000000     0.00000000
     0.00000000     0.00000000     0.00000000
     0.00000000     0.00000000     0.00000000
     0.00000000     0.00000000     0.00000000
     0.00000000     0.00000000     0.00000000
     0.00000000     0.00000000     0.00000000
     0.00000000     0.00000000     0.00000000
     0.00000000     0.00000000     0.00000000
     0.00000000     0.00000000     0.00000000
     0.00000000     0.00000000     0.00000000
     0.00000000     0.00000000     0.00000000
     0.00000000     0.00000000     0.00000000
     0.00000000     0.00000000     0.00000000
     0.00000000     0.00000000     0.00000000
     0.00000000     0.00000000     0.00000000
     0.00000000     0.00000000     0.00000000
     0.00000000     0.00000000     0.00000000
     0.00000000     0.00000000     0.00000000
     0.00000000     0.00000000     0.00000000
     0.00000000     0.00000000     0.00000000
     0.00000000     0.00000000     0.00000000
     0.00000000     0.00000000     0.00000000
     0.00000000     0.00000000     0.00000000
     0.00000000     0.00000000     0.00000000
     0.00000000     0.00000000     0.00000000
     0.00000000     0.00000000     0.00000000
     0.00000000     0.00000000     0.00000000
     0.00000000     0.00000000     0.00000000
     0.00000000     0.00000000     0.00000000
     0.00000000     0.00000000     0.00000000
     0.00000000     0.00000000     0.00000000
     0.00000000     0.00000000     0.00000000
     0.00000000     0.00000000     0.00000000
     0.00000000     0.00000000     0.00000000
     0.00000000     0.00000000     0.00000000
     0.00000000     0.00000000     0.00000000
     0.00000000     0.00000000     0.00000000
     0.00000000     0.00000000     0.00000000
     0.00000000     0.00000000     0.00000000
     0.00000000     0.00000000     0.00000000
     0.00000000     0.00000000     0.00000000
     0.00000000     0.00000000     0.00000000
     0.00000000     0.00000000     0.00000000
     0.00000000     0.00000000     0.00000000
     0.00000000     0.00000000     0.00000000
     0.00000000     0.00000000     0.00000000
     0.00000000     0.00000000     0.00000000
     0.00000000     0.00000000     0.00000000
     0.00000000     0.00000000     0.00000000
     0.00000000     0.00000000     0.00000000
     0.00000000     0.00000000     0.00000000
     0.00000000     0.00000000     0.00000000
     0.00000000     0.00000000     0.00000000
     0.00000000     0.00000000     0.00000000
     0.00000000     0.00000000     0.00000000
     0.00000000     0.00000000     0.00000000
     0.00000000     0.00000000     0.00000000
     0.00000000     0.00000000     0.00000000
     0.00000000     0.00000000     0.00000000
     0.00000000     0.00000000     0.00000000
     0.00000000     0.00000000     0.00000000
     0.00000000     0.00000000     0.00000000
     0.00000000     0.00000000     0.00000000
     0.00000000     0.00000000     0.00000000
     0.00000000     0.00000000     0.00000000
     0.00000000     0.00000000     0.00000000
     0.00000000     0.00000000     0.00000000
     0.00000000     0.00000000     0.00000000
     0.00000000     0.00000000     0.00000000
     0.00000000     0.00000000     0.00000000
     0.00000000     0.00000000     0.00000000
     0.00000000     0.00000000     0.00000000
     0.00000000     0.00000000     0.00000000
     0.00000000     0.00000000     0.00000000
     0.00000000     0.00000000     0.00000000
     0.00000000     0.00000000     0.00000000
     0.00000000     0.00000000     0.00000000
     0.00000000     0.00000000     0.00000000
     0.00000000     0.00000000     0.00000000
     0.00000000     0.00000000     0.00000000
     0.00000000     0.00000000     0.00000000
     0.00000000     0.00000000     0.00000000
     0.00000000     0.00000000     0.00000000
     0.00000000     0.00000000     0.00000000
     0.00000000     0.00000000     0.00000000
     0.00000000     0.00000000     0.00000000
     0.00000000     0.00000000     0.00000000
     0.00000000     0.00000000     0.00000000
     0.00000000     0.00000000     0.00000000
     0.00000000     0.00000000     0.00000000
     0.00000000     0.00000000     0.00000000
     0.00000000     0.00000000     0.00000000
     0.00000000     0.00000000     0.00000000
     0.00000000     0.00000000     0.00000000
     0.00000000     0.00000000     0.00000000
     0.00000000     0.00000000     0.00000000
     0.00000000     0.00000000     0.00000000
     0.00000000     0.00000000     0.00000000
     0.00000000     0.00000000     0.00000000
     0.00000000     0.00000000     0.00000000
     0.00000000     0.00000000     0.00000000
     0.00000000     0.00000000     0.00000000
     0.00000000     0.00000000     0.00000000
     0.00000000     0.00000000     0.00000000
     0.00000000     0.00000000     0.00000000
     0.00000000     0.00000000     0.00000000
     0.00000000     0.00000000     0.00000000
     0.00000000     0.00000000     0.00000000
     0.00000000     0.00000000     0.00000000
     0.00000000     0.00000000     0.00000000
     0.00000000     0.00000000     0.00000000
     0.00000000     0.00000000     0.00000000
     0.00000000     0.00000000     0.00000000
     0.00000000     0.00000000     0.00000000
     0.00000000     0.00000000     0.00000000
     0.00000000     0.00000000     0.00000000
     0.00000000     0.00000000     0.00000000
     0.00000000     0.00000000     0.00000000
     0.00000000     0.00000000     0.00000000
     0.00000000     0.00000000     0.00000000
     0.00000000     0.00000000     0.00000000
     0.00000000     0.00000000     0.00000000
     0.00000000     0.00000000     0.00000000
     0.00000000     0.00000000     0.00000000
     0.00000000     0.00000000     0.00000000
     0.00000000     0.00000000     0.00000000
     0.00000000     0.00000000     0.00000000
     0.00000000     0.00000000     0.00000000
     0.00000000     0.00000000     0.00000000
     0.00000000     0.00000000     0.00000000
     0.00000000     0.00000000     0.00000000
     0.00000000     0.00000000     0.00000000
     0.00000000     0.00000000     0.00000000
     0.00000000     0.00000000     0.00000000
     0.00000000     0.00000000     0.00000000
     0.00000000     0.00000000     0.00000000
     0.00000000     0.00000000     0.00000000
     0.00000000     0.00000000     0.00000000
     0.00000000     0.00000000     0.00000000
     0.00000000     0.00000000     0.00000000
     0.00000000     0.00000000     0.00000000
     0.00000000     0.00000000     0.00000000
     0.00000000     0.00000000     0.00000000
     0.00000000     0.00000000     0.00000000
     0.00000000     0.00000000     0.00000000
     0.00000000     0.00000000     0.00000000
     0.00000000     0.00000000     0.00000000
     0.00000000     0.00000000     0.00000000
     0.00000000     0.00000000     0.00000000
     0.00000000     0.00000000     0.00000000
     0.00000000     0.00000000     0.00000000
     0.00000000     0.00000000     0.00000000
     0.00000000     0.00000000     0.00000000
     0.00000000     0.00000000     0.00000000
     0.00000000     0.00000000     0.00000000
     0.00000000     0.00000000     0.00000000
     0.00000000     0.00000000     0.00000000
     0.00000000     0.00000000     0.00000000
     0.00000000     0.00000000     0.00000000
     0.00000000     0.00000000     0.00000000
     0.00000000     0.00000000     0.00000000
     0.00000000     0.00000000     0.00000000
     0.00000000     0.00000000     0.00000000
     0.00000000     0.00000000     0.00000000
     0.00000000     0.00000000     0.00000000
     0.00000000     0.00000000     0.00000000
     0.00000000     0.00000000     0.00000000
     0.00000000     0.00000000     0.00000000
     0.00000000     0.00000000     0.00000000
     0.00000000     0.00000000     0.00000000
     0.00000000     0.00000000     0.00000000
     0.00000000     0.00000000     0.00000000
     0.00000000     0.00000000     0.00000000
     0.00000000     0.00000000     0.00000000
     0.00000000     0.00000000     0.00000000
     0.00000000     0.00000000     0.00000000
     0.00000000     0.00000000     0.00000000
     0.00000000     0.00000000     0.00000000
     0.00000000     0.00000000     0.00000000
     0.00000000     0.00000000     0.00000000
     0.00000000     0.00000000     0.00000000
     0.00000000     0.00000000     0.00000000
     0.00000000     0.00000000     0.00000000
     0.00000000     0.00000000     0.00000000
     0.00000000     0.00000000     0.00000000
     0.00000000     0.00000000     0.00000000
     0.00000000     0.00000000     0.00000000
     0.00000000     0.00000000     0.00000000
     0.00000000     0.00000000     0.00000000
     0.00000000     0.00000000     0.00000000
     0.00000000     0.00000000     0.00000000
     0.00000000     0.00000000     0.00000000
     0.00000000     0.00000000     0.00000000
     0.00000000     0.00000000     0.00000000
     0.00000000     0.00000000     0.00000000
     0.00000000     0.00000000     0.00000000
     0.00000000     0.00000000     0.00000000
     0.00000000     0.00000000     0.00000000
     0.00000000     0.00000000     0.00000000
     0.00000000     0.00000000     0.00000000
     0.00000000     0.00000000     0.00000000
     0.00000000     0.00000000     0.00000000
     0.00000000     0.00000000     0.00000000
     0.00000000     0.00000000     0.00000000
     0.00000000     0.00000000     0.00000000
     0.00000000     0.00000000     0.00000000
     0.00000000     0.00000000     0.00000000
     0.00000000     0.00000000     0.00000000
     0.00000000     0.00000000     0.00000000
     0.00000000     0.00000000     0.00000000
     0.00000000     0.00000000     0.00000000
     0.00000000     0.00000000     0.00000000
     0.00000000     0.00000000     0.00000000
     0.00000000     0.00000000     0.00000000
     0.00000000     0.00000000     0.00000000
     0.00000000     0.00000000     0.00000000
     0.00000000     0.00000000     0.00000000
     0.00000000     0.00000000     0.00000000
     0.00000000     0.00000000     0.00000000
     0.00000000     0.00000000     0.00000000
     0.00000000     0.00000000     0.00000000
     0.00000000     0.00000000     0.00000000
     0.00000000     0.00000000     0.00000000
     0.00000000     0.00000000     0.00000000
     0.00000000     0.00000000     0.00000000
     0.00000000     0.00000000     0.00000000
     0.00000000     0.00000000     0.00000000
     0.00000000     0.00000000     0.00000000
     0.00000000     0.00000000     0.00000000
     0.00000000     0.00000000     0.00000000
     0.00000000     0.00000000     0.00000000
     0.00000000     0.00000000     0.00000000
     0.00000000     0.00000000     0.00000000
     0.00000000     0.00000000     0.00000000
     0.00000000     0.00000000     0.00000000
     0.00000000     0.00000000     0.00000000
     0.00000000     0.00000000     0.00000000
     0.00000000     0.00000000     0.00000000
     0.00000000     0.00000000     0.00000000
     0.00000000     0.00000000     0.00000000
     0.00000000     0.00000000     0.00000000
     0.00000000     0.00000000     0.00000000
     0.00000000     0.00000000     0.00000000
     0.00000000     0.00000000     0.00000000
     0.00000000     0.00000000     0.00000000
     0.00000000     0.00000000     0.00000000
     0.00000000     0.00000000     0.00000000
     0.00000000     0.00000000     0.00000000
     0.00000000     0.00000000     0.00000000
     0.00000000     0.00000000     0.00000000
     0.00000000     0.00000000     0.00000000
     0.00000000     0.00000000     0.00000000
     0.00000000     0.00000000     0.00000000
     0.00000000     0.00000000     0.00000000
     0.00000000     0.00000000     0.00000000
     0.00000000     0.00000000     0.00000000
     0.00000000     0.00000000     0.00000000
     0.00000000     0.00000000     0.00000000
     0.00000000     0.00000000     0.00000000
     0.00000000     0.00000000     0.00000000
     0.00000000     0.00000000     0.00000000
     0.00000000     0.00000000     0.00000000
     0.00000000     0.00000000     0.00000000
     0.00000000     0.00000000     0.00000000
     0.00000000     0.00000000     0.00000000
     0.00000000     0.00000000     0.00000000
     0.00000000     0.00000000     0.00000000
     0.00000000     0.00000000     0.00000000
     0.00000000     0.00000000     0.00000000
     0.00000000     0.00000000     0.00000000
     0.00000000     0.00000000     0.00000000
     0.00000000     0.00000000     0.00000000
     0.00000000     0.00000000     0.00000000
     0.00000000     0.00000000     0.00000000
     0.00000000     0.00000000     0.00000000
     0.00000000     0.00000000     0.00000000
     0.00000000     0.00000000     0.00000000
     0.00000000     0.00000000     0.00000000
     0.00000000     0.00000000     0.00000000
     0.00000000     0.00000000     0.00000000
     0.00000000     0.00000000     0.00000000
     0.00000000     0.00000000     0.00000000
     0.00000000     0.00000000     0.00000000
     0.00000000     0.00000000     0.00000000
     0.00000000     0.00000000     0.00000000
     0.00000000     0.00000000     0.00000000
     0.00000000     0.00000000     0.00000000
     0.00000000     0.00000000     0.00000000
     0.00000000     0.00000000     0.00000000
     0.00000000     0.00000000     0.00000000
     0.00000000     0.00000000     0.00000000
     0.00000000     0.00000000     0.00000000
     0.00000000     0.00000000     0.00000000
     0.00000000     0.00000000     0.00000000
     0.00000000     0.00000000     0.00000000
     0.00000000     0.00000000     0.00000000
     0.00000000     0.00000000     0.00000000
     0.00000000     0.00000000     0.00000000
     0.00000000     0.00000000     0.00000000
     0.00000000     0.00000000     0.00000000
     0.00000000     0.00000000     0.00000000
     0.00000000     0.00000000     0.00000000
     0.00000000     0.00000000     0.00000000
     0.00000000     0.00000000     0.00000000
     0.00000000     0.00000000     0.00000000
     0.00000000     0.00000000     0.00000000
     0.00000000     0.00000000     0.00000000
     0.00000000     0.00000000     0.00000000
     0.00000000     0.00000000     0.00000000
     0.00000000     0.00000000     0.00000000
     0.00000000     0.00000000     0.00000000
     0.00000000     0.00000000     0.00000000
     0.00000000     0.00000000     0.00000000
     0.00000000     0.00000000     0.00000000
     0.00000000     0.00000000     0.00000000
     0.00000000     0.00000000     0.00000000
     0.00000000     0.00000000     0.00000000
     0.00000000     0.00000000     0.00000000
     0.00000000     0.00000000     0.00000000
     0.00000000     0.00000000     0.00000000
     0.00000000     0.00000000     0.00000000
     0.00000000     0.00000000     0.00000000
     0.00000000     0.00000000     0.00000000
     0.00000000     0.00000000     0.00000000
     0.00000000     0.00000000     0.00000000
     0.00000000     0.00000000     0.00000000
     0.00000000     0.00000000     0.00000000
     0.00000000     0.00000000     0.00000000
     0.00000000     0.00000000     0.00000000
     0.00000000     0.00000000     0.00000000
     0.00000000     0.00000000     0.00000000
     0.00000000     0.00000000     0.00000000
     0.00000000     0.00000000     0.00000000
     0.00000000     0.00000000     0.00000000
     0.00000000     0.00000000     0.00000000
     0.00000000     0.00000000     0.00000000
     0.00000000     0.00000000     0.00000000
     0.00000000     0.00000000     0.00000000
     0.00000000     0.00000000     0.00000000
     0.00000000     0.00000000     0.00000000
     0.00000000     0.00000000     0.00000000
     0.00000000     0.00000000     0.00000000
     0.00000000     0.00000000     0.00000000
     0.00000000     0.00000000     0.00000000
     0.00000000     0.00000000     0.00000000
     0.00000000     0.00000000     0.00000000
     0.00000000     0.00000000     0.00000000
     0.00000000     0.00000000     0.00000000
     0.00000000     0.00000000     0.00000000
     0.00000000     0.00000000     0.00000000
     0.00000000     0.00000000     0.00000000
     0.00000000     0.00000000     0.00000000
     0.00000000     0.00000000     0.00000000
     0.00000000     0.00000000     0.00000000
     0.00000000     0.00000000     0.00000000
     0.00000000     0.00000000     0.00000000
     0.00000000     0.00000000     0.00000000
     0.00000000     0.00000000     0.00000000
     0.00000000     0.00000000     0.00000000
     0.00000000     0.00000000     0.00000000
     0.00000000     0.00000000     0.00000000
     0.00000000     0.00000000     0.00000000
     0.00000000     0.00000000     0.00000000
     0.00000000     0.00000000     0.00000000
     0.00000000     0.00000000     0.00000000
     0.00000000     0.00000000     0.00000000
     0.00000000     0.00000000     0.00000000
     0.00000000     0.00000000     0.00000000
     0.00000000     0.00000000     0.00000000
     0.00000000     0.00000000     0.00000000
     0.00000000     0.00000000     0.00000000
     0.00000000     0.00000000     0.00000000
     0.00000000     0.00000000     0.00000000
     0.00000000     0.00000000     0.00000000
     0.00000000     0.00000000     0.00000000
     0.00000000     0.00000000     0.00000000
     0.00000000     0.00000000     0.00000000
     0.00000000     0.00000000     0.00000000
     0.00000000     0.00000000     0.00000000
     0.00000000     0.00000000     0.00000000
     0.00000000     0.00000000     0.00000000
     0.00000000     0.00000000     0.00000000
     0.00000000     0.00000000     0.00000000
     0.00000000     0.00000000     0.00000000
     0.00000000     0.00000000     0.00000000
     0.00000000     0.00000000     0.00000000
     0.00000000     0.00000000     0.00000000
     0.00000000     0.00000000     0.00000000
     0.00000000     0.00000000     0.00000000
     0.00000000     0.00000000     0.00000000
     0.00000000     0.00000000     0.00000000
     0.00000000     0.00000000     0.00000000
     0.00000000     0.00000000     0.00000000
     0.00000000     0.00000000     0.00000000
     0.00000000     0.00000000     0.00000000
     0.00000000     0.00000000     0.00000000
     0.00000000     0.00000000     0.00000000
     0.00000000     0.00000000     0.00000000
     0.00000000     0.00000000     0.00000000
     0.00000000     0.00000000     0.00000000
     0.00000000     0.00000000     0.00000000
     0.00000000     0.00000000     0.00000000
     0.00000000     0.00000000     0.00000000
     0.00000000     0.00000000     0.00000000
     0.00000000     0.00000000     0.00000000
     0.00000000     0.00000000     0.00000000
     0.00000000     0.00000000     0.00000000
     0.00000000     0.00000000     0.00000000
     0.00000000     0.00000000     0.00000000
     0.00000000     0.00000000     0.00000000
     0.00000000     0.00000000     0.00000000
     0.00000000     0.00000000     0.00000000
     0.00000000     0.00000000     0.00000000
     0.00000000     0.00000000     0.00000000
     0.00000000     0.00000000     0.00000000
     0.00000000     0.00000000     0.00000000
     0.00000000     0.00000000     0.00000000
     0.00000000     0.00000000     0.00000000
     0.00000000     0.00000000     0.00000000
     0.00000000     0.00000000     0.00000000
     0.00000000     0.00000000     0.00000000
     0.00000000     0.00000000     0.00000000
     0.00000000     0.00000000     0.00000000
     0.00000000     0.00000000     0.00000000
     0.00000000     0.00000000     0.00000000
     0.00000000     0.00000000     0.00000000
     0.00000000     0.00000000     0.00000000
     0.00000000     0.00000000     0.00000000
     0.00000000     0.00000000     0.00000000
     0.00000000     0.00000000     0.00000000
     0.00000000     0.00000000     0.00000000
     0.00000000     0.00000000     0.00000000
     0.00000000     0.00000000     0.00000000
     0.00000000     0.00000000     0.00000000
     0.00000000     0.00000000     0.00000000
     0.00000000     0.00000000     0.00000000
     0.00000000     0.00000000     0.00000000
     0.00000000     0.00000000     0.00000000
     0.00000000     0.00000000     0.00000000
     0.00000000     0.00000000     0.00000000
     0.00000000     0.00000000     0.00000000
     0.00000000     0.00000000     0.00000000
     0.00000000     0.00000000     0.00000000
     0.00000000     0.00000000     0.00000000
     0.00000000     0.00000000     0.00000000
     0.00000000     0.00000000     0.00000000
     0.00000000     0.00000000     0.00000000
     0.00000000     0.00000000     0.00000000
     0.00000000     0.00000000     0.00000000
     0.00000000     0.00000000     0.00000000
     0.00000000     0.00000000     0.00000000
     0.00000000     0.00000000     0.00000000
     0.00000000     0.00000000     0.00000000
     0.00000000     0.00000000     0.00000000
     0.00000000     0.00000000     0.00000000
     0.00000000     0.00000000     0.00000000
     0.00000000     0.00000000     0.00000000
     0.00000000     0.00000000     0.00000000
     0.00000000     0.00000000     0.00000000
     0.00000000     0.00000000     0.00000000
     0.00000000     0.00000000     0.00000000
     0.00000000     0.00000000     0.00000000
     0.00000000     0.00000000     0.00000000
     0.00000000     0.00000000     0.00000000
     0.00000000     0.00000000     0.00000000
     0.00000000     0.00000000     0.00000000
     0.00000000     0.00000000     0.00000000
     0.00000000     0.00000000     0.00000000
     0.00000000     0.00000000     0.00000000
     0.00000000     0.00000000     0.00000000
     0.00000000     0.00000000     0.00000000
     0.00000000     0.00000000     0.00000000
     0.00000000     0.00000000     0.00000000
     0.00000000     0.00000000     0.00000000
     0.00000000     0.00000000     0.00000000
     0.00000000     0.00000000     0.00000000
     0.00000000     0.00000000     0.00000000
     0.00000000     0.00000000     0.00000000
     0.00000000     0.00000000     0.00000000
     0.00000000     0.00000000     0.00000000
     0.00000000     0.00000000     0.00000000
     0.00000000     0.00000000     0.00000000
     0.00000000     0.00000000     0.00000000
     0.00000000     0.00000000     0.00000000
     0.00000000     0.00000000     0.00000000
     0.00000000     0.00000000     0.00000000
     0.00000000     0.00000000     0.00000000
     0.00000000     0.00000000     0.00000000
     0.00000000     0.00000000     0.00000000
     0.00000000     0.00000000     0.00000000
     0.00000000     0.00000000     0.00000000
     0.00000000     0.00000000     0.00000000
     0.00000000     0.00000000     0.00000000
     0.00000000     0.00000000     0.00000000
     0.00000000     0.00000000     0.00000000
     0.00000000     0.00000000     0.00000000
     0.00000000     0.00000000     0.00000000
     0.00000000     0.00000000     0.00000000
     0.00000000     0.00000000     0.00000000
     0.00000000     0.00000000     0.00000000
     0.00000000     0.00000000     0.00000000
     0.00000000     0.00000000     0.00000000
     0.00000000     0.00000000     0.00000000
     0.00000000     0.00000000     0.00000000
     0.00000000     0.00000000     0.00000000
     0.00000000     0.00000000     0.00000000
     0.00000000     0.00000000     0.00000000
     0.00000000     0.00000000     0.00000000
     0.00000000     0.00000000     0.00000000
     0.00000000     0.00000000     0.00000000
     0.00000000     0.00000000     0.00000000
     0.00000000     0.00000000     0.00000000
     0.00000000     0.00000000     0.00000000
     0.00000000     0.00000000     0.00000000
     0.00000000     0.00000000     0.00000000
     0.00000000     0.00000000     0.00000000
     0.00000000     0.00000000     0.00000000
     0.00000000     0.00000000     0.00000000
     0.00000000     0.00000000     0.00000000
     0.00000000     0.00000000     0.00000000
     0.00000000     0.00000000     0.00000000
     0.00000000     0.00000000     0.00000000
     0.00000000     0.00000000     0.00000000
     0.00000000     0.00000000     0.00000000
     0.00000000     0.00000000     0.00000000
     0.00000000     0.00000000     0.00000000
     0.00000000     0.00000000     0.00000000
     0.00000000     0.00000000     0.00000000
     0.00000000     0.00000000     0.00000000
     0.00000000     0.00000000     0.00000000
     0.00000000     0.00000000     0.00000000
     0.00000000     0.00000000     0.00000000
     0.00000000     0.00000000     0.00000000
     0.00000000     0.00000000     0.00000000
     0.00000000     0.00000000     0.00000000
     0.00000000     0.00000000     0.00000000
     0.00000000     0.00000000     0.00000000
     0.00000000     0.00000000     0.00000000
     0.00000000     0.00000000     0.00000000
     0.00000000     0.00000000     0.00000000
     0.00000000     0.00000000     0.00000000
     0.00000000     0.00000000     0.00000000
     0.00000000     0.00000000     0.00000000
     0.00000000     0.00000000     0.00000000
     0.00000000     0.00000000     0.00000000
     0.00000000     0.00000000     0.00000000
     0.00000000     0.00000000     0.00000000
     0.00000000     0.00000000     0.00000000
     0.00000000     0.00000000     0.00000000
     0.00000000     0.00000000     0.00000000
     0.00000000     0.00000000     0.00000000
     0.00000000     0.00000000     0.00000000
     0.00000000     0.00000000     0.00000000
     0.00000000     0.00000000     0.00000000
     0.00000000     0.00000000     0.00000000
     0.00000000     0.00000000     0.00000000
     0.00000000     0.00000000     0.00000000
     0.00000000     0.00000000     0.00000000
     0.00000000     0.00000000     0.00000000
     0.00000000     0.00000000     0.00000000
     0.00000000     0.00000000     0.00000000
     0.00000000     0.00000000     0.00000000
     0.00000000     0.00000000     0.00000000
     0.00000000     0.00000000     0.00000000
     0.00000000     0.00000000     0.00000000
     0.00000000     0.00000000     0.00000000
     0.00000000     0.00000000     0.00000000
     0.00000000     0.00000000     0.00000000
     0.00000000     0.00000000     0.00000000
     0.00000000     0.00000000     0.00000000
     0.00000000     0.00000000     0.00000000
     0.00000000     0.00000000     0.00000000
     0.00000000     0.00000000     0.00000000
     0.00000000     0.00000000     0.00000000
     0.00000000     0.00000000     0.00000000
     0.00000000     0.00000000     0.00000000
     0.00000000     0.00000000     0.00000000
     0.00000000     0.00000000     0.00000000
     0.00000000     0.00000000     0.00000000
     0.00000000     0.00000000     0.00000000
     0.00000000     0.00000000     0.00000000
     0.00000000     0.00000000     0.00000000
     0.00000000     0.00000000     0.00000000
     0.00000000     0.00000000     0.00000000
     0.00000000     0.00000000     0.00000000
     0.00000000     0.00000000     0.00000000
     0.00000000     0.00000000     0.00000000
     0.00000000     0.00000000     0.00000000
     0.00000000     0.00000000     0.00000000
     0.00000000     0.00000000     0.00000000
     0.00000000     0.00000000     0.00000000
     0.00000000     0.00000000     0.00000000
     0.00000000     0.00000000     0.00000000
     0.00000000     0.00000000     0.00000000
     0.00000000     0.00000000     0.00000000
     0.00000000     0.00000000     0.00000000
     0.00000000     0.00000000     0.00000000
     0.00000000     0.00000000     0.00000000
     0.00000000     0.00000000     0.00000000
     0.00000000     0.00000000     0.00000000
     0.00000000     0.00000000     0.00000000
     0.00000000     0.00000000     0.00000000
     0.00000000     0.00000000     0.00000000
     0.00000000     0.00000000     0.00000000
     0.00000000     0.00000000     0.00000000
     0.00000000     0.00000000     0.00000000
     0.00000000     0.00000000     0.00000000
     0.00000000     0.00000000     0.00000000
     0.00000000     0.00000000     0.00000000
     0.00000000     0.00000000     0.00000000
     0.00000000     0.00000000     0.00000000
     0.00000000     0.00000000     0.00000000
     0.00000000     0.00000000     0.00000000
     0.00000000     0.00000000     0.00000000
     0.00000000     0.00000000     0.00000000
     0.00000000     0.00000000     0.00000000
     0.00000000     0.00000000     0.00000000
     0.00000000     0.00000000     0.00000000
     0.00000000     0.00000000     0.00000000
     0.00000000     0.00000000     0.00000000
     0.00000000     0.00000000     0.00000000
     0.00000000     0.00000000     0.00000000
     0.00000000     0.00000000     0.00000000
     0.00000000     0.00000000     0.00000000
     0.00000000     0.00000000     0.00000000
     0.00000000     0.00000000     0.00000000
     0.00000000     0.00000000     0.00000000
     0.00000000     0.00000000     0.00000000
     0.00000000     0.00000000     0.00000000
     0.00000000     0.00000000     0.00000000
     0.00000000     0.00000000     0.00000000
     0.00000000     0.00000000     0.00000000
     0.00000000     0.00000000     0.00000000
     0.00000000     0.00000000     0.00000000
     0.00000000     0.00000000     0.00000000
     0.00000000     0.00000000     0.00000000
     0.00000000     0.00000000     0.00000000
     0.00000000     0.00000000     0.00000000
     0.00000000     0.00000000     0.00000000
     0.00000000     0.00000000     0.00000000
     0.00000000     0.00000000     0.00000000
     0.00000000     0.00000000     0.00000000
     0.00000000     0.00000000     0.00000000
     0.00000000     0.00000000     0.00000000
     0.00000000     0.00000000     0.00000000
     0.00000000     0.00000000     0.00000000
     0.00000000     0.00000000     0.00000000
     0.00000000     0.00000000     0.00000000
     0.00000000     0.00000000     0.00000000
     0.00000000     0.00000000     0.00000000
     0.00000000     0.00000000     0.00000000
     0.00000000     0.00000000     0.00000000
     0.00000000     0.00000000     0.00000000
     0.00000000     0.00000000     0.00000000
     0.00000000     0.00000000     0.00000000
     0.00000000     0.00000000     0.00000000
     0.00000000     0.00000000     0.00000000
     0.00000000     0.00000000     0.00000000
     0.00000000     0.00000000     0.00000000
     0.00000000     0.00000000     0.00000000
     0.00000000     0.00000000     0.00000000
     0.00000000     0.00000000     0.00000000
     0.00000000     0.00000000     0.00000000
     0.00000000     0.00000000     0.00000000
     0.00000000     0.00000000     0.00000000
     0.00000000     0.00000000     0.00000000
     0.00000000     0.00000000     0.00000000
     0.00000000     0.00000000     0.00000000
     0.00000000     0.00000000     0.00000000
     0.00000000     0.00000000     0.00000000
     0.00000000     0.00000000     0.00000000
     0.00000000     0.00000000     0.00000000
     0.00000000     0.00000000     0.00000000
     0.00000000     0.00000000     0.00000000
     0.00000000     0.00000000     0.00000000
     0.00000000     0.00000000     0.00000000
     0.00000000     0.00000000     0.00000000
     0.00000000     0.00000000     0.00000000
     0.00000000     0.00000000     0.00000000
     0.00000000     0.00000000     0.00000000
     0.00000000     0.00000000     0.00000000
     0.00000000     0.00000000     0.00000000
     0.00000000     0.00000000     0.00000000
     0.00000000     0.00000000     0.00000000
     0.00000000     0.00000000     0.00000000
     0.00000000     0.00000000     0.00000000
     0.00000000     0.00000000     0.00000000
     0.00000000     0.00000000     0.00000000
     0.00000000     0.00000000     0.00000000
     0.00000000     0.00000000     0.00000000
     0.00000000     0.00000000     0.00000000
     0.00000000     0.00000000     0.00000000
     0.00000000     0.00000000     0.00000000
     0.00000000     0.00000000     0.00000000
     0.00000000     0.00000000     0.00000000
     0.00000000     0.00000000     0.00000000
     0.00000000     0.00000000     0.00000000
     0.00000000     0.00000000     0.00000000
     0.00000000     0.00000000     0.00000000
     0.00000000     0.00000000     0.00000000
     0.00000000     0.00000000     0.00000000
     0.00000000     0.00000000     0.00000000
     0.00000000     0.00000000     0.00000000
     0.00000000     0.00000000     0.00000000
     0.00000000     0.00000000     0.00000000
     0.00000000     0.00000000     0.00000000
     0.00000000     0.00000000     0.00000000
     0.00000000     0.00000000     0.00000000
     0.00000000     0.00000000     0.00000000
     0.00000000     0.00000000     0.00000000
     0.00000000     0.00000000     0.00000000
     0.00000000     0.00000000     0.00000000
     0.00000000     0.00000000     0.00000000
     0.00000000     0.00000000     0.00000000
     0.00000000     0.00000000     0.00000000
     0.00000000     0.00000000     0.00000000
     0.00000000     0.00000000     0.00000000
     0.00000000     0.00000000     0.00000000
     0.00000000     0.00000000     0.00000000
     0.00000000     0.00000000     0.00000000
     0.00000000     0.00000000     0.00000000
     0.00000000     0.00000000     0.00000000
     0.00000000     0.00000000     0.00000000
     0.00000000     0.00000000     0.00000000
     0.00000000     0.00000000     0.00000000
     0.00000000     0.00000000     0.00000000
     0.00000000     0.00000000     0.00000000
     0.00000000     0.00000000     0.00000000
     0.00000000     0.00000000     0.00000000
     0.00000000     0.00000000     0.00000000
     0.00000000     0.00000000     0.00000000
     0.00000000     0.00000000     0.00000000
     0.00000000     0.00000000     0.00000000
     0.00000000     0.00000000     0.00000000
     0.00000000     0.00000000     0.00000000
     0.00000000     0.00000000     0.00000000
     0.00000000     0.00000000     0.00000000
     0.00000000     0.00000000     0.00000000
     0.00000000     0.00000000     0.00000000
     0.00000000     0.00000000     0.00000000
     0.00000000     0.00000000     0.00000000
     0.00000000     0.00000000     0.00000000
     0.00000000     0.00000000     0.00000000
     0.00000000     0.00000000     0.00000000
     0.00000000     0.00000000     0.00000000
     0.00000000     0.00000000     0.00000000
     0.00000000     0.00000000     0.00000000
     0.00000000     0.00000000     0.00000000
     0.00000000     0.00000000     0.00000000
     0.00000000     0.00000000     0.00000000
     0.00000000     0.00000000     0.00000000
     0.00000000     0.00000000     0.00000000
     0.00000000     0.00000000     0.00000000
     0.00000000     0.00000000     0.00000000
     0.00000000     0.00000000     0.00000000
     0.00000000     0.00000000     0.00000000
     0.00000000     0.00000000     0.00000000
     0.00000000     0.00000000     0.00000000
     0.00000000     0.00000000     0.00000000
     0.00000000     0.00000000     0.00000000
     0.00000000     0.00000000     0.00000000
     0.00000000     0.00000000     0.00000000
     0.00000000     0.00000000     0.00000000
     0.00000000     0.00000000     0.00000000
     0.00000000     0.00000000     0.00000000
     0.00000000     0.00000000     0.00000000
     0.00000000     0.00000000     0.00000000
     0.00000000     0.00000000     0.00000000
     0.00000000     0.00000000     0.00000000
     0.00000000     0.00000000     0.00000000
     0.00000000     0.00000000     0.00000000
     0.00000000     0.00000000     0.00000000
     0.00000000     0.00000000     0.00000000
     0.00000000     0.00000000     0.00000000
     0.00000000     0.00000000     0.00000000
     0.00000000     0.00000000     0.00000000
     0.00000000     0.00000000     0.00000000
     0.00000000     0.00000000     0.00000000
     0.00000000     0.00000000     0.00000000
     0.00000000     0.00000000     0.00000000
     0.00000000     0.00000000     0.00000000
     0.00000000     0.00000000     0.00000000
     0.00000000     0.00000000     0.00000000
     0.00000000     0.00000000     0.00000000
     0.00000000     0.00000000     0.00000000
     0.00000000     0.00000000     0.00000000
     0.00000000     0.00000000     0.00000000
     0.00000000     0.00000000     0.00000000
     0.00000000     0.00000000     0.00000000
     0.00000000     0.00000000     0.00000000
     0.00000000     0.00000000     0.00000000
     0.00000000     0.00000000     0.00000000
     0.00000000     0.00000000     0.00000000
     0.00000000     0.00000000     0.00000000
     0.00000000     0.00000000     0.00000000
     0.00000000     0.00000000     0.00000000
     0.00000000     0.00000000     0.00000000
     0.00000000     0.00000000     0.00000000
     0.00000000     0.00000000     0.00000000
     0.00000000     0.00000000     0.00000000
     0.00000000     0.00000000     0.00000000
     0.00000000     0.00000000     0.00000000
     0.00000000     0.00000000     0.00000000
     0.00000000     0.00000000     0.00000000
     0.00000000     0.00000000     0.00000000
     0.00000000     0.00000000     0.00000000
     0.00000000     0.00000000     0.00000000
     0.00000000     0.00000000     0.00000000
     0.00000000     0.00000000     0.00000000
     0.00000000     0.00000000     0.00000000
     0.00000000     0.00000000     0.00000000
     0.00000000     0.00000000     0.00000000
     0.00000000     0.00000000     0.00000000
     0.00000000     0.00000000     0.00000000
     0.00000000     0.00000000     0.00000000
     0.00000000     0.00000000     0.00000000
     0.00000000     0.00000000     0.00000000
     0.00000000     0.00000000     0.00000000
     0.00000000     0.00000000     0.00000000
     0.00000000     0.00000000     0.00000000
     0.00000000     0.00000000     0.00000000
     0.00000000     0.00000000     0.00000000
     0.00000000     0.00000000     0.00000000
     0.00000000     0.00000000     0.00000000
     0.00000000     0.00000000     0.00000000
     0.00000000     0.00000000     0.00000000
     0.00000000     0.00000000     0.00000000
     0.00000000     0.00000000     0.00000000
     0.00000000     0.00000000     0.00000000
     0.00000000     0.00000000     0.00000000
     0.00000000     0.00000000     0.00000000
     0.00000000     0.00000000     0.00000000
     0.00000000     0.00000000     0.00000000
     0.00000000     0.00000000     0.00000000
     0.00000000     0.00000000     0.00000000
     0.00000000     0.00000000     0.00000000
     0.00000000     0.00000000     0.00000000
     0.00000000     0.00000000     0.00000000
     0.00000000     0.00000000     0.00000000
     0.00000000     0.00000000     0.00000000
     0.00000000     0.00000000     0.00000000
     0.00000000     0.00000000     0.00000000
     0.00000000     0.00000000     0.00000000
     0.00000000     0.00000000     0.00000000
     0.00000000     0.00000000     0.00000000
     0.00000000     0.00000000     0.00000000
     0.00000000     0.00000000     0.00000000
     0.00000000     0.00000000     0.00000000
     0.00000000     0.00000000     0.00000000
     0.00000000     0.00000000     0.00000000
     0.00000000     0.00000000     0.00000000
     0.00000000     0.00000000     0.00000000
     0.00000000     0.00000000     0.00000000
     0.00000000     0.00000000     0.00000000
     0.00000000     0.00000000     0.00000000
     0.00000000     0.00000000     0.00000000
     0.00000000     0.00000000     0.00000000
     0.00000000     0.00000000     0.00000000
     0.00000000     0.00000000     0.00000000
     0.00000000     0.00000000     0.00000000
     0.00000000     0.00000000     0.00000000
     0.00000000     0.00000000     0.00000000
     0.00000000     0.00000000     0.00000000
     0.00000000     0.00000000     0.00000000
     0.00000000     0.00000000     0.00000000
     0.00000000     0.00000000     0.00000000
     0.00000000     0.00000000     0.00000000
     0.00000000     0.00000000     0.00000000
     0.00000000     0.00000000     0.00000000
     0.00000000     0.00000000     0.00000000
     0.00000000     0.00000000     0.00000000
     0.00000000     0.00000000     0.00000000
     0.00000000     0.00000000     0.00000000
     0.00000000     0.00000000     0.00000000
     0.00000000     0.00000000     0.00000000
     0.00000000     0.00000000     0.00000000
     0.00000000     0.00000000     0.00000000
     0.00000000     0.00000000     0.00000000
     0.00000000     0.00000000     0.00000000
     0.00000000     0.00000000     0.00000000
     0.00000000     0.00000000     0.00000000
     0.00000000     0.00000000     0.00000000
     0.00000000     0.00000000     0.00000000
     0.00000000     0.00000000     0.00000000
     0.00000000     0.00000000     0.00000000
     0.00000000     0.00000000     0.00000000
     0.00000000     0.00000000     0.00000000
     0.00000000     0.00000000     0.00000000
     0.00000000     0.00000000     0.00000000
     0.00000000     0.00000000     0.00000000
     0.00000000     0.00000000     0.00000000
     0.00000000     0.00000000     0.00000000
     0.00000000     0.00000000     0.00000000
     0.00000000     0.00000000     0.00000000
     0.00000000     0.00000000     0.00000000
     0.00000000     0.00000000     0.00000000
     0.00000000     0.00000000     0.00000000
     0.00000000     0.00000000     0.00000000
     0.00000000     0.00000000     0.00000000
     0.00000000     0.00000000     0.00000000
     0.00000000     0.00000000     0.00000000
     0.00000000     0.00000000     0.00000000
     0.00000000     0.00000000     0.00000000
     0.00000000     0.00000000     0.00000000
     0.00000000     0.00000000     0.00000000
     0.00000000     0.00000000     0.00000000
     0.00000000     0.00000000     0.00000000
     0.00000000     0.00000000     0.00000000
     0.00000000     0.00000000     0.00000000
     0.00000000     0.00000000     0.00000000
     0.00000000     0.00000000     0.00000000
     0.00000000     0.00000000     0.00000000
     0.00000000     0.00000000     0.00000000
     0.00000000     0.00000000     0.00000000
     0.00000000     0.00000000     0.00000000
     0.00000000     0.00000000     0.00000000
     0.00000000     0.00000000     0.00000000
     0.00000000     0.00000000     0.00000000
     0.00000000     0.00000000     0.00000000
     0.00000000     0.00000000     0.00000000
     0.00000000     0.00000000     0.00000000
     0.00000000     0.00000000     0.00000000
     0.00000000     0.00000000     0.00000000
     0.00000000     0.00000000     0.00000000
     0.00000000     0.00000000     0.00000000
     0.00000000     0.00000000     0.00000000
     0.00000000     0.00000000     0.00000000
     0.00000000     0.00000000     0.00000000
     0.00000000     0.00000000     0.00000000
     0.00000000     0.00000000     0.00000000
     0.00000000     0.00000000     0.00000000
     0.00000000     0.00000000     0.00000000
     0.00000000     0.00000000     0.00000000
     0.00000000     0.00000000     0.00000000
     0.00000000     0.00000000     0.00000000
     0.00000000     0.00000000     0.00000000
     0.00000000     0.00000000     0.00000000
     0.00000000     0.00000000     0.00000000
     0.00000000     0.00000000     0.00000000
     0.00000000     0.00000000     0.00000000
     0.00000000     0.00000000     0.00000000
     0.00000000     0.00000000     0.00000000
     0.00000000     0.00000000     0.00000000
     0.00000000     0.00000000     0.00000000
     0.00000000     0.00000000     0.00000000
     0.00000000     0.00000000     0.00000000
     0.00000000     0.00000000     0.00000000
     0.00000000     0.00000000     0.00000000
     0.00000000     0.00000000     0.00000000
     0.00000000     0.00000000     0.00000000
     0.00000000     0.00000000     0.00000000
     0.00000000     0.00000000     0.00000000
     0.00000000     0.00000000     0.00000000
     0.00000000     0.00000000     0.00000000
     0.00000000     0.00000000     0.00000000
     0.00000000     0.00000000     0.00000000
     0.00000000     0.00000000     0.00000000
     0.00000000     0.00000000     0.00000000
     0.00000000     0.00000000     0.00000000
     0.00000000     0.00000000     0.00000000
     0.00000000     0.00000000     0.00000000
     0.00000000     0.00000000     0.00000000
     0.00000000     0.00000000     0.00000000
     0.00000000     0.00000000     0.00000000
     0.00000000     0.00000000     0.00000000
     0.00000000     0.00000000     0.00000000
     0.00000000     0.00000000     0.00000000
     0.00000000     0.00000000     0.00000000
     0.00000000     0.00000000     0.00000000
     0.00000000     0.00000000     0.00000000
     0.00000000     0.00000000     0.00000000
     0.00000000     0.00000000     0.00000000
     0.00000000     0.00000000     0.00000000
     0.00000000     0.00000000     0.00000000
     0.00000000     0.00000000     0.00000000
     0.00000000     0.00000000     0.00000000
     0.00000000     0.00000000     0.00000000
     0.00000000     0.00000000     0.00000000
     0.00000000     0.00000000     0.00000000
     0.00000000     0.00000000     0.00000000
     0.00000000     0.00000000     0.00000000
     0.00000000     0.00000000     0.00000000
     0.00000000     0.00000000     0.00000000
     0.00000000     0.00000000     0.00000000
     0.00000000     0.00000000     0.00000000
     0.00000000     0.00000000     0.00000000
     0.00000000     0.00000000     0.00000000
     0.00000000     0.00000000     0.00000000
     0.00000000     0.00000000     0.00000000
     0.00000000     0.00000000     0.00000000
     0.00000000     0.00000000     0.00000000
     0.00000000     0.00000000     0.00000000
     0.00000000     0.00000000     0.00000000
     0.00000000     0.00000000     0.00000000
     0.00000000     0.00000000     0.00000000
     0.00000000     0.00000000     0.00000000
     0.00000000     0.00000000     0.00000000
     0.00000000     0.00000000     0.00000000
     0.00000000     0.00000000     0.00000000
     0.00000000     0.00000000     0.00000000
     0.00000000     0.00000000     0.00000000
     0.00000000     0.00000000     0.00000000
     0.00000000     0.00000000     0.00000000
     0.00000000     0.00000000     0.00000000
     0.00000000     0.00000000     0.00000000
     0.00000000     0.00000000     0.00000000
     0.00000000     0.00000000     0.00000000
     0.00000000     0.00000000     0.00000000
     0.00000000     0.00000000     0.00000000
     0.00000000     0.00000000     0.00000000
     0.00000000     0.00000000     0.00000000
     0.00000000     0.00000000     0.00000000
     0.00000000     0.00000000     0.00000000
     0.00000000     0.00000000     0.00000000
     0.00000000     0.00000000     0.00000000
     0.00000000     0.00000000     0.00000000
     0.00000000     0.00000000     0.00000000
     0.00000000     0.00000000     0.00000000
     0.00000000     0.00000000     0.00000000
     0.00000000     0.00000000     0.00000000
     0.00000000     0.00000000     0.00000000
     0.00000000     0.00000000     0.00000000
     0.00000000     0.00000000     0.00000000
     0.00000000     0.00000000     0.00000000
     0.00000000     0.00000000     0.00000000
     0.00000000     0.00000000     0.00000000
     0.00000000     0.00000000     0.00000000
     0.00000000     0.00000000     0.00000000
     0.00000000     0.00000000     0.00000000
     0.00000000     0.00000000     0.00000000
     0.00000000     0.00000000     0.00000000
     0.00000000     0.00000000     0.00000000
     0.00000000     0.00000000     0.00000000
     0.00000000     0.00000000     0.00000000
     0.00000000     0.00000000     0.00000000
     0.00000000     0.00000000     0.00000000
     0.00000000     0.00000000     0.00000000
     0.00000000     0.00000000     0.00000000
     0.00000000     0.00000000     0.00000000
     0.00000000     0.00000000     0.00000000
     0.00000000     0.00000000     0.00000000
     0.00000000     0.00000000     0.00000000
     0.00000000     0.00000000     0.00000000
     0.00000000     0.00000000     0.00000000
     0.00000000     0.00000000     0.00000000
     0.00000000     0.00000000     0.00000000
     0.00000000     0.00000000     0.00000000
     0.00000000     0.00000000     0.00000000
     0.00000000     0.00000000     0.00000000
     0.00000000     0.00000000     0.00000000
     0.00000000     0.00000000     0.00000000
     0.00000000     0.00000000     0.00000000
     0.00000000     0.00000000     0.00000000
     0.00000000     0.00000000     0.00000000
     0.00000000     0.00000000     0.00000000
     0.00000000     0.00000000     0.00000000
     0.00000000     0.00000000     0.00000000
     0.00000000     0.00000000     0.00000000
     0.00000000     0.00000000     0.00000000
     0.00000000     0.00000000     0.00000000
     0.00000000     0.00000000     0.00000000
     0.00000000     0.00000000     0.00000000
     0.00000000     0.00000000     0.00000000
     0.00000000     0.00000000     0.00000000
     0.00000000     0.00000000     0.00000000
     0.00000000     0.00000000     0.00000000
     0.00000000     0.00000000     0.00000000
     0.00000000     0.00000000     0.00000000
     0.00000000     0.00000000     0.00000000
     0.00000000     0.00000000     0.00000000
     0.00000000     0.00000000     0.00000000
     0.00000000     0.00000000     0.00000000
     0.00000000     0.00000000     0.00000000
     0.00000000     0.00000000     0.00000000
     0.00000000     0.00000000     0.00000000
     0.00000000     0.00000000     0.00000000
     0.00000000     0.00000000     0.00000000
     0.00000000     0.00000000     0.00000000
     0.00000000     0.00000000     0.00000000
     0.00000000     0.00000000     0.00000000
     0.00000000     0.00000000     0.00000000
     0.00000000     0.00000000     0.00000000
     0.00000000     0.00000000     0.00000000
     0.00000000     0.00000000     0.00000000
     0.00000000     0.00000000     0.00000000
     0.00000000     0.00000000     0.00000000
     0.00000000     0.00000000     0.00000000
     0.00000000     0.00000000     0.00000000
     0.00000000     0.00000000     0.00000000
     0.00000000     0.00000000     0.00000000
     0.00000000     0.00000000     0.00000000
     0.00000000     0.00000000     0.00000000
     0.00000000     0.00000000     0.00000000
     0.00000000     0.00000000     0.00000000
     0.00000000     0.00000000     0.00000000
     0.00000000     0.00000000     0.00000000
     0.00000000     0.00000000     0.00000000
     0.00000000     0.00000000     0.00000000
     0.00000000     0.00000000     0.00000000
     0.00000000     0.00000000     0.00000000
     0.00000000     0.00000000     0.00000000
     0.00000000     0.00000000     0.00000000
     0.00000000     0.00000000     0.00000000
     0.00000000     0.00000000     0.00000000
     0.00000000     0.00000000     0.00000000
     0.00000000     0.00000000     0.00000000
     0.00000000     0.00000000     0.00000000
     0.00000000     0.00000000     0.00000000
     0.00000000     0.00000000     0.00000000
     0.00000000     0.00000000     0.00000000
     0.00000000     0.00000000     0.00000000
     0.00000000     0.00000000     0.00000000
     0.00000000     0.00000000     0.00000000
     0.00000000     0.00000000     0.00000000
     0.00000000     0.00000000     0.00000000
     0.00000000     0.00000000     0.00000000
     0.00000000     0.00000000     0.00000000
     0.00000000     0.00000000     0.00000000
     0.00000000     0.00000000     0.00000000
     0.00000000     0.00000000     0.00000000
     0.00000000     0.00000000     0.00000000
     0.00000000     0.00000000     0.00000000
     0.00000000     0.00000000     0.00000000
     0.00000000     0.00000000     0.00000000
     0.00000000     0.00000000     0.00000000
     0.00000000     0.00000000     0.00000000
     0.00000000     0.00000000     0.00000000
     0.00000000     0.00000000     0.00000000
     0.00000000     0.00000000     0.00000000
     0.00000000     0.00000000     0.00000000
     0.00000000     0.00000000     0.00000000
     0.00000000     0.00000000     0.00000000
     0.00000000     0.00000000     0.00000000
     0.00000000     0.00000000     0.00000000
     0.00000000     0.00000000     0.00000000
     0.00000000     0.00000000     0.00000000
     0.00000000     0.00000000     0.00000000
     0.00000000     0.00000000     0.00000000
     0.00000000     0.00000000     0.00000000
     0.00000000     0.00000000     0.00000000
     0.00000000     0.00000000     0.00000000
     0.00000000     0.00000000     0.00000000
     0.00000000     0.00000000     0.00000000
     0.00000000     0.00000000     0.00000000
     0.00000000     0.00000000     0.00000000
     0.00000000     0.00000000     0.00000000
     0.00000000     0.00000000     0.00000000
     0.00000000     0.00000000     0.00000000
     0.00000000     0.00000000     0.00000000
     0.00000000     0.00000000     0.00000000
     0.00000000     0.00000000     0.00000000
     0.00000000     0.00000000     0.00000000
     0.00000000     0.00000000     0.00000000
     0.00000000     0.00000000     0.00000000
     0.00000000     0.00000000     0.00000000
     0.00000000     0.00000000     0.00000000
     0.00000000     0.00000000     0.00000000
     0.00000000     0.00000000     0.00000000
     0.00000000     0.00000000     0.00000000
     0.00000000     0.00000000     0.00000000
     0.00000000     0.00000000     0.00000000
     0.00000000     0.00000000     0.00000000
     0.00000000     0.00000000     0.00000000
     0.00000000     0.00000000     0.00000000
     0.00000000     0.00000000     0.00000000
     0.00000000     0.00000000     0.00000000
     0.00000000     0.00000000     0.00000000
     0.00000000     0.00000000     0.00000000
     0.00000000     0.00000000     0.00000000
     0.00000000     0.00000000     0.00000000
     0.00000000     0.00000000     0.00000000
     0.00000000     0.00000000     0.00000000
     0.00000000     0.00000000     0.00000000
     0.00000000     0.00000000     0.00000000
     0.00000000     0.00000000     0.00000000
     0.00000000     0.00000000     0.00000000
     0.00000000     0.00000000     0.00000000
     0.00000000     0.00000000     0.00000000
     0.00000000     0.00000000     0.00000000
     0.00000000     0.00000000     0.00000000
     0.00000000     0.00000000     0.00000000
     0.00000000     0.00000000     0.00000000
     0.00000000     0.00000000     0.00000000
     0.00000000     0.00000000     0.00000000
     0.00000000     0.00000000     0.00000000
     0.00000000     0.00000000     0.00000000
     0.00000000     0.00000000     0.00000000
     0.00000000     0.00000000     0.00000000
     0.00000000     0.00000000     0.00000000
     0.00000000     0.00000000     0.00000000
     0.00000000     0.00000000     0.00000000
     0.00000000     0.00000000     0.00000000
     0.00000000     0.00000000     0.00000000
     0.00000000     0.00000000     0.00000000
     0.00000000     0.00000000     0.00000000
     0.00000000     0.00000000     0.00000000
     0.00000000     0.00000000     0.00000000
     0.00000000     0.00000000     0.00000000
     0.00000000     0.00000000     0.00000000
     0.00000000     0.00000000     0.00000000
     0.00000000     0.00000000     0.00000000
     0.00000000     0.00000000     0.00000000
     0.00000000     0.00000000     0.00000000
     0.00000000     0.00000000     0.00000000
     0.00000000     0.00000000     0.00000000
     0.00000000     0.00000000     0.00000000
     0.00000000     0.00000000     0.00000000
     0.00000000     0.00000000     0.00000000
     0.00000000     0.00000000     0.00000000
     0.00000000     0.00000000     0.00000000
     0.00000000     0.00000000     0.00000000
     0.00000000     0.00000000     0.00000000
     0.00000000     0.00000000     0.00000000
     0.00000000     0.00000000     0.00000000
     0.00000000     0.00000000     0.00000000
     0.00000000     0.00000000     0.00000000
     0.00000000     0.00000000     0.00000000
     0.00000000     0.00000000     0.00000000
     0.00000000     0.00000000     0.00000000
     0.00000000     0.00000000     0.00000000
     0.00000000     0.00000000     0.00000000
     0.00000000     0.00000000     0.00000000
     0.00000000     0.00000000     0.00000000
     0.00000000     0.00000000     0.00000000
     0.00000000     0.00000000     0.00000000
     0.00000000     0.00000000     0.00000000
     0.00000000     0.00000000     0.00000000
     0.00000000     0.00000000     0.00000000
     0.00000000     0.00000000     0.00000000
     0.00000000     0.00000000     0.00000000
     0.00000000     0.00000000     0.00000000
     0.00000000     0.00000000     0.00000000
     0.00000000     0.00000000     0.00000000
     0.00000000     0.00000000     0.00000000
     0.00000000     0.00000000     0.00000000
     0.00000000     0.00000000     0.00000000
     0.00000000     0.00000000     0.00000000
     0.00000000     0.00000000     0.00000000
     0.00000000     0.00000000     0.00000000
     0.00000000     0.00000000     0.00000000
     0.00000000     0.00000000     0.00000000
     0.00000000     0.00000000     0.00000000
     0.00000000     0.00000000     0.00000000
     0.00000000     0.00000000     0.00000000
     0.00000000     0.00000000     0.00000000
     0.00000000     0.00000000     0.00000000
     0.00000000     0.00000000     0.00000000
     0.00000000     0.00000000     0.00000000
     0.00000000     0.00000000     0.00000000
     0.00000000     0.00000000     0.00000000
     0.00000000     0.00000000     0.00000000
     0.00000000     0.00000000     0.00000000
     0.00000000     0.00000000     0.00000000
     0.00000000     0.00000000     0.00000000
     0.00000000     0.00000000     0.00000000
     0.00000000     0.00000000     0.00000000
     0.00000000     0.00000000     0.00000000
     0.00000000     0.00000000     0.00000000
     0.00000000     0.00000000     0.00000000
     0.00000000     0.00000000     0.00000000
     0.00000000     0.00000000     0.00000000
     0.00000000     0.00000000     0.00000000
     0.00000000     0.00000000     0.00000000
     0.00000000     0.00000000     0.00000000
     0.00000000     0.00000000     0.00000000
     0.00000000     0.00000000     0.00000000
     0.00000000     0.00000000     0.00000000
     0.00000000     0.00000000     0.00000000
     0.00000000     0.00000000     0.00000000
     0.00000000     0.00000000     0.00000000
     0.00000000     0.00000000     0.00000000
     0.00000000     0.00000000     0.00000000
     0.00000000     0.00000000     0.00000000
     0.00000000     0.00000000     0.00000000
     0.00000000     0.00000000     0.00000000
     0.00000000     0.00000000     0.00000000
     0.00000000     0.00000000     0.00000000
     0.00000000     0.00000000     0.00000000
     0.00000000     0.00000000     0.00000000
     0.00000000     0.00000000     0.00000000
     0.00000000     0.00000000     0.00000000
     0.00000000     0.00000000     0.00000000
     0.00000000     0.00000000     0.00000000
     0.00000000     0.00000000     0.00000000
     0.00000000     0.00000000     0.00000000
     0.00000000     0.00000000     0.00000000
     0.00000000     0.00000000     0.00000000
     0.00000000     0.00000000     0.00000000
     0.00000000     0.00000000     0.00000000
     0.00000000     0.00000000     0.00000000
     0.00000000     0.00000000     0.00000000
     0.00000000     0.00000000     0.00000000
     0.00000000     0.00000000     0.00000000
     0.00000000     0.00000000     0.00000000
     0.00000000     0.00000000     0.00000000
     0.00000000     0.00000000     0.00000000
     0.00000000     0.00000000     0.00000000
     0.00000000     0.00000000     0.00000000
     0.00000000     0.00000000     0.00000000
     0.00000000     0.00000000     0.00000000
     0.00000000     0.00000000     0.00000000
     0.00000000     0.00000000     0.00000000
     0.00000000     0.00000000     0.00000000
     0.00000000     0.00000000     0.00000000
     0.00000000     0.00000000     0.00000000
     0.00000000     0.00000000     0.00000000
     0.00000000     0.00000000     0.00000000
     0.00000000     0.00000000     0.00000000
     0.00000000     0.00000000     0.00000000
     0.00000000     0.00000000     0.00000000
     0.00000000     0.00000000     0.00000000
     0.00000000     0.00000000     0.00000000
     0.00000000     0.00000000     0.00000000
     0.00000000     0.00000000     0.00000000
     0.00000000     0.00000000     0.00000000
     0.00000000     0.00000000     0.00000000
     0.00000000     0.00000000     0.00000000
     0.00000000     0.00000000     0.00000000
     0.00000000     0.00000000     0.00000000
     0.00000000     0.00000000     0.00000000
     0.00000000     0.00000000     0.00000000
     0.00000000     0.00000000     0.00000000
     0.00000000     0.00000000     0.00000000
     0.00000000     0.00000000     0.00000000
     0.00000000     0.00000000     0.00000000
     0.00000000     0.00000000     0.00000000
     0.00000000     0.00000000     0.00000000
     0.00000000     0.00000000     0.00000000
     0.00000000     0.00000000     0.00000000
     0.00000000     0.00000000     0.00000000
     0.00000000     0.00000000     0.00000000
     0.00000000     0.00000000     0.00000000
     0.00000000     0.00000000     0.00000000
     0.00000000     0.00000000     0.00000000
     0.00000000     0.00000000     0.00000000
     0.00000000     0.00000000     0.00000000
     0.00000000     0.00000000     0.00000000
     0.00000000     0.00000000     0.00000000
     0.00000000     0.00000000     0.00000000
     0.00000000     0.00000000     0.00000000
     0.00000000     0.00000000     0.00000000
     0.00000000     0.00000000     0.00000000
     0.00000000     0.00000000     0.00000000
     0.00000000     0.00000000     0.00000000
     0.00000000     0.00000000     0.00000000
     0.00000000     0.00000000     0.00000000
     0.00000000     0.00000000     0.00000000
     0.00000000     0.00000000     0.00000000
     0.00000000     0.00000000     0.00000000
     0.00000000     0.00000000     0.00000000
     0.00000000     0.00000000     0.00000000
     0.00000000     0.00000000     0.00000000
     0.00000000     0.00000000     0.00000000
     0.00000000     0.00000000     0.00000000
     0.00000000     0.00000000     0.00000000
     0.00000000     0.00000000     0.00000000
     0.00000000     0.00000000     0.00000000
     0.00000000     0.00000000     0.00000000
     0.00000000     0.00000000     0.00000000
     0.00000000     0.00000000     0.00000000
     0.00000000     0.00000000     0.00000000
     0.00000000     0.00000000     0.00000000
     0.00000000     0.00000000     0.00000000
     0.00000000     0.00000000     0.00000000
     0.00000000     0.00000000     0.00000000
     0.00000000     0.00000000     0.00000000
     0.00000000     0.00000000     0.00000000
     0.00000000     0.00000000     0.00000000
     0.00000000     0.00000000     0.00000000
     0.00000000     0.00000000     0.00000000
     0.00000000     0.00000000     0.00000000
     0.00000000     0.00000000     0.00000000
     0.00000000     0.00000000     0.00000000
     0.00000000     0.00000000     0.00000000
     0.00000000     0.00000000     0.00000000
     0.00000000     0.00000000     0.00000000
     0.00000000     0.00000000     0.00000000
     0.00000000     0.00000000     0.00000000
     0.00000000     0.00000000     0.00000000
     0.00000000     0.00000000     0.00000000
     0.00000000     0.00000000     0.00000000
     0.00000000     0.00000000     0.00000000
     0.00000000     0.00000000     0.00000000
     0.00000000     0.00000000     0.00000000
     0.00000000     0.00000000     0.00000000
     0.00000000     0.00000000     0.00000000
     0.00000000     0.00000000     0.00000000
     0.00000000     0.00000000     0.00000000
     0.00000000     0.00000000     0.00000000
     0.00000000     0.00000000     0.00000000
     0.00000000     0.00000000     0.00000000
     0.00000000     0.00000000     0.00000000
     0.00000000     0.00000000     0.00000000
     0.00000000     0.00000000     0.00000000
     0.00000000     0.00000000     0.00000000
     0.00000000     0.00000000     0.00000000
     0.00000000     0.00000000     0.00000000
     0.00000000     0.00000000     0.00000000
     0.00000000     0.00000000     0.00000000
     0.00000000     0.00000000     0.00000000
     0.00000000     0.00000000     0.00000000
     0.00000000     0.00000000     0.00000000
     0.00000000     0.00000000     0.00000000
     0.00000000     0.00000000     0.00000000
     0.00000000     0.00000000     0.00000000
     0.00000000     0.00000000     0.00000000
     0.00000000     0.00000000     0.00000000
     0.00000000     0.00000000     0.00000000
     0.00000000     0.00000000     0.00000000
     0.00000000     0.00000000     0.00000000
     0.00000000     0.00000000     0.00000000
     0.00000000     0.00000000     0.00000000
     0.00000000     0.00000000     0.00000000
     0.00000000     0.00000000     0.00000000
     0.00000000     0.00000000     0.00000000
     0.00000000     0.00000000     0.00000000
     0.00000000     0.00000000     0.00000000
     0.00000000     0.00000000     0.00000000
     0.00000000     0.00000000     0.00000000
     0.00000000     0.00000000     0.00000000
     0.00000000     0.00000000     0.00000000
     0.00000000     0.00000000     0.00000000
     0.00000000     0.00000000     0.00000000
     0.00000000     0.00000000     0.00000000
     0.00000000     0.00000000     0.00000000
     0.00000000     0.00000000     0.00000000
     0.00000000     0.00000000     0.00000000
     0.00000000     0.00000000     0.00000000
     0.00000000     0.00000000     0.00000000
     0.00000000     0.00000000     0.00000000
     0.00000000     0.00000000     0.00000000
     0.00000000     0.00000000     0.00000000
     0.00000000     0.00000000     0.00000000
     0.00000000     0.00000000     0.00000000
     0.00000000     0.00000000     0.00000000
     0.00000000     0.00000000     0.00000000
     0.00000000     0.00000000     0.00000000
     0.00000000     0.00000000     0.00000000
     0.00000000     0.00000000     0.00000000
     0.00000000     0.00000000     0.00000000
     0.00000000     0.00000000     0.00000000
     0.00000000     0.00000000     0.00000000
     0.00000000     0.00000000     0.00000000
     0.00000000     0.00000000     0.00000000
     0.00000000     0.00000000     0.00000000
     0.00000000     0.00000000     0.00000000
     0.00000000     0.00000000     0.00000000
     0.00000000     0.00000000     0.00000000
     0.00000000     0.00000000     0.00000000
     0.00000000     0.00000000     0.00000000
     0.00000000     0.00000000     0.00000000
     0.00000000     0.00000000     0.00000000
     0.00000000     0.00000000     0.00000000
     0.00000000     0.00000000     0.00000000
     0.00000000     0.00000000     0.00000000
     0.00000000     0.00000000     0.00000000
     0.00000000     0.00000000     0.00000000
     0.00000000     0.00000000     0.00000000
     0.00000000     0.00000000     0.00000000
     0.00000000     0.00000000     0.00000000
     0.00000000     0.00000000     0.00000000
     0.00000000     0.00000000     0.00000000
     0.00000000     0.00000000     0.00000000
     0.00000000     0.00000000     0.00000000
     0.00000000     0.00000000     0.00000000
     0.00000000     0.00000000     0.00000000
     0.00000000     0.00000000     0.00000000
     0.00000000     0.00000000     0.00000000
     0.00000000     0.00000000     0.00000000
     0.00000000     0.00000000     0.00000000
     0.00000000     0.00000000     0.00000000
     0.00000000     0.00000000     0.00000000
     0.00000000     0.00000000     0.00000000
     0.00000000     0.00000000     0.00000000
     0.00000000     0.00000000     0.00000000
     0.00000000     0.00000000     0.00000000
     0.00000000     0.00000000     0.00000000
     0.00000000     0.00000000     0.00000000
     0.00000000     0.00000000     0.00000000
     0.00000000     0.00000000     0.00000000
     0.00000000     0.00000000     0.00000000
     0.00000000     0.00000000     0.00000000
     0.00000000     0.00000000     0.00000000
     0.00000000     0.00000000     0.00000000
     0.00000000     0.00000000     0.00000000
     0.00000000     0.00000000     0.00000000
     0.00000000     0.00000000     0.00000000
     0.00000000     0.00000000     0.00000000
     0.00000000     0.00000000     0.00000000
     0.00000000     0.00000000     0.00000000
     0.00000000     0.00000000     0.00000000
     0.00000000     0.00000000     0.00000000
     0.00000000     0.00000000     0.00000000
     0.00000000     0.00000000     0.00000000
     0.00000000     0.00000000     0.00000000
     0.00000000     0.00000000     0.00000000
     0.00000000     0.00000000     0.00000000
     0.00000000     0.00000000     0.00000000
     0.00000000     0.00000000     0.00000000
     0.00000000     0.00000000     0.00000000
     0.00000000     0.00000000     0.00000000
     0.00000000     0.00000000     0.00000000
     0.00000000     0.00000000     0.00000000
     0.00000000     0.00000000     0.00000000
     0.00000000     0.00000000     0.00000000
     0.00000000     0.00000000     0.00000000
     0.00000000     0.00000000     0.00000000
     0.00000000     0.00000000     0.00000000
     0.00000000     0.00000000     0.00000000
     0.00000000     0.00000000     0.00000000
     0.00000000     0.00000000     0.00000000
     0.00000000     0.00000000     0.00000000
     0.00000000     0.00000000     0.00000000
     0.00000000     0.00000000     0.00000000
     0.00000000     0.00000000     0.00000000
     0.00000000     0.00000000     0.00000000
     0.00000000     0.00000000     0.00000000
     0.00000000     0.00000000     0.00000000
     0.00000000     0.00000000     0.00000000
     0.00000000     0.00000000     0.00000000
     0.00000000     0.00000000     0.00000000
     0.00000000     0.00000000     0.00000000
     0.00000000     0.00000000     0.00000000
     0.00000000     0.00000000     0.00000000
     0.00000000     0.00000000     0.00000000
     0.00000000     0.00000000     0.00000000
     0.00000000     0.00000000     0.00000000
     0.00000000     0.00000000     0.00000000
     0.00000000     0.00000000     0.00000000
     0.00000000     0.00000000     0.00000000
     0.00000000     0.00000000     0.00000000
     0.00000000     0.00000000     0.00000000
     0.00000000     0.00000000     0.00000000
     0.00000000     0.00000000     0.00000000
     0.00000000     0.00000000     0.00000000
     0.00000000     0.00000000     0.00000000
     0.00000000     0.00000000     0.00000000
     0.00000000     0.00000000     0.00000000
     0.00000000     0.00000000     0.00000000
     0.00000000     0.00000000     0.00000000
     0.00000000     0.00000000     0.00000000
     0.00000000     0.00000000     0.00000000
     0.00000000     0.00000000     0.00000000
     0.00000000     0.00000000     0.00000000
     0.00000000     0.00000000     0.00000000
     0.00000000     0.00000000     0.00000000
     0.00000000     0.00000000     0.00000000
     0.00000000     0.00000000     0.00000000
     0.00000000     0.00000000     0.00000000
     0.00000000     0.00000000     0.00000000
     0.00000000     0.00000000     0.00000000
     0.00000000     0.00000000     0.00000000
     0.00000000     0.00000000     0.00000000
     0.00000000     0.00000000     0.00000000
     0.00000000     0.00000000     0.00000000
     0.00000000     0.00000000     0.00000000
     0.00000000     0.00000000     0.00000000
     0.00000000     0.00000000     0.00000000
     0.00000000     0.00000000     0.00000000
     0.00000000     0.00000000     0.00000000
     0.00000000     0.00000000     0.00000000
     0.00000000     0.00000000     0.00000000
     0.00000000     0.00000000     0.00000000
     0.00000000     0.00000000     0.00000000
     0.00000000     0.00000000     0.00000000
     0.00000000     0.00000000     0.00000000
     0.00000000     0.00000000     0.00000000
     0.00000000     0.00000000     0.00000000
     0.00000000     0.00000000     0.00000000
     0.00000000     0.00000000     0.00000000
     0.00000000     0.00000000     0.00000000
     0.00000000     0.00000000     0.00000000
     0.00000000     0.00000000     0.00000000
     0.00000000     0.00000000     0.00000000
     0.00000000     0.00000000     0.00000000
     0.00000000     0.00000000     0.00000000
     0.00000000     0.00000000     0.00000000
     0.00000000     0.00000000     0.00000000
     0.00000000     0.00000000     0.00000000
     0.00000000     0.00000000     0.00000000
     0.00000000     0.00000000     0.00000000
     0.00000000     0.00000000     0.00000000
     0.00000000     0.00000000     0.00000000
     0.00000000     0.00000000     0.00000000
     0.00000000     0.00000000     0.00000000
     0.00000000     0.00000000     0.00000000
     0.00000000     0.00000000     0.00000000
     0.00000000     0.00000000     0.00000000
     0.00000000     0.00000000     0.00000000
     0.00000000     0.00000000     0.00000000
     0.00000000     0.00000000     0.00000000
     0.00000000     0.00000000     0.00000000
     0.00000000     0.00000000     0.00000000
     0.00000000     0.00000000     0.00000000
     0.00000000     0.00000000     0.00000000
     0.00000000     0.00000000     0.00000000
     0.00000000     0.00000000     0.00000000
     0.00000000     0.00000000     0.00000000
     0.00000000     0.00000000     0.00000000
     0.00000000     0.00000000     0.00000000
     0.00000000     0.00000000     0.00000000
     0.00000000     0.00000000     0.00000000
     0.00000000     0.00000000     0.00000000
     0.00000000     0.00000000     0.00000000
     0.00000000     0.00000000     0.00000000
     0.00000000     0.00000000     0.00000000
     0.00000000     0.00000000     0.00000000
     0.00000000     0.00000000     0.00000000
     0.00000000     0.00000000     0.00000000
     0.00000000     0.00000000     0.00000000
     0.00000000     0.00000000     0.00000000
     0.00000000     0.00000000     0.00000000
     0.00000000     0.00000000     0.00000000
     0.00000000     0.00000000     0.00000000
     0.00000000     0.00000000     0.00000000
     0.00000000     0.00000000     0.00000000
     0.00000000     0.00000000     0.00000000
     0.00000000     0.00000000     0.00000000
     0.00000000     0.00000000     0.00000000
     0.00000000     0.00000000     0.00000000
     0.00000000     0.00000000     0.00000000
     0.00000000     0.00000000     0.00000000
     0.00000000     0.00000000     0.00000000
     0.00000000     0.00000000     0.00000000
     0.00000000     0.00000000     0.00000000
     0.00000000     0.00000000     0.00000000
     0.00000000     0.00000000     0.00000000
     0.00000000     0.00000000     0.00000000
     0.00000000     0.00000000     0.00000000
     0.00000000     0.00000000     0.00000000
     0.00000000     0.00000000     0.00000000
     0.00000000     0.00000000     0.00000000
     0.00000000     0.00000000     0.00000000
     0.00000000     0.00000000     0.00000000
     0.00000000     0.00000000     0.00000000
     0.00000000     0.00000000     0.00000000
     0.00000000     0.00000000     0.00000000
     0.00000000     0.00000000     0.00000000
     0.00000000     0.00000000     0.00000000
     0.00000000     0.00000000     0.00000000
     0.00000000     0.00000000     0.00000000
     0.00000000     0.00000000     0.00000000
     0.00000000     0.00000000     0.00000000
     0.00000000     0.00000000     0.00000000
     0.00000000     0.00000000     0.00000000
     0.00000000     0.00000000     0.00000000
     0.00000000     0.00000000     0.00000000
     0.00000000     0.00000000     0.00000000
     0.00000000     0.00000000     0.00000000
     0.00000000     0.00000000     0.00000000
     0.00000000     0.00000000     0.00000000
     0.00000000     0.00000000     0.00000000
     0.00000000     0.00000000     0.00000000
     0.00000000     0.00000000     0.00000000
     0.00000000     0.00000000     0.00000000
     0.00000000     0.00000000     0.00000000
     0.00000000     0.00000000     0.00000000
     0.00000000     0.00000000     0.00000000
     0.00000000     0.00000000     0.00000000
     0.00000000     0.00000000     0.00000000
     0.00000000     0.00000000     0.00000000
     0.00000000     0.00000000     0.00000000
     0.00000000     0.00000000     0.00000000
     0.00000000     0.00000000     0.00000000
     0.00000000     0.00000000     0.00000000
     0.00000000     0.00000000     0.00000000
     0.00000000     0.00000000     0.00000000
     0.00000000     0.00000000     0.00000000
     0.00000000     0.00000000     0.00000000
     0.00000000     0.00000000     0.00000000
     0.00000000     0.00000000     0.00000000
     0.00000000     0.00000000     0.00000000
     0.00000000     0.00000000     0.00000000
     0.00000000     0.00000000     0.00000000
     0.00000000     0.00000000     0.00000000
     0.00000000     0.00000000     0.00000000
     0.00000000     0.00000000     0.00000000
     0.00000000     0.00000000     0.00000000
     0.00000000     0.00000000     0.00000000
     0.00000000     0.00000000     0.00000000
     0.00000000     0.00000000     0.00000000
     0.00000000     0.00000000     0.00000000
     0.00000000     0.00000000     0.00000000
     0.00000000     0.00000000     0.00000000
     0.00000000     0.00000000     0.00000000
     0.00000000     0.00000000     0.00000000
     0.00000000     0.00000000     0.00000000
     0.00000000     0.00000000     0.00000000
     0.00000000     0.00000000     0.00000000
     0.00000000     0.00000000     0.00000000
     0.00000000     0.00000000     0.00000000
     0.00000000     0.00000000     0.00000000
     0.00000000     0.00000000     0.00000000
     0.00000000     0.00000000     0.00000000
     0.00000000     0.00000000     0.00000000
     0.00000000     0.00000000     0.00000000
     0.00000000     0.00000000     0.00000000
     0.00000000     0.00000000     0.00000000
     0.00000000     0.00000000     0.00000000
     0.00000000     0.00000000     0.00000000
     0.00000000     0.00000000     0.00000000
     0.00000000     0.00000000     0.00000000
     0.00000000     0.00000000     0.00000000
     0.00000000     0.00000000     0.00000000
     0.00000000     0.00000000     0.00000000
     0.00000000     0.00000000     0.00000000
     0.00000000     0.00000000     0.00000000
     0.00000000     0.00000000     0.00000000
     0.00000000     0.00000000     0.00000000
     0.00000000     0.00000000     0.00000000
     0.00000000     0.00000000     0.00000000
     0.00000000     0.00000000     0.00000000
     0.00000000     0.00000000     0.00000000
     0.00000000     0.00000000     0.00000000
     0.00000000     0.00000000     0.00000000
     0.00000000     0.00000000     0.00000000
     0.00000000     0.00000000     0.00000000
     0.00000000     0.00000000     0.00000000
     0.00000000     0.00000000     0.00000000
     0.00000000     0.00000000     0.00000000
     0.00000000     0.00000000     0.00000000
     0.00000000     0.00000000     0.00000000
     0.00000000     0.00000000     0.00000000
     0.00000000     0.00000000     0.00000000
     0.00000000     0.00000000     0.00000000
     0.00000000     0.00000000     0.00000000
     0.00000000     0.00000000     0.00000000
     0.00000000     0.00000000     0.00000000
     0.00000000     0.00000000     0.00000000
     0.00000000     0.00000000     0.00000000
     0.00000000     0.00000000     0.00000000
     0.00000000     0.00000000     0.00000000
     0.00000000     0.00000000     0.00000000
     0.00000000     0.00000000     0.00000000
     0.00000000     0.00000000     0.00000000
     0.00000000     0.00000000     0.00000000
     0.00000000     0.00000000     0.00000000
     0.00000000     0.00000000     0.00000000
     0.00000000     0.00000000     0.00000000
     0.00000000     0.00000000     0.00000000
     0.00000000     0.00000000     0.00000000
     0.00000000     0.00000000     0.00000000
     0.00000000     0.00000000     0.00000000
     0.00000000     0.00000000     0.00000000
     0.00000000     0.00000000     0.00000000
     0.00000000     0.00000000     0.00000000
     0.00000000     0.00000000     0.00000000
     0.00000000     0.00000000     0.00000000
     0.00000000     0.00000000     0.00000000
     0.00000000     0.00000000     0.00000000
     0.00000000     0.00000000     0.00000000
     0.00000000     0.00000000     0.00000000
     0.00000000     0.00000000     0.00000000
     0.00000000     0.00000000     0.00000000
     0.00000000     0.00000000     0.00000000
     0.00000000     0.00000000     0.00000000
     0.00000000     0.00000000     0.00000000
     0.00000000     0.00000000     0.00000000
     0.00000000     0.00000000     0.00000000
     0.00000000     0.00000000     0.00000000
     0.00000000     0.00000000     0.00000000
     0.00000000     0.00000000     0.00000000
     0.00000000     0.00000000     0.00000000
     0.00000000     0.00000000     0.00000000
     0.00000000     0.00000000     0.00000000
     0.00000000     0.00000000     0.00000000
     0.00000000     0.00000000     0.00000000
     0.00000000     0.00000000     0.00000000
     0.00000000     0.00000000     0.00000000
     0.00000000     0.00000000     0.00000000
     0.00000000     0.00000000     0.00000000
     0.00000000     0.00000000     0.00000000
     0.00000000     0.00000000     0.00000000
     0.00000000     0.00000000     0.00000000
     0.00000000     0.00000000     0.00000000
     0.00000000     0.00000000     0.00000000
     0.00000000     0.00000000     0.00000000
     0.00000000     0.00000000     0.00000000
     0.00000000     0.00000000     0.00000000
     0.00000000     0.00000000     0.00000000
     0.00000000     0.00000000     0.00000000
     0.00000000     0.00000000     0.00000000
     0.00000000     0.00000000     0.00000000
     0.00000000     0.00000000     0.00000000
     0.00000000     0.00000000     0.00000000
     0.00000000     0.00000000     0.00000000
     0.00000000     0.00000000     0.00000000
     0.00000000     0.00000000     0.00000000
     0.00000000     0.00000000     0.00000000
     0.00000000     0.00000000     0.00000000
     0.00000000     0.00000000     0.00000000
     0.00000000     0.00000000     0.00000000
     0.00000000     0.00000000     0.00000000
     0.00000000     0.00000000     0.00000000
     0.00000000     0.00000000     0.00000000
     0.00000000     0.00000000     0.00000000
     0.00000000     0.00000000     0.00000000
     0.00000000     0.00000000     0.00000000
     0.00000000     0.00000000     0.00000000
     0.00000000     0.00000000     0.00000000
     0.00000000     0.00000000     0.00000000
     0.00000000     0.00000000     0.00000000
     0.00000000     0.00000000     0.00000000
     0.00000000     0.00000000     0.00000000
     0.00000000     0.00000000     0.00000000
     0.00000000     0.00000000     0.00000000
     0.00000000     0.00000000     0.00000000
     0.00000000     0.00000000     0.00000000
     0.00000000     0.00000000     0.00000000
     0.00000000     0.00000000     0.00000000
     0.00000000     0.00000000     0.00000000
     0.00000000     0.00000000     0.00000000
     0.00000000     0.00000000     0.00000000
     0.00000000     0.00000000     0.00000000
     0.00000000     0.00000000     0.00000000
     0.00000000     0.00000000     0.00000000
     0.00000000     0.00000000     0.00000000
     0.00000000     0.00000000     0.00000000
     0.00000000     0.00000000     0.00000000
     0.00000000     0.00000000     0.00000000
     0.00000000     0.00000000     0.00000000
     0.00000000     0.00000000     0.00000000
     0.00000000     0.00000000     0.00000000
     0.00000000     0.00000000     0.00000000
     0.00000000     0.00000000     0.00000000
     0.00000000     0.00000000     0.00000000
     0.00000000     0.00000000     0.00000000
     0.00000000     0.00000000     0.00000000
     0.00000000     0.00000000     0.00000000
     0.00000000     0.00000000     0.00000000
     0.00000000     0.00000000     0.00000000
     0.00000000     0.00000000     0.00000000
     0.00000000     0.00000000     0.00000000
     0.00000000     0.00000000     0.00000000
     0.00000000     0.00000000     0.00000000
     0.00000000     0.00000000     0.00000000
     0.00000000     0.00000000     0.00000000
     0.00000000     0.00000000     0.00000000
     0.00000000     0.00000000     0.00000000
     0.00000000     0.00000000     0.00000000
     0.00000000     0.00000000     0.00000000
     0.00000000     0.00000000     0.00000000
     0.00000000     0.00000000     0.00000000
     0.00000000     0.00000000     0.00000000
     0.00000000     0.00000000     0.00000000
     0.00000000     0.00000000     0.00000000
     0.00000000     0.00000000     0.00000000
     0.00000000     0.00000000     0.00000000
     0.00000000     0.00000000     0.00000000
     0.00000000     0.00000000     0.00000000
     0.00000000     0.00000000     0.00000000
     0.00000000     0.00000000     0.00000000
     0.00000000     0.00000000     0.00000000
     0.00000000     0.00000000     0.00000000
     0.00000000     0.00000000     0.00000000
     0.00000000     0.00000000     0.00000000
     0.00000000     0.00000000     0.00000000
     0.00000000     0.00000000     0.00000000
     0.00000000     0.00000000     0.00000000
     0.00000000     0.00000000     0.00000000
     0.00000000     0.00000000     0.00000000
     0.00000000     0.00000000     0.00000000
     0.00000000     0.00000000     0.00000000
     0.00000000     0.00000000     0.00000000
     0.00000000     0.00000000     0.00000000
     0.00000000     0.00000000     0.00000000
     0.00000000     0.00000000     0.00000000
     0.00000000     0.00000000     0.00000000
     0.00000000     0.00000000     0.00000000
     0.00000000     0.00000000     0.00000000
     0.00000000     0.00000000     0.00000000
     0.00000000     0.00000000     0.00000000
     0.00000000     0.00000000     0.00000000
     0.00000000     0.00000000     0.00000000
     0.00000000     0.00000000     0.00000000
     0.00000000     0.00000000     0.00000000
     0.00000000     0.00000000     0.00000000
     0.00000000     0.00000000     0.00000000
     0.00000000     0.00000000     0.00000000
     0.00000000     0.00000000     0.00000000
     0.00000000     0.00000000     0.00000000
     0.00000000     0.00000000     0.00000000
     0.00000000     0.00000000     0.00000000
     0.00000000     0.00000000     0.00000000
     0.00000000     0.00000000     0.00000000
     0.00000000     0.00000000     0.00000000
     0.00000000     0.00000000     0.00000000
     0.00000000     0.00000000     0.00000000
     0.00000000     0.00000000     0.00000000
     0.00000000     0.00000000     0.00000000
     0.00000000     0.00000000     0.00000000
     0.00000000     0.00000000     0.00000000
     0.00000000     0.00000000     0.00000000
     0.00000000     0.00000000     0.00000000
     0.00000000     0.00000000     0.00000000
     0.00000000     0.00000000     0.00000000
     0.00000000     0.00000000     0.00000000
     0.00000000     0.00000000     0.00000000
     0.00000000     0.00000000     0.00000000
     0.00000000     0.00000000     0.00000000
     0.00000000     0.00000000     0.00000000
     0.00000000     0.00000000     0.00000000
     0.00000000     0.00000000     0.00000000
     0.00000000     0.00000000     0.00000000
     0.00000000     0.00000000     0.00000000
     0.00000000     0.00000000     0.00000000
     0.00000000     0.00000000     0.00000000
     0.00000000     0.00000000     0.00000000
     0.00000000     0.00000000     0.00000000
     0.00000000     0.00000000     0.00000000
     0.00000000     0.00000000     0.00000000
     0.00000000     0.00000000     0.00000000
     0.00000000     0.00000000     0.00000000
     0.00000000     0.00000000     0.00000000
     0.00000000     0.00000000     0.00000000
     0.00000000     0.00000000     0.00000000
     0.00000000     0.00000000     0.00000000
     0.00000000     0.00000000     0.00000000
     0.00000000     0.00000000     0.00000000
     0.00000000     0.00000000     0.00000000
     0.00000000     0.00000000     0.00000000
     0.00000000     0.00000000     0.00000000
     0.00000000     0.00000000     0.00000000
     0.00000000     0.00000000     0.00000000
     0.00000000     0.00000000     0.00000000
     0.00000000     0.00000000     0.00000000
     0.00000000     0.00000000     0.00000000
     0.00000000     0.00000000     0.00000000
     0.00000000     0.00000000     0.00000000
     0.00000000     0.00000000     0.00000000
     0.00000000     0.00000000     0.00000000
     0.00000000     0.00000000     0.00000000
     0.00000000     0.00000000     0.00000000
     0.00000000     0.00000000     0.00000000
     0.00000000     0.00000000     0.00000000
     0.00000000     0.00000000     0.00000000
     0.00000000     0.00000000     0.00000000
     0.00000000     0.00000000     0.00000000
     0.00000000     0.00000000     0.00000000
     0.00000000     0.00000000     0.00000000
     0.00000000     0.00000000     0.00000000
     0.00000000     0.00000000     0.00000000
     0.00000000     0.00000000     0.00000000
     0.00000000     0.00000000     0.00000000
     0.00000000     0.00000000     0.00000000
     0.00000000     0.00000000     0.00000000
     0.00000000     0.00000000     0.00000000
     0.00000000     0.00000000     0.00000000
     0.00000000     0.00000000     0.00000000
     0.00000000     0.00000000     0.00000000
     0.00000000     0.00000000     0.00000000
     0.00000000     0.00000000     0.00000000
     0.00000000     0.00000000     0.00000000
     0.00000000     0.00000000     0.00000000
     0.00000000     0.00000000     0.00000000
     0.00000000     0.00000000     0.00000000
     0.00000000     0.00000000     0.00000000
     0.00000000     0.00000000     0.00000000
     0.00000000     0.00000000     0.00000000
     0.00000000     0.00000000     0.00000000
     0.00000000     0.00000000     0.00000000
     0.00000000     0.00000000     0.00000000
     0.00000000     0.00000000     0.00000000
     0.00000000     0.00000000     0.00000000
     0.00000000     0.00000000     0.00000000
     0.00000000     0.00000000     0.00000000
     0.00000000     0.00000000     0.00000000
     0.00000000     0.00000000     0.00000000
     0.00000000     0.00000000     0.00000000
     0.00000000     0.00000000     0.00000000
     0.00000000     0.00000000     0.00000000
     0.00000000     0.00000000     0.00000000
     0.00000000     0.00000000     0.00000000
     0.00000000     0.00000000     0.00000000
     0.00000000     0.00000000     0.00000000
     0.00000000     0.00000000     0.00000000
     0.00000000     0.00000000     0.00000000
     0.00000000     0.00000000     0.00000000
     0.00000000     0.00000000     0.00000000
     0.00000000     0.00000000     0.00000000
     0.00000000     0.00000000     0.00000000
     0.00000000     0.00000000     0.00000000
     0.00000000     0.00000000     0.00000000
     0.00000000     0.00000000     0.00000000
     0.00000000     0.00000000     0.00000000
     0.00000000     0.00000000     0.00000000
     0.00000000     0.00000000     0.00000000
     0.00000000     0.00000000     0.00000000
     0.00000000     0.00000000     0.00000000
     0.00000000     0.00000000     0.00000000
     0.00000000     0.00000000     0.00000000
     0.00000000     0.00000000     0.00000000
     0.00000000     0.00000000     0.00000000
     0.00000000     0.00000000     0.00000000
     0.00000000     0.00000000     0.00000000
     0.00000000     0.00000000     0.00000000
     0.00000000     0.00000000     0.00000000
     0.00000000     0.00000000     0.00000000
     0.00000000     0.00000000     0.00000000
     0.00000000     0.00000000     0.00000000
     0.00000000     0.00000000     0.00000000
     0.00000000     0.00000000     0.00000000
     0.00000000     0.00000000     0.00000000
     0.00000000     0.00000000     0.00000000
     0.00000000     0.00000000     0.00000000
     0.00000000     0.00000000     0.00000000
     0.00000000     0.00000000     0.00000000
     0.00000000     0.00000000     0.00000000
     0.00000000     0.00000000     0.00000000
     0.00000000     0.00000000     0.00000000
     0.00000000     0.00000000     0.00000000
     0.00000000     0.00000000     0.00000000
     0.00000000     0.00000000     0.00000000
     0.00000000     0.00000000     0.00000000
     0.00000000     0.00000000     0.00000000
     0.00000000     0.00000000     0.00000000
     0.00000000     0.00000000     0.00000000
     0.00000000     0.00000000     0.00000000
     0.00000000     0.00000000     0.00000000
     0.00000000     0.00000000     0.00000000
     0.00000000     0.00000000     0.00000000
     0.00000000     0.00000000     0.00000000
     0.00000000     0.00000000     0.00000000
     0.00000000     0.00000000     0.00000000
     0.00000000     0.00000000     0.00000000
     0.00000000     0.00000000     0.00000000
     0.00000000     0.00000000     0.00000000
     0.00000000     0.00000000     0.00000000
     0.00000000     0.00000000     0.00000000
     0.00000000     0.00000000     0.00000000
     0.00000000     0.00000000     0.00000000
     0.00000000     0.00000000     0.00000000
     0.00000000     0.00000000     0.00000000
     0.00000000     0.00000000     0.00000000
     0.00000000     0.00000000     0.00000000
     0.00000000     0.00000000     0.00000000
     0.00000000     0.00000000     0.00000000
     0.00000000     0.00000000     0.00000000
     0.00000000     0.00000000     0.00000000
     0.00000000     0.00000000     0.00000000
     0.00000000     0.00000000     0.00000000
     0.00000000     0.00000000     0.00000000
     0.00000000     0.00000000     0.00000000
     0.00000000     0.00000000     0.00000000
     0.00000000     0.00000000     0.00000000
     0.00000000     0.00000000     0.00000000
     0.00000000     0.00000000     0.00000000
     0.00000000     0.00000000     0.00000000
     0.00000000     0.00000000     0.00000000
     0.00000000     0.00000000     0.00000000
     0.00000000     0.00000000     0.00000000
     0.00000000     0.00000000     0.00000000
     0.00000000     0.00000000     0.00000000
     0.00000000     0.00000000     0.00000000
     0.00000000     0.00000000     0.00000000
     0.00000000     0.00000000     0.00000000
     0.00000000     0.00000000     0.00000000
     0.00000000     0.00000000     0.00000000
     0.00000000     0.00000000     0.00000000
     0.00000000     0.00000000     0.00000000
     0.00000000     0.00000000     0.00000000
     0.00000000     0.00000000     0.00000000
     0.00000000     0.00000000     0.00000000
     0.00000000     0.00000000     0.00000000
     0.00000000     0.00000000     0.00000000
     0.00000000     0.00000000     0.00000000
     0.00000000     0.00000000     0.00000000
     0.00000000     0.00000000     0.00000000
     0.00000000     0.00000000     0.00000000
     0.00000000     0.00000000     0.00000000
     0.00000000     0.00000000     0.00000000
     0.00000000     0.00000000     0.00000000
     0.00000000     0.00000000     0.00000000
     0.00000000     0.00000000     0.00000000
     0.00000000     0.00000000     0.00000000
     0.00000000     0.00000000     0.00000000
     0.00000000     0.00000000     0.00000000
     0.00000000     0.00000000     0.00000000
     0.00000000     0.00000000     0.00000000
     0.00000000     0.00000000     0.00000000
     0.00000000     0.00000000     0.00000000
     0.00000000     0.00000000     0.00000000
     0.00000000     0.00000000     0.00000000
     0.00000000     0.00000000     0.00000000
     0.00000000     0.00000000     0.00000000
     0.00000000     0.00000000     0.00000000
     0.00000000     0.00000000     0.00000000
     0.00000000     0.00000000     0.00000000
     0.00000000     0.00000000     0.00000000
     0.00000000     0.00000000     0.00000000
     0.00000000     0.00000000     0.00000000
     0.00000000     0.00000000     0.00000000
     0.00000000     0.00000000     0.00000000
     0.00000000     0.00000000     0.00000000
     0.00000000     0.00000000     0.00000000
     0.00000000     0.00000000     0.00000000
     0.00000000     0.00000000     0.00000000
     0.00000000     0.00000000     0.00000000
     0.00000000     0.00000000     0.00000000
     0.00000000     0.00000000     0.00000000
     0.00000000     0.00000000     0.00000000
     0.00000000     0.00000000     0.00000000
     0.00000000     0.00000000     0.00000000
     0.00000000     0.00000000     0.00000000
     0.00000000     0.00000000     0.00000000
     0.00000000     0.00000000     0.00000000
     0.00000000     0.00000000     0.00000000
     0.00000000     0.00000000     0.00000000
     0.00000000     0.00000000     0.00000000
     0.00000000     0.00000000     0.00000000
     0.00000000     0.00000000     0.00000000
     0.00000000     0.00000000     0.00000000
     0.00000000     0.00000000     0.00000000
     0.00000000     0.00000000     0.00000000
     0.00000000     0.00000000     0.00000000
     0.00000000     0.00000000     0.00000000
     0.00000000     0.00000000     0.00000000
     0.00000000     0.00000000     0.00000000
     0.00000000     0.00000000     0.00000000
     0.00000000     0.00000000     0.00000000
     0.00000000     0.00000000     0.00000000
     0.00000000     0.00000000     0.00000000
     0.00000000     0.00000000     0.00000000
     0.00000000     0.00000000     0.00000000
     0.00000000     0.00000000     0.00000000
     0.00000000     0.00000000     0.00000000
     0.00000000     0.00000000     0.00000000
     0.00000000     0.00000000     0.00000000
     0.00000000     0.00000000     0.00000000
     0.00000000     0.00000000     0.00000000
     0.00000000     0.00000000     0.00000000
     0.00000000     0.00000000     0.00000000
     0.00000000     0.00000000     0.00000000
     0.00000000     0.00000000     0.00000000
     0.00000000     0.00000000     0.00000000
     0.00000000     0.00000000     0.00000000
     0.00000000     0.00000000     0.00000000
     0.00000000     0.00000000     0.00000000
     0.00000000     0.00000000     0.00000000
     0.00000000     0.00000000     0.00000000
     0.00000000     0.00000000     0.00000000
     0.00000000     0.00000000     0.00000000
     0.00000000     0.00000000     0.00000000
     0.00000000     0.00000000     0.00000000
     0.00000000     0.00000000     0.00000000
     0.00000000     0.00000000     0.00000000
     0.00000000     0.00000000     0.00000000
     0.00000000     0.00000000     0.00000000
     0.00000000     0.00000000     0.00000000
     0.00000000     0.00000000     0.00000000
     0.00000000     0.00000000     0.00000000
     0.00000000     0.00000000     0.00000000
     0.00000000     0.00000000     0.00000000
     0.00000000     0.00000000     0.00000000
     0.00000000     0.00000000     0.00000000
     0.00000000     0.00000000     0.00000000
     0.00000000     0.00000000     0.00000000
     0.00000000     0.00000000     0.00000000
     0.00000000     0.00000000     0.00000000
     0.00000000     0.00000000     0.00000000
     0.00000000     0.00000000     0.00000000
     0.00000000     0.00000000     0.00000000
     0.00000000     0.00000000     0.00000000
     0.00000000     0.00000000     0.00000000
     0.00000000     0.00000000     0.00000000
     0.00000000     0.00000000     0.00000000
     0.00000000     0.00000000     0.00000000
     0.00000000     0.00000000     0.00000000
     0.00000000     0.00000000     0.00000000
     0.00000000     0.00000000     0.00000000
     0.00000000     0.00000000     0.00000000
     0.00000000     0.00000000     0.00000000
     0.00000000     0.00000000     0.00000000
     0.00000000     0.00000000     0.00000000
     0.00000000     0.00000000     0.00000000
     0.00000000     0.00000000     0.00000000
     0.00000000     0.00000000     0.00000000
     0.00000000     0.00000000     0.00000000
     0.00000000     0.00000000     0.00000000
     0.00000000     0.00000000     0.00000000
     0.00000000     0.00000000     0.00000000
     0.00000000     0.00000000     0.00000000
     0.00000000     0.00000000     0.00000000
     0.00000000     0.00000000     0.00000000
     0.00000000     0.00000000     0.00000000
     0.00000000     0.00000000     0.00000000
     0.00000000     0.00000000     0.00000000
     0.00000000     0.00000000     0.00000000
     0.00000000     0.00000000     0.00000000
     0.00000000     0.00000000     0.00000000
     0.00000000     0.00000000     0.00000000
     0.00000000     0.00000000     0.00000000
     0.00000000     0.00000000     0.00000000
     0.00000000     0.00000000     0.00000000
     0.00000000     0.00000000     0.00000000
     0.00000000     0.00000000     0.00000000
     0.00000000     0.00000000     0.00000000
     0.00000000     0.00000000     0.00000000
     0.00000000     0.00000000     0.00000000
     0.00000000     0.00000000     0.00000000
     0.00000000     0.00000000     0.00000000
     0.00000000     0.00000000     0.00000000
     0.00000000     0.00000000     0.00000000
     0.00000000     0.00000000     0.00000000
     0.00000000     0.00000000     0.00000000
     0.00000000     0.00000000     0.00000000
     0.00000000     0.00000000     0.00000000
     0.00000000     0.00000000     0.00000000
     0.00000000     0.00000000     0.00000000
     0.00000000     0.00000000     0.00000000
     0.00000000     0.00000000     0.00000000
     0.00000000     0.00000000     0.00000000
     0.00000000     0.00000000     0.00000000
     0.00000000     0.00000000     0.00000000
     0.00000000     0.00000000     0.00000000
     0.00000000     0.00000000     0.00000000
     0.00000000     0.00000000     0.00000000
     0.00000000     0.00000000     0.00000000
     0.00000000     0.00000000     0.00000000
     0.00000000     0.00000000     0.00000000
     0.00000000     0.00000000     0.00000000
     0.00000000     0.00000000     0.00000000
     0.00000000     0.00000000     0.00000000
     0.00000000     0.00000000     0.00000000
     0.00000000     0.00000000     0.00000000
     0.00000000     0.00000000     0.00000000
     0.00000000     0.00000000     0.00000000
     0.00000000     0.00000000     0.00000000
     0.00000000     0.00000000     0.00000000
     0.00000000     0.00000000     0.00000000
     0.00000000     0.00000000     0.00000000
